<?xml version="1.0"?>
<VTKFile type="UnstructuredGrid" version="0.1" byte_order="LittleEndian">
<UnstructuredGrid>
<Piece NumberOfPoints="29399" NumberOfCells="10256">
<Points>
<DataArray type="Float64" NumberOfComponents="3" format="ascii">
-0.5 -0.5 0 -0.48785522249592078 -0.45510547826709291 0 -0.49999999999999939 -0.43211090192125279 0 -0.5 -0.5 0 -0.47706497702443318 -0.48211438569692427 0 -0.4340255331775193 -0.5 0 -0.5 -0.5 0 -0.47706497702443318 -0.48211438569692427 0 -0.48785522249592078 -0.45510547826709291 0 -0.47706497702443318 -0.48211438569692427 0 -0.46301557519371223 -0.47028428858007398 0 -0.47281078661105408 -0.4659983935873096 0 -0.47706497702443318 -0.48211438569692427 0 -0.44978858486427398 -0.47796311281516157 0 -0.4340255331775193 -0.5 0 -0.47706497702443318 -0.48211438569692427 0 -0.46301557519371223 -0.47028428858007398 0 -0.44978858486427398 -0.47796311281516157 0 -0.44978858486427398 -0.47796311281516157 0 -0.43875952096438031 -0.45787336534320211 0 -0.43113573132924138 -0.47761676140954412 0 -0.44978858486427398 -0.47796311281516157 0 -0.4340255331775193 -0.5 0 -0.43113573132924138 -0.47761676140954412 0 -0.45223485266728869 -0.43786838736911482 0 -0.43875952096438031 -0.45787336534320211 0 -0.43618584867324223 -0.43501579991252293 0 -0.45223485266728869 -0.43786838736911482 0 -0.43875952096438031 -0.45787336534320211 0 -0.45917301397625337 -0.44928587753588589 0 -0.43875952096438031 -0.45787336534320211 0 -0.45917301397625337 -0.44928587753588589 0 -0.46301557519371223 -0.47028428858007398 0 -0.44978858486427398 -0.47796311281516157 0 -0.43875952096438031 -0.45787336534320211 0 -0.43875952096438031 -0.45787336534320211 0 -0.46330737173015057 -0.45648942180514729 0 -0.46301557519371223 -0.47028428858007398 0 -0.43875952096438031 -0.45787336534320211 0 -0.46330737173015057 -0.45648942180514729 0 -0.43875952096438031 -0.45787336534320211 0 -0.46330737173015057 -0.45648942180514729 0 -0.45917301397625337 -0.44928587753588589 0 -0.46301557519371223 -0.47028428858007398 0 -0.46330737173015057 -0.45648942180514729 0 -0.47281078661105408 -0.4659983935873096 0 -0.46330737173015057 -0.45648942180514729 0 -0.45917301397625337 -0.44928587753588589 0 -0.47958650698812638 -0.44069838972856917 0 -0.45917301397625337 -0.44928587753588589 0 -0.46398950252270998 -0.43895260679367609 0 -0.47958650698812638 -0.44069838972856917 0 -0.45223485266728869 -0.43786838736911482 0 -0.45917301397625337 -0.44928587753588589 0 -0.46398950252270998 -0.43895260679367609 0 -0.46330737173015057 -0.45648942180514729 0 -0.47958650698812638 -0.44069838972856917 0 -0.48785522249592078 -0.45510547826709291 0 -0.45917301397625337 -0.44928587753588589 0 -0.47958650698812638 -0.44069838972856917 0 -0.46330737173015057 -0.45648942180514729 0 -0.47281078661105408 -0.4659983935873096 0 -0.48785522249592078 -0.45510547826709291 0 -0.46330737173015057 -0.45648942180514729 0 -0.48785522249592078 -0.45510547826709291 0 -0.47706497702443318 -0.48211438569692427 0 -0.47281078661105408 -0.4659983935873096 0 -0.48785522249592078 -0.45510547826709291 0 -0.47958650698812638 -0.44069838972856917 0 -0.48785522249592078 -0.45510547826709291 0 -0.49999999999999939 -0.43211090192125279 0 -0.49999999999999939 -0.43211090192125279 0 -0.47843166005470938 -0.41309176286659988 0 -0.48074545087550191 -0.42846470676438903 0 -0.47958650698812638 -0.44069838972856917 0 -0.49999999999999939 -0.43211090192125279 0 -0.48074545087550191 -0.42846470676438903 0 -0.47958650698812638 -0.44069838972856917 0 -0.49999999999999939 -0.43211090192125279 0 -0.49999999999999939 -0.43211090192125279 0 -0.47843166005470938 -0.41309176286659988 0 -0.5 -0.40538148133488661 0 -0.47843166005470938 -0.41309176286659988 0 -0.48074545087550191 -0.42846470676438903 0 -0.46496363645917171 -0.42795777254113421 0 -0.47958650698812638 -0.44069838972856917 0 -0.48074545087550191 -0.42846470676438903 0 -0.46496363645917171 -0.42795777254113421 0 -0.46398950252270998 -0.43895260679367609 0 -0.47958650698812638 -0.44069838972856917 0 -0.46496363645917171 -0.42795777254113421 0 -0.5 -0.37865206074852031 0 -0.48033657026594562 -0.39101113556798189 0 -0.48123451327010192 -0.36814604317790067 0 -0.5 -0.37865206074852031 0 -0.5 -0.40538148133488661 0 -0.48033657026594562 -0.39101113556798189 0 -0.47843166005470938 -0.41309176286659988 0 -0.5 -0.40538148133488661 0 -0.48033657026594562 -0.39101113556798189 0 -0.47843166005470938 -0.41309176286659988 0 -0.48033657026594562 -0.39101113556798189 0 -0.46088385718869179 -0.39680748353729389 0 -0.48033657026594562 -0.39101113556798189 0 -0.4646033122459079 -0.38033546343750479 0 -0.48123451327010192 -0.36814604317790067 0 -0.48033657026594562 -0.39101113556798189 0 -0.4646033122459079 -0.38033546343750479 0 -0.46088385718869179 -0.39680748353729389 0 -0.4646033122459079 -0.38033546343750479 0 -0.44854026618311033 -0.38546870473476808 0 -0.45104081779574029 -0.37252649685374672 0 -0.4646033122459079 -0.38033546343750479 0 -0.46088385718869179 -0.39680748353729389 0 -0.44854026618311033 -0.38546870473476808 0 -0.46088385718869179 -0.39680748353729389 0 -0.44027100535894809 -0.39805254757944059 0 -0.45486558543259409 -0.41258386744224013 0 -0.46088385718869179 -0.39680748353729389 0 -0.44027100535894809 -0.39805254757944059 0 -0.44854026618311033 -0.38546870473476808 0 -0.44027100535894809 -0.39805254757944059 0 -0.44854026618311033 -0.38546870473476808 0 -0.434279569089773 -0.37817471820876081 0 -0.44854026618311033 -0.38546870473476808 0 -0.434279569089773 -0.37817471820876081 0 -0.45104081779574029 -0.37252649685374672 0 -0.46496363645917171 -0.42795777254113421 0 -0.45486558543259409 -0.41258386744224013 0 -0.44948479057128637 -0.42556886357975171 0 -0.45223485266728869 -0.43786838736911482 0 -0.46496363645917171 -0.42795777254113421 0 -0.44948479057128637 -0.42556886357975171 0 -0.45223485266728869 -0.43786838736911482 0 -0.46398950252270998 -0.43895260679367609 0 -0.46496363645917171 -0.42795777254113421 0 -0.47843166005470938 -0.41309176286659988 0 -0.46088385718869179 -0.39680748353729389 0 -0.45486558543259409 -0.41258386744224013 0 -0.47843166005470938 -0.41309176286659988 0 -0.46496363645917171 -0.42795777254113421 0 -0.45486558543259409 -0.41258386744224013 0 -0.44027100535894809 -0.39805254757944059 0 -0.45486558543259409 -0.41258386744224013 0 -0.43917402962413571 -0.41441849063374631 0 -0.45486558543259409 -0.41258386744224013 0 -0.43917402962413571 -0.41441849063374631 0 -0.44948479057128637 -0.42556886357975171 0 -0.43917402962413571 -0.41441849063374631 0 -0.44948479057128637 -0.42556886357975171 0 -0.43618584867324223 -0.43501579991252293 0 -0.45223485266728869 -0.43786838736911482 0 -0.44948479057128637 -0.42556886357975171 0 -0.43618584867324223 -0.43501579991252293 0 -0.43618584867324223 -0.43501579991252293 0 -0.42436285365945192 -0.42152237219546668 0 -0.41829325246487592 -0.43924056062661321 0 -0.43917402962413571 -0.41441849063374631 0 -0.43618584867324223 -0.43501579991252293 0 -0.42436285365945192 -0.42152237219546668 0 -0.43917402962413571 -0.41441849063374631 0 -0.42436285365945192 -0.42152237219546668 0 -0.41977590717905028 -0.40136560653662939 0 -0.42436285365945192 -0.42152237219546668 0 -0.41977590717905028 -0.40136560653662939 0 -0.40527224526832772 -0.42455649486449792 0 -0.41977590717905028 -0.40136560653662939 0 -0.39573952943159019 -0.39934762468205931 0 -0.40527224526832772 -0.42455649486449792 0 -0.41977590717905028 -0.40136560653662939 0 -0.40527224526832772 -0.42455649486449792 0 -0.40527224526832772 -0.42455649486449792 0 -0.40063540183020618 -0.44351216963214529 0 -0.41829325246487592 -0.43924056062661321 0 -0.42436285365945192 -0.42152237219546668 0 -0.40527224526832772 -0.42455649486449792 0 -0.41829325246487592 -0.43924056062661321 0 -0.434279569089773 -0.37817471820876081 0 -0.41224218961801562 -0.38174530613926122 0 -0.42497747640885508 -0.3693990414354637 0 -0.434279569089773 -0.37817471820876081 0 -0.41977590717905028 -0.40136560653662939 0 -0.434279569089773 -0.37817471820876081 0 -0.41977590717905028 -0.40136560653662939 0 -0.41224218961801562 -0.38174530613926122 0 -0.44027100535894809 -0.39805254757944059 0 -0.43917402962413571 -0.41441849063374631 0 -0.41977590717905028 -0.40136560653662939 0 -0.44027100535894809 -0.39805254757944059 0 -0.434279569089773 -0.37817471820876081 0 -0.41977590717905028 -0.40136560653662939 0 -0.41977590717905028 -0.40136560653662939 0 -0.41224218961801562 -0.38174530613926122 0 -0.39573952943159019 -0.39934762468205931 0 -0.41224218961801562 -0.38174530613926122 0 -0.39573952943159019 -0.39934762468205931 0 -0.38614913526049721 -0.37716824179615122 0 -0.41224218961801562 -0.38174530613926122 0 -0.38614913526049721 -0.37716824179615122 0 -0.40601759577077678 -0.36697411160306981 0 -0.39573952943159019 -0.39934762468205931 0 -0.38511814291255581 -0.41360735826705619 0 -0.3676828007387708 -0.3966689990774222 0 -0.39573952943159019 -0.39934762468205931 0 -0.38614913526049721 -0.37716824179615122 0 -0.3676828007387708 -0.3966689990774222 0 -0.40527224526832772 -0.42455649486449792 0 -0.38511814291255581 -0.41360735826705619 0 -0.38640661492244949 -0.42901576344532 0 -0.40527224526832772 -0.42455649486449792 0 -0.38640661492244949 -0.42901576344532 0 -0.40063540183020618 -0.44351216963214529 0 -0.39573952943159019 -0.39934762468205931 0 -0.40527224526832772 -0.42455649486449792 0 -0.38511814291255581 -0.41360735826705619 0 -0.38511814291255581 -0.41360735826705619 0 -0.38640661492244949 -0.42901576344532 0 -0.37048952420164089 -0.41844790926598152 0 -0.38640661492244949 -0.42901576344532 0 -0.37098302872015132 -0.43408639701922058 0 -0.37048952420164089 -0.41844790926598152 0 -0.38640661492244949 -0.42901576344532 0 -0.38446330129505291 -0.44491985800488898 0 -0.37098302872015132 -0.43408639701922058 0 -0.38446330129505291 -0.44491985800488898 0 -0.39099470471969439 -0.46056622059227958 0 -0.36948293443814928 -0.44838814416989492 0 -0.38640661492244949 -0.42901576344532 0 -0.38446330129505291 -0.44491985800488898 0 -0.40063540183020618 -0.44351216963214529 0 -0.38446330129505291 -0.44491985800488898 0 -0.40063540183020618 -0.44351216963214529 0 -0.39099470471969439 -0.46056622059227958 0 -0.40063540183020618 -0.44351216963214529 0 -0.39099470471969439 -0.46056622059227958 0 -0.41487711284203738 -0.45921979296774063 0 -0.39099470471969439 -0.46056622059227958 0 -0.41487711284203738 -0.45921979296774063 0 -0.39099470471969439 -0.46056622059227958 0 -0.41169104130087519 -0.46926045323344018 0 -0.41487711284203738 -0.45921979296774063 0 -0.39099470471969439 -0.46056622059227958 0 -0.36742428762710388 -0.46970634892725782 0 -0.36948293443814928 -0.44838814416989492 0 -0.39785905417014122 -0.4806607756160991 0 -0.36555251123240529 -0.48747564515017172 0 -0.36742428762710388 -0.46970634892725782 0 -0.38418956980414898 -0.5 0 -0.39785905417014122 -0.4806607756160991 0 -0.4340255331775193 -0.5 0 -0.38418956980414898 -0.5 0 -0.39785905417014122 -0.4806607756160991 0 -0.36555251123240529 -0.48747564515017172 0 -0.39099470471969439 -0.46056622059227958 0 -0.39785905417014122 -0.4806607756160991 0 -0.36742428762710388 -0.46970634892725782 0 -0.39099470471969439 -0.46056622059227958 0 -0.39785905417014122 -0.4806607756160991 0 -0.41169104130087519 -0.46926045323344018 0 -0.39785905417014122 -0.4806607756160991 0 -0.41169104130087519 -0.46926045323344018 0 -0.43113573132924138 -0.47761676140954412 0 -0.39785905417014122 -0.4806607756160991 0 -0.4340255331775193 -0.5 0 -0.43113573132924138 -0.47761676140954412 0 -0.43875952096438031 -0.45787336534320211 0 -0.41169104130087519 -0.46926045323344018 0 -0.43113573132924138 -0.47761676140954412 0 -0.43875952096438031 -0.45787336534320211 0 -0.42685540914595033 -0.44888662211427238 0 -0.41487711284203738 -0.45921979296774063 0 -0.43875952096438031 -0.45787336534320211 0 -0.41169104130087519 -0.46926045323344018 0 -0.43875952096438031 -0.45787336534320211 0 -0.41487711284203738 -0.45921979296774063 0 -0.43875952096438031 -0.45787336534320211 0 -0.43618584867324223 -0.43501579991252293 0 -0.42685540914595033 -0.44888662211427238 0 -0.43618584867324223 -0.43501579991252293 0 -0.42685540914595033 -0.44888662211427238 0 -0.41829325246487592 -0.43924056062661321 0 -0.40063540183020618 -0.44351216963214529 0 -0.41829325246487592 -0.43924056062661321 0 -0.41487711284203738 -0.45921979296774063 0 -0.42685540914595033 -0.44888662211427238 0 -0.41829325246487592 -0.43924056062661321 0 -0.41487711284203738 -0.45921979296774063 0 -0.43875952096438031 -0.45787336534320211 0 -0.41169104130087519 -0.46926045323344018 0 -0.41487711284203738 -0.45921979296774063 0 -0.44424875665685332 -0.27338408643139073 0 -0.45688863888640568 -0.2508755396684838 0 -0.43470717633851957 -0.25130824331758839 0 -0.44424875665685332 -0.27338408643139073 0 -0.45688863888640568 -0.2508755396684838 0 -0.47045229461497201 -0.27431630217644293 0 -0.44424875665685332 -0.27338408643139073 0 -0.47045229461497201 -0.27431630217644293 0 -0.45235540578817601 -0.29068512615166181 0 -0.45688863888640568 -0.2508755396684838 0 -0.48093252799823838 -0.25533176491691217 0 -0.47045229461497201 -0.27431630217644293 0 -0.48093252799823838 -0.25533176491691217 0 -0.5 -0.27339056979829862 0 -0.5 -0.24831734060717561 0 -0.5 -0.27339056979829862 0 -0.47045229461497201 -0.27431630217644293 0 -0.48275488467980399 -0.29095757626346991 0 -0.48093252799823838 -0.25533176491691217 0 -0.5 -0.27339056979829862 0 -0.47045229461497201 -0.27431630217644293 0 -0.47045229461497201 -0.27431630217644293 0 -0.48275488467980399 -0.29095757626346991 0 -0.46784915840176361 -0.29771375529622213 0 -0.5 -0.27339056979829862 0 -0.48275488467980399 -0.29095757626346991 0 -0.50000000000000044 -0.29846379898942149 0 -0.48275488467980399 -0.29095757626346991 0 -0.50000000000000044 -0.29846379898942149 0 -0.47547297038228492 -0.31090345505696471 0 -0.50000000000000044 -0.29846379898942149 0 -0.48905432785312603 -0.32189184392116549 0 -0.50000000000000044 -0.29846379898942149 0 -0.47547297038228492 -0.31090345505696471 0 -0.48905432785312603 -0.32189184392116549 0 -0.48275488467980399 -0.29095757626346991 0 -0.47547297038228492 -0.31090345505696471 0 -0.46784915840176361 -0.29771375529622213 0 -0.46784915840176361 -0.29771375529622213 0 -0.45416280612389792 -0.30763594161203722 0 -0.45235540578817601 -0.29068512615166181 0 -0.47547297038228492 -0.31090345505696471 0 -0.46784915840176361 -0.29771375529622213 0 -0.45416280612389792 -0.30763594161203722 0 -0.47045229461497201 -0.27431630217644293 0 -0.46784915840176361 -0.29771375529622213 0 -0.45235540578817601 -0.29068512615166181 0 -0.44424875665685332 -0.27338408643139073 0 -0.45235540578817601 -0.29068512615166181 0 -0.4359221581307996 -0.30157456281725492 0 -0.44424875665685332 -0.27338408643139073 0 -0.4359221581307996 -0.30157456281725492 0 -0.45416280612389792 -0.30763594161203722 0 -0.44477860677199588 -0.31966397740832769 0 -0.4359221581307996 -0.30157456281725492 0 -0.45416280612389792 -0.30763594161203722 0 -0.45235540578817601 -0.29068512615166181 0 -0.4359221581307996 -0.30157456281725492 0 -0.44477860677199588 -0.31966397740832769 0 -0.44653657018496962 -0.33536152100662631 0 -0.45967593981556643 -0.3239828224026009 0 -0.45416280612389792 -0.30763594161203722 0 -0.44477860677199588 -0.31966397740832769 0 -0.45967593981556643 -0.3239828224026009 0 -0.44477860677199588 -0.31966397740832769 0 -0.44653657018496962 -0.33536152100662631 0 -0.42759555960474582 -0.32976503920311939 0 -0.46178151583394239 -0.34243368536859009 0 -0.45967593981556643 -0.3239828224026009 0 -0.47281868191823417 -0.32890633912044609 0 -0.44653657018496962 -0.33536152100662631 0 -0.46178151583394239 -0.34243368536859009 0 -0.45967593981556643 -0.3239828224026009 0 -0.47547297038228492 -0.31090345505696471 0 -0.45416280612389792 -0.30763594161203722 0 -0.45967593981556643 -0.3239828224026009 0 -0.47547297038228492 -0.31090345505696471 0 -0.48905432785312603 -0.32189184392116549 0 -0.47281868191823417 -0.32890633912044609 0 -0.47547297038228492 -0.31090345505696471 0 -0.45967593981556643 -0.3239828224026009 0 -0.47281868191823417 -0.32890633912044609 0 -0.50000000000000044 -0.29846379898942149 0 -0.48905432785312603 -0.32189184392116549 0 -0.5 -0.32519321957578778 0 -0.48905432785312603 -0.32189184392116549 0 -0.5 -0.32519321957578778 0 -0.49084700618944488 -0.33664648910814599 0 -0.48905432785312603 -0.32189184392116549 0 -0.49084700618944488 -0.33664648910814599 0 -0.47810865570625122 -0.34531988885290937 0 -0.5 -0.32519321957578778 0 -0.49084700618944488 -0.33664648910814599 0 -0.5 -0.35192264016215402 0 -0.46178151583394239 -0.34243368536859009 0 -0.47281868191823417 -0.32890633912044609 0 -0.47810865570625122 -0.34531988885290937 0 -0.48905432785312603 -0.32189184392116549 0 -0.47810865570625122 -0.34531988885290937 0 -0.48905432785312603 -0.32189184392116549 0 -0.47281868191823417 -0.32890633912044609 0 -0.47810865570625122 -0.34531988885290937 0 -0.47810865570625122 -0.34531988885290937 0 -0.48123451327010192 -0.36814604317790067 0 -0.4643585414025071 -0.36163507029833403 0 -0.49084700618944488 -0.33664648910814599 0 -0.47810865570625122 -0.34531988885290937 0 -0.5 -0.35192264016215402 0 -0.47810865570625122 -0.34531988885290937 0 -0.5 -0.35192264016215402 0 -0.48123451327010192 -0.36814604317790067 0 -0.5 -0.37865206074852031 0 -0.5 -0.35192264016215402 0 -0.48123451327010192 -0.36814604317790067 0 -0.4646033122459079 -0.38033546343750479 0 -0.48123451327010192 -0.36814604317790067 0 -0.4643585414025071 -0.36163507029833403 0 -0.4646033122459079 -0.38033546343750479 0 -0.4643585414025071 -0.36163507029833403 0 -0.45104081779574029 -0.37252649685374672 0 -0.4643585414025071 -0.36163507029833403 0 -0.44878323100049561 -0.35498382988089239 0 -0.45104081779574029 -0.37252649685374672 0 -0.46178151583394239 -0.34243368536859009 0 -0.47810865570625122 -0.34531988885290937 0 -0.4643585414025071 -0.36163507029833403 0 -0.46178151583394239 -0.34243368536859009 0 -0.4643585414025071 -0.36163507029833403 0 -0.44878323100049561 -0.35498382988089239 0 -0.44653657018496962 -0.33536152100662631 0 -0.44878323100049561 -0.35498382988089239 0 -0.43480959697856503 -0.34733779230928241 0 -0.44653657018496962 -0.33536152100662631 0 -0.46178151583394239 -0.34243368536859009 0 -0.44878323100049561 -0.35498382988089239 0 -0.44878323100049561 -0.35498382988089239 0 -0.43186366302392259 -0.35862305586678977 0 -0.43480959697856503 -0.34733779230928241 0 -0.434279569089773 -0.37817471820876081 0 -0.44878323100049561 -0.35498382988089239 0 -0.434279569089773 -0.37817471820876081 0 -0.44878323100049561 -0.35498382988089239 0 -0.43186366302392259 -0.35862305586678977 0 -0.434279569089773 -0.37817471820876081 0 -0.44878323100049561 -0.35498382988089239 0 -0.45104081779574029 -0.37252649685374672 0 -0.434279569089773 -0.37817471820876081 0 -0.42497747640885508 -0.3693990414354637 0 -0.43186366302392259 -0.35862305586678977 0 -0.42497747640885508 -0.3693990414354637 0 -0.43186366302392259 -0.35862305586678977 0 -0.41926896107869149 -0.35795551558898381 0 -0.41926896107869149 -0.35795551558898381 0 -0.42759555960474582 -0.32976503920311939 0 -0.43480959697856503 -0.34733779230928241 0 -0.41926896107869149 -0.35795551558898381 0 -0.42759555960474582 -0.32976503920311939 0 -0.43186366302392259 -0.35862305586678977 0 -0.43480959697856503 -0.34733779230928241 0 -0.41926896107869149 -0.35795551558898381 0 -0.43186366302392259 -0.35862305586678977 0 -0.41926896107869149 -0.35795551558898381 0 -0.41926896107869149 -0.35795551558898381 0 -0.39379379607906578 -0.35660528921641332 0 -0.40981378487149722 -0.33932049402671283 0 -0.41926896107869149 -0.35795551558898381 0 -0.39379379607906578 -0.35660528921641332 0 -0.41224218961801562 -0.38174530613926122 0 -0.41926896107869149 -0.35795551558898381 0 -0.41224218961801562 -0.38174530613926122 0 -0.42497747640885508 -0.3693990414354637 0 -0.41926896107869149 -0.35795551558898381 0 -0.41224218961801562 -0.38174530613926122 0 -0.41926896107869149 -0.35795551558898381 0 -0.40601759577077678 -0.36697411160306981 0 -0.41926896107869149 -0.35795551558898381 0 -0.40601759577077678 -0.36697411160306981 0 -0.39379379607906578 -0.35660528921641332 0 -0.38614913526049721 -0.37716824179615122 0 -0.40601759577077678 -0.36697411160306981 0 -0.39379379607906578 -0.35660528921641332 0 -0.38614913526049721 -0.37716824179615122 0 -0.39379379607906578 -0.35660528921641332 0 -0.36831863107944007 -0.35525506284384573 0 -0.39379379607906578 -0.35660528921641332 0 -0.36831863107944007 -0.35525506284384573 0 -0.39379379607906578 -0.35660528921641332 0 -0.37959442180325909 -0.33433501069729021 0 -0.36831863107944007 -0.35525506284384573 0 -0.39379379607906578 -0.35660528921641332 0 -0.39524514990478171 -0.33862042529641351 0 -0.40981378487149722 -0.33932049402671283 0 -0.39524514990478171 -0.33862042529641351 0 -0.37959442180325909 -0.33433501069729021 0 -0.39777859686530492 -0.32422090724523772 0 -0.39524514990478171 -0.33862042529641351 0 -0.39777859686530492 -0.32422090724523772 0 -0.40981378487149722 -0.33932049402671283 0 -0.39379379607906578 -0.35660528921641332 0 -0.39524514990478171 -0.33862042529641351 0 -0.37959442180325909 -0.33433501069729021 0 -0.37959442180325909 -0.33433501069729021 0 -0.39777859686530492 -0.32422090724523772 0 -0.3773950432570064 -0.30790402883084572 0 -0.39777859686530492 -0.32422090724523772 0 -0.40384888697131599 -0.30935751863345129 0 -0.3773950432570064 -0.30790402883084572 0 -0.39777859686530492 -0.32422090724523772 0 -0.41246415893434091 -0.32170386054181671 0 -0.40384888697131599 -0.30935751863345129 0 -0.41246415893434091 -0.32170386054181671 0 -0.42759555960474582 -0.32976503920311939 0 -0.42328396635884019 -0.30585534360056232 0 -0.41926896107869149 -0.35795551558898381 0 -0.40981378487149722 -0.33932049402671283 0 -0.42759555960474582 -0.32976503920311939 0 -0.39777859686530492 -0.32422090724523772 0 -0.41246415893434091 -0.32170386054181671 0 -0.40981378487149722 -0.33932049402671283 0 -0.41246415893434091 -0.32170386054181671 0 -0.40981378487149722 -0.33932049402671283 0 -0.42759555960474582 -0.32976503920311939 0 -0.44653657018496962 -0.33536152100662631 0 -0.43480959697856503 -0.34733779230928241 0 -0.42759555960474582 -0.32976503920311939 0 -0.44477860677199588 -0.31966397740832769 0 -0.42759555960474582 -0.32976503920311939 0 -0.4359221581307996 -0.30157456281725492 0 -0.42759555960474582 -0.32976503920311939 0 -0.4359221581307996 -0.30157456281725492 0 -0.42759555960474582 -0.32976503920311939 0 -0.42328396635884019 -0.30585534360056232 0 -0.4359221581307996 -0.30157456281725492 0 -0.42328396635884019 -0.30585534360056232 0 -0.4359221581307996 -0.30157456281725492 0 -0.42454988147072897 -0.29170204029359098 0 -0.44424875665685332 -0.27338408643139073 0 -0.4359221581307996 -0.30157456281725492 0 -0.42454988147072897 -0.29170204029359098 0 -0.44424875665685332 -0.27338408643139073 0 -0.42454988147072897 -0.29170204029359098 0 -0.41781240690468319 -0.27957257603174962 0 -0.42454988147072897 -0.29170204029359098 0 -0.39802207718170229 -0.29371980184401608 0 -0.41781240690468319 -0.27957257603174962 0 -0.41246415893434091 -0.32170386054181671 0 -0.42328396635884019 -0.30585534360056232 0 -0.40384888697131599 -0.30935751863345129 0 -0.42328396635884019 -0.30585534360056232 0 -0.42454988147072897 -0.29170204029359098 0 -0.39802207718170229 -0.29371980184401608 0 -0.42328396635884019 -0.30585534360056232 0 -0.39802207718170229 -0.29371980184401608 0 -0.42328396635884019 -0.30585534360056232 0 -0.40384888697131599 -0.30935751863345129 0 -0.39802207718170229 -0.29371980184401608 0 -0.40384888697131599 -0.30935751863345129 0 -0.3773950432570064 -0.30790402883084572 0 -0.39802207718170229 -0.29371980184401608 0 -0.39802207718170229 -0.29371980184401608 0 -0.37276018800456467 -0.28158426008747012 0 -0.39802207718170229 -0.29371980184401608 0 -0.39486959094915319 -0.26920065200480098 0 -0.37276018800456467 -0.28158426008747012 0 -0.3773950432570064 -0.30790402883084572 0 -0.39802207718170229 -0.29371980184401608 0 -0.37276018800456467 -0.28158426008747012 0 -0.39802207718170229 -0.29371980184401608 0 -0.39486959094915319 -0.26920065200480098 0 -0.41781240690468319 -0.27957257603174962 0 -0.39486959094915319 -0.26920065200480098 0 -0.37712101980230389 -0.26519974606182528 0 -0.37276018800456467 -0.28158426008747012 0 -0.39486959094915319 -0.26920065200480098 0 -0.37712101980230389 -0.26519974606182528 0 -0.38353271496343849 -0.25037699086215182 0 -0.37712101980230389 -0.26519974606182528 0 -0.38353271496343849 -0.25037699086215182 0 -0.37139449004158193 -0.25050051947318991 0 -0.39486959094915319 -0.26920065200480098 0 -0.40002834122183201 -0.25088796108084532 0 -0.41794274386765629 -0.26031799379438691 0 -0.39486959094915319 -0.26920065200480098 0 -0.38353271496343849 -0.25037699086215182 0 -0.40002834122183201 -0.25088796108084532 0 -0.39486959094915319 -0.26920065200480098 0 -0.41794274386765629 -0.26031799379438691 0 -0.41781240690468319 -0.27957257603174962 0 -0.44424875665685332 -0.27338408643139073 0 -0.41794274386765629 -0.26031799379438691 0 -0.41781240690468319 -0.27957257603174962 0 -0.44424875665685332 -0.27338408643139073 0 -0.41794274386765629 -0.26031799379438691 0 -0.43470717633851957 -0.25130824331758839 0 -0.41794274386765629 -0.26031799379438691 0 -0.43470717633851957 -0.25130824331758839 0 -0.41861209482226069 -0.23857156752833081 0 -0.32801453693482069 -0.25305541734717912 0 -0.32492498946053339 -0.25766535781762562 0 -0.31767606367135082 -0.2789171806231765 0 -0.32801453693482069 -0.25305541734717912 0 -0.31767606367135082 -0.2789171806231765 0 -0.33323943047459731 -0.2606656177437966 0 -0.32492498946053339 -0.25766535781762562 0 -0.31739474192710271 -0.2546974775692164 0 -0.3196985982825582 -0.24607621173107741 0 -0.31739474192710271 -0.2546974775692164 0 -0.31241265182105149 -0.25753732197967799 0 -0.3128026899048888 -0.2490093066069573 0 -0.31669068092956182 -0.26299495888321389 0 -0.30949068908349181 -0.26623171879153568 0 -0.31241265182105149 -0.25753732197967799 0 -0.31739474192710271 -0.2546974775692164 0 -0.31669068092956182 -0.26299495888321389 0 -0.31241265182105149 -0.25753732197967799 0 -0.32492498946053339 -0.25766535781762562 0 -0.31739474192710271 -0.2546974775692164 0 -0.31669068092956182 -0.26299495888321389 0 -0.32801453693482069 -0.25305541734717912 0 -0.31767606367135082 -0.2789171806231765 0 -0.32492498946053339 -0.25766535781762562 0 -0.31669068092956182 -0.26299495888321389 0 -0.31767606367135082 -0.2789171806231765 0 -0.31669068092956182 -0.26299495888321389 0 -0.31767606367135082 -0.2789171806231765 0 -0.30949068908349181 -0.26623171879153568 0 -0.33392796492049798 -0.26927059586840052 0 -0.34805119160101139 -0.25547787548306539 0 -0.33668016992360472 -0.2833029668385888 0 -0.31767606367135082 -0.2789171806231765 0 -0.33392796492049798 -0.26927059586840052 0 -0.33668016992360472 -0.2833029668385888 0 -0.34805119160101139 -0.25547787548306539 0 -0.33668016992360472 -0.2833029668385888 0 -0.31767606367135082 -0.2789171806231765 0 -0.33392796492049798 -0.26927059586840052 0 -0.33323943047459731 -0.2606656177437966 0 -0.33392796492049798 -0.26927059586840052 0 -0.33323943047459731 -0.2606656177437966 0 -0.34805119160101139 -0.25547787548306539 0 -0.32801453693482069 -0.25305541734717912 0 -0.33323943047459731 -0.2606656177437966 0 -0.33821537599045032 -0.25275705402928172 0 -0.32801453693482069 -0.25305541734717912 0 -0.33821537599045032 -0.25275705402928172 0 -0.3402747396181886 -0.24454003065821181 0 -0.33323943047459731 -0.2606656177437966 0 -0.33821537599045032 -0.25275705402928172 0 -0.34805119160101139 -0.25547787548306539 0 -0.33821537599045032 -0.25275705402928172 0 -0.34805119160101139 -0.25547787548306539 0 -0.3402747396181886 -0.24454003065821181 0 -0.34805119160101139 -0.25547787548306539 0 -0.36179592395623211 -0.2579464301902093 0 -0.34749829882742678 -0.26944871833092388 0 -0.34805119160101139 -0.25547787548306539 0 -0.36179592395623211 -0.2579464301902093 0 -0.36060906861732539 -0.24279960715887561 0 -0.36179592395623211 -0.2579464301902093 0 -0.36060906861732539 -0.24279960715887561 0 -0.36179592395623211 -0.2579464301902093 0 -0.37139449004158193 -0.25050051947318991 0 -0.36060906861732539 -0.24279960715887561 0 -0.37712101980230389 -0.26519974606182528 0 -0.36179592395623211 -0.2579464301902093 0 -0.37139449004158193 -0.25050051947318991 0 -0.37712101980230389 -0.26519974606182528 0 -0.36179592395623211 -0.2579464301902093 0 -0.37276018800456467 -0.28158426008747012 0 -0.34749829882742678 -0.26944871833092388 0 -0.37276018800456467 -0.28158426008747012 0 -0.36179592395623211 -0.2579464301902093 0 -0.34749829882742678 -0.26944871833092388 0 -0.37276018800456467 -0.28158426008747012 0 -0.34749829882742678 -0.26944871833092388 0 -0.35320306051274608 -0.28775453125492861 0 -0.33668016992360472 -0.2833029668385888 0 -0.34749829882742678 -0.26944871833092388 0 -0.35320306051274608 -0.28775453125492861 0 -0.37276018800456467 -0.28158426008747012 0 -0.34805119160101139 -0.25547787548306539 0 -0.34749829882742678 -0.26944871833092388 0 -0.33668016992360472 -0.2833029668385888 0 -0.35320306051274608 -0.28775453125492861 0 -0.34655841490151518 -0.3034952324507092 0 -0.33668016992360472 -0.2833029668385888 0 -0.35320306051274608 -0.28775453125492861 0 -0.37276018800456467 -0.28158426008747012 0 -0.36201186885080378 -0.30034416750231158 0 -0.3773950432570064 -0.30790402883084572 0 -0.37276018800456467 -0.28158426008747012 0 -0.36201186885080378 -0.30034416750231158 0 -0.3773950432570064 -0.30790402883084572 0 -0.36201186885080378 -0.30034416750231158 0 -0.36014263757818671 -0.32098278488760468 0 -0.36201186885080378 -0.30034416750231158 0 -0.34655841490151518 -0.3034952324507092 0 -0.36014263757818671 -0.32098278488760468 0 -0.35320306051274608 -0.28775453125492861 0 -0.36201186885080378 -0.30034416750231158 0 -0.34655841490151518 -0.3034952324507092 0 -0.34655841490151518 -0.3034952324507092 0 -0.325309148246198 -0.31112805819411232 0 -0.33979235431232252 -0.31823073470849811 0 -0.33668016992360472 -0.2833029668385888 0 -0.325309148246198 -0.31112805819411232 0 -0.34655841490151518 -0.3034952324507092 0 -0.33668016992360472 -0.2833029668385888 0 -0.325309148246198 -0.31112805819411232 0 -0.31767606367135082 -0.2789171806231765 0 -0.30733759040788078 -0.30477894389917398 0 -0.31767606367135082 -0.2789171806231765 0 -0.32175074306225848 -0.29453178738876279 0 -0.30733759040788078 -0.30477894389917398 0 -0.31767606367135082 -0.2789171806231765 0 -0.33668016992360472 -0.2833029668385888 0 -0.32175074306225848 -0.29453178738876279 0 -0.33668016992360472 -0.2833029668385888 0 -0.32175074306225848 -0.29453178738876279 0 -0.325309148246198 -0.31112805819411232 0 -0.325309148246198 -0.31112805819411232 0 -0.3122339991186488 -0.31972192563099011 0 -0.30733759040788078 -0.30477894389917398 0 -0.32175074306225848 -0.29453178738876279 0 -0.325309148246198 -0.31112805819411232 0 -0.30733759040788078 -0.30477894389917398 0 -0.325309148246198 -0.31112805819411232 0 -0.31929014067610562 -0.33233999325550262 0 -0.3122339991186488 -0.31972192563099011 0 -0.31929014067610562 -0.33233999325550262 0 -0.32563782622054688 -0.34714029700112231 0 -0.30853696427419119 -0.34553303592923829 0 -0.31929014067610562 -0.33233999325550262 0 -0.32563782622054688 -0.34714029700112231 0 -0.31929014067610562 -0.33233999325550262 0 -0.3428902318993669 -0.33406154094436369 0 -0.33979235431232252 -0.31823073470849811 0 -0.3428902318993669 -0.33406154094436369 0 -0.32563782622054688 -0.34714029700112231 0 -0.31929014067610562 -0.33233999325550262 0 -0.3428902318993669 -0.33406154094436369 0 -0.32563782622054688 -0.34714029700112231 0 -0.325309148246198 -0.31112805819411232 0 -0.31929014067610562 -0.33233999325550262 0 -0.33979235431232252 -0.31823073470849811 0 -0.34655841490151518 -0.3034952324507092 0 -0.33979235431232252 -0.31823073470849811 0 -0.36014263757818671 -0.32098278488760468 0 -0.3428902318993669 -0.33406154094436369 0 -0.36014263757818671 -0.32098278488760468 0 -0.3428902318993669 -0.33406154094436369 0 -0.33979235431232252 -0.31823073470849811 0 -0.36014263757818671 -0.32098278488760468 0 -0.3773950432570064 -0.30790402883084572 0 -0.36014263757818671 -0.32098278488760468 0 -0.37959442180325909 -0.33433501069729021 0 -0.3773950432570064 -0.30790402883084572 0 -0.36014263757818671 -0.32098278488760468 0 -0.37959442180325909 -0.33433501069729021 0 -0.36014263757818671 -0.32098278488760468 0 -0.35875787768801343 -0.33970784716887648 0 -0.37959442180325909 -0.33433501069729021 0 -0.35875787768801343 -0.33970784716887648 0 -0.36831863107944007 -0.35525506284384573 0 -0.3428902318993669 -0.33406154094436369 0 -0.35875787768801343 -0.33970784716887648 0 -0.34284346607981431 -0.35390483647127818 0 -0.3428902318993669 -0.33406154094436369 0 -0.36014263757818671 -0.32098278488760468 0 -0.35875787768801343 -0.33970784716887648 0 -0.35875787768801343 -0.33970784716887648 0 -0.36831863107944007 -0.35525506284384573 0 -0.34284346607981431 -0.35390483647127818 0 -0.36831863107944007 -0.35525506284384573 0 -0.34284346607981431 -0.35390483647127818 0 -0.36831863107944007 -0.35525506284384573 0 -0.35251810442559578 -0.36989162501885509 0 -0.36591632585438849 -0.37949871254638151 0 -0.38614913526049721 -0.37716824179615122 0 -0.36831863107944007 -0.35525506284384573 0 -0.36591632585438849 -0.37949871254638151 0 -0.36831863107944007 -0.35525506284384573 0 -0.35251810442559578 -0.36989162501885509 0 -0.34284346607981431 -0.35390483647127818 0 -0.35251810442559578 -0.36989162501885509 0 -0.33514295061115928 -0.36930250512188151 0 -0.34284346607981431 -0.35390483647127818 0 -0.33514295061115928 -0.36930250512188151 0 -0.34284346607981431 -0.35390483647127818 0 -0.32563782622054688 -0.34714029700112231 0 -0.33514295061115928 -0.36930250512188151 0 -0.32563782622054688 -0.34714029700112231 0 -0.3428902318993669 -0.33406154094436369 0 -0.34284346607981431 -0.35390483647127818 0 -0.32563782622054688 -0.34714029700112231 0 -0.32563782622054688 -0.34714029700112231 0 -0.32160862876224672 -0.36198780003317338 0 -0.30622468622908949 -0.36185706908327292 0 -0.32563782622054688 -0.34714029700112231 0 -0.30622468622908949 -0.36185706908327292 0 -0.32563782622054688 -0.34714029700112231 0 -0.30622468622908949 -0.36185706908327292 0 -0.30853696427419119 -0.34553303592923829 0 -0.32160862876224672 -0.36198780003317338 0 -0.30622468622908949 -0.36185706908327292 0 -0.31650423429324992 -0.37743323617407581 0 -0.33514295061115928 -0.36930250512188151 0 -0.32160862876224672 -0.36198780003317338 0 -0.31650423429324992 -0.37743323617407581 0 -0.33514295061115928 -0.36930250512188151 0 -0.32563782622054688 -0.34714029700112231 0 -0.32160862876224672 -0.36198780003317338 0 -0.30622468622908949 -0.36185706908327292 0 -0.31650423429324992 -0.37743323617407581 0 -0.29629721773317619 -0.37943608819169372 0 -0.30853696427419119 -0.34553303592923829 0 -0.28666064388094081 -0.3565024704511689 0 -0.29699911714441091 -0.33064070717517141 0 -0.30622468622908949 -0.36185706908327292 0 -0.30853696427419119 -0.34553303592923829 0 -0.28666064388094081 -0.3565024704511689 0 -0.28666064388094081 -0.3565024704511689 0 -0.27632217061747077 -0.38236423372716638 0 -0.30622468622908949 -0.36185706908327292 0 -0.28666064388094081 -0.3565024704511689 0 -0.29629721773317619 -0.37943608819169372 0 -0.28666064388094081 -0.3565024704511689 0 -0.29629721773317619 -0.37943608819169372 0 -0.27632217061747077 -0.38236423372716638 0 -0.28666064388094081 -0.3565024704511689 0 -0.2703454730293432 -0.36486029458243829 0 -0.27632217061747077 -0.38236423372716638 0 -0.2703454730293432 -0.36486029458243829 0 -0.27632217061747077 -0.38236423372716638 0 -0.26238691137726639 -0.37509691369023929 0 -0.2703454730293432 -0.36486029458243829 0 -0.25742178503506652 -0.36173700810592779 0 -0.27104795800620091 -0.3521517293374023 0 -0.2703454730293432 -0.36486029458243829 0 -0.25742178503506652 -0.36173700810592779 0 -0.26238691137726639 -0.37509691369023929 0 -0.25742178503506652 -0.36173700810592779 0 -0.25090887138991741 -0.37434439095463218 0 -0.24381440695836001 -0.3646605432011934 0 -0.25742178503506652 -0.36173700810592779 0 -0.25090887138991741 -0.37434439095463218 0 -0.26238691137726639 -0.37509691369023929 0 -0.25742178503506652 -0.36173700810592779 0 -0.25925010288925088 -0.34457708341817961 0 -0.24624540423146091 -0.35079766778937099 0 -0.25742178503506652 -0.36173700810592779 0 -0.25925010288925088 -0.34457708341817961 0 -0.27104795800620091 -0.3521517293374023 0 -0.28666064388094081 -0.3565024704511689 0 -0.2703454730293432 -0.36486029458243829 0 -0.27104795800620091 -0.3521517293374023 0 -0.25925010288925088 -0.34457708341817961 0 -0.27104795800620091 -0.3521517293374023 0 -0.27593591642787441 -0.33894488010252199 0 -0.28666064388094081 -0.3565024704511689 0 -0.27104795800620091 -0.3521517293374023 0 -0.27593591642787441 -0.33894488010252199 0 -0.27593591642787441 -0.33894488010252199 0 -0.25957388569728029 -0.32647200119809222 0 -0.27599402342962243 -0.31922416959146072 0 -0.25925010288925088 -0.34457708341817961 0 -0.25957388569728029 -0.32647200119809222 0 -0.24373079363408709 -0.33509573232901879 0 -0.25925010288925088 -0.34457708341817961 0 -0.27593591642787441 -0.33894488010252199 0 -0.25957388569728029 -0.32647200119809222 0 -0.25957388569728029 -0.32647200119809222 0 -0.27599402342962243 -0.31922416959146072 0 -0.26130602805581171 -0.3040737580460125 0 -0.27599402342962243 -0.31922416959146072 0 -0.29699911714441091 -0.33064070717517141 0 -0.28849535258819842 -0.30997025974270681 0 -0.27593591642787441 -0.33894488010252199 0 -0.27599402342962243 -0.31922416959146072 0 -0.29699911714441091 -0.33064070717517141 0 -0.28666064388094081 -0.3565024704511689 0 -0.27593591642787441 -0.33894488010252199 0 -0.29699911714441091 -0.33064070717517141 0 -0.28666064388094081 -0.3565024704511689 0 -0.29699911714441091 -0.33064070717517141 0 -0.31929014067610562 -0.33233999325550262 0 -0.30853696427419119 -0.34553303592923829 0 -0.29699911714441091 -0.33064070717517141 0 -0.29699911714441091 -0.33064070717517141 0 -0.3122339991186488 -0.31972192563099011 0 -0.30733759040788078 -0.30477894389917398 0 -0.29699911714441091 -0.33064070717517141 0 -0.30733759040788078 -0.30477894389917398 0 -0.31929014067610562 -0.33233999325550262 0 -0.29699911714441091 -0.33064070717517141 0 -0.3122339991186488 -0.31972192563099011 0 -0.29699911714441091 -0.33064070717517141 0 -0.30733759040788078 -0.30477894389917398 0 -0.28849535258819842 -0.30997025974270681 0 -0.30733759040788078 -0.30477894389917398 0 -0.29913619351258708 -0.28598938630246579 0 -0.28824429220234499 -0.29403582936905609 0 -0.31767606367135082 -0.2789171806231765 0 -0.30733759040788078 -0.30477894389917398 0 -0.29913619351258708 -0.28598938630246579 0 -0.29913619351258708 -0.28598938630246579 0 -0.28824429220234499 -0.29403582936905609 0 -0.28698317241257743 -0.27985285698749152 0 -0.28824429220234499 -0.29403582936905609 0 -0.27715200261069112 -0.28521619309788332 0 -0.28698317241257743 -0.27985285698749152 0 -0.28824429220234499 -0.29403582936905609 0 -0.28849535258819842 -0.30997025974270681 0 -0.27559998166886901 -0.29958298467917738 0 -0.30733759040788078 -0.30477894389917398 0 -0.28824429220234499 -0.29403582936905609 0 -0.28849535258819842 -0.30997025974270681 0 -0.27599402342962243 -0.31922416959146072 0 -0.27559998166886901 -0.29958298467917738 0 -0.26130602805581171 -0.3040737580460125 0 -0.27599402342962243 -0.31922416959146072 0 -0.28849535258819842 -0.30997025974270681 0 -0.27559998166886901 -0.29958298467917738 0 -0.25957388569728029 -0.32647200119809222 0 -0.26130602805581171 -0.3040737580460125 0 -0.24688355174196661 -0.3052802946029784 0 -0.26130602805581171 -0.3040737580460125 0 -0.25171342304095778 -0.29287874859386742 0 -0.24688355174196661 -0.3052802946029784 0 -0.25171342304095778 -0.29287874859386742 0 -0.26240819112654551 -0.28497769822794577 0 -0.24289862655948749 -0.27525549539798699 0 -0.26130602805581171 -0.3040737580460125 0 -0.25171342304095778 -0.29287874859386742 0 -0.26240819112654551 -0.28497769822794577 0 -0.27559998166886901 -0.29958298467917738 0 -0.26130602805581171 -0.3040737580460125 0 -0.26240819112654551 -0.28497769822794577 0 -0.27559998166886901 -0.29958298467917738 0 -0.26240819112654551 -0.28497769822794577 0 -0.27715200261069112 -0.28521619309788332 0 -0.28824429220234499 -0.29403582936905609 0 -0.27559998166886901 -0.29958298467917738 0 -0.27715200261069112 -0.28521619309788332 0 -0.27715200261069112 -0.28521619309788332 0 -0.27410948399678348 -0.2735227219876169 0 -0.28698317241257743 -0.27985285698749152 0 -0.27410948399678348 -0.2735227219876169 0 -0.27754696619779051 -0.26330592627792582 0 -0.28572779377900009 -0.26817942938960693 0 -0.27410948399678348 -0.2735227219876169 0 -0.26206906689551501 -0.27216715147413861 0 -0.26782447349083532 -0.26211860248240831 0 -0.27410948399678348 -0.2735227219876169 0 -0.26782447349083532 -0.26211860248240831 0 -0.27754696619779051 -0.26330592627792582 0 -0.26240819112654551 -0.28497769822794577 0 -0.27715200261069112 -0.28521619309788332 0 -0.27410948399678348 -0.2735227219876169 0 -0.26240819112654551 -0.28497769822794577 0 -0.27410948399678348 -0.2735227219876169 0 -0.26206906689551501 -0.27216715147413861 0 -0.26206906689551501 -0.27216715147413861 0 -0.25445030499035098 -0.26478376377764218 0 -0.24289862655948749 -0.27525549539798699 0 -0.26240819112654551 -0.28497769822794577 0 -0.26206906689551501 -0.27216715147413861 0 -0.24289862655948749 -0.27525549539798699 0 -0.26206906689551501 -0.27216715147413861 0 -0.25445030499035098 -0.26478376377764218 0 -0.26782447349083532 -0.26211860248240831 0 -0.25384996839767199 -0.25638615403576931 0 -0.24951370693373881 -0.25111521330492559 0 -0.25800086889519658 -0.2465457939377326 0 -0.25384996839767199 -0.25638615403576931 0 -0.25445030499035098 -0.26478376377764218 0 -0.24738714355606559 -0.26170102317732241 0 -0.25384996839767199 -0.25638615403576931 0 -0.25445030499035098 -0.26478376377764218 0 -0.26172330181697562 -0.2541893147956889 0 -0.25445030499035098 -0.26478376377764218 0 -0.26172330181697562 -0.2541893147956889 0 -0.26782447349083532 -0.26211860248240831 0 -0.25384996839767199 -0.25638615403576931 0 -0.26172330181697562 -0.2541893147956889 0 -0.25800086889519658 -0.2465457939377326 0 -0.26881376628220632 -0.25391503488386102 0 -0.26782447349083532 -0.26211860248240831 0 -0.27626246977033653 -0.2545754308368342 0 -0.26172330181697562 -0.2541893147956889 0 -0.26881376628220632 -0.25391503488386102 0 -0.26944482005067788 -0.24477679142051259 0 -0.26172330181697562 -0.2541893147956889 0 -0.26881376628220632 -0.25391503488386102 0 -0.26782447349083532 -0.26211860248240831 0 -0.26881376628220632 -0.25391503488386102 0 -0.27626246977033653 -0.2545754308368342 0 -0.26944482005067788 -0.24477679142051259 0 -0.26782447349083532 -0.26211860248240831 0 -0.27754696619779051 -0.26330592627792582 0 -0.27626246977033653 -0.2545754308368342 0 -0.27754696619779051 -0.26330592627792582 0 -0.27626246977033653 -0.2545754308368342 0 -0.28381060995199708 -0.25813344669316263 0 -0.27626246977033653 -0.2545754308368342 0 -0.28381060995199708 -0.25813344669316263 0 -0.27997576050329209 -0.2470579843557148 0 -0.28754251027753353 -0.25066974673964437 0 -0.28381060995199708 -0.25813344669316263 0 -0.27997576050329209 -0.2470579843557148 0 -0.28754251027753353 -0.25066974673964437 0 -0.29228871195381428 -0.26026779318925047 0 -0.28381060995199708 -0.25813344669316263 0 -0.28754251027753353 -0.25066974673964437 0 -0.29228871195381428 -0.26026779318925047 0 -0.29941935906180128 -0.25288897962424572 0 -0.29228871195381428 -0.26026779318925047 0 -0.28381060995199708 -0.25813344669316263 0 -0.28572779377900009 -0.26817942938960693 0 -0.27754696619779051 -0.26330592627792582 0 -0.28381060995199708 -0.25813344669316263 0 -0.28572779377900009 -0.26817942938960693 0 -0.27410948399678348 -0.2735227219876169 0 -0.28572779377900009 -0.26817942938960693 0 -0.28698317241257743 -0.27985285698749152 0 -0.29913619351258708 -0.28598938630246579 0 -0.28698317241257743 -0.27985285698749152 0 -0.29752926837405841 -0.27217358177832007 0 -0.28572779377900009 -0.26817942938960693 0 -0.28698317241257743 -0.27985285698749152 0 -0.29752926837405841 -0.27217358177832007 0 -0.29228871195381428 -0.26026779318925047 0 -0.28572779377900009 -0.26817942938960693 0 -0.29752926837405841 -0.27217358177832007 0 -0.29752926837405841 -0.27217358177832007 0 -0.30949068908349181 -0.26623171879153568 0 -0.30338658036448729 -0.26032597394055501 0 -0.31767606367135082 -0.2789171806231765 0 -0.29913619351258708 -0.28598938630246579 0 -0.29752926837405841 -0.27217358177832007 0 -0.31767606367135082 -0.2789171806231765 0 -0.29752926837405841 -0.27217358177832007 0 -0.30949068908349181 -0.26623171879153568 0 -0.30949068908349181 -0.26623171879153568 0 -0.31241265182105149 -0.25753732197967799 0 -0.30338658036448729 -0.26032597394055501 0 -0.31241265182105149 -0.25753732197967799 0 -0.30673579201176571 -0.25301260665616998 0 -0.30338658036448729 -0.26032597394055501 0 -0.31241265182105149 -0.25753732197967799 0 -0.30673579201176571 -0.25301260665616998 0 -0.3128026899048888 -0.2490093066069573 0 -0.30673579201176571 -0.25301260665616998 0 -0.29941935906180128 -0.25288897962424572 0 -0.30338658036448729 -0.26032597394055501 0 -0.30673579201176571 -0.25301260665616998 0 -0.29941935906180128 -0.25288897962424572 0 -0.30565767890659928 -0.24530145112941409 0 -0.29228871195381428 -0.26026779318925047 0 -0.29752926837405841 -0.27217358177832007 0 -0.30338658036448729 -0.26032597394055501 0 -0.29228871195381428 -0.26026779318925047 0 -0.29941935906180128 -0.25288897962424572 0 -0.30338658036448729 -0.26032597394055501 0 -0.33448658279877708 -0.46525493381801653 0 -0.33770100293325678 -0.45358808109822141 0 -0.32590460834597729 -0.44903353826134368 0 -0.33448658279877708 -0.46525493381801653 0 -0.34500366919571518 -0.47139756008343919 0 -0.34736256638146029 -0.46016838316467512 0 -0.33448658279877708 -0.46525493381801653 0 -0.33770100293325678 -0.45358808109822141 0 -0.34736256638146029 -0.46016838316467512 0 -0.33770100293325678 -0.45358808109822141 0 -0.34736256638146029 -0.46016838316467512 0 -0.34546167437660719 -0.44867315099317612 0 -0.33770100293325678 -0.45358808109822141 0 -0.33757982869469988 -0.44461837323773418 0 -0.34546167437660719 -0.44867315099317612 0 -0.33757982869469988 -0.44461837323773418 0 -0.32590460834597729 -0.44903353826134368 0 -0.34002890386918228 -0.43133022981237118 0 -0.32590460834597729 -0.44903353826134368 0 -0.34002890386918228 -0.43133022981237118 0 -0.33757982869469988 -0.44461837323773418 0 -0.34593716062657037 -0.43865608355053071 0 -0.34546167437660719 -0.44867315099317612 0 -0.33757982869469988 -0.44461837323773418 0 -0.34593716062657037 -0.43865608355053071 0 -0.34002890386918228 -0.43133022981237118 0 -0.33770100293325678 -0.45358808109822141 0 -0.33757982869469988 -0.44461837323773418 0 -0.32590460834597729 -0.44903353826134368 0 -0.32590460834597729 -0.44903353826134368 0 -0.31883184938736392 -0.44172903299934091 0 -0.32283100161172362 -0.43349461992011878 0 -0.32590460834597729 -0.44903353826134368 0 -0.31883184938736392 -0.44172903299934091 0 -0.31291829354510148 -0.45260655190139182 0 -0.31883184938736392 -0.44172903299934091 0 -0.31291829354510148 -0.45260655190139182 0 -0.30791438241432839 -0.44383516023861919 0 -0.32590460834597729 -0.44903353826134368 0 -0.31291829354510148 -0.45260655190139182 0 -0.31213467523737831 -0.46629269095627029 0 -0.33448658279877708 -0.46525493381801653 0 -0.32590460834597729 -0.44903353826134368 0 -0.31821413147662109 -0.47451676913067231 0 -0.32590460834597729 -0.44903353826134368 0 -0.31821413147662109 -0.47451676913067231 0 -0.31213467523737831 -0.46629269095627029 0 -0.32590460834597729 -0.44903353826134368 0 -0.31821413147662109 -0.47451676913067231 0 -0.32590460834597729 -0.44903353826134368 0 -0.31213467523737831 -0.46629269095627029 0 -0.31821413147662109 -0.47451676913067231 0 -0.32389127788925293 -0.48704792344616898 0 -0.33297942596336882 -0.47700496004361931 0 -0.31821413147662109 -0.47451676913067231 0 -0.32389127788925293 -0.48704792344616898 0 -0.31052365460726489 -0.50000000000000089 0 -0.31821413147662109 -0.47451676913067231 0 -0.31052365460726489 -0.50000000000000089 0 -0.31810667878862797 -0.49999999999999839 0 -0.32389127788925293 -0.48704792344616898 0 -0.31052365460726489 -0.50000000000000089 0 -0.31810667878862797 -0.49999999999999839 0 -0.32389127788925293 -0.48704792344616898 0 -0.34276548320786571 -0.48485317446362752 0 -0.31810667878862797 -0.49999999999999839 0 -0.34276548320786571 -0.48485317446362752 0 -0.34654291560857259 -0.5 0 -0.31810667878862797 -0.49999999999999839 0 -0.34276548320786571 -0.48485317446362752 0 -0.33448658279877708 -0.46525493381801653 0 -0.31821413147662109 -0.47451676913067231 0 -0.33297942596336882 -0.47700496004361931 0 -0.32389127788925293 -0.48704792344616898 0 -0.34276548320786571 -0.48485317446362752 0 -0.33297942596336882 -0.47700496004361931 0 -0.34276548320786571 -0.48485317446362752 0 -0.33297942596336882 -0.47700496004361931 0 -0.34500366919571518 -0.47139756008343919 0 -0.33448658279877708 -0.46525493381801653 0 -0.33297942596336882 -0.47700496004361931 0 -0.34500366919571518 -0.47139756008343919 0 -0.34276548320786571 -0.48485317446362752 0 -0.36555251123240529 -0.48747564515017172 0 -0.36742428762710388 -0.46970634892725782 0 -0.38418956980414898 -0.5 0 -0.34654291560857259 -0.5 0 -0.36555251123240529 -0.48747564515017172 0 -0.34276548320786571 -0.48485317446362752 0 -0.36742428762710388 -0.46970634892725782 0 -0.34276548320786571 -0.48485317446362752 0 -0.34500366919571518 -0.47139756008343919 0 -0.36742428762710388 -0.46970634892725782 0 -0.34276548320786571 -0.48485317446362752 0 -0.34654291560857259 -0.5 0 -0.36555251123240529 -0.48747564515017172 0 -0.36742428762710388 -0.46970634892725782 0 -0.35653247677278682 -0.45047042580037072 0 -0.36948293443814928 -0.44838814416989492 0 -0.36742428762710388 -0.46970634892725782 0 -0.34736256638146029 -0.46016838316467512 0 -0.35653247677278682 -0.45047042580037072 0 -0.34500366919571518 -0.47139756008343919 0 -0.36742428762710388 -0.46970634892725782 0 -0.34736256638146029 -0.46016838316467512 0 -0.34593716062657037 -0.43865608355053071 0 -0.34546167437660719 -0.44867315099317612 0 -0.35609112688513528 -0.43890132923012282 0 -0.34736256638146029 -0.46016838316467512 0 -0.34546167437660719 -0.44867315099317612 0 -0.35653247677278682 -0.45047042580037072 0 -0.34546167437660719 -0.44867315099317612 0 -0.35653247677278682 -0.45047042580037072 0 -0.35609112688513528 -0.43890132923012282 0 -0.35609112688513528 -0.43890132923012282 0 -0.36948293443814928 -0.44838814416989492 0 -0.37098302872015132 -0.43408639701922058 0 -0.35653247677278682 -0.45047042580037072 0 -0.35609112688513528 -0.43890132923012282 0 -0.36948293443814928 -0.44838814416989492 0 -0.38446330129505291 -0.44491985800488898 0 -0.36948293443814928 -0.44838814416989492 0 -0.37098302872015132 -0.43408639701922058 0 -0.37098302872015132 -0.43408639701922058 0 -0.37048952420164089 -0.41844790926598152 0 -0.35896467057847992 -0.42484537799911548 0 -0.35609112688513528 -0.43890132923012282 0 -0.37098302872015132 -0.43408639701922058 0 -0.35896467057847992 -0.42484537799911548 0 -0.37048952420164089 -0.41844790926598152 0 -0.35415319939238732 -0.41362692136339863 0 -0.3676828007387708 -0.3966689990774222 0 -0.37048952420164089 -0.41844790926598152 0 -0.35415319939238732 -0.41362692136339863 0 -0.35896467057847992 -0.42484537799911548 0 -0.38511814291255581 -0.41360735826705619 0 -0.37048952420164089 -0.41844790926598152 0 -0.3676828007387708 -0.3966689990774222 0 -0.35415319939238732 -0.41362692136339863 0 -0.34002890386918228 -0.43133022981237118 0 -0.34193469551397893 -0.41829776111848532 0 -0.35415319939238732 -0.41362692136339863 0 -0.35896467057847992 -0.42484537799911548 0 -0.35415319939238732 -0.41362692136339863 0 -0.34193469551397893 -0.41829776111848532 0 -0.33934215867202921 -0.40673615078754699 0 -0.35415319939238732 -0.41362692136339863 0 -0.34002890386918228 -0.43133022981237118 0 -0.35415319939238732 -0.41362692136339863 0 -0.35052426930722741 -0.42975733447924902 0 -0.35896467057847992 -0.42484537799911548 0 -0.35415319939238732 -0.41362692136339863 0 -0.35052426930722741 -0.42975733447924902 0 -0.34002890386918228 -0.43133022981237118 0 -0.34593716062657037 -0.43865608355053071 0 -0.35052426930722741 -0.42975733447924902 0 -0.34002890386918228 -0.43133022981237118 0 -0.34593716062657037 -0.43865608355053071 0 -0.35609112688513528 -0.43890132923012282 0 -0.35052426930722741 -0.42975733447924902 0 -0.35609112688513528 -0.43890132923012282 0 -0.35052426930722741 -0.42975733447924902 0 -0.35896467057847992 -0.42484537799911548 0 -0.36591632585438849 -0.37949871254638151 0 -0.3676828007387708 -0.3966689990774222 0 -0.34464807500177352 -0.39146471324263987 0 -0.38614913526049721 -0.37716824179615122 0 -0.36591632585438849 -0.37949871254638151 0 -0.3676828007387708 -0.3966689990774222 0 -0.35415319939238732 -0.41362692136339863 0 -0.3676828007387708 -0.3966689990774222 0 -0.35415319939238732 -0.41362692136339863 0 -0.34464807500177352 -0.39146471324263987 0 -0.35415319939238732 -0.41362692136339863 0 -0.34464807500177352 -0.39146471324263987 0 -0.33934215867202921 -0.40673615078754699 0 -0.35415319939238732 -0.41362692136339863 0 -0.3676828007387708 -0.3966689990774222 0 -0.34464807500177352 -0.39146471324263987 0 -0.35251810442559578 -0.36989162501885509 0 -0.36591632585438849 -0.37949871254638151 0 -0.34464807500177352 -0.39146471324263987 0 -0.35251810442559578 -0.36989162501885509 0 -0.33514295061115928 -0.36930250512188151 0 -0.34464807500177352 -0.39146471324263987 0 -0.33514295061115928 -0.36930250512188151 0 -0.34464807500177352 -0.39146471324263987 0 -0.33514295061115928 -0.36930250512188151 0 -0.34464807500177352 -0.39146471324263987 0 -0.32738484146145719 -0.39131188733744732 0 -0.32738484146145719 -0.39131188733744732 0 -0.33934215867202921 -0.40673615078754699 0 -0.32201309209410062 -0.40805278114694438 0 -0.34464807500177352 -0.39146471324263987 0 -0.32738484146145719 -0.39131188733744732 0 -0.33934215867202921 -0.40673615078754699 0 -0.32738484146145719 -0.39131188733744732 0 -0.32201309209410062 -0.40805278114694438 0 -0.3066585380964309 -0.39488193755159517 0 -0.32738484146145719 -0.39131188733744732 0 -0.31650423429324992 -0.37743323617407581 0 -0.3066585380964309 -0.39488193755159517 0 -0.33514295061115928 -0.36930250512188151 0 -0.32738484146145719 -0.39131188733744732 0 -0.31650423429324992 -0.37743323617407581 0 -0.32590460834597729 -0.44903353826134368 0 -0.33421452012231678 -0.42149774251062411 0 -0.32590460834597729 -0.44903353826134368 0 -0.34002890386918228 -0.43133022981237118 0 -0.33421452012231678 -0.42149774251062411 0 -0.34002890386918228 -0.43133022981237118 0 -0.34193469551397893 -0.41829776111848532 0 -0.33421452012231678 -0.42149774251062411 0 -0.34193469551397893 -0.41829776111848532 0 -0.33934215867202921 -0.40673615078754699 0 -0.33421452012231678 -0.42149774251062411 0 -0.33934215867202921 -0.40673615078754699 0 -0.33421452012231678 -0.42149774251062411 0 -0.32201309209410062 -0.40805278114694438 0 -0.33421452012231678 -0.42149774251062411 0 -0.32201309209410062 -0.40805278114694438 0 -0.3176888450997013 -0.42240671406388719 0 -0.32201309209410062 -0.40805278114694438 0 -0.3176888450997013 -0.42240671406388719 0 -0.30284325588070471 -0.41298142316519459 0 -0.32590460834597729 -0.44903353826134368 0 -0.33421452012231678 -0.42149774251062411 0 -0.32283100161172362 -0.43349461992011878 0 -0.3176888450997013 -0.42240671406388719 0 -0.32283100161172362 -0.43349461992011878 0 -0.31468323892744648 -0.43191628277174438 0 -0.33421452012231678 -0.42149774251062411 0 -0.3176888450997013 -0.42240671406388719 0 -0.32283100161172362 -0.43349461992011878 0 -0.31883184938736392 -0.44172903299934091 0 -0.32283100161172362 -0.43349461992011878 0 -0.31468323892744648 -0.43191628277174438 0 -0.31883184938736392 -0.44172903299934091 0 -0.31468323892744648 -0.43191628277174438 0 -0.29938125961099771 -0.43003476410363062 0 -0.3176888450997013 -0.42240671406388719 0 -0.31468323892744648 -0.43191628277174438 0 -0.29938125961099771 -0.43003476410363062 0 -0.31883184938736392 -0.44172903299934091 0 -0.29938125961099771 -0.43003476410363062 0 -0.3176888450997013 -0.42240671406388719 0 -0.29938125961099771 -0.43003476410363062 0 -0.30284325588070471 -0.41298142316519459 0 -0.29938125961099771 -0.43003476410363062 0 -0.30284325588070471 -0.41298142316519459 0 -0.2799306698346315 -0.41834049520792033 0 -0.29138713054836629 -0.4041718469171901 0 -0.27366961785001559 -0.39991851525183197 0 -0.2799306698346315 -0.41834049520792033 0 -0.30284325588070471 -0.41298142316519459 0 -0.29138713054836629 -0.4041718469171901 0 -0.2799306698346315 -0.41834049520792033 0 -0.29938125961099771 -0.43003476410363062 0 -0.2799306698346315 -0.41834049520792033 0 -0.29938125961099771 -0.43003476410363062 0 -0.2799306698346315 -0.41834049520792033 0 -0.27954158645732202 -0.43840601668577939 0 -0.31650423429324992 -0.37743323617407581 0 -0.3066585380964309 -0.39488193755159517 0 -0.29629721773317619 -0.37943608819169372 0 -0.32201309209410062 -0.40805278114694438 0 -0.30284325588070471 -0.41298142316519459 0 -0.3066585380964309 -0.39488193755159517 0 -0.30284325588070471 -0.41298142316519459 0 -0.3066585380964309 -0.39488193755159517 0 -0.29138713054836629 -0.4041718469171901 0 -0.29138713054836629 -0.4041718469171901 0 -0.28479067659213431 -0.39262142236356701 0 -0.27366961785001559 -0.39991851525183197 0 -0.3066585380964309 -0.39488193755159517 0 -0.29138713054836629 -0.4041718469171901 0 -0.28479067659213431 -0.39262142236356701 0 -0.3066585380964309 -0.39488193755159517 0 -0.28479067659213431 -0.39262142236356701 0 -0.29629721773317619 -0.37943608819169372 0 -0.28479067659213431 -0.39262142236356701 0 -0.29629721773317619 -0.37943608819169372 0 -0.27632217061747077 -0.38236423372716638 0 -0.27632217061747077 -0.38236423372716638 0 -0.26344362723278197 -0.38654721792172148 0 -0.26238691137726639 -0.37509691369023929 0 -0.28479067659213431 -0.39262142236356701 0 -0.27632217061747077 -0.38236423372716638 0 -0.2718860516422037 -0.39146470530207911 0 -0.27632217061747077 -0.38236423372716638 0 -0.2718860516422037 -0.39146470530207911 0 -0.26344362723278197 -0.38654721792172148 0 -0.2718860516422037 -0.39146470530207911 0 -0.27366961785001559 -0.39991851525183197 0 -0.26120416591861589 -0.39587213724610842 0 -0.28479067659213431 -0.39262142236356701 0 -0.2718860516422037 -0.39146470530207911 0 -0.27366961785001559 -0.39991851525183197 0 -0.27366961785001559 -0.39991851525183197 0 -0.26048008005826639 -0.40664622631220831 0 -0.26048008005826639 -0.40664622631220831 0 -0.24318202550031651 -0.39624612514822799 0 -0.24754985532100679 -0.3970639891143794 0 -0.26048008005826639 -0.40664622631220831 0 -0.24318202550031651 -0.39624612514822799 0 -0.27366961785001559 -0.39991851525183197 0 -0.26120416591861589 -0.39587213724610842 0 -0.26048008005826639 -0.40664622631220831 0 -0.26120416591861589 -0.39587213724610842 0 -0.26048008005826639 -0.40664622631220831 0 -0.24754985532100679 -0.3970639891143794 0 -0.26120416591861589 -0.39587213724610842 0 -0.25368471674856857 -0.39024688062815588 0 -0.24754985532100679 -0.3970639891143794 0 -0.26120416591861589 -0.39587213724610842 0 -0.26344362723278197 -0.38654721792172148 0 -0.25368471674856857 -0.39024688062815588 0 -0.2718860516422037 -0.39146470530207911 0 -0.26120416591861589 -0.39587213724610842 0 -0.26344362723278197 -0.38654721792172148 0 -0.26344362723278197 -0.38654721792172148 0 -0.25368471674856857 -0.39024688062815588 0 -0.25587409263531069 -0.38120771004676202 0 -0.25368471674856857 -0.39024688062815588 0 -0.25587409263531069 -0.38120771004676202 0 -0.2488988270452879 -0.38398328131875142 0 -0.25368471674856857 -0.39024688062815588 0 -0.2483704375696674 -0.38946062495943862 0 -0.2488988270452879 -0.38398328131875142 0 -0.25090887138991741 -0.37434439095463218 0 -0.25587409263531069 -0.38120771004676202 0 -0.2488988270452879 -0.38398328131875142 0 -0.25090887138991741 -0.37434439095463218 0 -0.25587409263531069 -0.38120771004676202 0 -0.26238691137726639 -0.37509691369023929 0 -0.26344362723278197 -0.38654721792172148 0 -0.25587409263531069 -0.38120771004676202 0 -0.26238691137726639 -0.37509691369023929 0 -0.2799306698346315 -0.41834049520792033 0 -0.26333651958853482 -0.4239180414298363 0 -0.27954158645732202 -0.43840601668577939 0 -0.26333651958853482 -0.4239180414298363 0 -0.25964467043627709 -0.44103075875014008 0 -0.27954158645732202 -0.43840601668577939 0 -0.27366961785001559 -0.39991851525183197 0 -0.2799306698346315 -0.41834049520792033 0 -0.26048008005826639 -0.40664622631220831 0 -0.2799306698346315 -0.41834049520792033 0 -0.26048008005826639 -0.40664622631220831 0 -0.2799306698346315 -0.41834049520792033 0 -0.26048008005826639 -0.40664622631220831 0 -0.26333651958853482 -0.4239180414298363 0 -0.26048008005826639 -0.40664622631220831 0 -0.26333651958853482 -0.4239180414298363 0 -0.23922848361506099 -0.41748622712944711 0 -0.25060622239264868 -0.43068886144846652 0 -0.25964467043627709 -0.44103075875014008 0 -0.24021521593072201 -0.44032041848444248 0 -0.25060622239264868 -0.43068886144846652 0 -0.26333651958853482 -0.4239180414298363 0 -0.25964467043627709 -0.44103075875014008 0 -0.25060622239264868 -0.43068886144846652 0 -0.26333651958853482 -0.4239180414298363 0 -0.23922848361506099 -0.41748622712944711 0 -0.25964467043627709 -0.44103075875014008 0 -0.25233939806696798 -0.45641972303482009 0 -0.24021521593072201 -0.44032041848444248 0 -0.25964467043627709 -0.44103075875014008 0 -0.25233939806696798 -0.45641972303482009 0 -0.26839586943767269 -0.4565310156756075 0 -0.25233939806696798 -0.45641972303482009 0 -0.26839586943767269 -0.4565310156756075 0 -0.26033957885465359 -0.47145914900489261 0 -0.25233939806696798 -0.45641972303482009 0 -0.26033957885465359 -0.47145914900489261 0 -0.2451623079523135 -0.47186888494189611 0 -0.27154038767407013 -0.46857192566847428 0 -0.26839586943767269 -0.4565310156756075 0 -0.28511171473488922 -0.45855525787725182 0 -0.27154038767407013 -0.46857192566847428 0 -0.28511171473488922 -0.45855525787725182 0 -0.28038020587299828 -0.47726678672689993 0 -0.27154038767407013 -0.46857192566847428 0 -0.26839586943767269 -0.4565310156756075 0 -0.26033957885465359 -0.47145914900489261 0 -0.26839586943767269 -0.4565310156756075 0 -0.27954158645732202 -0.43840601668577939 0 -0.28511171473488922 -0.45855525787725182 0 -0.25964467043627709 -0.44103075875014008 0 -0.26839586943767269 -0.4565310156756075 0 -0.27954158645732202 -0.43840601668577939 0 -0.29938125961099771 -0.43003476410363062 0 -0.27954158645732202 -0.43840601668577939 0 -0.29021552471993439 -0.44576335800873779 0 -0.27954158645732202 -0.43840601668577939 0 -0.29021552471993439 -0.44576335800873779 0 -0.28511171473488922 -0.45855525787725182 0 -0.29938125961099771 -0.43003476410363062 0 -0.29021552471993439 -0.44576335800873779 0 -0.30052612711385102 -0.45097029195011351 0 -0.29021552471993439 -0.44576335800873779 0 -0.28511171473488922 -0.45855525787725182 0 -0.30052612711385102 -0.45097029195011351 0 -0.28511171473488922 -0.45855525787725182 0 -0.29860174169392972 -0.46408504341981732 0 -0.29216974553442721 -0.47283010837431938 0 -0.28511171473488922 -0.45855525787725182 0 -0.29860174169392972 -0.46408504341981732 0 -0.30052612711385102 -0.45097029195011351 0 -0.29860174169392972 -0.46408504341981732 0 -0.30604520939756508 -0.45848864455689819 0 -0.30052612711385102 -0.45097029195011351 0 -0.29860174169392972 -0.46408504341981732 0 -0.31213467523737831 -0.46629269095627029 0 -0.30604520939756508 -0.45848864455689819 0 -0.31291829354510148 -0.45260655190139182 0 -0.30604520939756508 -0.45848864455689819 0 -0.30052612711385102 -0.45097029195011351 0 -0.31291829354510148 -0.45260655190139182 0 -0.31213467523737831 -0.46629269095627029 0 -0.30604520939756508 -0.45848864455689819 0 -0.31291829354510148 -0.45260655190139182 0 -0.30791438241432839 -0.44383516023861919 0 -0.30052612711385102 -0.45097029195011351 0 -0.31883184938736392 -0.44172903299934091 0 -0.29938125961099771 -0.43003476410363062 0 -0.30791438241432839 -0.44383516023861919 0 -0.29938125961099771 -0.43003476410363062 0 -0.30791438241432839 -0.44383516023861919 0 -0.30052612711385102 -0.45097029195011351 0 -0.31052365460726489 -0.50000000000000089 0 -0.30423006248935808 -0.47730897694909979 0 -0.29494784989209571 -0.48532402272851177 0 -0.31052365460726489 -0.50000000000000089 0 -0.28620201721862448 -0.5 0 -0.29494784989209571 -0.48532402272851177 0 -0.31821413147662109 -0.47451676913067231 0 -0.31052365460726489 -0.50000000000000089 0 -0.30423006248935808 -0.47730897694909979 0 -0.31821413147662109 -0.47451676913067231 0 -0.31213467523737831 -0.46629269095627029 0 -0.30423006248935808 -0.47730897694909979 0 -0.29860174169392972 -0.46408504341981732 0 -0.31213467523737831 -0.46629269095627029 0 -0.30423006248935808 -0.47730897694909979 0 -0.29860174169392972 -0.46408504341981732 0 -0.30423006248935808 -0.47730897694909979 0 -0.29216974553442721 -0.47283010837431938 0 -0.30423006248935808 -0.47730897694909979 0 -0.29216974553442721 -0.47283010837431938 0 -0.29494784989209571 -0.48532402272851177 0 -0.29216974553442721 -0.47283010837431938 0 -0.29494784989209571 -0.48532402272851177 0 -0.28038020587299828 -0.47726678672689993 0 -0.28511171473488922 -0.45855525787725182 0 -0.29216974553442721 -0.47283010837431938 0 -0.28038020587299828 -0.47726678672689993 0 -0.28620201721862448 -0.5 0 -0.29494784989209571 -0.48532402272851177 0 -0.28038020587299828 -0.47726678672689993 0 -0.28620201721862448 -0.5 0 -0.28038020587299828 -0.47726678672689993 0 -0.26720397759482217 -0.48393207156219431 0 -0.28620201721862448 -0.5 0 -0.26720397759482217 -0.48393207156219431 0 -0.26188037982998408 -0.5 0 -0.27154038767407013 -0.46857192566847428 0 -0.28038020587299828 -0.47726678672689993 0 -0.26720397759482217 -0.48393207156219431 0 -0.27154038767407013 -0.46857192566847428 0 -0.26720397759482217 -0.48393207156219431 0 -0.26033957885465359 -0.47145914900489261 0 -0.26720397759482217 -0.48393207156219431 0 -0.26033957885465359 -0.47145914900489261 0 -0.25442899733462337 -0.48545202110179658 0 -0.26033957885465359 -0.47145914900489261 0 -0.2451623079523135 -0.47186888494189611 0 -0.26033957885465359 -0.47145914900489261 0 -0.25442899733462337 -0.48545202110179658 0 -0.2451623079523135 -0.47186888494189611 0 -0.26720397759482217 -0.48393207156219431 0 -0.26188037982998408 -0.5 0 -0.25442899733462337 -0.48545202110179658 0 -0.26188037982998408 -0.5 0 -0.25442899733462337 -0.48545202110179658 0 -0.2375587424413437 -0.49999999999999861 0 -0.25442899733462337 -0.48545202110179658 0 -0.2375587424413437 -0.49999999999999861 0 -0.2451623079523135 -0.47186888494189611 0 -0.2375587424413437 -0.49999999999999861 0 -0.2451623079523135 -0.47186888494189611 0 -0.22998503704997339 -0.47227862087889738 0 -0.2451623079523135 -0.47186888494189611 0 -0.22998503704997339 -0.47227862087889738 0 -0.22998503704997339 -0.47227862087889738 0 -0.21790050116262119 -0.46266498925711208 0 -0.20936692116834299 -0.47283524157074652 0 -0.22998503704997339 -0.47227862087889738 0 -0.21998032052041591 -0.48646043930993249 0 -0.20936692116834299 -0.47283524157074652 0 -0.22998503704997339 -0.47227862087889738 0 -0.20936692116834299 -0.47283524157074652 0 -0.2375587424413437 -0.49999999999999861 0 -0.21998032052041591 -0.48646043930993249 0 -0.21764391570364969 -0.5 0 -0.2375587424413437 -0.49999999999999861 0 -0.22998503704997339 -0.47227862087889738 0 -0.21998032052041591 -0.48646043930993249 0 -0.2375587424413437 -0.49999999999999861 0 -0.22998503704997339 -0.47227862087889738 0 -0.25233939806696798 -0.45641972303482009 0 -0.24021521593072201 -0.44032041848444248 0 -0.2376239410885973 -0.45852847511306338 0 -0.25233939806696798 -0.45641972303482009 0 -0.2451623079523135 -0.47186888494189611 0 -0.2376239410885973 -0.45852847511306338 0 -0.2451623079523135 -0.47186888494189611 0 -0.22998503704997339 -0.47227862087889738 0 -0.2376239410885973 -0.45852847511306338 0 -0.22998503704997339 -0.47227862087889738 0 -0.22398096211091509 -0.45030242441279211 0 -0.22998503704997339 -0.47227862087889738 0 -0.2376239410885973 -0.45852847511306338 0 -0.22398096211091509 -0.45030242441279211 0 -0.22998503704997339 -0.47227862087889738 0 -0.22398096211091509 -0.45030242441279211 0 -0.21790050116262119 -0.46266498925711208 0 -0.22398096211091509 -0.45030242441279211 0 -0.21797688717185629 -0.42832622794668701 0 -0.24021521593072201 -0.44032041848444248 0 -0.22398096211091509 -0.45030242441279211 0 -0.21797688717185629 -0.42832622794668701 0 -0.24021521593072201 -0.44032041848444248 0 -0.2376239410885973 -0.45852847511306338 0 -0.22398096211091509 -0.45030242441279211 0 -0.22398096211091509 -0.45030242441279211 0 -0.21129749525587049 -0.44323143219839573 0 -0.21797688717185629 -0.42832622794668701 0 -0.22398096211091509 -0.45030242441279211 0 -0.21129749525587049 -0.44323143219839573 0 -0.20826908432125299 -0.45524367016601253 0 -0.21129749525587049 -0.44323143219839573 0 -0.20358755060781841 -0.44556882616750848 0 -0.19747384846287011 -0.43878440491025489 0 -0.21129749525587049 -0.44323143219839573 0 -0.20358755060781841 -0.44556882616750848 0 -0.20826908432125299 -0.45524367016601253 0 -0.20358755060781841 -0.44556882616750848 0 -0.20826908432125299 -0.45524367016601253 0 -0.19888034100579091 -0.45105557825587872 0 -0.21790050116262119 -0.46266498925711208 0 -0.20826908432125299 -0.45524367016601253 0 -0.20936692116834299 -0.47283524157074652 0 -0.20826908432125299 -0.45524367016601253 0 -0.19541552588151251 -0.4595572633936017 0 -0.20936692116834299 -0.47283524157074652 0 -0.22398096211091509 -0.45030242441279211 0 -0.21790050116262119 -0.46266498925711208 0 -0.20826908432125299 -0.45524367016601253 0 -0.19541552588151251 -0.4595572633936017 0 -0.20936692116834299 -0.47283524157074652 0 -0.18874880528671259 -0.47339186226259061 0 -0.19541552588151251 -0.4595572633936017 0 -0.18874880528671259 -0.47339186226259061 0 -0.18093056190495399 -0.45022679262816312 0 -0.20826908432125299 -0.45524367016601253 0 -0.19541552588151251 -0.4595572633936017 0 -0.19888034100579091 -0.45105557825587872 0 -0.19541552588151251 -0.4595572633936017 0 -0.19888034100579091 -0.45105557825587872 0 -0.19259370585963539 -0.44930404101188892 0 -0.19888034100579091 -0.45105557825587872 0 -0.19259370585963539 -0.44930404101188892 0 -0.19678561947748671 -0.44270729123280028 0 -0.20358755060781841 -0.44556882616750848 0 -0.19888034100579091 -0.45105557825587872 0 -0.19678561947748671 -0.44270729123280028 0 -0.19541552588151251 -0.4595572633936017 0 -0.19259370585963539 -0.44930404101188892 0 -0.18093056190495399 -0.45022679262816312 0 -0.19259370585963539 -0.44930404101188892 0 -0.1935799244691058 -0.44077061518802962 0 -0.18093056190495399 -0.45022679262816312 0 -0.19259370585963539 -0.44930404101188892 0 -0.1935799244691058 -0.44077061518802962 0 -0.19678561947748671 -0.44270729123280028 0 -0.1935799244691058 -0.44077061518802962 0 -0.19747384846287011 -0.43878440491025489 0 -0.19678561947748671 -0.44270729123280028 0 -0.19747384846287011 -0.43878440491025489 0 -0.19678561947748671 -0.44270729123280028 0 -0.1935799244691058 -0.44077061518802962 0 -0.19747384846287011 -0.43878440491025489 0 -0.20358755060781841 -0.44556882616750848 0 -0.19747384846287011 -0.43878440491025489 0 -0.19678561947748671 -0.44270729123280028 0 -0.2066938103290156 -0.48653750862865391 0 -0.21764391570364969 -0.5 0 -0.19772908896595581 -0.50000000000000733 0 -0.21998032052041591 -0.48646043930993249 0 -0.2066938103290156 -0.48653750862865391 0 -0.21764391570364969 -0.5 0 -0.21998032052041591 -0.48646043930993249 0 -0.2066938103290156 -0.48653750862865391 0 -0.20936692116834299 -0.47283524157074652 0 -0.20936692116834299 -0.47283524157074652 0 -0.18874880528671259 -0.47339186226259061 0 -0.2066938103290156 -0.48653750862865391 0 -0.20936692116834299 -0.47283524157074652 0 -0.18874880528671259 -0.47339186226259061 0 -0.2066938103290156 -0.48653750862865391 0 -0.18874880528671259 -0.47339186226259061 0 -0.19772908896595581 -0.50000000000000733 0 -0.18874880528671259 -0.47339186226259061 0 -0.19772908896595581 -0.50000000000000733 0 -0.1786273106901673 -0.4862509547188098 0 -0.18874880528671259 -0.47339186226259061 0 -0.19772908896595581 -0.50000000000000733 0 -0.19772908896595581 -0.50000000000000733 0 -0.1786273106901673 -0.4862509547188098 0 -0.16975236474547031 -0.5 0 -0.1786273106901673 -0.4862509547188098 0 -0.16975236474547031 -0.5 0 -0.15277290451223449 -0.48494944086271968 0 -0.1786273106901673 -0.4862509547188098 0 -0.16782675888839421 -0.47395668806956531 0 -0.15277290451223449 -0.48494944086271968 0 -0.16782675888839421 -0.47395668806956531 0 -0.1541676270232471 -0.45650500532266342 0 -0.15277290451223449 -0.48494944086271968 0 -0.18874880528671259 -0.47339186226259061 0 -0.16782675888839421 -0.47395668806956531 0 -0.18874880528671259 -0.47339186226259061 0 -0.16782675888839421 -0.47395668806956531 0 -0.16888431871902471 -0.4590577290432778 0 -0.18874880528671259 -0.47339186226259061 0 -0.1786273106901673 -0.4862509547188098 0 -0.16782675888839421 -0.47395668806956531 0 -0.18874880528671259 -0.47339186226259061 0 -0.18093056190495399 -0.45022679262816312 0 -0.18874880528671259 -0.47339186226259061 0 -0.18093056190495399 -0.45022679262816312 0 -0.16888431871902471 -0.4590577290432778 0 -0.1935799244691058 -0.44077061518802962 0 -0.18093056190495399 -0.45022679262816312 0 -0.17311231852319309 -0.42706172299373629 0 -0.18093056190495399 -0.45022679262816312 0 -0.17311231852319309 -0.42706172299373629 0 -0.18093056190495399 -0.45022679262816312 0 -0.16363997277321971 -0.44178336415819958 0 -0.17311231852319309 -0.42706172299373629 0 -0.18093056190495399 -0.45022679262816312 0 -0.16363997277321971 -0.44178336415819958 0 -0.16888431871902471 -0.4590577290432778 0 -0.16363997277321971 -0.44178336415819958 0 -0.16888431871902471 -0.4590577290432778 0 -0.1541676270232471 -0.45650500532266342 0 -0.16363997277321971 -0.44178336415819958 0 -0.1541676270232471 -0.45650500532266342 0 -0.16782675888839421 -0.47395668806956531 0 -0.16888431871902471 -0.4590577290432778 0 -0.1541676270232471 -0.45650500532266342 0 -0.1541676270232471 -0.45650500532266342 0 -0.13610754057095281 -0.45288630732329721 0 -0.13694122590382979 -0.47510987288489598 0 -0.1541676270232471 -0.45650500532266342 0 -0.14971125254285469 -0.44300501670879339 0 -0.13610754057095281 -0.45288630732329721 0 -0.14971125254285469 -0.44300501670879339 0 -0.13610754057095281 -0.45288630732329721 0 -0.1382937711683514 -0.43678085278816969 0 -0.16363997277321971 -0.44178336415819958 0 -0.1541676270232471 -0.45650500532266342 0 -0.14971125254285469 -0.44300501670879339 0 -0.13610754057095281 -0.45288630732329721 0 -0.1382937711683514 -0.43678085278816969 0 -0.1185860188496181 -0.44093879709350853 0 -0.13610754057095281 -0.45288630732329721 0 -0.13694122590382979 -0.47510987288489598 0 -0.1168989945026065 -0.46327545877547849 0 -0.13694122590382979 -0.47510987288489598 0 -0.1221394328480946 -0.48345149437937879 0 -0.1168989945026065 -0.46327545877547849 0 -0.13694122590382979 -0.47510987288489598 0 -0.1417756405249849 -0.5 0 -0.1221394328480946 -0.48345149437937879 0 -0.1417756405249849 -0.5 0 -0.1221394328480946 -0.48345149437937879 0 -0.1137989163044995 -0.5 0 -0.13694122590382979 -0.47510987288489598 0 -0.15277290451223449 -0.48494944086271968 0 -0.1417756405249849 -0.5 0 -0.16975236474547031 -0.5 0 -0.15277290451223449 -0.48494944086271968 0 -0.1417756405249849 -0.5 0 -0.1541676270232471 -0.45650500532266342 0 -0.13694122590382979 -0.47510987288489598 0 -0.15277290451223449 -0.48494944086271968 0 -0.15004008847911021 -0.39524441209292011 0 -0.13797182857012899 -0.38581825287213128 0 -0.13885789718912461 -0.40653452532146739 0 -0.15004008847911021 -0.39524441209292011 0 -0.13797182857012899 -0.38581825287213128 0 -0.1576694339549024 -0.38130521748310658 0 -0.13797182857012899 -0.38581825287213128 0 -0.1576694339549024 -0.38130521748310658 0 -0.14994799167075629 -0.35842696472779201 0 -0.13797182857012899 -0.38581825287213128 0 -0.12945893317934351 -0.37053440492462908 0 -0.1164518684188956 -0.38502674592336172 0 -0.13797182857012899 -0.38581825287213128 0 -0.1233765870987707 -0.40365549963164238 0 -0.1164518684188956 -0.38502674592336172 0 -0.13797182857012899 -0.38581825287213128 0 -0.13885789718912461 -0.40653452532146739 0 -0.1233765870987707 -0.40365549963164238 0 -0.13338338784179979 -0.4214089604989521 0 -0.13885789718912461 -0.40653452532146739 0 -0.1233765870987707 -0.40365549963164238 0 -0.13338338784179979 -0.4214089604989521 0 -0.1382937711683514 -0.43678085278816969 0 -0.1185860188496181 -0.44093879709350853 0 -0.13338338784179979 -0.4214089604989521 0 -0.1382937711683514 -0.43678085278816969 0 -0.1516214408685268 -0.42207193083964639 0 -0.14971125254285469 -0.44300501670879339 0 -0.1382937711683514 -0.43678085278816969 0 -0.1516214408685268 -0.42207193083964639 0 -0.16363997277321971 -0.44178336415819958 0 -0.14971125254285469 -0.44300501670879339 0 -0.1516214408685268 -0.42207193083964639 0 -0.13338338784179979 -0.4214089604989521 0 -0.13885789718912461 -0.40653452532146739 0 -0.1516214408685268 -0.42207193083964639 0 -0.15004008847911021 -0.39524441209292011 0 -0.1516214408685268 -0.42207193083964639 0 -0.1653908762390485 -0.40418347023842122 0 -0.15004008847911021 -0.39524441209292011 0 -0.13885789718912461 -0.40653452532146739 0 -0.1516214408685268 -0.42207193083964639 0 -0.1516214408685268 -0.42207193083964639 0 -0.17311231852319309 -0.42706172299373629 0 -0.1653908762390485 -0.40418347023842122 0 -0.17311231852319309 -0.42706172299373629 0 -0.1653908762390485 -0.40418347023842122 0 -0.16363997277321971 -0.44178336415819958 0 -0.1516214408685268 -0.42207193083964639 0 -0.17311231852319309 -0.42706172299373629 0 -0.16363997277321971 -0.44178336415819958 0 -0.17311231852319309 -0.42706172299373629 0 -0.1935799244691058 -0.44077061518802962 0 -0.17311231852319309 -0.42706172299373629 0 -0.1903903066634709 -0.42607522390595381 0 -0.17311231852319309 -0.42706172299373629 0 -0.18660757075879519 -0.40608779889082292 0 -0.17311231852319309 -0.42706172299373629 0 -0.18660757075879519 -0.40608779889082292 0 -0.1653908762390485 -0.40418347023842122 0 -0.17311231852319309 -0.42706172299373629 0 -0.18660757075879519 -0.40608779889082292 0 -0.1903903066634709 -0.42607522390595381 0 -0.18660757075879519 -0.40608779889082292 0 -0.1653908762390485 -0.40418347023842122 0 -0.17734085620080789 -0.38648015734977359 0 -0.15004008847911021 -0.39524441209292011 0 -0.1653908762390485 -0.40418347023842122 0 -0.1576694339549024 -0.38130521748310658 0 -0.1653908762390485 -0.40418347023842122 0 -0.1576694339549024 -0.38130521748310658 0 -0.1653908762390485 -0.40418347023842122 0 -0.1576694339549024 -0.38130521748310658 0 -0.17734085620080789 -0.38648015734977359 0 -0.1576694339549024 -0.38130521748310658 0 -0.17734085620080789 -0.38648015734977359 0 -0.1692307355042407 -0.36806616573785988 0 -0.17734085620080789 -0.38648015734977359 0 -0.18892229227168661 -0.37622041473678958 0 -0.1692307355042407 -0.36806616573785988 0 -0.20010282299439819 -0.38511387478791009 0 -0.18892229227168661 -0.37622041473678958 0 -0.2085859163844179 -0.37544592282026568 0 -0.17734085620080789 -0.38648015734977359 0 -0.20010282299439819 -0.38511387478791009 0 -0.18892229227168661 -0.37622041473678958 0 -0.18660757075879519 -0.40608779889082292 0 -0.17734085620080789 -0.38648015734977359 0 -0.20010282299439819 -0.38511387478791009 0 -0.18660757075879519 -0.40608779889082292 0 -0.20010282299439819 -0.38511387478791009 0 -0.18660757075879519 -0.40608779889082292 0 -0.20010282299439819 -0.38511387478791009 0 -0.20488189374390209 -0.39655875018359538 0 -0.20488189374390209 -0.39655875018359538 0 -0.21122516912173159 -0.40880642592978073 0 -0.22387150591693411 -0.40272252772724132 0 -0.20488189374390209 -0.39655875018359538 0 -0.22588397094236759 -0.38584602398424611 0 -0.22387150591693411 -0.40272252772724132 0 -0.20488189374390209 -0.39655875018359538 0 -0.2085859163844179 -0.37544592282026568 0 -0.20488189374390209 -0.39655875018359538 0 -0.2085859163844179 -0.37544592282026568 0 -0.22588397094236759 -0.38584602398424611 0 -0.20010282299439819 -0.38511387478791009 0 -0.20488189374390209 -0.39655875018359538 0 -0.2085859163844179 -0.37544592282026568 0 -0.2085859163844179 -0.37544592282026568 0 -0.22588397094236759 -0.38584602398424611 0 -0.19747384846287011 -0.43878440491025489 0 -0.20117787110338689 -0.41767157754692519 0 -0.19747384846287011 -0.43878440491025489 0 -0.1903903066634709 -0.42607522390595381 0 -0.20117787110338689 -0.41767157754692519 0 -0.1935799244691058 -0.44077061518802962 0 -0.19747384846287011 -0.43878440491025489 0 -0.1903903066634709 -0.42607522390595381 0 -0.18660757075879519 -0.40608779889082292 0 -0.1903903066634709 -0.42607522390595381 0 -0.20117787110338689 -0.41767157754692519 0 -0.18660757075879519 -0.40608779889082292 0 -0.20488189374390209 -0.39655875018359538 0 -0.20117787110338689 -0.41767157754692519 0 -0.20488189374390209 -0.39655875018359538 0 -0.20117787110338689 -0.41767157754692519 0 -0.20488189374390209 -0.39655875018359538 0 -0.20117787110338689 -0.41767157754692519 0 -0.21122516912173159 -0.40880642592978073 0 -0.21122516912173159 -0.40880642592978073 0 -0.21584499793019971 -0.42052305805054863 0 -0.2225425391459816 -0.41238455970925442 0 -0.20117787110338689 -0.41767157754692519 0 -0.21122516912173159 -0.40880642592978073 0 -0.21584499793019971 -0.42052305805054863 0 -0.19747384846287011 -0.43878440491025489 0 -0.21797688717185629 -0.42832622794668701 0 -0.19747384846287011 -0.43878440491025489 0 -0.20117787110338689 -0.41767157754692519 0 -0.21797688717185629 -0.42832622794668701 0 -0.21129749525587049 -0.44323143219839573 0 -0.19747384846287011 -0.43878440491025489 0 -0.21797688717185629 -0.42832622794668701 0 -0.20117787110338689 -0.41767157754692519 0 -0.21584499793019971 -0.42052305805054863 0 -0.21797688717185629 -0.42832622794668701 0 -0.21584499793019971 -0.42052305805054863 0 -0.21797688717185629 -0.42832622794668701 0 -0.21584499793019971 -0.42052305805054863 0 -0.21797688717185629 -0.42832622794668701 0 -0.23922848361506099 -0.41748622712944711 0 -0.21797688717185629 -0.42832622794668701 0 -0.23922848361506099 -0.41748622712944711 0 -0.24021521593072201 -0.44032041848444248 0 -0.21797688717185629 -0.42832622794668701 0 -0.23922848361506099 -0.41748622712944711 0 -0.21584499793019971 -0.42052305805054863 0 -0.2225425391459816 -0.41238455970925442 0 -0.23922848361506099 -0.41748622712944711 0 -0.2225425391459816 -0.41238455970925442 0 -0.23922848361506099 -0.41748622712944711 0 -0.22387150591693411 -0.40272252772724132 0 -0.21122516912173159 -0.40880642592978073 0 -0.2225425391459816 -0.41238455970925442 0 -0.22387150591693411 -0.40272252772724132 0 -0.26048008005826639 -0.40664622631220831 0 -0.23922848361506099 -0.41748622712944711 0 -0.26048008005826639 -0.40664622631220831 0 -0.23922848361506099 -0.41748622712944711 0 -0.24318202550031651 -0.39624612514822799 0 -0.25060622239264868 -0.43068886144846652 0 -0.24021521593072201 -0.44032041848444248 0 -0.23922848361506099 -0.41748622712944711 0 -0.2085859163844179 -0.37544592282026568 0 -0.22588397094236759 -0.38584602398424611 0 -0.22928440524020691 -0.37932082885606427 0 -0.22588397094236759 -0.38584602398424611 0 -0.22928440524020691 -0.37932082885606427 0 -0.24318202550031651 -0.39624612514822799 0 -0.22928440524020691 -0.37932082885606427 0 -0.23728226026915131 -0.37750446309912111 0 -0.23376544622612849 -0.37009315482581212 0 -0.22588397094236759 -0.38584602398424611 0 -0.22387150591693411 -0.40272252772724132 0 -0.24318202550031651 -0.39624612514822799 0 -0.22928440524020691 -0.37932082885606427 0 -0.24318202550031651 -0.39624612514822799 0 -0.24754985532100679 -0.3970639891143794 0 -0.23922848361506099 -0.41748622712944711 0 -0.22387150591693411 -0.40272252772724132 0 -0.24318202550031651 -0.39624612514822799 0 -0.22588397094236759 -0.38584602398424611 0 -0.24318202550031651 -0.39624612514822799 0 -0.24754985532100679 -0.3970639891143794 0 -0.2483704375696674 -0.38946062495943862 0 -0.24476483574404559 -0.38691495704665579 0 -0.25368471674856857 -0.39024688062815588 0 -0.24754985532100679 -0.3970639891143794 0 -0.2483704375696674 -0.38946062495943862 0 -0.2483704375696674 -0.38946062495943862 0 -0.2488988270452879 -0.38398328131875142 0 -0.24476483574404559 -0.38691495704665579 0 -0.24754985532100679 -0.3970639891143794 0 -0.24476483574404559 -0.38691495704665579 0 -0.23899281173292031 -0.38441295156713601 0 -0.22928440524020691 -0.37932082885606427 0 -0.24754985532100679 -0.3970639891143794 0 -0.23899281173292031 -0.38441295156713601 0 -0.22928440524020691 -0.37932082885606427 0 -0.24754985532100679 -0.3970639891143794 0 -0.24476483574404559 -0.38691495704665579 0 -0.23899281173292031 -0.38441295156713601 0 -0.24284521621182481 -0.38038715481394991 0 -0.2488988270452879 -0.38398328131875142 0 -0.24476483574404559 -0.38691495704665579 0 -0.24284521621182481 -0.38038715481394991 0 -0.22928440524020691 -0.37932082885606427 0 -0.23899281173292031 -0.38441295156713601 0 -0.23728226026915131 -0.37750446309912111 0 -0.23899281173292031 -0.38441295156713601 0 -0.23728226026915131 -0.37750446309912111 0 -0.24284521621182481 -0.38038715481394991 0 -0.23728226026915131 -0.37750446309912111 0 -0.24284521621182481 -0.38038715481394991 0 -0.2415234219346761 -0.37330822543264308 0 -0.25090887138991741 -0.37434439095463218 0 -0.2488988270452879 -0.38398328131875142 0 -0.24284521621182481 -0.38038715481394991 0 -0.25090887138991741 -0.37434439095463218 0 -0.24284521621182481 -0.38038715481394991 0 -0.2415234219346761 -0.37330822543264308 0 -0.25090887138991741 -0.37434439095463218 0 -0.24381440695836001 -0.3646605432011934 0 -0.2415234219346761 -0.37330822543264308 0 -0.24381440695836001 -0.3646605432011934 0 -0.23376544622612849 -0.37009315482581212 0 -0.2337643236483925 -0.35702526191069711 0 -0.24381440695836001 -0.3646605432011934 0 -0.2415234219346761 -0.37330822543264308 0 -0.23376544622612849 -0.37009315482581212 0 -0.23728226026915131 -0.37750446309912111 0 -0.2415234219346761 -0.37330822543264308 0 -0.23376544622612849 -0.37009315482581212 0 -0.22928440524020691 -0.37932082885606427 0 -0.23376544622612849 -0.37009315482581212 0 -0.2255729772771542 -0.363940476225524 0 -0.22928440524020691 -0.37932082885606427 0 -0.21101895515940619 -0.36157766859775009 0 -0.22928440524020691 -0.37932082885606427 0 -0.2255729772771542 -0.363940476225524 0 -0.21101895515940619 -0.36157766859775009 0 -0.23376544622612849 -0.37009315482581212 0 -0.2255729772771542 -0.363940476225524 0 -0.2337643236483925 -0.35702526191069711 0 -0.2233546700865254 -0.35237136644840228 0 -0.23117103256556909 -0.34183014861169309 0 -0.2152460617821049 -0.33748327689634722 0 -0.2255729772771542 -0.363940476225524 0 -0.2233546700865254 -0.35237136644840228 0 -0.21101895515940619 -0.36157766859775009 0 -0.2255729772771542 -0.363940476225524 0 -0.2233546700865254 -0.35237136644840228 0 -0.2337643236483925 -0.35702526191069711 0 -0.2233546700865254 -0.35237136644840228 0 -0.2337643236483925 -0.35702526191069711 0 -0.23117103256556909 -0.34183014861169309 0 -0.2337643236483925 -0.35702526191069711 0 -0.24624540423146091 -0.35079766778937099 0 -0.23117103256556909 -0.34183014861169309 0 -0.24381440695836001 -0.3646605432011934 0 -0.2337643236483925 -0.35702526191069711 0 -0.24624540423146091 -0.35079766778937099 0 -0.25742178503506652 -0.36173700810592779 0 -0.24381440695836001 -0.3646605432011934 0 -0.24624540423146091 -0.35079766778937099 0 -0.25925010288925088 -0.34457708341817961 0 -0.24624540423146091 -0.35079766778937099 0 -0.24373079363408709 -0.33509573232901879 0 -0.24624540423146091 -0.35079766778937099 0 -0.24373079363408709 -0.33509573232901879 0 -0.23117103256556909 -0.34183014861169309 0 -0.24373079363408709 -0.33509573232901879 0 -0.23117103256556909 -0.34183014861169309 0 -0.22877288978148211 -0.32881128307717178 0 -0.25957388569728029 -0.32647200119809222 0 -0.24373079363408709 -0.33509573232901879 0 -0.23952352705104349 -0.31993044319651559 0 -0.25957388569728029 -0.32647200119809222 0 -0.23952352705104349 -0.31993044319651559 0 -0.24688355174196661 -0.3052802946029784 0 -0.25957388569728029 -0.32647200119809222 0 -0.23952352705104349 -0.31993044319651559 0 -0.24373079363408709 -0.33509573232901879 0 -0.23952352705104349 -0.31993044319651559 0 -0.22877288978148211 -0.32881128307717178 0 -0.21947316840480491 -0.31338888519494462 0 -0.22877288978148211 -0.32881128307717178 0 -0.2152460617821049 -0.33748327689634722 0 -0.23952352705104349 -0.31993044319651559 0 -0.21947316840480491 -0.31338888519494462 0 -0.23952352705104349 -0.31993044319651559 0 -0.21947316840480491 -0.31338888519494462 0 -0.22877288978148211 -0.32881128307717178 0 -0.23117103256556909 -0.34183014861169309 0 -0.22877288978148211 -0.32881128307717178 0 -0.2152460617821049 -0.33748327689634722 0 -0.2152460617821049 -0.33748327689634722 0 -0.20071683304783591 -0.33465247011980143 0 -0.19853084049726169 -0.34944664424332761 0 -0.2152460617821049 -0.33748327689634722 0 -0.20735164608924411 -0.32298273876006378 0 -0.20071683304783591 -0.33465247011980143 0 -0.21947316840480491 -0.31338888519494462 0 -0.2152460617821049 -0.33748327689634722 0 -0.20735164608924411 -0.32298273876006378 0 -0.21947316840480491 -0.31338888519494462 0 -0.2152460617821049 -0.33748327689634722 0 -0.21947316840480491 -0.31338888519494462 0 -0.20735164608924411 -0.32298273876006378 0 -0.20471727752208191 -0.30857468123094117 0 -0.1966048896893931 -0.3208143803582848 0 -0.18604272583511641 -0.33731561988890579 0 -0.1845125275782705 -0.32064745323250798 0 -0.1966048896893931 -0.3208143803582848 0 -0.20471727752208191 -0.30857468123094117 0 -0.1966048896893931 -0.3208143803582848 0 -0.20471727752208191 -0.30857468123094117 0 -0.19156246449257761 -0.31195678647907998 0 -0.20735164608924411 -0.32298273876006378 0 -0.1966048896893931 -0.3208143803582848 0 -0.20471727752208191 -0.30857468123094117 0 -0.20735164608924411 -0.32298273876006378 0 -0.1966048896893931 -0.3208143803582848 0 -0.20071683304783591 -0.33465247011980143 0 -0.1966048896893931 -0.3208143803582848 0 -0.19156246449257761 -0.31195678647907998 0 -0.1845125275782705 -0.32064745323250798 0 -0.1966048896893931 -0.3208143803582848 0 -0.20071683304783591 -0.33465247011980143 0 -0.18604272583511641 -0.33731561988890579 0 -0.20071683304783591 -0.33465247011980143 0 -0.19853084049726169 -0.34944664424332761 0 -0.18604272583511641 -0.33731561988890579 0 -0.19853084049726169 -0.34944664424332761 0 -0.18604272583511641 -0.33731561988890579 0 -0.19853084049726169 -0.34944664424332761 0 -0.18468680308997101 -0.34922132293380798 0 -0.18604272583511641 -0.33731561988890579 0 -0.19853084049726169 -0.34944664424332761 0 -0.1981435604981274 -0.35967013707552947 0 -0.21101895515940619 -0.36157766859775009 0 -0.1981435604981274 -0.35967013707552947 0 -0.18646612738514939 -0.36214685253766848 0 -0.18468680308997101 -0.34922132293380798 0 -0.19853084049726169 -0.34944664424332761 0 -0.1981435604981274 -0.35967013707552947 0 -0.18468680308997101 -0.34922132293380798 0 -0.2085859163844179 -0.37544592282026568 0 -0.1981435604981274 -0.35967013707552947 0 -0.18646612738514939 -0.36214685253766848 0 -0.18892229227168661 -0.37622041473678958 0 -0.2085859163844179 -0.37544592282026568 0 -0.18646612738514939 -0.36214685253766848 0 -0.2085859163844179 -0.37544592282026568 0 -0.18646612738514939 -0.36214685253766848 0 -0.2085859163844179 -0.37544592282026568 0 -0.1981435604981274 -0.35967013707552947 0 -0.21101895515940619 -0.36157766859775009 0 -0.2085859163844179 -0.37544592282026568 0 -0.22928440524020691 -0.37932082885606427 0 -0.21101895515940619 -0.36157766859775009 0 -0.2085859163844179 -0.37544592282026568 0 -0.21101895515940619 -0.36157766859775009 0 -0.2233546700865254 -0.35237136644840228 0 -0.2152460617821049 -0.33748327689634722 0 -0.21101895515940619 -0.36157766859775009 0 -0.2152460617821049 -0.33748327689634722 0 -0.19853084049726169 -0.34944664424332761 0 -0.21101895515940619 -0.36157766859775009 0 -0.2152460617821049 -0.33748327689634722 0 -0.21101895515940619 -0.36157766859775009 0 -0.19853084049726169 -0.34944664424332761 0 -0.21101895515940619 -0.36157766859775009 0 -0.23838471254159249 -0.25382708185242608 0 -0.213906627972692 -0.25979180294998538 0 -0.22441584723821559 -0.24466846318819871 0 -0.23901631857675831 -0.25682543655429402 0 -0.2264088517889396 -0.27584716029623579 0 -0.213906627972692 -0.25979180294998538 0 -0.23838471254159249 -0.25382708185242608 0 -0.213906627972692 -0.25979180294998538 0 -0.23901631857675831 -0.25682543655429402 0 -0.23838471254159249 -0.25382708185242608 0 -0.213906627972692 -0.25979180294998538 0 -0.23901631857675831 -0.25682543655429402 0 -0.24738714355606559 -0.26170102317732241 0 -0.24289862655948749 -0.27525549539798699 0 -0.23901631857675831 -0.25682543655429402 0 -0.23838471254159249 -0.25382708185242608 0 -0.23901631857675831 -0.25682543655429402 0 -0.23838471254159249 -0.25382708185242608 0 -0.24150804688605401 -0.25306600031409049 0 -0.23901631857675831 -0.25682543655429402 0 -0.24150804688605401 -0.25306600031409049 0 -0.23838471254159249 -0.25382708185242608 0 -0.24150804688605401 -0.25306600031409049 0 -0.24150804688605401 -0.25306600031409049 0 -0.24951370693373881 -0.25111521330492559 0 -0.24150804688605401 -0.25306600031409049 0 -0.24625503687005809 -0.25581876547728089 0 -0.24951370693373881 -0.25111521330492559 0 -0.23901631857675831 -0.25682543655429402 0 -0.24150804688605401 -0.25306600031409049 0 -0.24625503687005809 -0.25581876547728089 0 -0.25384996839767199 -0.25638615403576931 0 -0.24625503687005809 -0.25581876547728089 0 -0.24951370693373881 -0.25111521330492559 0 -0.23901631857675831 -0.25682543655429402 0 -0.24625503687005809 -0.25581876547728089 0 -0.24738714355606559 -0.26170102317732241 0 -0.25384996839767199 -0.25638615403576931 0 -0.24625503687005809 -0.25581876547728089 0 -0.24738714355606559 -0.26170102317732241 0 -0.23901631857675831 -0.25682543655429402 0 -0.24289862655948749 -0.27525549539798699 0 -0.23901631857675831 -0.25682543655429402 0 -0.24289862655948749 -0.27525549539798699 0 -0.2264088517889396 -0.27584716029623579 0 -0.24289862655948749 -0.27525549539798699 0 -0.2264088517889396 -0.27584716029623579 0 -0.23417359624719411 -0.28283049699205948 0 -0.25445030499035098 -0.26478376377764218 0 -0.24738714355606559 -0.26170102317732241 0 -0.24289862655948749 -0.27525549539798699 0 -0.23901631857675831 -0.25682543655429402 0 -0.2264088517889396 -0.27584716029623579 0 -0.2264088517889396 -0.27584716029623579 0 -0.22493580530597951 -0.28225200482559759 0 -0.23417359624719411 -0.28283049699205948 0 -0.2264088517889396 -0.27584716029623579 0 -0.21380138500111859 -0.29486888403817613 0 -0.2264088517889396 -0.27584716029623579 0 -0.22493580530597951 -0.28225200482559759 0 -0.21380138500111859 -0.29486888403817613 0 -0.22493580530597951 -0.28225200482559759 0 -0.2215481075435379 -0.29318061525472389 0 -0.22220448685539179 -0.297820445010271 0 -0.22493580530597951 -0.28225200482559759 0 -0.22220448685539179 -0.297820445010271 0 -0.22493580530597951 -0.28225200482559759 0 -0.23103402277055871 -0.29119528293286001 0 -0.22220448685539179 -0.297820445010271 0 -0.22493580530597951 -0.28225200482559759 0 -0.2215481075435379 -0.29318061525472389 0 -0.21380138500111859 -0.29486888403817613 0 -0.2215481075435379 -0.29318061525472389 0 -0.22220448685539179 -0.297820445010271 0 -0.21380138500111859 -0.29486888403817613 0 -0.22493580530597951 -0.28225200482559759 0 -0.23103402277055871 -0.29119528293286001 0 -0.23417359624719411 -0.28283049699205948 0 -0.24289862655948749 -0.27525549539798699 0 -0.23417359624719411 -0.28283049699205948 0 -0.23995413891638021 -0.29154019307988649 0 -0.25171342304095778 -0.29287874859386742 0 -0.24289862655948749 -0.27525549539798699 0 -0.23995413891638021 -0.29154019307988649 0 -0.23103402277055871 -0.29119528293286001 0 -0.23417359624719411 -0.28283049699205948 0 -0.23995413891638021 -0.29154019307988649 0 -0.25171342304095778 -0.29287874859386742 0 -0.23995413891638021 -0.29154019307988649 0 -0.24688355174196661 -0.3052802946029784 0 -0.23103402277055871 -0.29119528293286001 0 -0.23995413891638021 -0.29154019307988649 0 -0.2329579142063776 -0.30257758405625301 0 -0.23995413891638021 -0.29154019307988649 0 -0.24688355174196661 -0.3052802946029784 0 -0.2329579142063776 -0.30257758405625301 0 -0.23952352705104349 -0.31993044319651559 0 -0.24688355174196661 -0.3052802946029784 0 -0.2329579142063776 -0.30257758405625301 0 -0.23952352705104349 -0.31993044319651559 0 -0.21947316840480491 -0.31338888519494462 0 -0.2329579142063776 -0.30257758405625301 0 -0.23103402277055871 -0.29119528293286001 0 -0.2329579142063776 -0.30257758405625301 0 -0.22220448685539179 -0.297820445010271 0 -0.21947316840480491 -0.31338888519494462 0 -0.2329579142063776 -0.30257758405625301 0 -0.22220448685539179 -0.297820445010271 0 -0.21947316840480491 -0.31338888519494462 0 -0.22220448685539179 -0.297820445010271 0 -0.21510379903468119 -0.30459851488900291 0 -0.21947316840480491 -0.31338888519494462 0 -0.22220448685539179 -0.297820445010271 0 -0.21947316840480491 -0.31338888519494462 0 -0.21510379903468119 -0.30459851488900291 0 -0.20471727752208191 -0.30857468123094117 0 -0.21947316840480491 -0.31338888519494462 0 -0.20471727752208191 -0.30857468123094117 0 -0.21510379903468119 -0.30459851488900291 0 -0.20471727752208191 -0.30857468123094117 0 -0.21380138500111859 -0.29486888403817613 0 -0.22220448685539179 -0.297820445010271 0 -0.21510379903468119 -0.30459851488900291 0 -0.21380138500111859 -0.29486888403817613 0 -0.20471727752208191 -0.30857468123094117 0 -0.21380138500111859 -0.29486888403817613 0 -0.20471727752208191 -0.30857468123094117 0 -0.19848545260762149 -0.29820673567901668 0 -0.21380138500111859 -0.29486888403817613 0 -0.20471727752208191 -0.30857468123094117 0 -0.19848545260762149 -0.29820673567901668 0 -0.18316952021412511 -0.30154458731986011 0 -0.20471727752208191 -0.30857468123094117 0 -0.18316952021412511 -0.30154458731986011 0 -0.20471727752208191 -0.30857468123094117 0 -0.19156246449257761 -0.31195678647907998 0 -0.18316952021412511 -0.30154458731986011 0 -0.19848545260762149 -0.29820673567901668 0 -0.18316952021412511 -0.30154458731986011 0 -0.19848545260762149 -0.29820673567901668 0 -0.18299326393264961 -0.29317342771380223 0 -0.18316952021412511 -0.30154458731986011 0 -0.19848545260762149 -0.29820673567901668 0 -0.2045684740103382 -0.27964546244122962 0 -0.18537998328786451 -0.2834016676364175 0 -0.19848545260762149 -0.29820673567901668 0 -0.18537998328786451 -0.2834016676364175 0 -0.18299326393264961 -0.29317342771380223 0 -0.2264088517889396 -0.27584716029623579 0 -0.21380138500111859 -0.29486888403817613 0 -0.2045684740103382 -0.27964546244122962 0 -0.19848545260762149 -0.29820673567901668 0 -0.21380138500111859 -0.29486888403817613 0 -0.2045684740103382 -0.27964546244122962 0 -0.19848545260762149 -0.29820673567901668 0 -0.21380138500111859 -0.29486888403817613 0 -0.2215481075435379 -0.29318061525472389 0 -0.21380138500111859 -0.29486888403817613 0 -0.2264088517889396 -0.27584716029623579 0 -0.2045684740103382 -0.27964546244122962 0 -0.213906627972692 -0.25979180294998538 0 -0.2045684740103382 -0.27964546244122962 0 -0.18942854340379159 -0.26575652404754491 0 -0.213906627972692 -0.25979180294998538 0 -0.2045684740103382 -0.27964546244122962 0 -0.18942854340379159 -0.26575652404754491 0 -0.18537998328786451 -0.2834016676364175 0 -0.18942854340379159 -0.26575652404754491 0 -0.19924082634182641 -0.2516805601160656 0 -0.213906627972692 -0.25979180294998538 0 -0.18942854340379159 -0.26575652404754491 0 -0.213906627972692 -0.25979180294998538 0 -0.18942854340379159 -0.26575652404754491 0 -0.19924082634182641 -0.2516805601160656 0 -0.18578127563206531 -0.26027945198664137 0 -0.19924082634182641 -0.2516805601160656 0 -0.213906627972692 -0.25979180294998538 0 -0.21111098704634379 -0.23899428896402469 0 -0.16740625420125729 -0.25150541185997699 0 -0.17712716582420771 -0.26041298676599328 0 -0.16495045883489121 -0.27172124514510432 0 -0.16740625420125729 -0.25150541185997699 0 -0.15079485233452269 -0.25897635658865781 0 -0.1533738733674842 -0.24456282998601989 0 -0.16740625420125729 -0.25150541185997699 0 -0.16495045883489121 -0.27172124514510432 0 -0.15079485233452269 -0.25897635658865781 0 -0.16740625420125729 -0.25150541185997699 0 -0.1780692970490331 -0.25280230079069899 0 -0.17712716582420771 -0.26041298676599328 0 -0.1780692970490331 -0.25280230079069899 0 -0.18578127563206531 -0.26027945198664137 0 -0.1816914759277479 -0.2425430722460537 0 -0.1780692970490331 -0.25280230079069899 0 -0.18578127563206531 -0.26027945198664137 0 -0.17712716582420771 -0.26041298676599328 0 -0.18942854340379159 -0.26575652404754491 0 -0.18578127563206531 -0.26027945198664137 0 -0.17712716582420771 -0.26041298676599328 0 -0.18942854340379159 -0.26575652404754491 0 -0.16495045883489121 -0.27172124514510432 0 -0.18942854340379159 -0.26575652404754491 0 -0.17712716582420771 -0.26041298676599328 0 -0.16495045883489121 -0.27172124514510432 0 -0.18942854340379159 -0.26575652404754491 0 -0.16495045883489121 -0.27172124514510432 0 -0.18537998328786451 -0.2834016676364175 0 -0.16495045883489121 -0.27172124514510432 0 -0.16798135351964669 -0.29006221369342899 0 -0.15400729342832231 -0.28339580161425071 0 -0.16798135351964669 -0.29006221369342899 0 -0.1692556844884312 -0.30457687541138428 0 -0.1426249870927607 -0.29411378137580602 0 -0.16798135351964669 -0.29006221369342899 0 -0.18537998328786451 -0.2834016676364175 0 -0.18299326393264961 -0.29317342771380223 0 -0.16495045883489121 -0.27172124514510432 0 -0.16798135351964669 -0.29006221369342899 0 -0.18537998328786451 -0.2834016676364175 0 -0.16798135351964669 -0.29006221369342899 0 -0.18299326393264961 -0.29317342771380223 0 -0.1778625242028275 -0.29981314586115387 0 -0.18316952021412511 -0.30154458731986011 0 -0.1692556844884312 -0.30457687541138428 0 -0.1778625242028275 -0.29981314586115387 0 -0.18316952021412511 -0.30154458731986011 0 -0.1692556844884312 -0.30457687541138428 0 -0.18299326393264961 -0.29317342771380223 0 -0.1778625242028275 -0.29981314586115387 0 -0.18316952021412511 -0.30154458731986011 0 -0.1778625242028275 -0.29981314586115387 0 -0.18316952021412511 -0.30154458731986011 0 -0.19156246449257761 -0.31195678647907998 0 -0.18316952021412511 -0.30154458731986011 0 -0.1824762192295166 -0.30977117040641677 0 -0.18316952021412511 -0.30154458731986011 0 -0.1824762192295166 -0.30977117040641677 0 -0.1692556844884312 -0.30457687541138428 0 -0.1824762192295166 -0.30977117040641677 0 -0.1692556844884312 -0.30457687541138428 0 -0.17324505863120659 -0.31697262222757411 0 -0.1824762192295166 -0.30977117040641677 0 -0.1692556844884312 -0.30457687541138428 0 -0.1692556844884312 -0.30457687541138428 0 -0.14843836286637149 -0.30911366294406312 0 -0.1692556844884312 -0.30457687541138428 0 -0.14843836286637149 -0.30911366294406312 0 -0.16132035612742621 -0.31677708954744149 0 -0.16798135351964669 -0.29006221369342899 0 -0.1778625242028275 -0.29981314586115387 0 -0.1692556844884312 -0.30457687541138428 0 -0.1692556844884312 -0.30457687541138428 0 -0.1426249870927607 -0.29411378137580602 0 -0.1692556844884312 -0.30457687541138428 0 -0.14843836286637149 -0.30911366294406312 0 -0.1426249870927607 -0.29411378137580602 0 -0.1426249870927607 -0.29411378137580602 0 -0.12762104124431159 -0.31365045047674051 0 -0.1237812469020399 -0.29805837773113042 0 -0.14843836286637149 -0.30911366294406312 0 -0.1426249870927607 -0.29411378137580602 0 -0.12762104124431159 -0.31365045047674051 0 -0.14843836286637149 -0.30911366294406312 0 -0.12762104124431159 -0.31365045047674051 0 -0.1426249870927607 -0.29411378137580602 0 -0.14047237426599071 -0.27768596624266367 0 -0.1159942896970909 -0.28365068734022569 0 -0.1426249870927607 -0.29411378137580602 0 -0.1159942896970909 -0.28365068734022569 0 -0.1426249870927607 -0.29411378137580602 0 -0.1159942896970909 -0.28365068734022569 0 -0.1237812469020399 -0.29805837773113042 0 -0.1426249870927607 -0.29411378137580602 0 -0.15400729342832231 -0.28339580161425071 0 -0.14047237426599071 -0.27768596624266367 0 -0.16798135351964669 -0.29006221369342899 0 -0.1426249870927607 -0.29411378137580602 0 -0.15400729342832231 -0.28339580161425071 0 -0.16495045883489121 -0.27172124514510432 0 -0.14047237426599071 -0.27768596624266367 0 -0.16495045883489121 -0.27172124514510432 0 -0.14047237426599071 -0.27768596624266367 0 -0.15079485233452269 -0.25897635658865781 0 -0.16495045883489121 -0.27172124514510432 0 -0.15400729342832231 -0.28339580161425071 0 -0.14047237426599071 -0.27768596624266367 0 -0.14047237426599071 -0.27768596624266367 0 -0.1159942896970909 -0.28365068734022569 0 -0.14047237426599071 -0.27768596624266367 0 -0.12687257305997829 -0.27179279243442561 0 -0.1159942896970909 -0.28365068734022569 0 -0.12687257305997829 -0.27179279243442561 0 -0.13362675178396591 -0.25875165604669192 0 -0.11739687649286661 -0.26708286010812332 0 -0.14047237426599071 -0.27768596624266367 0 -0.12687257305997829 -0.27179279243442561 0 -0.13362675178396591 -0.25875165604669192 0 -0.13362675178396591 -0.25875165604669192 0 -0.15079485233452269 -0.25897635658865781 0 -0.14095758992927279 -0.24453912381761109 0 -0.14047237426599071 -0.27768596624266367 0 -0.13362675178396591 -0.25875165604669192 0 -0.15079485233452269 -0.25897635658865781 0 -0.16434633838588 -0.34884778225507268 0 -0.1692307355042407 -0.36806616573785988 0 -0.14994799167075629 -0.35842696472779201 0 -0.1576694339549024 -0.38130521748310658 0 -0.1692307355042407 -0.36806616573785988 0 -0.14994799167075629 -0.35842696472779201 0 -0.16434633838588 -0.34884778225507268 0 -0.1692307355042407 -0.36806616573785988 0 -0.18646612738514939 -0.36214685253766848 0 -0.18892229227168661 -0.37622041473678958 0 -0.1692307355042407 -0.36806616573785988 0 -0.18646612738514939 -0.36214685253766848 0 -0.16434633838588 -0.34884778225507268 0 -0.18646612738514939 -0.36214685253766848 0 -0.16434633838588 -0.34884778225507268 0 -0.18646612738514939 -0.36214685253766848 0 -0.18468680308997101 -0.34922132293380798 0 -0.16434633838588 -0.34884778225507268 0 -0.18468680308997101 -0.34922132293380798 0 -0.17459122593829149 -0.33790090160234382 0 -0.18468680308997101 -0.34922132293380798 0 -0.18604272583511641 -0.33731561988890579 0 -0.17459122593829149 -0.33790090160234382 0 -0.18604272583511641 -0.33731561988890579 0 -0.1845125275782705 -0.32064745323250798 0 -0.17641767362053959 -0.32723399555687532 0 -0.18604272583511641 -0.33731561988890579 0 -0.17459122593829149 -0.33790090160234382 0 -0.17641767362053959 -0.32723399555687532 0 -0.17459122593829149 -0.33790090160234382 0 -0.17641767362053959 -0.32723399555687532 0 -0.1647067795084852 -0.32707436309422078 0 -0.1824762192295166 -0.30977117040641677 0 -0.1845125275782705 -0.32064745323250798 0 -0.17324505863120659 -0.31697262222757411 0 -0.19156246449257761 -0.31195678647907998 0 -0.1824762192295166 -0.30977117040641677 0 -0.1845125275782705 -0.32064745323250798 0 -0.1845125275782705 -0.32064745323250798 0 -0.17641767362053959 -0.32723399555687532 0 -0.17324505863120659 -0.31697262222757411 0 -0.17324505863120659 -0.31697262222757411 0 -0.1647067795084852 -0.32707436309422078 0 -0.16132035612742621 -0.31677708954744149 0 -0.1692556844884312 -0.30457687541138428 0 -0.17324505863120659 -0.31697262222757411 0 -0.16132035612742621 -0.31677708954744149 0 -0.17641767362053959 -0.32723399555687532 0 -0.17324505863120659 -0.31697262222757411 0 -0.1647067795084852 -0.32707436309422078 0 -0.1647067795084852 -0.32707436309422078 0 -0.16132035612742621 -0.31677708954744149 0 -0.1509558951426363 -0.32614792405996601 0 -0.16434633838588 -0.34884778225507268 0 -0.17459122593829149 -0.33790090160234382 0 -0.1647067795084852 -0.32707436309422078 0 -0.16434633838588 -0.34884778225507268 0 -0.1647067795084852 -0.32707436309422078 0 -0.1509558951426363 -0.32614792405996601 0 -0.16434633838588 -0.34884778225507268 0 -0.14222654938661039 -0.33554871197247732 0 -0.1509558951426363 -0.32614792405996601 0 -0.16434633838588 -0.34884778225507268 0 -0.14222654938661039 -0.33554871197247732 0 -0.14222654938661039 -0.33554871197247732 0 -0.1509558951426363 -0.32614792405996601 0 -0.14029116016992249 -0.32981424915453961 0 -0.14222654938661039 -0.33554871197247732 0 -0.14029116016992249 -0.32981424915453961 0 -0.14843836286637149 -0.30911366294406312 0 -0.16132035612742621 -0.31677708954744149 0 -0.1509558951426363 -0.32614792405996601 0 -0.14843836286637149 -0.30911366294406312 0 -0.1509558951426363 -0.32614792405996601 0 -0.14059668373201981 -0.32011015479227839 0 -0.1509558951426363 -0.32614792405996601 0 -0.14059668373201981 -0.32011015479227839 0 -0.14029116016992249 -0.32981424915453961 0 -0.14843836286637149 -0.30911366294406312 0 -0.14059668373201981 -0.32011015479227839 0 -0.12762104124431159 -0.31365045047674051 0 -0.14059668373201981 -0.32011015479227839 0 -0.1326200647537768 -0.32476823172436609 0 -0.12762104124431159 -0.31365045047674051 0 -0.14059668373201981 -0.32011015479227839 0 -0.1326200647537768 -0.32476823172436609 0 -0.14029116016992249 -0.32981424915453961 0 -0.1326200647537768 -0.32476823172436609 0 -0.12762104124431159 -0.31365045047674051 0 -0.1207580513520491 -0.32605675128030498 0 -0.14222654938661039 -0.33554871197247732 0 -0.13501131998349189 -0.33977451581560741 0 -0.13416792717234349 -0.34747769915049009 0 -0.14222654938661039 -0.33554871197247732 0 -0.13501131998349189 -0.33977451581560741 0 -0.1355749872068637 -0.33397321874610941 0 -0.14222654938661039 -0.33554871197247732 0 -0.14029116016992249 -0.32981424915453961 0 -0.1355749872068637 -0.33397321874610941 0 -0.1326200647537768 -0.32476823172436609 0 -0.14029116016992249 -0.32981424915453961 0 -0.1355749872068637 -0.33397321874610941 0 -0.13501131998349189 -0.33977451581560741 0 -0.1355749872068637 -0.33397321874610941 0 -0.12877918427314991 -0.33373986279425788 0 -0.1326200647537768 -0.32476823172436609 0 -0.1355749872068637 -0.33397321874610941 0 -0.12877918427314991 -0.33373986279425788 0 -0.1326200647537768 -0.32476823172436609 0 -0.12877918427314991 -0.33373986279425788 0 -0.1207580513520491 -0.32605675128030498 0 -0.12877918427314991 -0.33373986279425788 0 -0.1270291813799303 -0.34128928146032089 0 -0.1194890649526035 -0.33630657441892647 0 -0.13501131998349189 -0.33977451581560741 0 -0.12877918427314991 -0.33373986279425788 0 -0.1270291813799303 -0.34128928146032089 0 -0.13501131998349189 -0.33977451581560741 0 -0.1270291813799303 -0.34128928146032089 0 -0.13416792717234349 -0.34747769915049009 0 -0.12702733965907961 -0.35762360973064872 0 -0.13416792717234349 -0.34747769915049009 0 -0.1208197902452622 -0.34828668463108348 0 -0.1270291813799303 -0.34128928146032089 0 -0.13416792717234349 -0.34747769915049009 0 -0.1208197902452622 -0.34828668463108348 0 -0.12702733965907961 -0.35762360973064872 0 -0.13416792717234349 -0.34747769915049009 0 -0.14994799167075629 -0.35842696472779201 0 -0.14222654938661039 -0.33554871197247732 0 -0.13416792717234349 -0.34747769915049009 0 -0.14994799167075629 -0.35842696472779201 0 -0.16434633838588 -0.34884778225507268 0 -0.14222654938661039 -0.33554871197247732 0 -0.14994799167075629 -0.35842696472779201 0 -0.14222654938661039 -0.33554871197247732 0 -0.14994799167075629 -0.35842696472779201 0 -0.1576694339549024 -0.38130521748310658 0 -0.14994799167075629 -0.35842696472779201 0 -0.13797182857012899 -0.38581825287213128 0 -0.14994799167075629 -0.35842696472779201 0 -0.12945893317934351 -0.37053440492462908 0 -0.12702733965907961 -0.35762360973064872 0 -0.14994799167075629 -0.35842696472779201 0 -0.12945893317934351 -0.37053440492462908 0 -0.12945893317934351 -0.37053440492462908 0 -0.1144467343406686 -0.36783416049032869 0 -0.1164518684188956 -0.38502674592336172 0 -0.12702733965907961 -0.35762360973064872 0 -0.1144467343406686 -0.36783416049032869 0 -0.1108823906495417 -0.35477103676249372 0 -0.12702733965907961 -0.35762360973064872 0 -0.12945893317934351 -0.37053440492462908 0 -0.1144467343406686 -0.36783416049032869 0 -0.1144467343406686 -0.36783416049032869 0 -0.1018280935565293 -0.36285595767647832 0 -0.1005395162664974 -0.37594072643823562 0 -0.1144467343406686 -0.36783416049032869 0 -0.1018280935565293 -0.36285595767647832 0 -0.1108823906495417 -0.35477103676249372 0 -0.1018280935565293 -0.36285595767647832 0 -0.096283651219647493 -0.35156690327999918 0 -0.086988175306291396 -0.3641669614113342 0 -0.1018280935565293 -0.36285595767647832 0 -0.086988175306291396 -0.3641669614113342 0 -0.1005395162664974 -0.37594072643823562 0 -0.096283651219647493 -0.35156690327999918 0 -0.1078135276466273 -0.34303735438688338 0 -0.089799047230678372 -0.33781884330120771 0 -0.1018280935565293 -0.36285595767647832 0 -0.096283651219647493 -0.35156690327999918 0 -0.1108823906495417 -0.35477103676249372 0 -0.096283651219647493 -0.35156690327999918 0 -0.1108823906495417 -0.35477103676249372 0 -0.1078135276466273 -0.34303735438688338 0 -0.12702733965907961 -0.35762360973064872 0 -0.1108823906495417 -0.35477103676249372 0 -0.1208197902452622 -0.34828668463108348 0 -0.1108823906495417 -0.35477103676249372 0 -0.1208197902452622 -0.34828668463108348 0 -0.1078135276466273 -0.34303735438688338 0 -0.1270291813799303 -0.34128928146032089 0 -0.1208197902452622 -0.34828668463108348 0 -0.1194890649526035 -0.33630657441892647 0 -0.12877918427314991 -0.33373986279425788 0 -0.1194890649526035 -0.33630657441892647 0 -0.1207580513520491 -0.32605675128030498 0 -0.1194890649526035 -0.33630657441892647 0 -0.1207580513520491 -0.32605675128030498 0 -0.1063763903520438 -0.33064440402729528 0 -0.1194890649526035 -0.33630657441892647 0 -0.1078135276466273 -0.34303735438688338 0 -0.1063763903520438 -0.33064440402729528 0 -0.1208197902452622 -0.34828668463108348 0 -0.1194890649526035 -0.33630657441892647 0 -0.1078135276466273 -0.34303735438688338 0 -0.12762104124431159 -0.31365045047674051 0 -0.1068037196222516 -0.31818723800941778 0 -0.12762104124431159 -0.31365045047674051 0 -0.1207580513520491 -0.32605675128030498 0 -0.1068037196222516 -0.31818723800941778 0 -0.1207580513520491 -0.32605675128030498 0 -0.1068037196222516 -0.31818723800941778 0 -0.1063763903520438 -0.33064440402729528 0 -0.1068037196222516 -0.31818723800941778 0 -0.093594931308052909 -0.32245966276703142 0 -0.090427990852372811 -0.30758426527268939 0 -0.1068037196222516 -0.31818723800941778 0 -0.1063763903520438 -0.33064440402729528 0 -0.093594931308052909 -0.32245966276703142 0 -0.1063763903520438 -0.33064440402729528 0 -0.089799047230678372 -0.33781884330120771 0 -0.093594931308052909 -0.32245966276703142 0 -0.1078135276466273 -0.34303735438688338 0 -0.1063763903520438 -0.33064440402729528 0 -0.089799047230678372 -0.33781884330120771 0 -0.093594931308052909 -0.32245966276703142 0 -0.071708665568760557 -0.31901981699372051 0 -0.090427990852372811 -0.30758426527268939 0 -0.089799047230678372 -0.33781884330120771 0 -0.093594931308052909 -0.32245966276703142 0 -0.071708665568760557 -0.31901981699372051 0 -0.089799047230678372 -0.33781884330120771 0 -0.071708665568760557 -0.31901981699372051 0 -0.064338814422802537 -0.34196069045552741 0 -0.064338814422802537 -0.34196069045552741 0 -0.066787924546312993 -0.36224480987609348 0 -0.080839522545146564 -0.35155164166483238 0 -0.066787924546312993 -0.36224480987609348 0 -0.076803281138494578 -0.37322591177850678 0 -0.066961244388347885 -0.38382060041625082 0 -0.066787924546312993 -0.36224480987609348 0 -0.076803281138494578 -0.37322591177850678 0 -0.086988175306291396 -0.3641669614113342 0 -0.076803281138494578 -0.37322591177850678 0 -0.086988175306291396 -0.3641669614113342 0 -0.08539621561470008 -0.38438905652344019 0 -0.086988175306291396 -0.3641669614113342 0 -0.1005395162664974 -0.37594072643823562 0 -0.08539621561470008 -0.38438905652344019 0 -0.096283651219647493 -0.35156690327999918 0 -0.086988175306291396 -0.3641669614113342 0 -0.080839522545146564 -0.35155164166483238 0 -0.066787924546312993 -0.36224480987609348 0 -0.086988175306291396 -0.3641669614113342 0 -0.080839522545146564 -0.35155164166483238 0 -0.089799047230678372 -0.33781884330120771 0 -0.064338814422802537 -0.34196069045552741 0 -0.080839522545146564 -0.35155164166483238 0 -0.096283651219647493 -0.35156690327999918 0 -0.089799047230678372 -0.33781884330120771 0 -0.080839522545146564 -0.35155164166483238 0 -0.099461273068779596 -0.25616235110919527 0 -0.1131838175330814 -0.25591181426591569 0 -0.1121023689593434 -0.24013640649916301 0 -0.099461273068779596 -0.25616235110919527 0 -0.10052945189443289 -0.26837735686935399 0 -0.086820177178219174 -0.27218829571923031 0 -0.099461273068779596 -0.25616235110919527 0 -0.092102503243444669 -0.25617213772046871 0 -0.095354488531948001 -0.24934129224895829 0 -0.099461273068779596 -0.25616235110919527 0 -0.1079179831049014 -0.26396404476098262 0 -0.1131838175330814 -0.25591181426591569 0 -0.099461273068779596 -0.25616235110919527 0 -0.1079179831049014 -0.26396404476098262 0 -0.10052945189443289 -0.26837735686935399 0 -0.13362675178396591 -0.25875165604669192 0 -0.1131838175330814 -0.25591181426591569 0 -0.1121023689593434 -0.24013640649916301 0 -0.13362675178396591 -0.25875165604669192 0 -0.1131838175330814 -0.25591181426591569 0 -0.11739687649286661 -0.26708286010812332 0 -0.1079179831049014 -0.26396404476098262 0 -0.1131838175330814 -0.25591181426591569 0 -0.11739687649286661 -0.26708286010812332 0 -0.1079179831049014 -0.26396404476098262 0 -0.11739687649286661 -0.26708286010812332 0 -0.1089223570075568 -0.27226320678691379 0 -0.12687257305997829 -0.27179279243442561 0 -0.11739687649286661 -0.26708286010812332 0 -0.1159942896970909 -0.28365068734022569 0 -0.11739687649286661 -0.26708286010812332 0 -0.1089223570075568 -0.27226320678691379 0 -0.1159942896970909 -0.28365068734022569 0 -0.1089223570075568 -0.27226320678691379 0 -0.1014072334376542 -0.27791949152973011 0 -0.1159942896970909 -0.28365068734022569 0 -0.1014072334376542 -0.27791949152973011 0 -0.1159942896970909 -0.28365068734022569 0 -0.1089223570075568 -0.27226320678691379 0 -0.10052945189443289 -0.26837735686935399 0 -0.1014072334376542 -0.27791949152973011 0 -0.1079179831049014 -0.26396404476098262 0 -0.1089223570075568 -0.27226320678691379 0 -0.10052945189443289 -0.26837735686935399 0 -0.10052945189443289 -0.26837735686935399 0 -0.1014072334376542 -0.27791949152973011 0 -0.086820177178219174 -0.27218829571923031 0 -0.1014072334376542 -0.27791949152973011 0 -0.086820177178219174 -0.27218829571923031 0 -0.1159942896970909 -0.28365068734022569 0 -0.092892977406627442 -0.28927992211193798 0 -0.1014072334376542 -0.27791949152973011 0 -0.1159942896970909 -0.28365068734022569 0 -0.092892977406627442 -0.28927992211193798 0 -0.1159942896970909 -0.28365068734022569 0 -0.1088846695739972 -0.30081859173175213 0 -0.092892977406627442 -0.28927992211193798 0 -0.1014072334376542 -0.27791949152973011 0 -0.092892977406627442 -0.28927992211193798 0 -0.090959671151378207 -0.27808108908402618 0 -0.1159942896970909 -0.28365068734022569 0 -0.1237812469020399 -0.29805837773113042 0 -0.1088846695739972 -0.30081859173175213 0 -0.12762104124431159 -0.31365045047674051 0 -0.1068037196222516 -0.31818723800941778 0 -0.1088846695739972 -0.30081859173175213 0 -0.12762104124431159 -0.31365045047674051 0 -0.1237812469020399 -0.29805837773113042 0 -0.1088846695739972 -0.30081859173175213 0 -0.1088846695739972 -0.30081859173175213 0 -0.090427990852372811 -0.30758426527268939 0 -0.092892977406627442 -0.28927992211193798 0 -0.1068037196222516 -0.31818723800941778 0 -0.1088846695739972 -0.30081859173175213 0 -0.090427990852372811 -0.30758426527268939 0 -0.090427990852372811 -0.30758426527268939 0 -0.069791665116164664 -0.29490915688365288 0 -0.092892977406627442 -0.28927992211193798 0 -0.071708665568760557 -0.31901981699372051 0 -0.069791665116164664 -0.29490915688365288 0 -0.054894709543425402 -0.29883410729116339 0 -0.071708665568760557 -0.31901981699372051 0 -0.090427990852372811 -0.30758426527268939 0 -0.069791665116164664 -0.29490915688365288 0 -0.069791665116164664 -0.29490915688365288 0 -0.075391283651624896 -0.28121829543639237 0 -0.062006297405172162 -0.2817268186405919 0 -0.069791665116164664 -0.29490915688365288 0 -0.082807738813818241 -0.28413266596695819 0 -0.075391283651624896 -0.28121829543639237 0 -0.069791665116164664 -0.29490915688365288 0 -0.092892977406627442 -0.28927992211193798 0 -0.069791665116164664 -0.29490915688365288 0 -0.082807738813818241 -0.28413266596695819 0 -0.092892977406627442 -0.28927992211193798 0 -0.082807738813818241 -0.28413266596695819 0 -0.092892977406627442 -0.28927992211193798 0 -0.090959671151378207 -0.27808108908402618 0 -0.082807738813818241 -0.28413266596695819 0 -0.090959671151378207 -0.27808108908402618 0 -0.084354359156245215 -0.27748084870566753 0 -0.1014072334376542 -0.27791949152973011 0 -0.090959671151378207 -0.27808108908402618 0 -0.086820177178219174 -0.27218829571923031 0 -0.090959671151378207 -0.27808108908402618 0 -0.086820177178219174 -0.27218829571923031 0 -0.084354359156245215 -0.27748084870566753 0 -0.086820177178219174 -0.27218829571923031 0 -0.078931722273584512 -0.27481579353097818 0 -0.077288274199984325 -0.26844324932718772 0 -0.086820177178219174 -0.27218829571923031 0 -0.077288274199984325 -0.26844324932718772 0 -0.082502665412935688 -0.26503142611623781 0 -0.086820177178219174 -0.27218829571923031 0 -0.077288274199984325 -0.26844324932718772 0 -0.078931722273584512 -0.27481579353097818 0 -0.084354359156245215 -0.27748084870566753 0 -0.075391283651624896 -0.28121829543639237 0 -0.082807738813818241 -0.28413266596695819 0 -0.084354359156245215 -0.27748084870566753 0 -0.075391283651624896 -0.28121829543639237 0 -0.086820177178219174 -0.27218829571923031 0 -0.078931722273584512 -0.27481579353097818 0 -0.084354359156245215 -0.27748084870566753 0 -0.078931722273584512 -0.27481579353097818 0 -0.075391283651624896 -0.28121829543639237 0 -0.071209869808543214 -0.27423438641155568 0 -0.071209869808543214 -0.27423438641155568 0 -0.065267348322231647 -0.26830389679765698 0 -0.062006297405172162 -0.2817268186405919 0 -0.075391283651624896 -0.28121829543639237 0 -0.071209869808543214 -0.27423438641155568 0 -0.062006297405172162 -0.2817268186405919 0 -0.071209869808543214 -0.27423438641155568 0 -0.065267348322231647 -0.26830389679765698 0 -0.077288274199984325 -0.26844324932718772 0 -0.078931722273584512 -0.27481579353097818 0 -0.071209869808543214 -0.27423438641155568 0 -0.077288274199984325 -0.26844324932718772 0 -0.065267348322231647 -0.26830389679765698 0 -0.077288274199984325 -0.26844324932718772 0 -0.073811911824308435 -0.25540473286183141 0 -0.077288274199984325 -0.26844324932718772 0 -0.073811911824308435 -0.25540473286183141 0 -0.080566643200101734 -0.259935266081877 0 -0.065267348322231647 -0.26830389679765698 0 -0.073811911824308435 -0.25540473286183141 0 -0.05968357260973943 -0.24910568326275209 0 -0.073811911824308435 -0.25540473286183141 0 -0.084912236002220559 -0.25132134058067351 0 -0.080566643200101734 -0.259935266081877 0 -0.099461273068779596 -0.25616235110919527 0 -0.086820177178219174 -0.27218829571923031 0 -0.099461273068779596 -0.25616235110919527 0 -0.086820177178219174 -0.27218829571923031 0 -0.092102503243444669 -0.25617213772046871 0 -0.086820177178219174 -0.27218829571923031 0 -0.086353005585815504 -0.25964220514985797 0 -0.092102503243444669 -0.25617213772046871 0 -0.084912236002220559 -0.25132134058067351 0 -0.080566643200101734 -0.259935266081877 0 -0.086353005585815504 -0.25964220514985797 0 -0.086820177178219174 -0.27218829571923031 0 -0.082502665412935688 -0.26503142611623781 0 -0.086353005585815504 -0.25964220514985797 0 -0.077288274199984325 -0.26844324932718772 0 -0.080566643200101734 -0.259935266081877 0 -0.082502665412935688 -0.26503142611623781 0 -0.080566643200101734 -0.259935266081877 0 -0.082502665412935688 -0.26503142611623781 0 -0.086353005585815504 -0.25964220514985797 0 -0.084912236002220559 -0.25132134058067351 0 -0.092102503243444669 -0.25617213772046871 0 -0.095354488531948001 -0.24934129224895829 0 -0.084912236002220559 -0.25132134058067351 0 -0.086353005585815504 -0.25964220514985797 0 -0.092102503243444669 -0.25617213772046871 0 -0.031376289553592222 -0.26099105452929611 0 -0.046715094576625697 -0.26078323370405498 0 -0.034816988989392388 -0.24467627063641609 0 -0.031376289553592222 -0.26099105452929611 0 -0.046715094576625697 -0.26078323370405498 0 -0.037143264337942773 -0.27133436309183367 0 -0.065267348322231647 -0.26830389679765698 0 -0.046715094576625697 -0.26078323370405498 0 -0.05968357260973943 -0.24910568326275209 0 -0.065267348322231647 -0.26830389679765698 0 -0.05968357260973943 -0.24910568326275209 0 -0.046715094576625697 -0.26078323370405498 0 -0.05968357260973943 -0.24910568326275209 0 -0.034816988989392388 -0.24467627063641609 0 -0.052412433730558518 -0.27305657635228792 0 -0.044748409034554827 -0.28381463624587489 0 -0.062006297405172162 -0.2817268186405919 0 -0.065267348322231647 -0.26830389679765698 0 -0.046715094576625697 -0.26078323370405498 0 -0.052412433730558518 -0.27305657635228792 0 -0.065267348322231647 -0.26830389679765698 0 -0.052412433730558518 -0.27305657635228792 0 -0.062006297405172162 -0.2817268186405919 0 -0.037143264337942773 -0.27133436309183367 0 -0.044748409034554827 -0.28381463624587489 0 -0.028081439349214879 -0.28312122219941188 0 -0.052412433730558518 -0.27305657635228792 0 -0.037143264337942773 -0.27133436309183367 0 -0.044748409034554827 -0.28381463624587489 0 -0.046715094576625697 -0.26078323370405498 0 -0.052412433730558518 -0.27305657635228792 0 -0.037143264337942773 -0.27133436309183367 0 -0.044748409034554827 -0.28381463624587489 0 -0.03526853919973591 -0.29954268230883602 0 -0.028081439349214879 -0.28312122219941188 0 -0.044748409034554827 -0.28381463624587489 0 -0.054894709543425402 -0.29883410729116339 0 -0.03526853919973591 -0.29954268230883602 0 -0.044748409034554827 -0.28381463624587489 0 -0.062006297405172162 -0.2817268186405919 0 -0.054894709543425402 -0.29883410729116339 0 -0.069791665116164664 -0.29490915688365288 0 -0.062006297405172162 -0.2817268186405919 0 -0.054894709543425402 -0.29883410729116339 0 -0.071708665568760557 -0.31901981699372051 0 -0.054894709543425402 -0.29883410729116339 0 -0.045844680936164353 -0.31399153267430452 0 -0.054894709543425402 -0.29883410729116339 0 -0.03526853919973591 -0.29954268230883602 0 -0.045844680936164353 -0.31399153267430452 0 -0.03526853919973591 -0.29954268230883602 0 -0.020229932295891439 -0.29534929055095649 0 -0.01877156703011798 -0.32428694925937651 0 -0.020229932295891439 -0.29534929055095649 0 -0.01877156703011798 -0.32428694925937651 0 -0.0036628431567857921 -0.30790438005404319 0 -0.020229932295891439 -0.29534929055095649 0 -0.01877156703011798 -0.32428694925937651 0 -0.0036628431567857921 -0.30790438005404319 0 -0.0020415466716850409 -0.28718111468312502 0 -0.020229932295891439 -0.29534929055095649 0 -0.0020415466716850409 -0.28718111468312502 0 -0.020229932295891439 -0.29534929055095649 0 -0.028081439349214879 -0.28312122219941188 0 -0.03526853919973591 -0.29954268230883602 0 -0.020229932295891439 -0.29534929055095649 0 -0.028081439349214879 -0.28312122219941188 0 -0.0020415466716850409 -0.28718111468312502 0 -0.028081439349214879 -0.28312122219941188 0 -0.022671918782463021 -0.26871633366919118 0 -0.037143264337942773 -0.27133436309183367 0 -0.028081439349214879 -0.28312122219941188 0 -0.022671918782463021 -0.26871633366919118 0 -0.031376289553592222 -0.26099105452929611 0 -0.037143264337942773 -0.27133436309183367 0 -0.022671918782463021 -0.26871633366919118 0 -0.022671918782463021 -0.26871633366919118 0 -0.0094685152031538794 -0.27149811577518479 0 -0.01553418108153717 -0.25944507154498458 0 -0.0094685152031538794 -0.27149811577518479 0 -0.01553418108153717 -0.25944507154498458 0 0.003748626826318064 -0.27421387245355328 0 -0.0020415466716850409 -0.28718111468312502 0 -0.0094685152031538794 -0.27149811577518479 0 0.003748626826318064 -0.27421387245355328 0 -0.0020415466716850409 -0.28718111468312502 0 -0.022671918782463021 -0.26871633366919118 0 -0.01553418108153717 -0.25944507154498458 0 0.003748626826318064 -0.27421387245355328 0 -0.0020415466716850409 -0.28718111468312502 0 -0.022671918782463021 -0.26871633366919118 0 -0.0094685152031538794 -0.27149811577518479 0 -0.01553418108153717 -0.25944507154498458 0 0.003748626826318064 -0.27421387245355328 0 0.00156694213917784 -0.257089728430478 0 -0.01553418108153717 -0.25944507154498458 0 -0.0056769124435055267 -0.2498402483549487 0 0.00156694213917784 -0.257089728430478 0 -0.01553418108153717 -0.25944507154498458 0 -0.016461416315424599 -0.24565294134489449 0 -0.0056769124435055267 -0.2498402483549487 0 -0.031376289553592222 -0.26099105452929611 0 -0.01553418108153717 -0.25944507154498458 0 -0.034816988989392388 -0.24467627063641609 0 -0.031376289553592222 -0.26099105452929611 0 -0.022671918782463021 -0.26871633366919118 0 -0.01553418108153717 -0.25944507154498458 0 -0.01553418108153717 -0.25944507154498458 0 -0.034816988989392388 -0.24467627063641609 0 -0.041915765889513942 -0.35214226775668511 0 -0.031513535480280942 -0.36943388715721481 0 -0.048142103313320868 -0.37398817750830587 0 -0.066787924546312993 -0.36224480987609348 0 -0.048142103313320868 -0.37398817750830587 0 -0.066961244388347885 -0.38382060041625082 0 -0.066787924546312993 -0.36224480987609348 0 -0.041915765889513942 -0.35214226775668511 0 -0.048142103313320868 -0.37398817750830587 0 -0.064338814422802537 -0.34196069045552741 0 -0.066787924546312993 -0.36224480987609348 0 -0.041915765889513942 -0.35214226775668511 0 -0.071708665568760557 -0.31901981699372051 0 -0.064338814422802537 -0.34196069045552741 0 -0.046298125946435301 -0.33275608510647542 0 -0.064338814422802537 -0.34196069045552741 0 -0.041915765889513942 -0.35214226775668511 0 -0.046298125946435301 -0.33275608510647542 0 -0.071708665568760557 -0.31901981699372051 0 -0.045844680936164353 -0.31399153267430452 0 -0.046298125946435301 -0.33275608510647542 0 -0.03526853919973591 -0.29954268230883602 0 -0.045844680936164353 -0.31399153267430452 0 -0.01877156703011798 -0.32428694925937651 0 -0.045844680936164353 -0.31399153267430452 0 -0.046298125946435301 -0.33275608510647542 0 -0.01877156703011798 -0.32428694925937651 0 -0.046298125946435301 -0.33275608510647542 0 -0.029559370618418509 -0.33964594211689447 0 -0.01877156703011798 -0.32428694925937651 0 -0.041915765889513942 -0.35214226775668511 0 -0.046298125946435301 -0.33275608510647542 0 -0.029559370618418509 -0.33964594211689447 0 -0.029559370618418509 -0.33964594211689447 0 -0.01877156703011798 -0.32428694925937651 0 -0.017313201764344519 -0.35322460796779648 0 -0.01877156703011798 -0.32428694925937651 0 -0.017313201764344519 -0.35322460796779648 0 -0.0036628431567857921 -0.30790438005404319 0 -0.01877156703011798 -0.32428694925937651 0 0.0028960786952263351 -0.32475737615524147 0 -0.01877156703011798 -0.32428694925937651 0 -0.0040002244658034706 -0.3400820810183236 0 -0.017313201764344519 -0.35322460796779648 0 -0.01877156703011798 -0.32428694925937651 0 -0.0040002244658034706 -0.3400820810183236 0 0.0028960786952263351 -0.32475737615524147 0 -0.0040002244658034706 -0.3400820810183236 0 -0.017313201764344519 -0.35322460796779648 0 0.00073220869437371828 -0.3547654393227937 0 -0.017313201764344519 -0.35322460796779648 0 -0.0088063739851901527 -0.36312777307715838 0 0.00073220869437371828 -0.3547654393227937 0 -0.041915765889513942 -0.35214226775668511 0 -0.031513535480280942 -0.36943388715721481 0 -0.017313201764344519 -0.35322460796779648 0 -0.041915765889513942 -0.35214226775668511 0 -0.029559370618418509 -0.33964594211689447 0 -0.017313201764344519 -0.35322460796779648 0 -0.017313201764344519 -0.35322460796779648 0 -0.01585483649857106 -0.38216226667621661 0 -0.031513535480280942 -0.36943388715721481 0 -0.017313201764344519 -0.35322460796779648 0 -0.01585483649857106 -0.38216226667621661 0 -0.017313201764344519 -0.35322460796779648 0 -0.0088063739851901527 -0.36312777307715838 0 -0.01585483649857106 -0.38216226667621661 0 -0.0083460861794386106 -0.37495534338034842 0 -0.0088063739851901527 -0.36312777307715838 0 -0.01585483649857106 -0.38216226667621661 0 -0.0088063739851901527 -0.36312777307715838 0 -0.00032887885909539032 -0.36340970159860808 0 -0.0054200658356264309 -0.36745389216608337 0 -0.0088063739851901527 -0.36312777307715838 0 -0.00032887885909539032 -0.36340970159860808 0 0.00073220869437371828 -0.3547654393227937 0 -0.00032887885909539032 -0.36340970159860808 0 -0.0054200658356264309 -0.36745389216608337 0 -0.0022931150187130121 -0.36796759314239519 0 -0.00032887885909539032 -0.36340970159860808 0 -0.0022931150187130121 -0.36796759314239519 0 0.00077806585478472975 -0.36746979302991051 0 -0.0083460861794386106 -0.37495534338034842 0 -0.0088063739851901527 -0.36312777307715838 0 -0.0054200658356264309 -0.36745389216608337 0 -0.0083460861794386106 -0.37495534338034842 0 -0.0043649341689213639 -0.37035418433466638 0 -0.0038253876563550089 -0.37386348266163849 0 -0.0083460861794386106 -0.37495534338034842 0 -0.0054200658356264309 -0.36745389216608337 0 -0.0043649341689213639 -0.37035418433466638 0 -0.0054200658356264309 -0.36745389216608337 0 -0.0043649341689213639 -0.37035418433466638 0 -0.0022931150187130121 -0.36796759314239519 0 -0.0043649341689213639 -0.37035418433466638 0 -0.0022931150187130121 -0.36796759314239519 0 -0.0017924852961554659 -0.3713073872806788 0 -0.0043649341689213639 -0.37035418433466638 0 -0.0017924852961554659 -0.3713073872806788 0 -0.0022931150187130121 -0.36796759314239519 0 -0.0017924852961554659 -0.3713073872806788 0 0.00077806585478472975 -0.36746979302991051 0 -0.0017924852961554659 -0.3713073872806788 0 -0.001495888248680218 -0.37470733324660188 0 0.0030301478643253899 -0.37674626274827772 0 -0.0043649341689213639 -0.37035418433466638 0 -0.0017924852961554659 -0.3713073872806788 0 -0.0038253876563550089 -0.37386348266163849 0 -0.0017924852961554659 -0.3713073872806788 0 -0.0038253876563550089 -0.37386348266163849 0 -0.001495888248680218 -0.37470733324660188 0 -0.001495888248680218 -0.37470733324660188 0 -0.003395827906535788 -0.37691220029581268 0 0.0030301478643253899 -0.37674626274827772 0 -0.0033287973072917208 -0.38217907348461538 0 -0.01585483649857106 -0.38216226667621661 0 0.0019270013280409299 -0.39265068081603111 0 -0.003395827906535788 -0.37691220029581268 0 -0.0033287973072917208 -0.38217907348461538 0 0.0030301478643253899 -0.37674626274827772 0 -0.0038253876563550089 -0.37386348266163849 0 -0.001495888248680218 -0.37470733324660188 0 -0.003395827906535788 -0.37691220029581268 0 -0.0083460861794386106 -0.37495534338034842 0 -0.0038253876563550089 -0.37386348266163849 0 -0.003395827906535788 -0.37691220029581268 0 -0.0083460861794386106 -0.37495534338034842 0 -0.003395827906535788 -0.37691220029581268 0 -0.0033287973072917208 -0.38217907348461538 0 -0.0083460861794386106 -0.37495534338034842 0 -0.0033287973072917208 -0.38217907348461538 0 -0.01585483649857106 -0.38216226667621661 0 -0.01585483649857106 -0.38216226667621661 0 -0.01439647123279761 -0.41109992538463652 0 0.0019270013280409299 -0.39265068081603111 0 -0.01439647123279761 -0.41109992538463652 0 0.0019270013280409299 -0.39265068081603111 0 0.0040838551649926324 -0.40920466907649111 0 -0.01585483649857106 -0.38216226667621661 0 -0.01439647123279761 -0.41109992538463652 0 -0.01585483649857106 -0.38216226667621661 0 -0.036045988006479422 -0.39868151888406811 0 -0.01439647123279761 -0.41109992538463652 0 -0.031513535480280942 -0.36943388715721481 0 -0.01585483649857106 -0.38216226667621661 0 -0.036667051599967693 -0.38303178833422957 0 -0.01585483649857106 -0.38216226667621661 0 -0.036667051599967693 -0.38303178833422957 0 -0.036045988006479422 -0.39868151888406811 0 -0.031513535480280942 -0.36943388715721481 0 -0.048142103313320868 -0.37398817750830587 0 -0.036667051599967693 -0.38303178833422957 0 -0.036667051599967693 -0.38303178833422957 0 -0.036045988006479422 -0.39868151888406811 0 -0.050270091589153777 -0.38916593275128142 0 -0.048142103313320868 -0.37398817750830587 0 -0.036667051599967693 -0.38303178833422957 0 -0.050270091589153777 -0.38916593275128142 0 -0.036045988006479422 -0.39868151888406811 0 -0.06051666441358821 -0.40285326122542969 0 -0.050270091589153777 -0.38916593275128142 0 -0.06051666441358821 -0.40285326122542969 0 -0.050270091589153777 -0.38916593275128142 0 -0.066961244388347885 -0.38382060041625082 0 -0.048142103313320868 -0.37398817750830587 0 -0.050270091589153777 -0.38916593275128142 0 -0.066961244388347885 -0.38382060041625082 0 -0.043911256422401727 -0.42096298901410789 0 -0.07035574397946559 -0.41636705402167967 0 -0.064715942288712747 -0.43519397134680582 0 -0.043911256422401727 -0.42096298901410789 0 -0.042361741205644163 -0.44520597589163319 0 -0.064715942288712747 -0.43519397134680582 0 -0.06051666441358821 -0.40285326122542969 0 -0.043911256422401727 -0.42096298901410789 0 -0.07035574397946559 -0.41636705402167967 0 -0.036045988006479422 -0.39868151888406811 0 -0.043911256422401727 -0.42096298901410789 0 -0.01439647123279761 -0.41109992538463652 0 -0.036045988006479422 -0.39868151888406811 0 -0.06051666441358821 -0.40285326122542969 0 -0.043911256422401727 -0.42096298901410789 0 -0.043911256422401727 -0.42096298901410789 0 -0.01293810596702415 -0.44003758409305638 0 -0.042361741205644163 -0.44520597589163319 0 -0.043911256422401727 -0.42096298901410789 0 -0.01439647123279761 -0.41109992538463652 0 -0.01293810596702415 -0.44003758409305638 0 -0.01439647123279761 -0.41109992538463652 0 0.0040838551649926324 -0.40920466907649111 0 0.003915753597516153 -0.42503506544684971 0 -0.01439647123279761 -0.41109992538463652 0 -0.01293810596702415 -0.44003758409305638 0 -0.01439647123279761 -0.41109992538463652 0 -0.01293810596702415 -0.44003758409305638 0 0.003915753597516153 -0.42503506544684971 0 -0.024098210086207598 -0.45746204444120547 0 -0.022708831939982681 -0.47856381879757059 0 0.0081167468260517003 -0.46573914569044872 0 -0.01293810596702415 -0.44003758409305638 0 -0.024098210086207598 -0.45746204444120547 0 0.0081167468260517003 -0.46573914569044872 0 -0.024098210086207598 -0.45746204444120547 0 -0.022708831939982681 -0.47856381879757059 0 -0.04385710575328599 -0.464733841795683 0 -0.01293810596702415 -0.44003758409305638 0 -0.024098210086207598 -0.45746204444120547 0 -0.042361741205644163 -0.44520597589163319 0 -0.0018920194225578999 -0.5 0 -0.022708831939982681 -0.47856381879757059 0 0.0081167468260517003 -0.46573914569044872 0 -0.0018920194225578999 -0.5 0 -0.022708831939982681 -0.47856381879757059 0 -0.02986874364304332 -0.5 0 -0.022708831939982681 -0.47856381879757059 0 -0.02986874364304332 -0.5 0 -0.043351800101320372 -0.48430009580154659 0 -0.02986874364304332 -0.5 0 -0.043351800101320372 -0.48430009580154659 0 -0.057845467863528677 -0.5 0 -0.022708831939982681 -0.47856381879757059 0 -0.043351800101320372 -0.48430009580154659 0 -0.04385710575328599 -0.464733841795683 0 -0.043351800101320372 -0.48430009580154659 0 -0.062478851306761188 -0.47820281841447959 0 -0.04385710575328599 -0.464733841795683 0 -0.043351800101320372 -0.48430009580154659 0 -0.062478851306761188 -0.47820281841447959 0 -0.057845467863528677 -0.5 0 -0.024098210086207598 -0.45746204444120547 0 -0.042361741205644163 -0.44520597589163319 0 -0.04385710575328599 -0.464733841795683 0 -0.062478851306761188 -0.47820281841447959 0 -0.04385710575328599 -0.464733841795683 0 -0.062302002580799348 -0.45595334711320629 0 -0.042361741205644163 -0.44520597589163319 0 -0.04385710575328599 -0.464733841795683 0 -0.062302002580799348 -0.45595334711320629 0 -0.042361741205644163 -0.44520597589163319 0 -0.062302002580799348 -0.45595334711320629 0 -0.064715942288712747 -0.43519397134680582 0 -0.062302002580799348 -0.45595334711320629 0 -0.079544347238092297 -0.44709793874912201 0 -0.064715942288712747 -0.43519397134680582 0 -0.062478851306761188 -0.47820281841447959 0 -0.062302002580799348 -0.45595334711320629 0 -0.080854027692299699 -0.46528553648151461 0 -0.062302002580799348 -0.45595334711320629 0 -0.080854027692299699 -0.46528553648151461 0 -0.079544347238092297 -0.44709793874912201 0 -0.080854027692299699 -0.46528553648151461 0 -0.1012823870045526 -0.47887214023651931 0 -0.097772677288558915 -0.45893223265183952 0 -0.080854027692299699 -0.46528553648151461 0 -0.079544347238092297 -0.44709793874912201 0 -0.097772677288558915 -0.45893223265183952 0 -0.079544347238092297 -0.44709793874912201 0 -0.096258766723862202 -0.44092353340632878 0 -0.083794469538049449 -0.42931458316990462 0 -0.079544347238092297 -0.44709793874912201 0 -0.096258766723862202 -0.44092353340632878 0 -0.097772677288558915 -0.45893223265183952 0 -0.080854027692299699 -0.46528553648151461 0 -0.085822192084014093 -0.5 0 -0.1012823870045526 -0.47887214023651931 0 -0.062478851306761188 -0.47820281841447959 0 -0.080854027692299699 -0.46528553648151461 0 -0.085822192084014093 -0.5 0 -0.062478851306761188 -0.47820281841447959 0 -0.057845467863528677 -0.5 0 -0.085822192084014093 -0.5 0 -0.085822192084014093 -0.5 0 -0.1012823870045526 -0.47887214023651931 0 -0.1137989163044995 -0.5 0 -0.1012823870045526 -0.47887214023651931 0 -0.1221394328480946 -0.48345149437937879 0 -0.1168989945026065 -0.46327545877547849 0 -0.1012823870045526 -0.47887214023651931 0 -0.1221394328480946 -0.48345149437937879 0 -0.1137989163044995 -0.5 0 -0.096258766723862202 -0.44092353340632878 0 -0.097772677288558915 -0.45893223265183952 0 -0.1185860188496181 -0.44093879709350853 0 -0.1012823870045526 -0.47887214023651931 0 -0.097772677288558915 -0.45893223265183952 0 -0.1168989945026065 -0.46327545877547849 0 -0.097772677288558915 -0.45893223265183952 0 -0.1168989945026065 -0.46327545877547849 0 -0.1185860188496181 -0.44093879709350853 0 -0.13610754057095281 -0.45288630732329721 0 -0.1168989945026065 -0.46327545877547849 0 -0.1185860188496181 -0.44093879709350853 0 -0.1185860188496181 -0.44093879709350853 0 -0.10154463820262841 -0.42498665638805561 0 -0.11715882583549921 -0.4194518981523806 0 -0.13338338784179979 -0.4214089604989521 0 -0.1185860188496181 -0.44093879709350853 0 -0.11715882583549921 -0.4194518981523806 0 -0.096258766723862202 -0.44092353340632878 0 -0.1185860188496181 -0.44093879709350853 0 -0.10154463820262841 -0.42498665638805561 0 -0.096258766723862202 -0.44092353340632878 0 -0.10154463820262841 -0.42498665638805561 0 -0.083794469538049449 -0.42931458316990462 0 -0.10154463820262841 -0.42498665638805561 0 -0.11715882583549921 -0.4194518981523806 0 -0.1076832820298982 -0.40495161963058612 0 -0.10154463820262841 -0.42498665638805561 0 -0.1076832820298982 -0.40495161963058612 0 -0.090631554884453125 -0.41113010603803918 0 -0.11715882583549921 -0.4194518981523806 0 -0.1233765870987707 -0.40365549963164238 0 -0.1076832820298982 -0.40495161963058612 0 -0.13338338784179979 -0.4214089604989521 0 -0.11715882583549921 -0.4194518981523806 0 -0.1233765870987707 -0.40365549963164238 0 -0.1233765870987707 -0.40365549963164238 0 -0.1164518684188956 -0.38502674592336172 0 -0.1076832820298982 -0.40495161963058612 0 -0.1144467343406686 -0.36783416049032869 0 -0.1164518684188956 -0.38502674592336172 0 -0.1005395162664974 -0.37594072643823562 0 -0.1005395162664974 -0.37594072643823562 0 -0.098274210178866672 -0.39225814130750769 0 -0.08539621561470008 -0.38438905652344019 0 -0.1164518684188956 -0.38502674592336172 0 -0.1005395162664974 -0.37594072643823562 0 -0.098274210178866672 -0.39225814130750769 0 -0.098274210178866672 -0.39225814130750769 0 -0.1076832820298982 -0.40495161963058612 0 -0.090631554884453125 -0.41113010603803918 0 -0.1164518684188956 -0.38502674592336172 0 -0.098274210178866672 -0.39225814130750769 0 -0.1076832820298982 -0.40495161963058612 0 -0.098274210178866672 -0.39225814130750769 0 -0.079114524991617891 -0.39839402663585088 0 -0.090631554884453125 -0.41113010603803918 0 -0.098274210178866672 -0.39225814130750769 0 -0.079114524991617891 -0.39839402663585088 0 -0.08539621561470008 -0.38438905652344019 0 -0.076803281138494578 -0.37322591177850678 0 -0.08539621561470008 -0.38438905652344019 0 -0.066961244388347885 -0.38382060041625082 0 -0.079114524991617891 -0.39839402663585088 0 -0.08539621561470008 -0.38438905652344019 0 -0.066961244388347885 -0.38382060041625082 0 -0.06051666441358821 -0.40285326122542969 0 -0.079114524991617891 -0.39839402663585088 0 -0.066961244388347885 -0.38382060041625082 0 -0.06051666441358821 -0.40285326122542969 0 -0.079114524991617891 -0.39839402663585088 0 -0.07035574397946559 -0.41636705402167967 0 -0.079544347238092297 -0.44709793874912201 0 -0.064715942288712747 -0.43519397134680582 0 -0.083794469538049449 -0.42931458316990462 0 -0.07035574397946559 -0.41636705402167967 0 -0.064715942288712747 -0.43519397134680582 0 -0.083794469538049449 -0.42931458316990462 0 -0.07035574397946559 -0.41636705402167967 0 -0.083794469538049449 -0.42931458316990462 0 -0.090631554884453125 -0.41113010603803918 0 -0.10154463820262841 -0.42498665638805561 0 -0.083794469538049449 -0.42931458316990462 0 -0.090631554884453125 -0.41113010603803918 0 -0.079114524991617891 -0.39839402663585088 0 -0.07035574397946559 -0.41636705402167967 0 -0.090631554884453125 -0.41113010603803918 0 -0.084900589448642441 -0.071037475400200306 0 -0.078317484809420454 -0.099240880527492442 0 -0.107157558075562 -0.088076435784452289 0 -0.084900589448642441 -0.071037475400200306 0 -0.064454543257806834 -0.076194692906489198 0 -0.062643620821722854 -0.053998515015947907 0 -0.084900589448642441 -0.071037475400200306 0 -0.062643620821722854 -0.053998515015947907 0 -0.084900589448642441 -0.071037475400200306 0 -0.064454543257806834 -0.076194692906489198 0 -0.078317484809420454 -0.099240880527492442 0 -0.064454543257806834 -0.076194692906489198 0 -0.078317484809420454 -0.099240880527492442 0 -0.056473283862346339 -0.094096590485682752 0 -0.078317484809420454 -0.099240880527492442 0 -0.059829794975131169 -0.1207435158767198 0 -0.056473283862346339 -0.094096590485682752 0 -0.078317484809420454 -0.099240880527492442 0 -0.059829794975131169 -0.1207435158767198 0 -0.079876034051492503 -0.12769071503318899 0 -0.078317484809420454 -0.099240880527492442 0 -0.096813241815559004 -0.1179122088520235 0 -0.079876034051492503 -0.12769071503318899 0 -0.078317484809420454 -0.099240880527492442 0 -0.096813241815559004 -0.1179122088520235 0 -0.107157558075562 -0.088076435784452289 0 -0.096813241815559004 -0.1179122088520235 0 -0.11540526837687171 -0.1154874301373815 0 -0.107157558075562 -0.088076435784452289 0 -0.096813241815559004 -0.1179122088520235 0 -0.11540526837687171 -0.1154874301373815 0 -0.10806753436944171 -0.13175920839317781 0 -0.11540526837687171 -0.1154874301373815 0 -0.12136262411702101 -0.12981934099527351 0 -0.13205461353806941 -0.12018141026988099 0 -0.1242469030499448 -0.091954025595064687 0 -0.107157558075562 -0.088076435784452289 0 -0.12941452670248091 -0.1051153961687054 0 -0.11540526837687171 -0.1154874301373815 0 -0.107157558075562 -0.088076435784452289 0 -0.12941452670248091 -0.1051153961687054 0 -0.107157558075562 -0.088076435784452289 0 -0.12941452670248091 -0.1051153961687054 0 -0.1242469030499448 -0.091954025595064687 0 -0.107157558075562 -0.088076435784452289 0 -0.1200022000670774 -0.0744369922820554 0 -0.084900589448642441 -0.071037475400200306 0 -0.1200022000670774 -0.0744369922820554 0 -0.1150016942000025 -0.049774801446042329 0 -0.084900589448642441 -0.071037475400200306 0 -0.107157558075562 -0.088076435784452289 0 -0.1200022000670774 -0.0744369922820554 0 -0.084900589448642441 -0.071037475400200306 0 -0.107157558075562 -0.088076435784452289 0 -0.1200022000670774 -0.0744369922820554 0 -0.1150016942000025 -0.049774801446042329 0 -0.13978550443159191 -0.067857218025003593 0 -0.1150016942000025 -0.049774801446042329 0 -0.1034396416637023 -0.020118770800665799 0 -0.083041631242712105 -0.037058642908306287 0 -0.084900589448642441 -0.071037475400200306 0 -0.1150016942000025 -0.049774801446042329 0 -0.083041631242712105 -0.037058642908306287 0 -0.1150016942000025 -0.049774801446042329 0 -0.1034396416637023 -0.020118770800665799 0 -0.1303090768464959 -0.024760112000338539 0 -0.1238376520846925 -0.003178898693025302 0 -0.1034396416637023 -0.020118770800665799 0 -0.1238376520846925 -0.003178898693025302 0 -0.1034396416637023 -0.020118770800665799 0 -0.1066168776230814 -0.0002609920833909378 0 -0.1238376520846925 -0.003178898693025302 0 -0.1034396416637023 -0.020118770800665799 0 -0.1303090768464959 -0.024760112000338539 0 -0.1034396416637023 -0.020118770800665799 0 -0.1066168776230814 -0.0002609920833909378 0 -0.086642348690371879 -0.010471720479631821 0 -0.1066168776230814 -0.0002609920833909378 0 -0.086642348690371879 -0.010471720479631821 0 -0.093168168815275315 0.0099037328048501554 0 -0.1034396416637023 -0.020118770800665799 0 -0.086642348690371879 -0.010471720479631821 0 -0.083041631242712105 -0.037058642908306287 0 -0.086642348690371879 -0.010471720479631821 0 -0.067112438452878037 -0.014426689931046829 0 -0.083041631242712105 -0.037058642908306287 0 -0.1034396416637023 -0.020118770800665799 0 -0.083041631242712105 -0.037058642908306287 0 -0.067112438452878037 -0.014426689931046829 0 -0.083041631242712105 -0.037058642908306287 0 -0.060378482762466081 -0.032232311142353913 0 -0.086642348690371879 -0.010471720479631821 0 -0.067112438452878037 -0.014426689931046829 0 -0.073521406826148411 0.0051031726183403594 0 -0.067112438452878037 -0.014426689931046829 0 -0.053589612230985843 -0.00040132381324650641 0 -0.073521406826148411 0.0051031726183403594 0 -0.084900589448642441 -0.071037475400200306 0 -0.083041631242712105 -0.037058642908306287 0 -0.062643620821722854 -0.053998515015947907 0 -0.083041631242712105 -0.037058642908306287 0 -0.062643620821722854 -0.053998515015947907 0 -0.060378482762466081 -0.032232311142353913 0 -0.083041631242712105 -0.037058642908306287 0 -0.062643620821722854 -0.053998515015947907 0 -0.062643620821722854 -0.053998515015947907 0 -0.041139981855606883 -0.037536270826155543 0 -0.043559545976238158 -0.06984720714341365 0 -0.062643620821722854 -0.053998515015947907 0 -0.043559545976238158 -0.06984720714341365 0 -0.041139981855606883 -0.037536270826155543 0 -0.022702371247029101 -0.053877062353353607 0 -0.043559545976238158 -0.06984720714341365 0 -0.062643620821722854 -0.053998515015947907 0 -0.060378482762466081 -0.032232311142353913 0 -0.041139981855606883 -0.037536270826155543 0 -0.062643620821722854 -0.053998515015947907 0 -0.041139981855606883 -0.037536270826155543 0 -0.047954741439410753 -0.018141437030312669 0 -0.033062794546480478 -0.0035548247123766822 0 -0.015846618624544149 -0.02523918063224059 0 -0.041139981855606883 -0.037536270826155543 0 -0.047954741439410753 -0.018141437030312669 0 -0.015846618624544149 -0.02523918063224059 0 -0.067112438452878037 -0.014426689931046829 0 -0.053589612230985843 -0.00040132381324650641 0 -0.047954741439410753 -0.018141437030312669 0 -0.060378482762466081 -0.032232311142353913 0 -0.041139981855606883 -0.037536270826155543 0 -0.047954741439410753 -0.018141437030312669 0 -0.067112438452878037 -0.014426689931046829 0 -0.060378482762466081 -0.032232311142353913 0 -0.047954741439410753 -0.018141437030312669 0 -0.053589612230985843 -0.00040132381324650641 0 -0.047954741439410753 -0.018141437030312669 0 -0.033062794546480478 -0.0035548247123766822 0 -0.033062794546480478 -0.0035548247123766822 0 -0.015846618624544149 -0.02523918063224059 0 -0.01129150054699473 -0.0013760759300521341 0 -0.015846618624544149 -0.02523918063224059 0 -0.01129150054699473 -0.0013760759300521341 0 0.013560617637746009 -0.010546814510073379 0 -0.041139981855606883 -0.037536270826155543 0 -0.015846618624544149 -0.02523918063224059 0 -0.022702371247029101 -0.053877062353353607 0 -0.015846618624544149 -0.02523918063224059 0 -0.022702371247029101 -0.053877062353353607 0 -0.0020087529434394289 -0.049943804487541543 0 -0.015846618624544149 -0.02523918063224059 0 -0.0020087529434394289 -0.049943804487541543 0 0.01152460235589255 -0.038367179228915853 0 -0.0020087529434394289 -0.049943804487541543 0 -0.0096631587059269278 -0.072401477112145576 0 0.008044693004705103 -0.064644082804782468 0 -0.022702371247029101 -0.053877062353353607 0 -0.0020087529434394289 -0.049943804487541543 0 -0.0096631587059269278 -0.072401477112145576 0 -0.0096631587059269278 -0.072401477112145576 0 -0.00085598893660233238 -0.0896113271783123 0 0.0089737261826284814 -0.079045421565449248 0 -0.024475471130754409 -0.085695899270880491 0 -0.0053913962852711796 -0.101544591398348 0 -0.0096631587059269278 -0.072401477112145576 0 -0.00085598893660233238 -0.0896113271783123 0 -0.024475471130754409 -0.085695899270880491 0 -0.00085598893660233238 -0.0896113271783123 0 -0.024475471130754409 -0.085695899270880491 0 -0.0053913962852711796 -0.101544591398348 0 -0.022702371247029101 -0.053877062353353607 0 -0.0096631587059269278 -0.072401477112145576 0 -0.025179092001310879 -0.070193826512394794 0 -0.024475471130754409 -0.085695899270880491 0 -0.025179092001310879 -0.070193826512394794 0 -0.043559545976238158 -0.06984720714341365 0 -0.022702371247029101 -0.053877062353353607 0 -0.025179092001310879 -0.070193826512394794 0 -0.043559545976238158 -0.06984720714341365 0 -0.0096631587059269278 -0.072401477112145576 0 -0.024475471130754409 -0.085695899270880491 0 -0.025179092001310879 -0.070193826512394794 0 -0.024475471130754409 -0.085695899270880491 0 -0.043559545976238158 -0.06984720714341365 0 -0.024475471130754409 -0.085695899270880491 0 -0.043559545976238158 -0.06984720714341365 0 -0.056473283862346339 -0.094096590485682752 0 -0.064454543257806834 -0.076194692906489198 0 -0.043559545976238158 -0.06984720714341365 0 -0.056473283862346339 -0.094096590485682752 0 -0.064454543257806834 -0.076194692906489198 0 -0.062643620821722854 -0.053998515015947907 0 -0.043559545976238158 -0.06984720714341365 0 -0.024475471130754409 -0.085695899270880491 0 -0.056473283862346339 -0.094096590485682752 0 -0.027582059005639439 -0.10416352069771349 0 -0.059829794975131169 -0.1207435158767198 0 -0.056473283862346339 -0.094096590485682752 0 -0.03855554376917994 -0.1178782609386621 0 -0.056473283862346339 -0.094096590485682752 0 -0.03855554376917994 -0.1178782609386621 0 -0.056473283862346339 -0.094096590485682752 0 -0.03855554376917994 -0.1178782609386621 0 -0.027582059005639439 -0.10416352069771349 0 -0.03855554376917994 -0.1178782609386621 0 -0.027582059005639439 -0.10416352069771349 0 -0.0130145999806459 -0.1216022613949949 0 -0.024475471130754409 -0.085695899270880491 0 -0.027582059005639439 -0.10416352069771349 0 -0.0053913962852711796 -0.101544591398348 0 -0.027582059005639439 -0.10416352069771349 0 -0.0053913962852711796 -0.101544591398348 0 -0.0130145999806459 -0.1216022613949949 0 -0.00085598893660233238 -0.0896113271783123 0 -0.0053913962852711796 -0.101544591398348 0 -0.0053913962852711796 -0.101544591398348 0 -0.0130145999806459 -0.1216022613949949 0 -0.00086243604735932301 -0.1195602050418297 0 -0.0053913962852711796 -0.101544591398348 0 -0.0130145999806459 -0.1216022613949949 0 -0.0130145999806459 -0.1216022613949949 0 -0.00086243604735932301 -0.1195602050418297 0 -0.0052513643059792347 -0.13137269496406631 0 -0.0130145999806459 -0.1216022613949949 0 -0.0052513643059792347 -0.13137269496406631 0 -0.02063780367601635 -0.14165993139164329 0 -0.00086243604735932301 -0.1195602050418297 0 -0.0052513643059792347 -0.13137269496406631 0 0.0058983520323871962 -0.12805413721014969 0 -0.0052513643059792347 -0.13137269496406631 0 -0.0075201863491781307 -0.1417615895483339 0 0.005150969619539144 -0.13736195048391431 0 -0.0052513643059792347 -0.13137269496406631 0 -0.02063780367601635 -0.14165993139164329 0 -0.0075201863491781307 -0.1417615895483339 0 -0.03855554376917994 -0.1178782609386621 0 -0.0130145999806459 -0.1216022613949949 0 -0.02063780367601635 -0.14165993139164329 0 -0.03855554376917994 -0.1178782609386621 0 -0.02063780367601635 -0.14165993139164329 0 -0.0130145999806459 -0.1216022613949949 0 -0.02063780367601635 -0.14165993139164329 0 -0.02063780367601635 -0.14165993139164329 0 -0.0093425470342544496 -0.15665178135371241 0 -0.028048893606467569 -0.161159501661643 0 -0.02063780367601635 -0.14165993139164329 0 -0.028048893606467569 -0.161159501661643 0 -0.034389610927260728 -0.1509638806338974 0 -0.02063780367601635 -0.14165993139164329 0 -0.028048893606467569 -0.161159501661643 0 -0.02063780367601635 -0.14165993139164329 0 -0.0093425470342544496 -0.15665178135371241 0 -0.0093425470342544496 -0.15665178135371241 0 0.005150969619539144 -0.13736195048391431 0 -0.0075201863491781307 -0.1417615895483339 0 -0.0093425470342544496 -0.15665178135371241 0 0.005150969619539144 -0.13736195048391431 0 -0.02063780367601635 -0.14165993139164329 0 -0.0075201863491781307 -0.1417615895483339 0 -0.0093425470342544496 -0.15665178135371241 0 -0.0020317135505204132 -0.1663552278677661 0 -0.0093425470342544496 -0.15665178135371241 0 -0.022096601602459739 -0.1736265129803852 0 -0.0020317135505204132 -0.1663552278677661 0 -0.0093425470342544496 -0.15665178135371241 0 -0.0020317135505204132 -0.1663552278677661 0 -0.022096601602459739 -0.1736265129803852 0 -0.021395201946888528 -0.18610441864621849 0 -0.0020317135505204132 -0.1663552278677661 0 -0.0046190280866550953 -0.18583163642080541 0 -0.021395201946888528 -0.18610441864621849 0 -0.0020317135505204132 -0.1663552278677661 0 -0.021395201946888528 -0.18610441864621849 0 -0.022096601602459739 -0.1736265129803852 0 -0.021395201946888528 -0.18610441864621849 0 -0.034850656170665142 -0.1906012446070581 0 -0.022096601602459739 -0.1736265129803852 0 -0.034850656170665142 -0.1906012446070581 0 -0.022096601602459739 -0.1736265129803852 0 -0.035459983536917108 -0.18065907193164341 0 -0.034850656170665142 -0.1906012446070581 0 -0.0093425470342544496 -0.15665178135371241 0 -0.022096601602459739 -0.1736265129803852 0 -0.028048893606467569 -0.161159501661643 0 -0.022096601602459739 -0.1736265129803852 0 -0.028048893606467569 -0.161159501661643 0 -0.035459983536917108 -0.18065907193164341 0 -0.0093425470342544496 -0.15665178135371241 0 -0.022096601602459739 -0.1736265129803852 0 -0.028048893606467569 -0.161159501661643 0 -0.035459983536917108 -0.18065907193164341 0 -0.037328902260247467 -0.17224555188036131 0 -0.037666845761317853 -0.16219064511888501 0 -0.034389610927260728 -0.1509638806338974 0 -0.043202836967764023 -0.156186707572182 0 -0.028048893606467569 -0.161159501661643 0 -0.037666845761317853 -0.16219064511888501 0 -0.034389610927260728 -0.1509638806338974 0 -0.028048893606467569 -0.161159501661643 0 -0.035459983536917108 -0.18065907193164341 0 -0.028048893606467569 -0.161159501661643 0 -0.037666845761317853 -0.16219064511888501 0 -0.037328902260247467 -0.17224555188036131 0 -0.037666845761317853 -0.16219064511888501 0 -0.045590178371679793 -0.16690624467228121 0 -0.037328902260247467 -0.17224555188036131 0 -0.037666845761317853 -0.16219064511888501 0 -0.045590178371679793 -0.16690624467228121 0 -0.043202836967764023 -0.156186707572182 0 -0.035459983536917108 -0.18065907193164341 0 -0.037328902260247467 -0.17224555188036131 0 -0.042466806499558932 -0.18991076405704621 0 -0.037328902260247467 -0.17224555188036131 0 -0.042466806499558932 -0.18991076405704621 0 -0.037328902260247467 -0.17224555188036131 0 -0.046817246087904052 -0.17787728319090579 0 -0.042466806499558932 -0.18991076405704621 0 -0.045590178371679793 -0.16690624467228121 0 -0.037328902260247467 -0.17224555188036131 0 -0.046817246087904052 -0.17787728319090579 0 -0.046817246087904052 -0.17787728319090579 0 -0.049279405589077167 -0.1858042962602017 0 -0.042466806499558932 -0.18991076405704621 0 -0.049279405589077167 -0.1858042962602017 0 -0.052440446603231772 -0.17922181924169051 0 -0.059737422255623299 -0.1810255240602989 0 -0.046817246087904052 -0.17787728319090579 0 -0.049279405589077167 -0.1858042962602017 0 -0.052440446603231772 -0.17922181924169051 0 -0.045590178371679793 -0.16690624467228121 0 -0.046817246087904052 -0.17787728319090579 0 -0.053927712480322562 -0.17218017345535569 0 -0.046817246087904052 -0.17787728319090579 0 -0.052440446603231772 -0.17922181924169051 0 -0.053927712480322562 -0.17218017345535569 0 -0.052440446603231772 -0.17922181924169051 0 -0.053927712480322562 -0.17218017345535569 0 -0.059737422255623299 -0.1810255240602989 0 -0.053927712480322562 -0.17218017345535569 0 -0.059737422255623299 -0.1810255240602989 0 -0.065133027963958062 -0.16960511831128669 0 -0.045590178371679793 -0.16690624467228121 0 -0.055103794235688071 -0.15771688978993459 0 -0.043202836967764023 -0.156186707572182 0 -0.045590178371679793 -0.16690624467228121 0 -0.053927712480322562 -0.17218017345535569 0 -0.055103794235688071 -0.15771688978993459 0 -0.053927712480322562 -0.17218017345535569 0 -0.055103794235688071 -0.15771688978993459 0 -0.065133027963958062 -0.16960511831128669 0 -0.055103794235688071 -0.15771688978993459 0 -0.043202836967764023 -0.156186707572182 0 -0.044904626852016058 -0.14125732255128601 0 -0.055103794235688071 -0.15771688978993459 0 -0.044904626852016058 -0.14125732255128601 0 -0.0638937006377681 -0.1417377917984001 0 -0.059829794975131169 -0.1207435158767198 0 -0.044904626852016058 -0.14125732255128601 0 -0.0638937006377681 -0.1417377917984001 0 -0.059829794975131169 -0.1207435158767198 0 -0.03855554376917994 -0.1178782609386621 0 -0.044904626852016058 -0.14125732255128601 0 -0.03855554376917994 -0.1178782609386621 0 -0.02063780367601635 -0.14165993139164329 0 -0.044904626852016058 -0.14125732255128601 0 -0.02063780367601635 -0.14165993139164329 0 -0.034389610927260728 -0.1509638806338974 0 -0.044904626852016058 -0.14125732255128601 0 -0.034389610927260728 -0.1509638806338974 0 -0.043202836967764023 -0.156186707572182 0 -0.044904626852016058 -0.14125732255128601 0 -0.016461416315424599 -0.24565294134489449 0 -0.016767267831895999 -0.23183306162453979 0 -0.034816988989392388 -0.24467627063641609 0 -0.01553418108153717 -0.25944507154498458 0 -0.016461416315424599 -0.24565294134489449 0 -0.034816988989392388 -0.24467627063641609 0 -0.016461416315424599 -0.24565294134489449 0 -0.0056769124435055267 -0.2498402483549487 0 -0.0051559884870187138 -0.2407307696715815 0 -0.0056769124435055267 -0.2498402483549487 0 -0.0051559884870187138 -0.2407307696715815 0 0.0056956609450451471 -0.2455021219393467 0 -0.016461416315424599 -0.24565294134489449 0 -0.0051559884870187138 -0.2407307696715815 0 -0.016767267831895999 -0.23183306162453979 0 -0.0059761213381229446 -0.2188067746504132 0 -0.016767267831895999 -0.23183306162453979 0 0.0011048952862743721 -0.2301488496309107 0 -0.0051559884870187138 -0.2407307696715815 0 -0.016767267831895999 -0.23183306162453979 0 0.0011048952862743721 -0.2301488496309107 0 -0.0059761213381229446 -0.2188067746504132 0 -0.016767267831895999 -0.23183306162453979 0 -0.019891613913332912 -0.21728395878689991 0 -0.016767267831895999 -0.23183306162453979 0 -0.019891613913332912 -0.21728395878689991 0 -0.032976029896697998 -0.2257031663689088 0 -0.016767267831895999 -0.23183306162453979 0 -0.032976029896697998 -0.2257031663689088 0 -0.034816988989392388 -0.24467627063641609 0 -0.021575368818372069 -0.20529502522682491 0 -0.019891613913332912 -0.21728395878689991 0 -0.031296309715682279 -0.21241679695650109 0 -0.019891613913332912 -0.21728395878689991 0 -0.031296309715682279 -0.21241679695650109 0 -0.032976029896697998 -0.2257031663689088 0 -0.021575368818372069 -0.20529502522682491 0 -0.030374030549851751 -0.20199289740422291 0 -0.031296309715682279 -0.21241679695650109 0 -0.021575368818372069 -0.20529502522682491 0 -0.019891613913332912 -0.21728395878689991 0 -0.0096704727895799512 -0.20630454215375121 0 -0.0059761213381229446 -0.2188067746504132 0 -0.0096704727895799512 -0.20630454215375121 0 0.00624130957561369 -0.20495453016200471 0 -0.0059761213381229446 -0.2188067746504132 0 -0.019891613913332912 -0.21728395878689991 0 -0.0096704727895799512 -0.20630454215375121 0 -0.0096704727895799512 -0.20630454215375121 0 -0.0141894049744086 -0.1960344994608621 0 -0.0036762998895434121 -0.19595119679920611 0 -0.0046190280866550953 -0.18583163642080541 0 -0.021395201946888528 -0.18610441864621849 0 -0.0141894049744086 -0.1960344994608621 0 -0.0096704727895799512 -0.20630454215375121 0 -0.0036762998895434121 -0.19595119679920611 0 0.00624130957561369 -0.20495453016200471 0 -0.021575368818372069 -0.20529502522682491 0 -0.0096704727895799512 -0.20630454215375121 0 -0.0141894049744086 -0.1960344994608621 0 -0.0046190280866550953 -0.18583163642080541 0 -0.0141894049744086 -0.1960344994608621 0 -0.0036762998895434121 -0.19595119679920611 0 -0.0046190280866550953 -0.18583163642080541 0 -0.0036762998895434121 -0.19595119679920611 0 0.0057136835058208182 -0.19152004318334401 0 -0.021395201946888528 -0.18610441864621849 0 -0.0141894049744086 -0.1960344994608621 0 -0.02188350157238023 -0.1973567101845321 0 -0.021395201946888528 -0.18610441864621849 0 -0.040758690343256722 -0.20585360942467101 0 -0.021395201946888528 -0.18610441864621849 0 -0.02188350157238023 -0.1973567101845321 0 -0.030374030549851751 -0.20199289740422291 0 -0.021395201946888528 -0.18610441864621849 0 -0.030374030549851751 -0.20199289740422291 0 -0.040758690343256722 -0.20585360942467101 0 -0.021575368818372069 -0.20529502522682491 0 -0.0141894049744086 -0.1960344994608621 0 -0.02188350157238023 -0.1973567101845321 0 -0.021575368818372069 -0.20529502522682491 0 -0.02188350157238023 -0.1973567101845321 0 -0.030374030549851751 -0.20199289740422291 0 -0.042334545951157612 -0.20056176499436701 0 -0.042466806499558932 -0.18991076405704621 0 -0.047604710738870473 -0.207575976233731 0 -0.035459983536917108 -0.18065907193164341 0 -0.034850656170665142 -0.1906012446070581 0 -0.042334545951157612 -0.20056176499436701 0 -0.035459983536917108 -0.18065907193164341 0 -0.042334545951157612 -0.20056176499436701 0 -0.042466806499558932 -0.18991076405704621 0 -0.021395201946888528 -0.18610441864621849 0 -0.034850656170665142 -0.1906012446070581 0 -0.040758690343256722 -0.20585360942467101 0 -0.035459983536917108 -0.18065907193164341 0 -0.042334545951157612 -0.20056176499436701 0 -0.042466806499558932 -0.18991076405704621 0 -0.047604710738870473 -0.207575976233731 0 -0.034850656170665142 -0.1906012446070581 0 -0.042334545951157612 -0.20056176499436701 0 -0.034850656170665142 -0.1906012446070581 0 -0.042334545951157612 -0.20056176499436701 0 -0.040758690343256722 -0.20585360942467101 0 -0.049279405589077167 -0.1858042962602017 0 -0.059737422255623299 -0.1810255240602989 0 -0.063933748706048302 -0.19847802801363951 0 -0.049279405589077167 -0.1858042962602017 0 -0.042466806499558932 -0.18991076405704621 0 -0.052045945916778732 -0.1974171298570756 0 -0.042466806499558932 -0.18991076405704621 0 -0.052045945916778732 -0.1974171298570756 0 -0.047604710738870473 -0.207575976233731 0 -0.049279405589077167 -0.1858042962602017 0 -0.063933748706048302 -0.19847802801363951 0 -0.049279405589077167 -0.1858042962602017 0 -0.052045945916778732 -0.1974171298570756 0 -0.063933748706048302 -0.19847802801363951 0 -0.052045945916778732 -0.1974171298570756 0 -0.06317816894965049 -0.20971811963707479 0 -0.063933748706048302 -0.19847802801363951 0 -0.047604710738870473 -0.207575976233731 0 -0.054099796897247351 -0.22990746972784709 0 -0.047604710738870473 -0.207575976233731 0 -0.053346217753035767 -0.21521751016138671 0 -0.054099796897247351 -0.22990746972784709 0 -0.052045945916778732 -0.1974171298570756 0 -0.047604710738870473 -0.207575976233731 0 -0.06317816894965049 -0.20971811963707479 0 -0.047604710738870473 -0.207575976233731 0 -0.041312166748254643 -0.2181205437808203 0 -0.054099796897247351 -0.22990746972784709 0 -0.047604710738870473 -0.207575976233731 0 -0.053346217753035767 -0.21521751016138671 0 -0.06317816894965049 -0.20971811963707479 0 -0.053346217753035767 -0.21521751016138671 0 -0.066343944360135035 -0.22052961474745969 0 -0.06317816894965049 -0.20971811963707479 0 -0.047604710738870473 -0.207575976233731 0 -0.053346217753035767 -0.21521751016138671 0 -0.047604710738870473 -0.207575976233731 0 -0.041312166748254643 -0.2181205437808203 0 -0.040758690343256722 -0.20585360942467101 0 -0.042334545951157612 -0.20056176499436701 0 -0.047604710738870473 -0.207575976233731 0 -0.040758690343256722 -0.20585360942467101 0 -0.042334545951157612 -0.20056176499436701 0 -0.047604710738870473 -0.207575976233731 0 -0.030374030549851751 -0.20199289740422291 0 -0.040758690343256722 -0.20585360942467101 0 -0.031296309715682279 -0.21241679695650109 0 -0.041312166748254643 -0.2181205437808203 0 -0.040758690343256722 -0.20585360942467101 0 -0.031296309715682279 -0.21241679695650109 0 -0.041312166748254643 -0.2181205437808203 0 -0.031296309715682279 -0.21241679695650109 0 -0.032976029896697998 -0.2257031663689088 0 -0.041312166748254643 -0.2181205437808203 0 -0.032976029896697998 -0.2257031663689088 0 -0.054099796897247351 -0.22990746972784709 0 -0.032976029896697998 -0.2257031663689088 0 -0.054099796897247351 -0.22990746972784709 0 -0.034816988989392388 -0.24467627063641609 0 -0.054099796897247351 -0.22990746972784709 0 -0.066343944360135035 -0.22052961474745969 0 -0.053346217753035767 -0.21521751016138671 0 -0.054099796897247351 -0.22990746972784709 0 -0.066343944360135035 -0.22052961474745969 0 -0.054099796897247351 -0.22990746972784709 0 -0.05968357260973943 -0.24910568326275209 0 -0.054099796897247351 -0.22990746972784709 0 -0.05968357260973943 -0.24910568326275209 0 -0.034816988989392388 -0.24467627063641609 0 -0.054099796897247351 -0.22990746972784709 0 -0.05968357260973943 -0.24910568326275209 0 -0.067243326760131936 -0.23408263028617529 0 -0.054099796897247351 -0.22990746972784709 0 -0.034816988989392388 -0.24467627063641609 0 -0.086536375327346746 -0.2395309939404047 0 -0.095788897479337012 -0.2260277862863917 0 -0.095354488531948001 -0.24934129224895829 0 -0.084912236002220559 -0.25132134058067351 0 -0.086536375327346746 -0.2395309939404047 0 -0.095354488531948001 -0.24934129224895829 0 -0.086536375327346746 -0.2395309939404047 0 -0.077563817379835157 -0.24244281897202369 0 -0.079062437243392625 -0.22852173161397701 0 -0.073811911824308435 -0.25540473286183141 0 -0.084912236002220559 -0.25132134058067351 0 -0.077563817379835157 -0.24244281897202369 0 -0.084912236002220559 -0.25132134058067351 0 -0.086536375327346746 -0.2395309939404047 0 -0.077563817379835157 -0.24244281897202369 0 -0.05968357260973943 -0.24910568326275209 0 -0.077563817379835157 -0.24244281897202369 0 -0.067243326760131936 -0.23408263028617529 0 -0.073811911824308435 -0.25540473286183141 0 -0.05968357260973943 -0.24910568326275209 0 -0.077563817379835157 -0.24244281897202369 0 -0.077563817379835157 -0.24244281897202369 0 -0.067243326760131936 -0.23408263028617529 0 -0.079062437243392625 -0.22852173161397701 0 -0.066343944360135035 -0.22052961474745969 0 -0.079062437243392625 -0.22852173161397701 0 -0.078588091823023176 -0.2111517597670729 0 -0.067243326760131936 -0.23408263028617529 0 -0.066343944360135035 -0.22052961474745969 0 -0.079062437243392625 -0.22852173161397701 0 -0.054099796897247351 -0.22990746972784709 0 -0.067243326760131936 -0.23408263028617529 0 -0.066343944360135035 -0.22052961474745969 0 -0.086536375327346746 -0.2395309939404047 0 -0.079062437243392625 -0.22852173161397701 0 -0.095788897479337012 -0.2260277862863917 0 -0.079062437243392625 -0.22852173161397701 0 -0.078588091823023176 -0.2111517597670729 0 -0.095788897479337012 -0.2260277862863917 0 -0.078588091823023176 -0.2111517597670729 0 -0.096319134376921064 -0.197571463856268 0 -0.095788897479337012 -0.2260277862863917 0 -0.078588091823023176 -0.2111517597670729 0 -0.096319134376921064 -0.197571463856268 0 -0.078588091823023176 -0.2111517597670729 0 -0.095788897479337012 -0.2260277862863917 0 -0.066343944360135035 -0.22052961474745969 0 -0.078588091823023176 -0.2111517597670729 0 -0.066343944360135035 -0.22052961474745969 0 -0.078588091823023176 -0.2111517597670729 0 -0.06317816894965049 -0.20971811963707479 0 -0.078588091823023176 -0.2111517597670729 0 -0.06317816894965049 -0.20971811963707479 0 -0.063933748706048302 -0.19847802801363951 0 -0.078588091823023176 -0.2111517597670729 0 -0.063933748706048302 -0.19847802801363951 0 -0.063933748706048302 -0.19847802801363951 0 -0.080032599427896228 -0.19467240400081801 0 -0.07254297608248067 -0.18189351685812991 0 -0.078588091823023176 -0.2111517597670729 0 -0.063933748706048302 -0.19847802801363951 0 -0.080032599427896228 -0.19467240400081801 0 -0.078588091823023176 -0.2111517597670729 0 -0.080032599427896228 -0.19467240400081801 0 -0.096319134376921064 -0.197571463856268 0 -0.080032599427896228 -0.19467240400081801 0 -0.096319134376921064 -0.197571463856268 0 -0.085277399835823053 -0.1838647808221941 0 -0.096319134376921064 -0.197571463856268 0 -0.1127998200032357 -0.2093472517028343 0 -0.1111910786897109 -0.18618096586818919 0 -0.096319134376921064 -0.197571463856268 0 -0.096687332038740997 -0.17781133129953711 0 -0.096319134376921064 -0.197571463856268 0 -0.1111910786897109 -0.18618096586818919 0 -0.12135527920018969 -0.19711413213061271 0 -0.1127998200032357 -0.2093472517028343 0 -0.1111910786897109 -0.18618096586818919 0 -0.1127998200032357 -0.2093472517028343 0 -0.12226152621943021 -0.22725697793187441 0 -0.1324206834795176 -0.21437754936458631 0 -0.12135527920018969 -0.19711413213061271 0 -0.1127998200032357 -0.2093472517028343 0 -0.1324206834795176 -0.21437754936458631 0 -0.096319134376921064 -0.197571463856268 0 -0.1127998200032357 -0.2093472517028343 0 -0.095788897479337012 -0.2260277862863917 0 -0.096319134376921064 -0.197571463856268 0 -0.095788897479337012 -0.2260277862863917 0 -0.1127998200032357 -0.2093472517028343 0 -0.095788897479337012 -0.2260277862863917 0 -0.1103010585080126 -0.22483687885550349 0 -0.095788897479337012 -0.2260277862863917 0 -0.1121023689593434 -0.24013640649916301 0 -0.095788897479337012 -0.2260277862863917 0 -0.1103010585080126 -0.22483687885550349 0 -0.1121023689593434 -0.24013640649916301 0 -0.1127998200032357 -0.2093472517028343 0 -0.1103010585080126 -0.22483687885550349 0 -0.12226152621943021 -0.22725697793187441 0 -0.1103010585080126 -0.22483687885550349 0 -0.12226152621943021 -0.22725697793187441 0 -0.1121023689593434 -0.24013640649916301 0 -0.12226152621943021 -0.22725697793187441 0 -0.1121023689593434 -0.24013640649916301 0 -0.13362675178396591 -0.25875165604669192 0 -0.1121023689593434 -0.24013640649916301 0 -0.13362675178396591 -0.25875165604669192 0 -0.1121023689593434 -0.24013640649916301 0 -0.128509398016278 -0.24056580828855359 0 -0.12226152621943021 -0.22725697793187441 0 -0.1121023689593434 -0.24013640649916301 0 -0.128509398016278 -0.24056580828855359 0 -0.099461273068779596 -0.25616235110919527 0 -0.1121023689593434 -0.24013640649916301 0 -0.095354488531948001 -0.24934129224895829 0 -0.095788897479337012 -0.2260277862863917 0 -0.1121023689593434 -0.24013640649916301 0 -0.095354488531948001 -0.24934129224895829 0 -0.095788897479337012 -0.2260277862863917 0 -0.095354488531948001 -0.24934129224895829 0 -0.099461273068779596 -0.25616235110919527 0 -0.1121023689593434 -0.24013640649916301 0 -0.080904924898040534 -0.1448094044119837 0 -0.097055529700560361 -0.15805119874280629 0 -0.096207336864781626 -0.1415291778675356 0 -0.080904924898040534 -0.1448094044119837 0 -0.079876034051492503 -0.12769071503318899 0 -0.096207336864781626 -0.1415291778675356 0 -0.096813241815559004 -0.1179122088520235 0 -0.079876034051492503 -0.12769071503318899 0 -0.096207336864781626 -0.1415291778675356 0 -0.059829794975131169 -0.1207435158767198 0 -0.079876034051492503 -0.12769071503318899 0 -0.0638937006377681 -0.1417377917984001 0 -0.080904924898040534 -0.1448094044119837 0 -0.079876034051492503 -0.12769071503318899 0 -0.0638937006377681 -0.1417377917984001 0 -0.080904924898040534 -0.1448094044119837 0 -0.069074476376307967 -0.15614487016875059 0 -0.080804957253075835 -0.1673751880962176 0 -0.055103794235688071 -0.15771688978993459 0 -0.0638937006377681 -0.1417377917984001 0 -0.069074476376307967 -0.15614487016875059 0 -0.080904924898040534 -0.1448094044119837 0 -0.0638937006377681 -0.1417377917984001 0 -0.069074476376307967 -0.15614487016875059 0 -0.069074476376307967 -0.15614487016875059 0 -0.065133027963958062 -0.16960511831128669 0 -0.080804957253075835 -0.1673751880962176 0 -0.055103794235688071 -0.15771688978993459 0 -0.069074476376307967 -0.15614487016875059 0 -0.065133027963958062 -0.16960511831128669 0 -0.065133027963958062 -0.16960511831128669 0 -0.07254297608248067 -0.18189351685812991 0 -0.080804957253075835 -0.1673751880962176 0 -0.059737422255623299 -0.1810255240602989 0 -0.063933748706048302 -0.19847802801363951 0 -0.07254297608248067 -0.18189351685812991 0 -0.059737422255623299 -0.1810255240602989 0 -0.065133027963958062 -0.16960511831128669 0 -0.07254297608248067 -0.18189351685812991 0 -0.07254297608248067 -0.18189351685812991 0 -0.085277399835823053 -0.1838647808221941 0 -0.080804957253075835 -0.1673751880962176 0 -0.085277399835823053 -0.1838647808221941 0 -0.080804957253075835 -0.1673751880962176 0 -0.096687332038740997 -0.17781133129953711 0 -0.096319134376921064 -0.197571463856268 0 -0.085277399835823053 -0.1838647808221941 0 -0.096687332038740997 -0.17781133129953711 0 -0.080032599427896228 -0.19467240400081801 0 -0.07254297608248067 -0.18189351685812991 0 -0.085277399835823053 -0.1838647808221941 0 -0.080904924898040534 -0.1448094044119837 0 -0.080804957253075835 -0.1673751880962176 0 -0.097055529700560361 -0.15805119874280629 0 -0.080804957253075835 -0.1673751880962176 0 -0.097055529700560361 -0.15805119874280629 0 -0.096687332038740997 -0.17781133129953711 0 -0.097055529700560361 -0.15805119874280629 0 -0.096687332038740997 -0.17781133129953711 0 -0.097055529700560361 -0.15805119874280629 0 -0.11189405277450749 -0.16821118694193241 0 -0.1170227076456917 -0.14738468082655801 0 -0.097055529700560361 -0.15805119874280629 0 -0.096687332038740997 -0.17781133129953711 0 -0.11189405277450749 -0.16821118694193241 0 -0.096319134376921064 -0.197571463856268 0 -0.096687332038740997 -0.17781133129953711 0 -0.1111910786897109 -0.18618096586818919 0 -0.096687332038740997 -0.17781133129953711 0 -0.1111910786897109 -0.18618096586818919 0 -0.11189405277450749 -0.16821118694193241 0 -0.1229668705502686 -0.17764299287837629 0 -0.1111910786897109 -0.18618096586818919 0 -0.11189405277450749 -0.16821118694193241 0 -0.12135527920018969 -0.19711413213061271 0 -0.1229668705502686 -0.17764299287837629 0 -0.1111910786897109 -0.18618096586818919 0 -0.11189405277450749 -0.16821118694193241 0 -0.1170227076456917 -0.14738468082655801 0 -0.13393669474227871 -0.161624132702233 0 -0.1229668705502686 -0.17764299287837629 0 -0.11189405277450749 -0.16821118694193241 0 -0.13393669474227871 -0.161624132702233 0 -0.097055529700560361 -0.15805119874280629 0 -0.1170227076456917 -0.14738468082655801 0 -0.096207336864781626 -0.1415291778675356 0 -0.1170227076456917 -0.14738468082655801 0 -0.096207336864781626 -0.1415291778675356 0 -0.10806753436944171 -0.13175920839317781 0 -0.096813241815559004 -0.1179122088520235 0 -0.096207336864781626 -0.1415291778675356 0 -0.10806753436944171 -0.13175920839317781 0 -0.11540526837687171 -0.1154874301373815 0 -0.10806753436944171 -0.13175920839317781 0 -0.12136262411702101 -0.12981934099527351 0 -0.1170227076456917 -0.14738468082655801 0 -0.12136262411702101 -0.12981934099527351 0 -0.1346947003736593 -0.13524742437105641 0 -0.1170227076456917 -0.14738468082655801 0 -0.10806753436944171 -0.13175920839317781 0 -0.12136262411702101 -0.12981934099527351 0 -0.12136262411702101 -0.12981934099527351 0 -0.1346947003736593 -0.13524742437105641 0 -0.13205461353806941 -0.12018141026988099 0 -0.1346947003736593 -0.13524742437105641 0 -0.13205461353806941 -0.12018141026988099 0 -0.1346947003736593 -0.13524742437105641 0 -0.1349564972342164 -0.1261375455692765 0 -0.13944766982355439 -0.12527199051924881 0 -0.1346947003736593 -0.13524742437105641 0 -0.1349564972342164 -0.1261375455692765 0 -0.1346947003736593 -0.13524742437105641 0 -0.1349564972342164 -0.1261375455692765 0 -0.13205461353806941 -0.12018141026988099 0 -0.15057374130138099 -0.1348661304149496 0 -0.16353030891812059 -0.1312329448517251 0 -0.14571402836902131 -0.11759358076942771 0 -0.1346947003736593 -0.13524742437105641 0 -0.13944766982355439 -0.12527199051924881 0 -0.15057374130138099 -0.1348661304149496 0 -0.13944766982355439 -0.12527199051924881 0 -0.15057374130138099 -0.1348661304149496 0 -0.14571402836902131 -0.11759358076942771 0 -0.1346947003736593 -0.13524742437105641 0 -0.15344328023174439 -0.1533306647458941 0 -0.1398081517814129 -0.16442802933311371 0 -0.1346947003736593 -0.13524742437105641 0 -0.15057374130138099 -0.1348661304149496 0 -0.15344328023174439 -0.1533306647458941 0 -0.1346947003736593 -0.13524742437105641 0 -0.1398081517814129 -0.16442802933311371 0 -0.1170227076456917 -0.14738468082655801 0 -0.1346947003736593 -0.13524742437105641 0 -0.13393669474227871 -0.161624132702233 0 -0.1346947003736593 -0.13524742437105641 0 -0.13393669474227871 -0.161624132702233 0 -0.1346947003736593 -0.13524742437105641 0 -0.13393669474227871 -0.161624132702233 0 -0.1398081517814129 -0.16442802933311371 0 -0.13393669474227871 -0.161624132702233 0 -0.1398081517814129 -0.16442802933311371 0 -0.13317868911089839 -0.18800084103340961 0 -0.1398081517814129 -0.16442802933311371 0 -0.13317868911089839 -0.18800084103340961 0 -0.144921603189165 -0.19360863429517131 0 -0.1229668705502686 -0.17764299287837629 0 -0.13393669474227871 -0.161624132702233 0 -0.13317868911089839 -0.18800084103340961 0 -0.13393669474227871 -0.161624132702233 0 -0.13317868911089839 -0.18800084103340961 0 -0.1398081517814129 -0.16442802933311371 0 -0.15706326528185 -0.17736319250812169 0 -0.144921603189165 -0.19360863429517131 0 -0.15706326528185 -0.17736319250812169 0 -0.144921603189165 -0.19360863429517131 0 -0.1398081517814129 -0.16442802933311371 0 -0.144921603189165 -0.19360863429517131 0 -0.15344328023174439 -0.1533306647458941 0 -0.1398081517814129 -0.16442802933311371 0 -0.15706326528185 -0.17736319250812169 0 -0.16920492737453641 -0.16111775072107309 0 -0.15706326528185 -0.17736319250812169 0 -0.15344328023174439 -0.1533306647458941 0 -0.16920492737453641 -0.16111775072107309 0 -0.15706326528185 -0.17736319250812169 0 -0.15706326528185 -0.17736319250812169 0 -0.17490913606282291 -0.1819091978765382 0 -0.16070830400919181 -0.19372081726520371 0 -0.16920492737453641 -0.16111775072107309 0 -0.15706326528185 -0.17736319250812169 0 -0.17490913606282291 -0.1819091978765382 0 -0.17490913606282291 -0.1819091978765382 0 -0.18327406973129351 -0.19131578313752351 0 -0.19135920561351341 -0.17433955488834749 0 -0.17490913606282291 -0.1819091978765382 0 -0.182144438597209 -0.16135451470351531 0 -0.19135920561351341 -0.17433955488834749 0 -0.16920492737453641 -0.16111775072107309 0 -0.17490913606282291 -0.1819091978765382 0 -0.182144438597209 -0.16135451470351531 0 -0.182144438597209 -0.16135451470351531 0 -0.1866929753492958 -0.14896526780774039 0 -0.19179481197159351 -0.1595449214275102 0 -0.16920492737453641 -0.16111775072107309 0 -0.18134658946722021 -0.1448723089340225 0 -0.16920492737453641 -0.16111775072107309 0 -0.182144438597209 -0.16135451470351531 0 -0.18134658946722021 -0.1448723089340225 0 -0.16920492737453641 -0.16111775072107309 0 -0.18134658946722021 -0.1448723089340225 0 -0.16583343816549259 -0.14614631808542419 0 -0.182144438597209 -0.16135451470351531 0 -0.1866929753492958 -0.14896526780774039 0 -0.18134658946722021 -0.1448723089340225 0 -0.1866929753492958 -0.14896526780774039 0 -0.18134658946722021 -0.1448723089340225 0 -0.18966165995565851 -0.1437208945276359 0 -0.18134658946722021 -0.1448723089340225 0 -0.1843914747167652 -0.14079827807300449 0 -0.18966165995565851 -0.1437208945276359 0 -0.18134658946722021 -0.1448723089340225 0 -0.1843914747167652 -0.14079827807300449 0 -0.1866929753492958 -0.14896526780774039 0 -0.18134658946722021 -0.1448723089340225 0 -0.18011991504525959 -0.13428014659808599 0 -0.16353030891812059 -0.1312329448517251 0 -0.18026544503748429 -0.12284446647832691 0 -0.18134658946722021 -0.1448723089340225 0 -0.16353030891812059 -0.1312329448517251 0 -0.18134658946722021 -0.1448723089340225 0 -0.18011991504525959 -0.13428014659808599 0 -0.16353030891812059 -0.1312329448517251 0 -0.1843914747167652 -0.14079827807300449 0 -0.18011991504525959 -0.13428014659808599 0 -0.19106575708670781 -0.13165273465335089 0 -0.18134658946722021 -0.1448723089340225 0 -0.1843914747167652 -0.14079827807300449 0 -0.18011991504525959 -0.13428014659808599 0 -0.18011991504525959 -0.13428014659808599 0 -0.19106575708670781 -0.13165273465335089 0 -0.18026544503748429 -0.12284446647832691 0 -0.15057374130138099 -0.1348661304149496 0 -0.16353030891812059 -0.1312329448517251 0 -0.16583343816549259 -0.14614631808542419 0 -0.15344328023174439 -0.1533306647458941 0 -0.16920492737453641 -0.16111775072107309 0 -0.16583343816549259 -0.14614631808542419 0 -0.15057374130138099 -0.1348661304149496 0 -0.15344328023174439 -0.1533306647458941 0 -0.16583343816549259 -0.14614631808542419 0 -0.18134658946722021 -0.1448723089340225 0 -0.16353030891812059 -0.1312329448517251 0 -0.16583343816549259 -0.14614631808542419 0 -0.1533738733674842 -0.24456282998601989 0 -0.14898470442372999 -0.23235829871012001 0 -0.16034112795132391 -0.23665618143705311 0 -0.14095758992927279 -0.24453912381761109 0 -0.13584360571775039 -0.23223422276300201 0 -0.14898470442372999 -0.23235829871012001 0 -0.1533738733674842 -0.24456282998601989 0 -0.14095758992927279 -0.24453912381761109 0 -0.14898470442372999 -0.23235829871012001 0 -0.15079485233452269 -0.25897635658865781 0 -0.1533738733674842 -0.24456282998601989 0 -0.14095758992927279 -0.24453912381761109 0 -0.13362675178396591 -0.25875165604669192 0 -0.14095758992927279 -0.24453912381761109 0 -0.128509398016278 -0.24056580828855359 0 -0.14095758992927279 -0.24453912381761109 0 -0.128509398016278 -0.24056580828855359 0 -0.13584360571775039 -0.23223422276300201 0 -0.13584360571775039 -0.23223422276300201 0 -0.1356640853400877 -0.22382548988487971 0 -0.1431183454176666 -0.2261798052996126 0 -0.12226152621943021 -0.22725697793187441 0 -0.128509398016278 -0.24056580828855359 0 -0.13584360571775039 -0.23223422276300201 0 -0.12226152621943021 -0.22725697793187441 0 -0.13584360571775039 -0.23223422276300201 0 -0.1356640853400877 -0.22382548988487971 0 -0.12226152621943021 -0.22725697793187441 0 -0.13234325268120689 -0.2170719483219995 0 -0.1324206834795176 -0.21437754936458631 0 -0.12226152621943021 -0.22725697793187441 0 -0.1356640853400877 -0.22382548988487971 0 -0.13234325268120689 -0.2170719483219995 0 -0.12226152621943021 -0.22725697793187441 0 -0.1324206834795176 -0.21437754936458631 0 -0.1356640853400877 -0.22382548988487971 0 -0.13600967558342739 -0.21851038647811891 0 -0.13234325268120689 -0.2170719483219995 0 -0.1356640853400877 -0.22382548988487971 0 -0.14042769370127489 -0.22129763133345981 0 -0.1431183454176666 -0.2261798052996126 0 -0.1356640853400877 -0.22382548988487971 0 -0.14042769370127489 -0.22129763133345981 0 -0.13600967558342739 -0.21851038647811891 0 -0.14601272267297299 -0.21958904681451011 0 -0.1431183454176666 -0.2261798052996126 0 -0.15125312995189821 -0.22245375953888061 0 -0.14042769370127489 -0.22129763133345981 0 -0.14601272267297299 -0.21958904681451011 0 -0.1391926627150494 -0.2159793134856694 0 -0.14042769370127489 -0.22129763133345981 0 -0.14601272267297299 -0.21958904681451011 0 -0.1431183454176666 -0.2261798052996126 0 -0.13584360571775039 -0.23223422276300201 0 -0.1431183454176666 -0.2261798052996126 0 -0.14898470442372999 -0.23235829871012001 0 -0.1431183454176666 -0.2261798052996126 0 -0.14898470442372999 -0.23235829871012001 0 -0.15125312995189821 -0.22245375953888061 0 -0.14898470442372999 -0.23235829871012001 0 -0.15125312995189821 -0.22245375953888061 0 -0.15990224472473921 -0.22591753027475711 0 -0.14601272267297299 -0.21958904681451011 0 -0.15125312995189821 -0.22245375953888061 0 -0.15111046133480771 -0.2135896079216727 0 -0.15125312995189821 -0.22245375953888061 0 -0.15111046133480771 -0.2135896079216727 0 -0.15839030113747241 -0.2170882682126109 0 -0.15111046133480771 -0.2135896079216727 0 -0.15891856899790199 -0.20737265827202631 0 -0.15839030113747241 -0.2170882682126109 0 -0.15111046133480771 -0.2135896079216727 0 -0.150437001027418 -0.2052591941121481 0 -0.15891856899790199 -0.20737265827202631 0 -0.15111046133480771 -0.2135896079216727 0 -0.150437001027418 -0.2052591941121481 0 -0.14623890441198159 -0.20991425269601471 0 -0.150437001027418 -0.2052591941121481 0 -0.15217717415594731 -0.19983110768133819 0 -0.15891856899790199 -0.20737265827202631 0 -0.150437001027418 -0.2052591941121481 0 -0.14623890441198159 -0.20991425269601471 0 -0.1439347106279443 -0.20465685738881001 0 -0.1439347106279443 -0.20465685738881001 0 -0.14112694509003421 -0.20968608510740261 0 -0.13844868628929041 -0.20226934267978511 0 -0.14623890441198159 -0.20991425269601471 0 -0.1439347106279443 -0.20465685738881001 0 -0.14112694509003421 -0.20968608510740261 0 -0.14623890441198159 -0.20991425269601471 0 -0.14112694509003421 -0.20968608510740261 0 -0.14434025848088039 -0.21434611063381451 0 -0.14112694509003421 -0.20968608510740261 0 -0.14434025848088039 -0.21434611063381451 0 -0.1391926627150494 -0.2159793134856694 0 -0.15111046133480771 -0.2135896079216727 0 -0.14623890441198159 -0.20991425269601471 0 -0.14434025848088039 -0.21434611063381451 0 -0.14601272267297299 -0.21958904681451011 0 -0.15111046133480771 -0.2135896079216727 0 -0.14434025848088039 -0.21434611063381451 0 -0.14601272267297299 -0.21958904681451011 0 -0.14434025848088039 -0.21434611063381451 0 -0.1391926627150494 -0.2159793134856694 0 -0.14042769370127489 -0.22129763133345981 0 -0.1391926627150494 -0.2159793134856694 0 -0.13600967558342739 -0.21851038647811891 0 -0.13511777611775461 -0.21095826850454691 0 -0.1324206834795176 -0.21437754936458631 0 -0.13317868911089839 -0.18800084103340961 0 -0.14112694509003421 -0.20968608510740261 0 -0.1391926627150494 -0.2159793134856694 0 -0.13511777611775461 -0.21095826850454691 0 -0.1391926627150494 -0.2159793134856694 0 -0.13511777611775461 -0.21095826850454691 0 -0.1324206834795176 -0.21437754936458631 0 -0.13511777611775461 -0.21095826850454691 0 -0.1324206834795176 -0.21437754936458631 0 -0.13600967558342739 -0.21851038647811891 0 -0.13234325268120689 -0.2170719483219995 0 -0.1324206834795176 -0.21437754936458631 0 -0.1391926627150494 -0.2159793134856694 0 -0.13600967558342739 -0.21851038647811891 0 -0.1324206834795176 -0.21437754936458631 0 -0.13234325268120689 -0.2170719483219995 0 -0.1324206834795176 -0.21437754936458631 0 -0.14112694509003421 -0.20968608510740261 0 -0.13511777611775461 -0.21095826850454691 0 -0.13844868628929041 -0.20226934267978511 0 -0.13511777611775461 -0.21095826850454691 0 -0.13844868628929041 -0.20226934267978511 0 -0.13317868911089839 -0.18800084103340961 0 -0.12135527920018969 -0.19711413213061271 0 -0.1324206834795176 -0.21437754936458631 0 -0.13317868911089839 -0.18800084103340961 0 -0.1324206834795176 -0.21437754936458631 0 -0.13317868911089839 -0.18800084103340961 0 -0.12135527920018969 -0.19711413213061271 0 -0.1229668705502686 -0.17764299287837629 0 -0.13317868911089839 -0.18800084103340961 0 -0.13844868628929041 -0.20226934267978511 0 -0.13317868911089839 -0.18800084103340961 0 -0.144921603189165 -0.19360863429517131 0 -0.144921603189165 -0.19360863429517131 0 -0.15217717415594731 -0.19983110768133819 0 -0.16070830400919181 -0.19372081726520371 0 -0.15706326528185 -0.17736319250812169 0 -0.144921603189165 -0.19360863429517131 0 -0.16070830400919181 -0.19372081726520371 0 -0.13844868628929041 -0.20226934267978511 0 -0.144921603189165 -0.19360863429517131 0 -0.14590039355605819 -0.19919423446214149 0 -0.13844868628929041 -0.20226934267978511 0 -0.144921603189165 -0.19360863429517131 0 -0.1439347106279443 -0.20465685738881001 0 -0.13844868628929041 -0.20226934267978511 0 -0.14590039355605819 -0.19919423446214149 0 -0.150437001027418 -0.2052591941121481 0 -0.1439347106279443 -0.20465685738881001 0 -0.14590039355605819 -0.19919423446214149 0 -0.144921603189165 -0.19360863429517131 0 -0.14590039355605819 -0.19919423446214149 0 -0.144921603189165 -0.19360863429517131 0 -0.14590039355605819 -0.19919423446214149 0 -0.15217717415594731 -0.19983110768133819 0 -0.150437001027418 -0.2052591941121481 0 -0.14590039355605819 -0.19919423446214149 0 -0.15217717415594731 -0.19983110768133819 0 -0.17490913606282291 -0.1819091978765382 0 -0.16070830400919181 -0.19372081726520371 0 -0.17579375002826489 -0.2001618023420926 0 -0.16070830400919181 -0.19372081726520371 0 -0.16811748771439339 -0.20664710457372759 0 -0.15891856899790199 -0.20737265827202631 0 -0.15217717415594731 -0.19983110768133819 0 -0.16070830400919181 -0.19372081726520371 0 -0.15891856899790199 -0.20737265827202631 0 -0.16070830400919181 -0.19372081726520371 0 -0.17579375002826489 -0.2001618023420926 0 -0.16811748771439339 -0.20664710457372759 0 -0.18327406973129351 -0.19131578313752351 0 -0.17579375002826489 -0.2001618023420926 0 -0.18770935979252601 -0.20756145755911001 0 -0.17490913606282291 -0.1819091978765382 0 -0.18327406973129351 -0.19131578313752351 0 -0.17579375002826489 -0.2001618023420926 0 -0.17579375002826489 -0.2001618023420926 0 -0.17592089995422819 -0.21041185406726151 0 -0.16811748771439339 -0.20664710457372759 0 -0.17579375002826489 -0.2001618023420926 0 -0.17592089995422819 -0.21041185406726151 0 -0.18770935979252601 -0.20756145755911001 0 -0.18030559817870029 -0.22057094717619369 0 -0.19069099713063101 -0.22072323088886031 0 -0.18770935979252601 -0.20756145755911001 0 -0.17592089995422819 -0.21041185406726151 0 -0.18030559817870029 -0.22057094717619369 0 -0.18770935979252601 -0.20756145755911001 0 -0.17592089995422819 -0.21041185406726151 0 -0.16767830405725631 -0.21711795868518349 0 -0.18030559817870029 -0.22057094717619369 0 -0.17592089995422819 -0.21041185406726151 0 -0.16767830405725631 -0.21711795868518349 0 -0.16811748771439339 -0.20664710457372759 0 -0.16767830405725631 -0.21711795868518349 0 -0.16811748771439339 -0.20664710457372759 0 -0.15891856899790199 -0.20737265827202631 0 -0.16767830405725631 -0.21711795868518349 0 -0.15891856899790199 -0.20737265827202631 0 -0.15839030113747241 -0.2170882682126109 0 -0.15125312995189821 -0.22245375953888061 0 -0.15839030113747241 -0.2170882682126109 0 -0.15990224472473921 -0.22591753027475711 0 -0.16767830405725631 -0.21711795868518349 0 -0.15839030113747241 -0.2170882682126109 0 -0.15990224472473921 -0.22591753027475711 0 -0.14898470442372999 -0.23235829871012001 0 -0.15990224472473921 -0.22591753027475711 0 -0.16034112795132391 -0.23665618143705311 0 -0.15990224472473921 -0.22591753027475711 0 -0.17172249324461 -0.23215152162773359 0 -0.16034112795132391 -0.23665618143705311 0 -0.16767830405725631 -0.21711795868518349 0 -0.15990224472473921 -0.22591753027475711 0 -0.17172249324461 -0.23215152162773359 0 -0.16767830405725631 -0.21711795868518349 0 -0.17172249324461 -0.23215152162773359 0 -0.18030559817870029 -0.22057094717619369 0 -0.18030559817870029 -0.22057094717619369 0 -0.1842457802472266 -0.2303440080282905 0 -0.19069099713063101 -0.22072323088886031 0 -0.17172249324461 -0.23215152162773359 0 -0.18030559817870029 -0.22057094717619369 0 -0.1842457802472266 -0.2303440080282905 0 -0.16740625420125729 -0.25150541185997699 0 -0.17172249324461 -0.23215152162773359 0 -0.1816914759277479 -0.2425430722460537 0 -0.17172249324461 -0.23215152162773359 0 -0.1842457802472266 -0.2303440080282905 0 -0.1816914759277479 -0.2425430722460537 0 -0.1842457802472266 -0.2303440080282905 0 -0.1816914759277479 -0.2425430722460537 0 -0.19597669765423939 -0.2335807326321318 0 -0.16740625420125729 -0.25150541185997699 0 -0.1780692970490331 -0.25280230079069899 0 -0.1816914759277479 -0.2425430722460537 0 -0.16740625420125729 -0.25150541185997699 0 -0.1816914759277479 -0.2425430722460537 0 -0.16740625420125729 -0.25150541185997699 0 -0.17172249324461 -0.23215152162773359 0 -0.16034112795132391 -0.23665618143705311 0 -0.16740625420125729 -0.25150541185997699 0 -0.1533738733674842 -0.24456282998601989 0 -0.16034112795132391 -0.23665618143705311 0 -0.213906627972692 -0.25979180294998538 0 -0.21111098704634379 -0.23899428896402469 0 -0.22441584723821559 -0.24466846318819871 0 -0.18578127563206531 -0.26027945198664137 0 -0.19597669765423939 -0.2335807326321318 0 -0.19924082634182641 -0.2516805601160656 0 -0.21111098704634379 -0.23899428896402469 0 -0.19597669765423939 -0.2335807326321318 0 -0.18578127563206531 -0.26027945198664137 0 -0.1816914759277479 -0.2425430722460537 0 -0.19597669765423939 -0.2335807326321318 0 -0.19924082634182641 -0.2516805601160656 0 -0.18578127563206531 -0.26027945198664137 0 -0.19597669765423939 -0.2335807326321318 0 -0.1816914759277479 -0.2425430722460537 0 -0.19597669765423939 -0.2335807326321318 0 -0.19597669765423939 -0.2335807326321318 0 -0.20479673023036071 -0.21048374126333561 0 -0.19597669765423939 -0.2335807326321318 0 -0.19069099713063101 -0.22072323088886031 0 -0.20479673023036071 -0.21048374126333561 0 -0.1842457802472266 -0.2303440080282905 0 -0.19597669765423939 -0.2335807326321318 0 -0.19069099713063101 -0.22072323088886031 0 -0.21111098704634379 -0.23899428896402469 0 -0.21282198802974731 -0.22301224331281549 0 -0.22153630120409529 -0.23202778833982951 0 -0.19597669765423939 -0.2335807326321318 0 -0.21282198802974731 -0.22301224331281549 0 -0.21111098704634379 -0.23899428896402469 0 -0.19597669765423939 -0.2335807326321318 0 -0.21282198802974731 -0.22301224331281549 0 -0.19597669765423939 -0.2335807326321318 0 -0.21282198802974731 -0.22301224331281549 0 -0.20479673023036071 -0.21048374126333561 0 -0.21282198802974731 -0.22301224331281549 0 -0.21625859484723831 -0.2121538474208855 0 -0.20479673023036071 -0.21048374126333561 0 -0.21625859484723831 -0.2121538474208855 0 -0.20479673023036071 -0.21048374126333561 0 -0.21774838272358951 -0.20267565111389069 0 -0.20479673023036071 -0.21048374126333561 0 -0.18770935979252601 -0.20756145755911001 0 -0.19627669918309609 -0.19322789449623651 0 -0.19069099713063101 -0.22072323088886031 0 -0.20479673023036071 -0.21048374126333561 0 -0.18770935979252601 -0.20756145755911001 0 -0.18327406973129351 -0.19131578313752351 0 -0.18770935979252601 -0.20756145755911001 0 -0.19627669918309609 -0.19322789449623651 0 -0.20479673023036071 -0.21048374126333561 0 -0.21774838272358951 -0.20267565111389069 0 -0.21361676280648001 -0.18738674989453871 0 -0.19627669918309609 -0.19322789449623651 0 -0.201914947323932 -0.18228289768421199 0 -0.21361676280648001 -0.18738674989453871 0 -0.20479673023036071 -0.21048374126333561 0 -0.19627669918309609 -0.19322789449623651 0 -0.21361676280648001 -0.18738674989453871 0 -0.20479673023036071 -0.21048374126333561 0 -0.21361676280648001 -0.18738674989453871 0 -0.21774838272358951 -0.20267565111389069 0 -0.22507752885757959 -0.19065533467752879 0 -0.229667278405256 -0.21244375399350049 0 -0.22507752885757959 -0.19065533467752879 0 -0.229667278405256 -0.21244375399350049 0 -0.22507752885757959 -0.19065533467752879 0 -0.23787414091418629 -0.1944181413604697 0 -0.229667278405256 -0.21244375399350049 0 -0.21774838272358951 -0.20267565111389069 0 -0.22507752885757959 -0.19065533467752879 0 -0.21361676280648001 -0.18738674989453871 0 -0.22507752885757959 -0.19065533467752879 0 -0.23787414091418629 -0.1944181413604697 0 -0.2426818939050584 -0.17743954786805319 0 -0.23787414091418629 -0.1944181413604697 0 -0.2426818939050584 -0.17743954786805319 0 -0.25406986248885111 -0.19713392890279641 0 -0.23787414091418629 -0.1944181413604697 0 -0.229667278405256 -0.21244375399350049 0 -0.25406986248885111 -0.19713392890279641 0 -0.229667278405256 -0.21244375399350049 0 -0.24639934416944459 -0.22034903935041281 0 -0.25406986248885111 -0.19713392890279641 0 -0.229667278405256 -0.21244375399350049 0 -0.25406986248885111 -0.19713392890279641 0 -0.21282198802974731 -0.22301224331281549 0 -0.21625859484723831 -0.2121538474208855 0 -0.229667278405256 -0.21244375399350049 0 -0.21282198802974731 -0.22301224331281549 0 -0.229667278405256 -0.21244375399350049 0 -0.21625859484723831 -0.2121538474208855 0 -0.21774838272358951 -0.20267565111389069 0 -0.229667278405256 -0.21244375399350049 0 -0.229667278405256 -0.21244375399350049 0 -0.23402599547342379 -0.2331354179229633 0 -0.21282198802974731 -0.22301224331281549 0 -0.229667278405256 -0.21244375399350049 0 -0.22153630120409529 -0.23202778833982951 0 -0.229667278405256 -0.21244375399350049 0 -0.22153630120409529 -0.23202778833982951 0 -0.23402599547342379 -0.2331354179229633 0 -0.229667278405256 -0.21244375399350049 0 -0.23402599547342379 -0.2331354179229633 0 -0.24639934416944459 -0.22034903935041281 0 -0.23402599547342379 -0.2331354179229633 0 -0.24639934416944459 -0.22034903935041281 0 -0.25191387712191438 -0.23736603208229759 0 -0.24150804688605401 -0.25306600031409049 0 -0.24951370693373881 -0.25111521330492559 0 -0.25191387712191438 -0.23736603208229759 0 -0.23838471254159249 -0.25382708185242608 0 -0.23402599547342379 -0.2331354179229633 0 -0.24150804688605401 -0.25306600031409049 0 -0.25191387712191438 -0.23736603208229759 0 -0.24150804688605401 -0.25306600031409049 0 -0.23402599547342379 -0.2331354179229633 0 -0.25191387712191438 -0.23736603208229759 0 -0.23838471254159249 -0.25382708185242608 0 -0.24150804688605401 -0.25306600031409049 0 -0.23402599547342379 -0.2331354179229633 0 -0.23838471254159249 -0.25382708185242608 0 -0.23402599547342379 -0.2331354179229633 0 -0.22441584723821559 -0.24466846318819871 0 -0.22153630120409529 -0.23202778833982951 0 -0.23402599547342379 -0.2331354179229633 0 -0.22441584723821559 -0.24466846318819871 0 -0.21111098704634379 -0.23899428896402469 0 -0.22153630120409529 -0.23202778833982951 0 -0.22441584723821559 -0.24466846318819871 0 -0.215898029762227 -0.1470784960455854 0 -0.2022725025562469 -0.13326390366231811 0 -0.19724939711819239 -0.14177955732435299 0 -0.215898029762227 -0.1470784960455854 0 -0.19592824043736681 -0.1517093425428333 0 -0.2028491998605825 -0.16135592719511441 0 -0.215898029762227 -0.1470784960455854 0 -0.21503366713488301 -0.131787999840209 0 -0.2022725025562469 -0.13326390366231811 0 -0.21503366713488301 -0.131787999840209 0 -0.21143668145900699 -0.119455631554162 0 -0.2022999588710919 -0.1242177147351796 0 -0.21503366713488301 -0.131787999840209 0 -0.2022725025562469 -0.13326390366231811 0 -0.2022999588710919 -0.1242177147351796 0 -0.2022725025562469 -0.13326390366231811 0 -0.19106575708670781 -0.13165273465335089 0 -0.19724939711819239 -0.14177955732435299 0 -0.2022725025562469 -0.13326390366231811 0 -0.19106575708670781 -0.13165273465335089 0 -0.2022999588710919 -0.1242177147351796 0 -0.19106575708670781 -0.13165273465335089 0 -0.18966165995565851 -0.1437208945276359 0 -0.19724939711819239 -0.14177955732435299 0 -0.1843914747167652 -0.14079827807300449 0 -0.19106575708670781 -0.13165273465335089 0 -0.18966165995565851 -0.1437208945276359 0 -0.215898029762227 -0.1470784960455854 0 -0.19724939711819239 -0.14177955732435299 0 -0.19592824043736681 -0.1517093425428333 0 -0.1866929753492958 -0.14896526780774039 0 -0.18966165995565851 -0.1437208945276359 0 -0.19592824043736681 -0.1517093425428333 0 -0.18966165995565851 -0.1437208945276359 0 -0.19724939711819239 -0.14177955732435299 0 -0.19592824043736681 -0.1517093425428333 0 -0.1866929753492958 -0.14896526780774039 0 -0.19592824043736681 -0.1517093425428333 0 -0.19179481197159351 -0.1595449214275102 0 -0.182144438597209 -0.16135451470351531 0 -0.19179481197159351 -0.1595449214275102 0 -0.19135920561351341 -0.17433955488834749 0 -0.2028491998605825 -0.16135592719511441 0 -0.19135920561351341 -0.17433955488834749 0 -0.20640712169263831 -0.17417739145772521 0 -0.19179481197159351 -0.1595449214275102 0 -0.2028491998605825 -0.16135592719511441 0 -0.19135920561351341 -0.17433955488834749 0 -0.19592824043736681 -0.1517093425428333 0 -0.19179481197159351 -0.1595449214275102 0 -0.2028491998605825 -0.16135592719511441 0 -0.19627669918309609 -0.19322789449623651 0 -0.19135920561351341 -0.17433955488834749 0 -0.201914947323932 -0.18228289768421199 0 -0.18327406973129351 -0.19131578313752351 0 -0.19627669918309609 -0.19322789449623651 0 -0.19135920561351341 -0.17433955488834749 0 -0.19135920561351341 -0.17433955488834749 0 -0.201914947323932 -0.18228289768421199 0 -0.20640712169263831 -0.17417739145772521 0 -0.20640712169263831 -0.17417739145772521 0 -0.21361676280648001 -0.18738674989453871 0 -0.22048777930990329 -0.16886691536155701 0 -0.201914947323932 -0.18228289768421199 0 -0.20640712169263831 -0.17417739145772521 0 -0.21361676280648001 -0.18738674989453871 0 -0.215898029762227 -0.1470784960455854 0 -0.2028491998605825 -0.16135592719511441 0 -0.22048777930990329 -0.16886691536155701 0 -0.2028491998605825 -0.16135592719511441 0 -0.20640712169263831 -0.17417739145772521 0 -0.22048777930990329 -0.16886691536155701 0 -0.215898029762227 -0.1470784960455854 0 -0.22048777930990329 -0.16886691536155701 0 -0.215898029762227 -0.1470784960455854 0 -0.22048777930990329 -0.16886691536155701 0 -0.2360518224707594 -0.1569207299701243 0 -0.22048777930990329 -0.16886691536155701 0 -0.2426818939050584 -0.17743954786805319 0 -0.2360518224707594 -0.1569207299701243 0 -0.22507752885757959 -0.19065533467752879 0 -0.21361676280648001 -0.18738674989453871 0 -0.22048777930990329 -0.16886691536155701 0 -0.22507752885757959 -0.19065533467752879 0 -0.22048777930990329 -0.16886691536155701 0 -0.22507752885757959 -0.19065533467752879 0 -0.22048777930990329 -0.16886691536155701 0 -0.2426818939050584 -0.17743954786805319 0 -0.2426818939050584 -0.17743954786805319 0 -0.2360518224707594 -0.1569207299701243 0 -0.25496577270936083 -0.15765617205481219 0 -0.2360518224707594 -0.1569207299701243 0 -0.24656022456848539 -0.14215814440695279 0 -0.25496577270936083 -0.15765617205481219 0 -0.2360518224707594 -0.1569207299701243 0 -0.24656022456848539 -0.14215814440695279 0 -0.23135225863240691 -0.1417880268425023 0 -0.215898029762227 -0.1470784960455854 0 -0.2360518224707594 -0.1569207299701243 0 -0.23135225863240691 -0.1417880268425023 0 -0.215898029762227 -0.1470784960455854 0 -0.21503366713488301 -0.131787999840209 0 -0.23135225863240691 -0.1417880268425023 0 -0.21503366713488301 -0.131787999840209 0 -0.23135225863240691 -0.1417880268425023 0 -0.22743114708757459 -0.1303508871648936 0 -0.21503366713488301 -0.131787999840209 0 -0.22743114708757459 -0.1303508871648936 0 -0.22477199512943949 -0.1203785187368247 0 -0.23135225863240691 -0.1417880268425023 0 -0.22743114708757459 -0.1303508871648936 0 -0.2384209405572045 -0.13023788311179499 0 -0.22743114708757459 -0.1303508871648936 0 -0.2384209405572045 -0.13023788311179499 0 -0.22477199512943949 -0.1203785187368247 0 -0.24656022456848539 -0.14215814440695279 0 -0.23135225863240691 -0.1417880268425023 0 -0.2384209405572045 -0.13023788311179499 0 -0.24656022456848539 -0.14215814440695279 0 -0.2384209405572045 -0.13023788311179499 0 -0.25270849986012589 -0.13205252124913441 0 -0.2384209405572045 -0.13023788311179499 0 -0.2467354927537497 -0.1176809491985347 0 -0.25270849986012589 -0.13205252124913441 0 -0.2384209405572045 -0.13023788311179499 0 -0.2467354927537497 -0.1176809491985347 0 -0.22477199512943949 -0.1203785187368247 0 -0.2467354927537497 -0.1176809491985347 0 -0.22217026291591191 -0.1068286452675353 0 -0.2467354927537497 -0.1176809491985347 0 -0.24053208064119391 -0.10247476166639161 0 -0.22217026291591191 -0.1068286452675353 0 -0.24053208064119391 -0.10247476166639161 0 -0.22217026291591191 -0.1068286452675353 0 -0.2159494956187524 -0.094949891392371311 0 -0.24053208064119391 -0.10247476166639161 0 -0.2313398260200506 -0.088588250014252926 0 -0.2159494956187524 -0.094949891392371311 0 -0.24053208064119391 -0.10247476166639161 0 -0.2159494956187524 -0.094949891392371311 0 -0.22217026291591191 -0.1068286452675353 0 -0.22477199512943949 -0.1203785187368247 0 -0.21025888285284969 -0.1075789041496833 0 -0.2467354927537497 -0.1176809491985347 0 -0.22217026291591191 -0.1068286452675353 0 -0.22477199512943949 -0.1203785187368247 0 -0.24888002638929119 -0.074485521188584425 0 -0.235030123744635 -0.075245258580541513 0 -0.2414372807485986 -0.059127940098452028 0 -0.24053208064119391 -0.10247476166639161 0 -0.24342874465170189 -0.086374018590709603 0 -0.2313398260200506 -0.088588250014252926 0 -0.24053208064119391 -0.10247476166639161 0 -0.24342874465170189 -0.086374018590709603 0 -0.26000364850348923 -0.089370121506313419 0 -0.235030123744635 -0.075245258580541513 0 -0.24342874465170189 -0.086374018590709603 0 -0.2313398260200506 -0.088588250014252926 0 -0.24888002638929119 -0.074485521188584425 0 -0.235030123744635 -0.075245258580541513 0 -0.24342874465170189 -0.086374018590709603 0 -0.2313398260200506 -0.088588250014252926 0 -0.22012829731750949 -0.079340490718469658 0 -0.2159494956187524 -0.094949891392371311 0 -0.235030123744635 -0.075245258580541513 0 -0.2313398260200506 -0.088588250014252926 0 -0.22012829731750949 -0.079340490718469658 0 -0.235030123744635 -0.075245258580541513 0 -0.22012829731750949 -0.079340490718469658 0 -0.22264674586250241 -0.061336028799205418 0 -0.235030123744635 -0.075245258580541513 0 -0.22264674586250241 -0.061336028799205418 0 -0.2414372807485986 -0.059127940098452028 0 -0.22012829731750949 -0.079340490718469658 0 -0.20900784546431189 -0.070512049193862267 0 -0.22264674586250241 -0.061336028799205418 0 -0.22012829731750949 -0.079340490718469658 0 -0.20900784546431189 -0.070512049193862267 0 -0.20674016474749671 -0.081191149836560506 0 -0.20900784546431189 -0.070512049193862267 0 -0.20674016474749671 -0.081191149836560506 0 -0.19724827474059889 -0.07372829675974818 0 -0.20674016474749671 -0.081191149836560506 0 -0.19136691059631089 -0.087425021118351084 0 -0.2159494956187524 -0.094949891392371311 0 -0.19136691059631089 -0.087425021118351084 0 -0.2159494956187524 -0.094949891392371311 0 -0.22012829731750949 -0.079340490718469658 0 -0.20674016474749671 -0.081191149836560506 0 -0.2159494956187524 -0.094949891392371311 0 -0.20674016474749671 -0.081191149836560506 0 -0.19136691059631089 -0.087425021118351084 0 -0.19724827474059889 -0.07372829675974818 0 -0.20900784546431189 -0.070512049193862267 0 -0.19724827474059889 -0.07372829675974818 0 -0.20012233949012539 -0.050924987909149497 0 -0.19724827474059889 -0.07372829675974818 0 -0.1819862357830889 -0.073147852195907415 0 -0.20012233949012539 -0.050924987909149497 0 -0.19136691059631089 -0.087425021118351084 0 -0.19724827474059889 -0.07372829675974818 0 -0.1819862357830889 -0.073147852195907415 0 -0.21143668145900699 -0.119455631554162 0 -0.21025888285284969 -0.1075789041496833 0 -0.1954465411137464 -0.1151006384068025 0 -0.21503366713488301 -0.131787999840209 0 -0.22477199512943949 -0.1203785187368247 0 -0.21143668145900699 -0.119455631554162 0 -0.22477199512943949 -0.1203785187368247 0 -0.21143668145900699 -0.119455631554162 0 -0.21025888285284969 -0.1075789041496833 0 -0.2159494956187524 -0.094949891392371311 0 -0.21025888285284969 -0.1075789041496833 0 -0.19948523719538341 -0.1015288627434853 0 -0.22217026291591191 -0.1068286452675353 0 -0.2159494956187524 -0.094949891392371311 0 -0.21025888285284969 -0.1075789041496833 0 -0.21025888285284969 -0.1075789041496833 0 -0.19948523719538341 -0.1015288627434853 0 -0.1954465411137464 -0.1151006384068025 0 -0.19136691059631089 -0.087425021118351084 0 -0.2159494956187524 -0.094949891392371311 0 -0.19948523719538341 -0.1015288627434853 0 -0.19136691059631089 -0.087425021118351084 0 -0.19948523719538341 -0.1015288627434853 0 -0.18440435579525741 -0.1025898586502185 0 -0.19948523719538341 -0.1015288627434853 0 -0.1954465411137464 -0.1151006384068025 0 -0.18440435579525741 -0.1025898586502185 0 -0.19106575708670781 -0.13165273465335089 0 -0.1954465411137464 -0.1151006384068025 0 -0.2022999588710919 -0.1242177147351796 0 -0.1954465411137464 -0.1151006384068025 0 -0.1845112059790974 -0.1136239329859029 0 -0.18440435579525741 -0.1025898586502185 0 -0.19106575708670781 -0.13165273465335089 0 -0.1954465411137464 -0.1151006384068025 0 -0.18026544503748429 -0.12284446647832691 0 -0.21143668145900699 -0.119455631554162 0 -0.1954465411137464 -0.1151006384068025 0 -0.2022999588710919 -0.1242177147351796 0 -0.1954465411137464 -0.1151006384068025 0 -0.18026544503748429 -0.12284446647832691 0 -0.1845112059790974 -0.1136239329859029 0 -0.1845112059790974 -0.1136239329859029 0 -0.17037924602917209 -0.11387591670304439 0 -0.18440435579525741 -0.1025898586502185 0 -0.18026544503748429 -0.12284446647832691 0 -0.1845112059790974 -0.1136239329859029 0 -0.17037924602917209 -0.11387591670304439 0 -0.16353030891812059 -0.1312329448517251 0 -0.18026544503748429 -0.12284446647832691 0 -0.17037924602917209 -0.11387591670304439 0 -0.16353030891812059 -0.1312329448517251 0 -0.17037924602917209 -0.11387591670304439 0 -0.14571402836902131 -0.11759358076942771 0 -0.17037924602917209 -0.11387591670304439 0 -0.1638501320760524 -0.095370716482665346 0 -0.14571402836902131 -0.11759358076942771 0 -0.19136691059631089 -0.087425021118351084 0 -0.1638501320760524 -0.095370716482665346 0 -0.18440435579525741 -0.1025898586502185 0 -0.17037924602917209 -0.11387591670304439 0 -0.1638501320760524 -0.095370716482665346 0 -0.18440435579525741 -0.1025898586502185 0 -0.19136691059631089 -0.087425021118351084 0 -0.1638501320760524 -0.095370716482665346 0 -0.1819862357830889 -0.073147852195907415 0 -0.1638501320760524 -0.095370716482665346 0 -0.1819862357830889 -0.073147852195907415 0 -0.1819862357830889 -0.073147852195907415 0 -0.16190254469567189 -0.072643189873430644 0 -0.18109868320631431 -0.054521767797922872 0 -0.1638501320760524 -0.095370716482665346 0 -0.1819862357830889 -0.073147852195907415 0 -0.16190254469567189 -0.072643189873430644 0 -0.1638501320760524 -0.095370716482665346 0 -0.16190254469567189 -0.072643189873430644 0 -0.14644661048561419 -0.086733128046345587 0 -0.16190254469567189 -0.072643189873430644 0 -0.14644661048561419 -0.086733128046345587 0 -0.13978550443159191 -0.067857218025003593 0 -0.16190254469567189 -0.072643189873430644 0 -0.13978550443159191 -0.067857218025003593 0 -0.1617855604759868 -0.051938826474432181 0 -0.1200022000670774 -0.0744369922820554 0 -0.13978550443159191 -0.067857218025003593 0 -0.13328384436359619 -0.086243925190850584 0 -0.14644661048561419 -0.086733128046345587 0 -0.13978550443159191 -0.067857218025003593 0 -0.13328384436359619 -0.086243925190850584 0 -0.1242469030499448 -0.091954025595064687 0 -0.1200022000670774 -0.0744369922820554 0 -0.13328384436359619 -0.086243925190850584 0 -0.13328384436359619 -0.086243925190850584 0 -0.13021561007676369 -0.095507206141619852 0 -0.13538098229742049 -0.097200452878033819 0 -0.14644661048561419 -0.086733128046345587 0 -0.13328384436359619 -0.086243925190850584 0 -0.13538098229742049 -0.097200452878033819 0 -0.1242469030499448 -0.091954025595064687 0 -0.13328384436359619 -0.086243925190850584 0 -0.13021561007676369 -0.095507206141619852 0 -0.12941452670248091 -0.1051153961687054 0 -0.14571402836902131 -0.11759358076942771 0 -0.1444766550493522 -0.1010832658280896 0 -0.13021561007676369 -0.095507206141619852 0 -0.13538098229742049 -0.097200452878033819 0 -0.12941452670248091 -0.1051153961687054 0 -0.1242469030499448 -0.091954025595064687 0 -0.13021561007676369 -0.095507206141619852 0 -0.12941452670248091 -0.1051153961687054 0 -0.13538098229742049 -0.097200452878033819 0 -0.12941452670248091 -0.1051153961687054 0 -0.1444766550493522 -0.1010832658280896 0 -0.12941452670248091 -0.1051153961687054 0 -0.13205461353806941 -0.12018141026988099 0 -0.12941452670248091 -0.1051153961687054 0 -0.13205461353806941 -0.12018141026988099 0 -0.14571402836902131 -0.11759358076942771 0 -0.12941452670248091 -0.1051153961687054 0 -0.14571402836902131 -0.11759358076942771 0 -0.11540526837687171 -0.1154874301373815 0 -0.12941452670248091 -0.1051153961687054 0 -0.13205461353806941 -0.12018141026988099 0 -0.13944766982355439 -0.12527199051924881 0 -0.13205461353806941 -0.12018141026988099 0 -0.14571402836902131 -0.11759358076942771 0 -0.1349564972342164 -0.1261375455692765 0 -0.13944766982355439 -0.12527199051924881 0 -0.13205461353806941 -0.12018141026988099 0 -0.16353030891812059 -0.1312329448517251 0 -0.14571402836902131 -0.11759358076942771 0 -0.13944766982355439 -0.12527199051924881 0 -0.14571402836902131 -0.11759358076942771 0 -0.1638501320760524 -0.095370716482665346 0 -0.14571402836902131 -0.11759358076942771 0 -0.1638501320760524 -0.095370716482665346 0 -0.14571402836902131 -0.11759358076942771 0 -0.1444766550493522 -0.1010832658280896 0 -0.1638501320760524 -0.095370716482665346 0 -0.14644661048561419 -0.086733128046345587 0 -0.1444766550493522 -0.1010832658280896 0 -0.14644661048561419 -0.086733128046345587 0 -0.13538098229742049 -0.097200452878033819 0 -0.1444766550493522 -0.1010832658280896 0 -0.14021991755128291 -0.0037810170104977821 0 -0.1303090768464959 -0.024760112000338539 0 -0.15809923867586739 -0.025150512022512981 0 -0.14021991755128291 -0.0037810170104977821 0 -0.15648956439896139 -0.0050560779717764076 0 -0.15191854340496841 0.0056857037463043901 0 -0.14021991755128291 -0.0037810170104977821 0 -0.15809923867586739 -0.025150512022512981 0 -0.15648956439896139 -0.0050560779717764076 0 -0.1238376520846925 -0.003178898693025302 0 -0.14021991755128291 -0.0037810170104977821 0 -0.1303090768464959 -0.024760112000338539 0 -0.1150016942000025 -0.049774801446042329 0 -0.1303090768464959 -0.024760112000338539 0 -0.14146551571031421 -0.04492474213186895 0 -0.1150016942000025 -0.049774801446042329 0 -0.13978550443159191 -0.067857218025003593 0 -0.14146551571031421 -0.04492474213186895 0 -0.13978550443159191 -0.067857218025003593 0 -0.14146551571031421 -0.04492474213186895 0 -0.1617855604759868 -0.051938826474432181 0 -0.14146551571031421 -0.04492474213186895 0 -0.1617855604759868 -0.051938826474432181 0 -0.15809923867586739 -0.025150512022512981 0 -0.1303090768464959 -0.024760112000338539 0 -0.14146551571031421 -0.04492474213186895 0 -0.15809923867586739 -0.025150512022512981 0 -0.1617855604759868 -0.051938826474432181 0 -0.18175373135561629 -0.037429849671306921 0 -0.15809923867586739 -0.025150512022512981 0 -0.16190254469567189 -0.072643189873430644 0 -0.1617855604759868 -0.051938826474432181 0 -0.18109868320631431 -0.054521767797922872 0 -0.1617855604759868 -0.051938826474432181 0 -0.18109868320631431 -0.054521767797922872 0 -0.18175373135561629 -0.037429849671306921 0 -0.18175373135561629 -0.037429849671306921 0 -0.18700166108339511 -0.018458586884699129 0 -0.15809923867586739 -0.025150512022512981 0 -0.18700166108339511 -0.018458586884699129 0 -0.15809923867586739 -0.025150512022512981 0 -0.17015275754722531 -0.0084966019410974564 0 -0.15809923867586739 -0.025150512022512981 0 -0.15648956439896139 -0.0050560779717764076 0 -0.17015275754722531 -0.0084966019410974564 0 -0.15648956439896139 -0.0050560779717764076 0 -0.17015275754722531 -0.0084966019410974564 0 -0.16661461818764309 0.0064834708418648503 0 -0.18700166108339511 -0.018458586884699129 0 -0.17015275754722531 -0.0084966019410974564 0 -0.18255870539025951 -0.00030130366836361722 0 -0.17015275754722531 -0.0084966019410974564 0 -0.18255870539025951 -0.00030130366836361722 0 -0.16661461818764309 0.0064834708418648503 0 -0.18700166108339511 -0.018458586884699129 0 -0.20136602200140599 -0.0030079861901145229 0 -0.202414905202009 -0.0235844169391249 0 -0.18700166108339511 -0.018458586884699129 0 -0.18255870539025951 -0.00030130366836361722 0 -0.20136602200140599 -0.0030079861901145229 0 -0.18175373135561629 -0.037429849671306921 0 -0.18700166108339511 -0.018458586884699129 0 -0.202414905202009 -0.0235844169391249 0 -0.202414905202009 -0.0235844169391249 0 -0.2178658399941947 -0.029047474649792088 0 -0.21500148267145569 -0.01413077246912478 0 -0.20136602200140599 -0.0030079861901145229 0 -0.21500148267145569 -0.01413077246912478 0 -0.2196258464205352 0.0027153321176431179 0 -0.20136602200140599 -0.0030079861901145229 0 -0.202414905202009 -0.0235844169391249 0 -0.21500148267145569 -0.01413077246912478 0 -0.1819862357830889 -0.073147852195907415 0 -0.20012233949012539 -0.050924987909149497 0 -0.1819862357830889 -0.073147852195907415 0 -0.18109868320631431 -0.054521767797922872 0 -0.20012233949012539 -0.050924987909149497 0 -0.18109868320631431 -0.054521767797922872 0 -0.18175373135561629 -0.037429849671306921 0 -0.20012233949012539 -0.050924987909149497 0 -0.18175373135561629 -0.037429849671306921 0 -0.202414905202009 -0.0235844169391249 0 -0.20012233949012539 -0.050924987909149497 0 -0.2178658399941947 -0.029047474649792088 0 -0.20012233949012539 -0.050924987909149497 0 -0.2281079215891185 -0.04267463191960711 0 -0.202414905202009 -0.0235844169391249 0 -0.2178658399941947 -0.029047474649792088 0 -0.20012233949012539 -0.050924987909149497 0 -0.20900784546431189 -0.070512049193862267 0 -0.20012233949012539 -0.050924987909149497 0 -0.22264674586250241 -0.061336028799205418 0 -0.20012233949012539 -0.050924987909149497 0 -0.22264674586250241 -0.061336028799205418 0 -0.2281079215891185 -0.04267463191960711 0 -0.22264674586250241 -0.061336028799205418 0 -0.2281079215891185 -0.04267463191960711 0 -0.2414372807485986 -0.059127940098452028 0 -0.2281079215891185 -0.04267463191960711 0 -0.2478437530577286 -0.038173965486116117 0 -0.2281079215891185 -0.04267463191960711 0 -0.2478437530577286 -0.038173965486116117 0 -0.23373479973913339 -0.0177293166842355 0 -0.2281079215891185 -0.04267463191960711 0 -0.2478437530577286 -0.038173965486116117 0 -0.2414372807485986 -0.059127940098452028 0 -0.23345545866485429 -0.001590969249915503 0 -0.23373479973913339 -0.0177293166842355 0 -0.2196258464205352 0.0027153321176431179 0 -0.23373479973913339 -0.0177293166842355 0 -0.2196258464205352 0.0027153321176431179 0 -0.21500148267145569 -0.01413077246912478 0 -0.23373479973913339 -0.0177293166842355 0 -0.2196258464205352 0.0027153321176431179 0 -0.2178658399941947 -0.029047474649792088 0 -0.21500148267145569 -0.01413077246912478 0 -0.23373479973913339 -0.0177293166842355 0 -0.2178658399941947 -0.029047474649792088 0 -0.2281079215891185 -0.04267463191960711 0 -0.23373479973913339 -0.0177293166842355 0 -0.2478437530577286 -0.038173965486116117 0 -0.23373479973913339 -0.0177293166842355 0 -0.2478437530577286 -0.038173965486116117 0 -0.23373479973913339 -0.0177293166842355 0 -0.25058023959271558 -0.02452961551820778 0 -0.23373479973913339 -0.0177293166842355 0 -0.24751034395825131 -0.013518002113451499 0 -0.25058023959271558 -0.02452961551820778 0 -0.24751034395825131 -0.013518002113451499 0 -0.2401841775723623 -0.0085832810261615503 0 -0.24603610792721031 -0.001494836057043694 0 -0.23345545866485429 -0.001590969249915503 0 -0.23373479973913339 -0.0177293166842355 0 -0.2401841775723623 -0.0085832810261615503 0 -0.23373479973913339 -0.0177293166842355 0 -0.24751034395825131 -0.013518002113451499 0 -0.2401841775723623 -0.0085832810261615503 0 -0.23345545866485429 -0.001590969249915503 0 -0.2401841775723623 -0.0085832810261615503 0 -0.24603610792721031 -0.001494836057043694 0 -0.24751034395825131 -0.013518002113451499 0 -0.24603610792721031 -0.001494836057043694 0 -0.25439413989377241 -0.0032653670090099212 0 -0.25439413989377241 -0.0032653670090099212 0 -0.25940214703407938 -0.01883072010541469 0 -0.2797152221951521 -0.0086292804435675226 0 -0.24603610792721031 -0.001494836057043694 0 -0.25439413989377241 -0.0032653670090099212 0 -0.25439413989377241 -0.0032653670090099212 0 -0.25940214703407938 -0.01883072010541469 0 -0.24751034395825131 -0.013518002113451499 0 -0.25439413989377241 -0.0032653670090099212 0 -0.25940214703407938 -0.01883072010541469 0 -0.24751034395825131 -0.013518002113451499 0 -0.25058023959271558 -0.02452961551820778 0 -0.25940214703407938 -0.01883072010541469 0 -0.25058023959271558 -0.02452961551820778 0 -0.25940214703407938 -0.01883072010541469 0 -0.2644101541743854 -0.034396073201819748 0 -0.25940214703407938 -0.01883072010541469 0 -0.2644101541743854 -0.034396073201819748 0 -0.25940214703407938 -0.01883072010541469 0 -0.26711332505198659 -0.021686221679217368 0 -0.2644101541743854 -0.034396073201819748 0 -0.26711332505198659 -0.021686221679217368 0 -0.285080517463353 -0.020580647379195561 0 -0.27223936144942562 -0.032610658159152123 0 -0.26711332505198659 -0.021686221679217368 0 -0.2797152221951521 -0.0086292804435675226 0 -0.285080517463353 -0.020580647379195561 0 -0.25940214703407938 -0.01883072010541469 0 -0.26711332505198659 -0.021686221679217368 0 -0.2797152221951521 -0.0086292804435675226 0 -0.26711332505198659 -0.021686221679217368 0 -0.27223936144942562 -0.032610658159152123 0 -0.26711332505198659 -0.021686221679217368 0 -0.27223936144942562 -0.032610658159152123 0 -0.2644101541743854 -0.034396073201819748 0 -0.25439413989377241 -0.0032653670090099212 0 -0.2797152221951521 -0.0086292804435675226 0 -0.26839520126254701 0.0088666212175328163 0 -0.25439413989377241 -0.0032653670090099212 0 -0.2797152221951521 -0.0086292804435675226 0 -0.2797152221951521 -0.0086292804435675226 0 -0.285080517463353 -0.020580647379195561 0 -0.30503630449653202 -0.01399319387812435 0 -0.2797152221951521 -0.0086292804435675226 0 -0.30503630449653202 -0.01399319387812435 0 -0.28549640923868341 0.0058388088596524838 0 -0.2797152221951521 -0.0086292804435675226 0 -0.30503630449653202 -0.01399319387812435 0 -0.285080517463353 -0.020580647379195561 0 -0.30129837412366872 -0.025983882735916269 0 -0.27223936144942562 -0.032610658159152123 0 -0.30129837412366872 -0.025983882735916269 0 -0.27223936144942562 -0.032610658159152123 0 -0.285080517463353 -0.020580647379195561 0 -0.30129837412366872 -0.025983882735916269 0 -0.30503630449653202 -0.01399319387812435 0 -0.30129837412366872 -0.025983882735916269 0 -0.30503630449653202 -0.01399319387812435 0 -0.33035738679791199 -0.01935710731268064 0 -0.30503630449653202 -0.01399319387812435 0 -0.29991595031090612 0.01236481056600826 0 -0.32009090194009132 0.00022972968992290691 0 -0.3078019969261811 -0.053946040493063202 0 -0.3050422196109483 -0.065232868458703935 0 -0.32077740639462587 -0.060679222952071808 0 -0.3078019969261811 -0.053946040493063202 0 -0.29761218489927188 -0.044921833356316873 0 -0.29647616490884809 -0.058375849760347848 0 -0.3078019969261811 -0.053946040493063202 0 -0.29647616490884809 -0.058375849760347848 0 -0.3050422196109483 -0.065232868458703935 0 -0.30129837412366872 -0.025983882735916269 0 -0.29761218489927188 -0.044921833356316873 0 -0.31551370276250867 -0.037414994572555552 0 -0.3078019969261811 -0.053946040493063202 0 -0.29761218489927188 -0.044921833356316873 0 -0.31551370276250867 -0.037414994572555552 0 -0.29761218489927188 -0.044921833356316873 0 -0.28828428016490559 -0.039225324673935261 0 -0.28198720018725631 -0.053384924444355587 0 -0.30129837412366872 -0.025983882735916269 0 -0.28828428016490559 -0.039225324673935261 0 -0.27223936144942562 -0.032610658159152123 0 -0.30129837412366872 -0.025983882735916269 0 -0.29761218489927188 -0.044921833356316873 0 -0.28828428016490559 -0.039225324673935261 0 -0.28198720018725631 -0.053384924444355587 0 -0.29647616490884809 -0.058375849760347848 0 -0.29173503892508601 -0.074159190729559538 0 -0.29761218489927188 -0.044921833356316873 0 -0.28198720018725631 -0.053384924444355587 0 -0.29647616490884809 -0.058375849760347848 0 -0.28198720018725631 -0.053384924444355587 0 -0.27278353485635892 -0.060421321024758307 0 -0.2644101541743854 -0.034396073201819748 0 -0.27278353485635892 -0.060421321024758307 0 -0.2644101541743854 -0.034396073201819748 0 -0.27278353485635892 -0.060421321024758307 0 -0.2644101541743854 -0.034396073201819748 0 -0.26450033429803138 -0.062310267166905603 0 -0.28828428016490559 -0.039225324673935261 0 -0.28198720018725631 -0.053384924444355587 0 -0.27223936144942562 -0.032610658159152123 0 -0.28198720018725631 -0.053384924444355587 0 -0.27223936144942562 -0.032610658159152123 0 -0.28198720018725631 -0.053384924444355587 0 -0.27223936144942562 -0.032610658159152123 0 -0.2644101541743854 -0.034396073201819748 0 -0.27223936144942562 -0.032610658159152123 0 -0.2644101541743854 -0.034396073201819748 0 -0.2478437530577286 -0.038173965486116117 0 -0.2644101541743854 -0.034396073201819748 0 -0.2478437530577286 -0.038173965486116117 0 -0.25058023959271558 -0.02452961551820778 0 -0.2644101541743854 -0.034396073201819748 0 -0.2478437530577286 -0.038173965486116117 0 -0.2644101541743854 -0.034396073201819748 0 -0.26450033429803138 -0.062310267166905603 0 -0.2478437530577286 -0.038173965486116117 0 -0.2414372807485986 -0.059127940098452028 0 -0.26450033429803138 -0.062310267166905603 0 -0.2478437530577286 -0.038173965486116117 0 -0.26450033429803138 -0.062310267166905603 0 -0.24888002638929119 -0.074485521188584425 0 -0.26450033429803138 -0.062310267166905603 0 -0.26000364850348923 -0.089370121506313419 0 -0.24888002638929119 -0.074485521188584425 0 -0.2414372807485986 -0.059127940098452028 0 -0.26450033429803138 -0.062310267166905603 0 -0.24888002638929119 -0.074485521188584425 0 -0.24342874465170189 -0.086374018590709603 0 -0.26000364850348923 -0.089370121506313419 0 -0.26000364850348923 -0.089370121506313419 0 -0.28115691553833161 -0.086446568847696956 0 -0.27361490147267908 -0.098549428069192743 0 -0.26450033429803138 -0.062310267166905603 0 -0.26000364850348923 -0.089370121506313419 0 -0.28115691553833161 -0.086446568847696956 0 -0.27278353485635892 -0.060421321024758307 0 -0.28115691553833161 -0.086446568847696956 0 -0.26450033429803138 -0.062310267166905603 0 -0.28115691553833161 -0.086446568847696956 0 -0.27278353485635892 -0.060421321024758307 0 -0.26450033429803138 -0.062310267166905603 0 -0.28115691553833161 -0.086446568847696956 0 -0.2467354927537497 -0.1176809491985347 0 -0.27130072259158738 -0.12853325312953401 0 -0.2467354927537497 -0.1176809491985347 0 -0.26511466566363551 -0.1099996319404118 0 -0.27130072259158738 -0.12853325312953401 0 -0.2467354927537497 -0.1176809491985347 0 -0.24053208064119391 -0.10247476166639161 0 -0.26511466566363551 -0.1099996319404118 0 -0.24053208064119391 -0.10247476166639161 0 -0.26511466566363551 -0.1099996319404118 0 -0.24053208064119391 -0.10247476166639161 0 -0.26000364850348923 -0.089370121506313419 0 -0.26511466566363551 -0.1099996319404118 0 -0.26000364850348923 -0.089370121506313419 0 -0.26511466566363551 -0.1099996319404118 0 -0.27361490147267908 -0.098549428069192743 0 -0.28115691553833161 -0.086446568847696956 0 -0.27361490147267908 -0.098549428069192743 0 -0.28679933837068577 -0.10398374506255161 0 -0.27361490147267908 -0.098549428069192743 0 -0.28006358869468811 -0.1136573832943857 0 -0.28679933837068577 -0.10398374506255161 0 -0.26511466566363551 -0.1099996319404118 0 -0.27361490147267908 -0.098549428069192743 0 -0.28006358869468811 -0.1136573832943857 0 -0.26511466566363551 -0.1099996319404118 0 -0.28006358869468811 -0.1136573832943857 0 -0.27130072259158738 -0.12853325312953401 0 -0.28006358869468811 -0.1136573832943857 0 -0.27130072259158738 -0.12853325312953401 0 -0.28698964513629782 -0.12579359834588019 0 -0.2908559311833343 -0.1120977688201162 0 -0.29277766668156469 -0.1032856759432077 0 -0.30439841782479798 -0.1201247830387184 0 -0.29024064434493491 -0.1194372567617175 0 -0.28698964513629782 -0.12579359834588019 0 -0.29747731762085372 -0.1279545414832306 0 -0.29024064434493491 -0.1194372567617175 0 -0.2908559311833343 -0.1120977688201162 0 -0.30439841782479798 -0.1201247830387184 0 -0.28006358869468811 -0.1136573832943857 0 -0.29024064434493491 -0.1194372567617175 0 -0.28698964513629782 -0.12579359834588019 0 -0.28006358869468811 -0.1136573832943857 0 -0.2908559311833343 -0.1120977688201162 0 -0.28679933837068577 -0.10398374506255161 0 -0.28006358869468811 -0.1136573832943857 0 -0.29024064434493491 -0.1194372567617175 0 -0.2908559311833343 -0.1120977688201162 0 -0.28115691553833161 -0.086446568847696956 0 -0.28679933837068577 -0.10398374506255161 0 -0.28115691553833161 -0.086446568847696956 0 -0.29277766668156469 -0.1032856759432077 0 -0.28115691553833161 -0.086446568847696956 0 -0.29277766668156469 -0.1032856759432077 0 -0.28679933837068577 -0.10398374506255161 0 -0.2908559311833343 -0.1120977688201162 0 -0.29277766668156469 -0.1032856759432077 0 -0.28679933837068577 -0.10398374506255161 0 -0.29277766668156469 -0.1032856759432077 0 -0.29663905124552908 -0.099420431895894612 0 -0.29780914770143718 -0.1025381535298473 0 -0.29277766668156469 -0.1032856759432077 0 -0.29405146498519891 -0.095056837623374246 0 -0.2906496372534349 -0.091355642219240571 0 -0.29405146498519891 -0.095056837623374246 0 -0.30148287766291598 -0.094933457014763384 0 -0.2906496372534349 -0.091355642219240571 0 -0.29277766668156469 -0.1032856759432077 0 -0.29663905124552908 -0.099420431895894612 0 -0.29405146498519891 -0.095056837623374246 0 -0.29663905124552908 -0.099420431895894612 0 -0.29405146498519891 -0.095056837623374246 0 -0.29915215045109322 -0.096438876402544449 0 -0.30148287766291598 -0.094933457014763384 0 -0.30299852816551681 -0.107137639145181 0 -0.3124497649012829 -0.11830571849109239 0 -0.30148287766291598 -0.094933457014763384 0 -0.3124497649012829 -0.11830571849109239 0 -0.30148287766291598 -0.094933457014763384 0 -0.3124497649012829 -0.11830571849109239 0 -0.31275475757875149 -0.10463689580807591 0 -0.30148287766291598 -0.094933457014763384 0 -0.31275475757875149 -0.10463689580807591 0 -0.32177061063829648 -0.099673021106906165 0 -0.29940482640835159 -0.099782615980499284 0 -0.30148287766291598 -0.094933457014763384 0 -0.30299852816551681 -0.107137639145181 0 -0.29405146498519891 -0.095056837623374246 0 -0.29915215045109322 -0.096438876402544449 0 -0.30148287766291598 -0.094933457014763384 0 -0.29915215045109322 -0.096438876402544449 0 -0.29940482640835159 -0.099782615980499284 0 -0.30148287766291598 -0.094933457014763384 0 -0.29915215045109322 -0.096438876402544449 0 -0.30148287766291598 -0.094933457014763384 0 -0.29663905124552908 -0.099420431895894612 0 -0.29915215045109322 -0.096438876402544449 0 -0.29940482640835159 -0.099782615980499284 0 -0.29663905124552908 -0.099420431895894612 0 -0.29940482640835159 -0.099782615980499284 0 -0.29780914770143718 -0.1025381535298473 0 -0.29277766668156469 -0.1032856759432077 0 -0.30299852816551681 -0.107137639145181 0 -0.29780914770143718 -0.1025381535298473 0 -0.29940482640835159 -0.099782615980499284 0 -0.30299852816551681 -0.107137639145181 0 -0.29780914770143718 -0.1025381535298473 0 -0.29277766668156469 -0.1032856759432077 0 -0.30439841782479798 -0.1201247830387184 0 -0.29277766668156469 -0.1032856759432077 0 -0.30299852816551681 -0.107137639145181 0 -0.30439841782479798 -0.1201247830387184 0 -0.30299852816551681 -0.107137639145181 0 -0.3124497649012829 -0.11830571849109239 0 -0.30439841782479798 -0.1201247830387184 0 -0.3124497649012829 -0.11830571849109239 0 -0.30439841782479798 -0.1201247830387184 0 -0.31006355623993481 -0.1263872934522848 0 -0.29024064434493491 -0.1194372567617175 0 -0.30439841782479798 -0.1201247830387184 0 -0.29747731762085372 -0.1279545414832306 0 -0.30439841782479798 -0.1201247830387184 0 -0.31006355623993481 -0.1263872934522848 0 -0.29747731762085372 -0.1279545414832306 0 -0.28198720018725631 -0.053384924444355587 0 -0.27278353485635892 -0.060421321024758307 0 -0.29173503892508601 -0.074159190729559538 0 -0.27278353485635892 -0.060421321024758307 0 -0.28115691553833161 -0.086446568847696956 0 -0.29173503892508601 -0.074159190729559538 0 -0.28198720018725631 -0.053384924444355587 0 -0.29173503892508601 -0.074159190729559538 0 -0.30148287766291598 -0.094933457014763384 0 -0.29173503892508601 -0.074159190729559538 0 -0.28115691553833161 -0.086446568847696956 0 -0.29277766668156469 -0.1032856759432077 0 -0.2906496372534349 -0.091355642219240571 0 -0.30148287766291598 -0.094933457014763384 0 -0.29173503892508601 -0.074159190729559538 0 -0.2906496372534349 -0.091355642219240571 0 -0.28115691553833161 -0.086446568847696956 0 -0.29173503892508601 -0.074159190729559538 0 -0.2906496372534349 -0.091355642219240571 0 -0.30148287766291598 -0.094933457014763384 0 -0.30842049090000029 -0.079004038358477316 0 -0.32579361056971751 -0.079231126659090281 0 -0.30148287766291598 -0.094933457014763384 0 -0.29173503892508601 -0.074159190729559538 0 -0.30842049090000029 -0.079004038358477316 0 -0.30842049090000029 -0.079004038358477316 0 -0.3050422196109483 -0.065232868458703935 0 -0.32077740639462587 -0.060679222952071808 0 -0.29647616490884809 -0.058375849760347848 0 -0.29173503892508601 -0.074159190729559538 0 -0.3050422196109483 -0.065232868458703935 0 -0.29173503892508601 -0.074159190729559538 0 -0.30842049090000029 -0.079004038358477316 0 -0.3050422196109483 -0.065232868458703935 0 -0.30842049090000029 -0.079004038358477316 0 -0.32579361056971751 -0.079231126659090281 0 -0.32077740639462587 -0.060679222952071808 0 -0.30148287766291598 -0.094933457014763384 0 -0.32579361056971751 -0.079231126659090281 0 -0.30148287766291598 -0.094933457014763384 0 -0.32579361056971751 -0.079231126659090281 0 -0.32177061063829648 -0.099673021106906165 0 -0.32579361056971751 -0.079231126659090281 0 -0.33783029826804978 -0.098345765448175804 0 -0.34928891845574478 -0.087347671738169319 0 -0.32579361056971751 -0.079231126659090281 0 -0.32177061063829648 -0.099673021106906165 0 -0.33783029826804978 -0.098345765448175804 0 -0.32579361056971751 -0.079231126659090281 0 -0.35010434347651792 -0.063528796303415389 0 -0.32579361056971751 -0.079231126659090281 0 -0.35010434347651792 -0.063528796303415389 0 -0.32077740639462587 -0.060679222952071808 0 -0.32579361056971751 -0.079231126659090281 0 -0.35010434347651792 -0.063528796303415389 0 -0.34928891845574478 -0.087347671738169319 0 -0.3124497649012829 -0.11830571849109239 0 -0.3225036501573223 -0.12404634494251141 0 -0.31887234553357052 -0.1098708739817712 0 -0.3124497649012829 -0.11830571849109239 0 -0.3225036501573223 -0.12404634494251141 0 -0.31006355623993481 -0.1263872934522848 0 -0.3124497649012829 -0.11830571849109239 0 -0.31887234553357052 -0.1098708739817712 0 -0.31275475757875149 -0.10463689580807591 0 -0.3225036501573223 -0.12404634494251141 0 -0.31887234553357052 -0.1098708739817712 0 -0.33070926484734958 -0.1109000996775957 0 -0.31887234553357052 -0.1098708739817712 0 -0.32177061063829648 -0.099673021106906165 0 -0.33070926484734958 -0.1109000996775957 0 -0.31887234553357052 -0.1098708739817712 0 -0.31275475757875149 -0.10463689580807591 0 -0.32177061063829648 -0.099673021106906165 0 -0.32177061063829648 -0.099673021106906165 0 -0.33783029826804978 -0.098345765448175804 0 -0.33070926484734958 -0.1109000996775957 0 -0.33783029826804978 -0.098345765448175804 0 -0.33070926484734958 -0.1109000996775957 0 -0.34567262958018269 -0.1123987934140105 0 -0.33070926484734958 -0.1109000996775957 0 -0.33811219102594647 -0.1217605482715514 0 -0.34567262958018269 -0.1123987934140105 0 -0.3225036501573223 -0.12404634494251141 0 -0.33070926484734958 -0.1109000996775957 0 -0.33811219102594647 -0.1217605482715514 0 -0.34567262958018269 -0.1123987934140105 0 -0.36066989083157353 -0.1125884967593167 0 -0.35567264038270568 -0.12859403757664631 0 -0.33811219102594647 -0.1217605482715514 0 -0.34567262958018269 -0.1123987934140105 0 -0.35567264038270568 -0.12859403757664631 0 -0.35313467600345522 -0.10091032459622459 0 -0.37221164288172492 -0.093870895621450484 0 -0.34928891845574478 -0.087347671738169319 0 -0.34567262958018269 -0.1123987934140105 0 -0.35313467600345522 -0.10091032459622459 0 -0.36066989083157353 -0.1125884967593167 0 -0.33783029826804978 -0.098345765448175804 0 -0.34567262958018269 -0.1123987934140105 0 -0.35313467600345522 -0.10091032459622459 0 -0.33783029826804978 -0.098345765448175804 0 -0.35313467600345522 -0.10091032459622459 0 -0.34928891845574478 -0.087347671738169319 0 -0.35313467600345522 -0.10091032459622459 0 -0.37221164288172492 -0.093870895621450484 0 -0.36066989083157353 -0.1125884967593167 0 -0.37221164288172492 -0.093870895621450484 0 -0.36066989083157353 -0.1125884967593167 0 -0.37538114861739841 -0.1202770349219929 0 -0.37221164288172492 -0.093870895621450484 0 -0.37538114861739841 -0.1202770349219929 0 -0.36066989083157353 -0.1125884967593167 0 -0.35567264038270568 -0.12859403757664631 0 -0.37538114861739841 -0.1202770349219929 0 -0.35010434347651792 -0.063528796303415389 0 -0.35745186536441448 -0.075703729853609389 0 -0.34928891845574478 -0.087347671738169319 0 -0.35010434347651792 -0.063528796303415389 0 -0.35745186536441448 -0.075703729853609389 0 -0.36904213714605161 -0.067464756320908037 0 -0.37221164288172492 -0.093870895621450484 0 -0.35745186536441448 -0.075703729853609389 0 -0.36904213714605161 -0.067464756320908037 0 -0.37221164288172492 -0.093870895621450484 0 -0.35745186536441448 -0.075703729853609389 0 -0.34928891845574478 -0.087347671738169319 0 -0.37221164288172492 -0.093870895621450484 0 -0.36904213714605161 -0.067464756320908037 0 -0.35010434347651792 -0.063528796303415389 0 -0.36904213714605161 -0.067464756320908037 0 -0.37441507638331828 -0.047826465947740468 0 -0.35010434347651792 -0.063528796303415389 0 -0.37441507638331828 -0.047826465947740468 0 -0.35010434347651792 -0.063528796303415389 0 -0.37441507638331828 -0.047826465947740468 0 -0.35885342917835689 -0.045949169934127197 0 -0.35010434347651792 -0.063528796303415389 0 -0.3464858261225835 -0.038103962039358577 0 -0.35885342917835689 -0.045949169934127197 0 -0.3464858261225835 -0.038103962039358577 0 -0.36440847073100813 -0.034337455445994342 0 -0.35610908952696491 -0.0252236034957669 0 -0.3464858261225835 -0.038103962039358577 0 -0.35885342917835689 -0.045949169934127197 0 -0.36440847073100813 -0.034337455445994342 0 -0.37441507638331828 -0.047826465947740468 0 -0.35885342917835689 -0.045949169934127197 0 -0.36440847073100813 -0.034337455445994342 0 -0.37441507638331828 -0.047826465947740468 0 -0.36440847073100813 -0.034337455445994342 0 -0.37861335428236148 -0.032300542027819283 0 -0.36440847073100813 -0.034337455445994342 0 -0.37383096054174009 -0.01694448260508848 0 -0.35610908952696491 -0.0252236034957669 0 -0.36440847073100813 -0.034337455445994342 0 -0.37383096054174009 -0.01694448260508848 0 -0.37861335428236148 -0.032300542027819283 0 -0.37383096054174009 -0.01694448260508848 0 -0.35176926176700141 -0.01447422679635987 0 -0.35610908952696491 -0.0252236034957669 0 -0.37383096054174009 -0.01694448260508848 0 -0.35297224887296907 -0.002069934093802447 0 -0.37383096054174009 -0.01694448260508848 0 -0.35297224887296907 -0.002069934093802447 0 -0.36630240863329833 0.0029484098375479289 0 -0.37383096054174009 -0.01694448260508848 0 -0.35297224887296907 -0.002069934093802447 0 -0.35176926176700141 -0.01447422679635987 0 -0.37383096054174009 -0.01694448260508848 0 -0.38080236514241322 0.004967057045595173 0 -0.36630240863329833 0.0029484098375479289 0 -0.35297224887296907 -0.002069934093802447 0 -0.35176926176700141 -0.01447422679635987 0 -0.33753724430434129 -0.0053325751836834773 0 -0.3464858261225835 -0.038103962039358577 0 -0.35610908952696491 -0.0252236034957669 0 -0.34405092847249119 -0.02225789059203321 0 -0.35176926176700141 -0.01447422679635987 0 -0.35610908952696491 -0.0252236034957669 0 -0.34405092847249119 -0.02225789059203321 0 -0.35176926176700141 -0.01447422679635987 0 -0.34405092847249119 -0.02225789059203321 0 -0.33035738679791199 -0.01935710731268064 0 -0.35176926176700141 -0.01447422679635987 0 -0.33035738679791199 -0.01935710731268064 0 -0.3464858261225835 -0.038103962039358577 0 -0.34405092847249119 -0.02225789059203321 0 -0.33369335619912582 -0.032446033489245477 0 -0.34405092847249119 -0.02225789059203321 0 -0.33035738679791199 -0.01935710731268064 0 -0.33369335619912582 -0.032446033489245477 0 -0.34405092847249119 -0.02225789059203321 0 -0.33035738679791199 -0.01935710731268064 0 -0.33035738679791199 -0.01935710731268064 0 -0.33753724430434129 -0.0053325751836834773 0 -0.32009090194009132 0.00022972968992290691 0 -0.35176926176700141 -0.01447422679635987 0 -0.33035738679791199 -0.01935710731268064 0 -0.33753724430434129 -0.0053325751836834773 0 -0.30503630449653202 -0.01399319387812435 0 -0.33035738679791199 -0.01935710731268064 0 -0.32009090194009132 0.00022972968992290691 0 -0.30129837412366872 -0.025983882735916269 0 -0.33035738679791199 -0.01935710731268064 0 -0.33035738679791199 -0.01935710731268064 0 -0.31551370276250867 -0.037414994572555552 0 -0.33369335619912582 -0.032446033489245477 0 -0.30129837412366872 -0.025983882735916269 0 -0.33035738679791199 -0.01935710731268064 0 -0.31551370276250867 -0.037414994572555552 0 -0.30503630449653202 -0.01399319387812435 0 -0.33035738679791199 -0.01935710731268064 0 -0.31551370276250867 -0.037414994572555552 0 -0.33369335619912582 -0.032446033489245477 0 -0.33205893684013321 -0.045096212929599921 0 -0.3078019969261811 -0.053946040493063202 0 -0.31551370276250867 -0.037414994572555552 0 -0.32077740639462587 -0.060679222952071808 0 -0.31551370276250867 -0.037414994572555552 0 -0.32077740639462587 -0.060679222952071808 0 -0.33205893684013321 -0.045096212929599921 0 -0.35010434347651792 -0.063528796303415389 0 -0.3464858261225835 -0.038103962039358577 0 -0.33205893684013321 -0.045096212929599921 0 -0.35010434347651792 -0.063528796303415389 0 -0.32077740639462587 -0.060679222952071808 0 -0.33205893684013321 -0.045096212929599921 0 -0.3464858261225835 -0.038103962039358577 0 -0.33369335619912582 -0.032446033489245477 0 -0.33205893684013321 -0.045096212929599921 0 -0.30439839118101719 -0.23519537456661699 0 -0.30565767890659928 -0.24530145112941409 0 -0.2948337266856621 -0.2451058964859964 0 -0.30439839118101719 -0.23519537456661699 0 -0.29359062396150287 -0.23619953920734779 0 -0.2948337266856621 -0.2451058964859964 0 -0.29941935906180128 -0.25288897962424572 0 -0.30565767890659928 -0.24530145112941409 0 -0.2948337266856621 -0.2451058964859964 0 -0.30565767890659928 -0.24530145112941409 0 -0.31400301762240418 -0.23795941011151489 0 -0.3128026899048888 -0.2490093066069573 0 -0.30673579201176571 -0.25301260665616998 0 -0.30565767890659928 -0.24530145112941409 0 -0.3128026899048888 -0.2490093066069573 0 -0.30439839118101719 -0.23519537456661699 0 -0.30565767890659928 -0.24530145112941409 0 -0.31400301762240418 -0.23795941011151489 0 -0.30439839118101719 -0.23519537456661699 0 -0.31125929781508349 -0.2228581231231512 0 -0.2922204210236104 -0.22317926084139519 0 -0.30439839118101719 -0.23519537456661699 0 -0.31125929781508349 -0.2228581231231512 0 -0.31400301762240418 -0.23795941011151489 0 -0.30439839118101719 -0.23519537456661699 0 -0.2922204210236104 -0.22317926084139519 0 -0.29359062396150287 -0.23619953920734779 0 -0.2922204210236104 -0.22317926084139519 0 -0.28256507838318218 -0.23771305606603979 0 -0.29359062396150287 -0.23619953920734779 0 -0.2922204210236104 -0.22317926084139519 0 -0.28256507838318218 -0.23771305606603979 0 -0.27685728561411399 -0.22225124945947661 0 -0.28256507838318218 -0.23771305606603979 0 -0.29359062396150287 -0.23619953920734779 0 -0.2948337266856621 -0.2451058964859964 0 -0.28754251027753353 -0.25066974673964437 0 -0.29941935906180128 -0.25288897962424572 0 -0.2948337266856621 -0.2451058964859964 0 -0.28754251027753353 -0.25066974673964437 0 -0.28256507838318218 -0.23771305606603979 0 -0.27997576050329209 -0.2470579843557148 0 -0.28754251027753353 -0.25066974673964437 0 -0.28256507838318218 -0.23771305606603979 0 -0.2948337266856621 -0.2451058964859964 0 -0.28256507838318218 -0.23771305606603979 0 -0.27997576050329209 -0.2470579843557148 0 -0.26944482005067788 -0.24477679142051259 0 -0.27626246977033653 -0.2545754308368342 0 -0.27997576050329209 -0.2470579843557148 0 -0.26944482005067788 -0.24477679142051259 0 -0.28256507838318218 -0.23771305606603979 0 -0.26944482005067788 -0.24477679142051259 0 -0.27074754789748801 -0.23212210733465419 0 -0.26944482005067788 -0.24477679142051259 0 -0.26296052657984281 -0.23776352083032939 0 -0.27074754789748801 -0.23212210733465419 0 -0.26172330181697562 -0.2541893147956889 0 -0.26944482005067788 -0.24477679142051259 0 -0.25800086889519658 -0.2465457939377326 0 -0.26944482005067788 -0.24477679142051259 0 -0.25800086889519658 -0.2465457939377326 0 -0.26296052657984281 -0.23776352083032939 0 -0.25800086889519658 -0.2465457939377326 0 -0.26296052657984281 -0.23776352083032939 0 -0.25191387712191438 -0.23736603208229759 0 -0.24951370693373881 -0.25111521330492559 0 -0.25800086889519658 -0.2465457939377326 0 -0.25191387712191438 -0.23736603208229759 0 -0.25191387712191438 -0.23736603208229759 0 -0.2623197073577776 -0.22166606385050661 0 -0.26296052657984281 -0.23776352083032939 0 -0.25191387712191438 -0.23736603208229759 0 -0.2623197073577776 -0.22166606385050661 0 -0.26296052657984281 -0.23776352083032939 0 -0.2623197073577776 -0.22166606385050661 0 -0.27074754789748801 -0.23212210733465419 0 -0.24639934416944459 -0.22034903935041281 0 -0.25191387712191438 -0.23736603208229759 0 -0.2623197073577776 -0.22166606385050661 0 -0.2623197073577776 -0.22166606385050661 0 -0.27074754789748801 -0.23212210733465419 0 -0.27685728561411399 -0.22225124945947661 0 -0.28256507838318218 -0.23771305606603979 0 -0.27074754789748801 -0.23212210733465419 0 -0.27685728561411399 -0.22225124945947661 0 -0.2623197073577776 -0.22166606385050661 0 -0.27685728561411399 -0.22225124945947661 0 -0.27725303040482069 -0.20369604911197539 0 -0.24639934416944459 -0.22034903935041281 0 -0.2623197073577776 -0.22166606385050661 0 -0.25406986248885111 -0.19713392890279641 0 -0.2623197073577776 -0.22166606385050661 0 -0.27725303040482069 -0.20369604911197539 0 -0.25406986248885111 -0.19713392890279641 0 -0.27725303040482069 -0.20369604911197539 0 -0.25406986248885111 -0.19713392890279641 0 -0.2692844866879161 -0.17923643903519129 0 -0.27725303040482069 -0.20369604911197539 0 -0.28919860579192919 -0.19078228128237301 0 -0.2692844866879161 -0.17923643903519129 0 -0.27725303040482069 -0.20369604911197539 0 -0.28919860579192919 -0.19078228128237301 0 -0.30083048510493898 -0.2054967275705834 0 -0.2922204210236104 -0.22317926084139519 0 -0.27725303040482069 -0.20369604911197539 0 -0.30083048510493898 -0.2054967275705834 0 -0.2922204210236104 -0.22317926084139519 0 -0.27685728561411399 -0.22225124945947661 0 -0.27725303040482069 -0.20369604911197539 0 -0.31125929781508349 -0.2228581231231512 0 -0.2922204210236104 -0.22317926084139519 0 -0.30083048510493898 -0.2054967275705834 0 -0.28919860579192919 -0.19078228128237301 0 -0.30083048510493898 -0.2054967275705834 0 -0.30696194478611838 -0.18621837476502071 0 -0.30083048510493898 -0.2054967275705834 0 -0.30696194478611838 -0.18621837476502071 0 -0.32640171422037162 -0.2067562546483043 0 -0.30696194478611838 -0.18621837476502071 0 -0.30538097886430288 -0.1607163531945589 0 -0.28973270284091712 -0.1749432919597266 0 -0.30538097886430288 -0.1607163531945589 0 -0.28973270284091712 -0.1749432919597266 0 -0.27612434910700823 -0.15084354008191889 0 -0.28919860579192919 -0.19078228128237301 0 -0.28973270284091712 -0.1749432919597266 0 -0.2692844866879161 -0.17923643903519129 0 -0.28919860579192919 -0.19078228128237301 0 -0.30696194478611838 -0.18621837476502071 0 -0.28973270284091712 -0.1749432919597266 0 -0.2426818939050584 -0.17743954786805319 0 -0.25406986248885111 -0.19713392890279641 0 -0.2692844866879161 -0.17923643903519129 0 -0.2426818939050584 -0.17743954786805319 0 -0.2692844866879161 -0.17923643903519129 0 -0.25496577270936083 -0.15765617205481219 0 -0.28973270284091712 -0.1749432919597266 0 -0.2692844866879161 -0.17923643903519129 0 -0.27612434910700823 -0.15084354008191889 0 -0.2692844866879161 -0.17923643903519129 0 -0.25496577270936083 -0.15765617205481219 0 -0.27612434910700823 -0.15084354008191889 0 -0.25496577270936083 -0.15765617205481219 0 -0.27612434910700823 -0.15084354008191889 0 -0.2605251188296025 -0.141652376398856 0 -0.24656022456848539 -0.14215814440695279 0 -0.25496577270936083 -0.15765617205481219 0 -0.2605251188296025 -0.141652376398856 0 -0.2605251188296025 -0.141652376398856 0 -0.25270849986012589 -0.13205252124913441 0 -0.27130072259158738 -0.12853325312953401 0 -0.2467354927537497 -0.1176809491985347 0 -0.25270849986012589 -0.13205252124913441 0 -0.27130072259158738 -0.12853325312953401 0 -0.24656022456848539 -0.14215814440695279 0 -0.2605251188296025 -0.141652376398856 0 -0.25270849986012589 -0.13205252124913441 0 -0.27612434910700823 -0.15084354008191889 0 -0.2605251188296025 -0.141652376398856 0 -0.27130072259158738 -0.12853325312953401 0 -0.27612434910700823 -0.15084354008191889 0 -0.27130072259158738 -0.12853325312953401 0 -0.29586595242942543 -0.13938555706053329 0 -0.27130072259158738 -0.12853325312953401 0 -0.29586595242942543 -0.13938555706053329 0 -0.27130072259158738 -0.12853325312953401 0 -0.28698964513629782 -0.12579359834588019 0 -0.29586595242942543 -0.13938555706053329 0 -0.28698964513629782 -0.12579359834588019 0 -0.29586595242942543 -0.13938555706053329 0 -0.29747731762085372 -0.1279545414832306 0 -0.30538097886430288 -0.1607163531945589 0 -0.27612434910700823 -0.15084354008191889 0 -0.29586595242942543 -0.13938555706053329 0 -0.30538097886430288 -0.1607163531945589 0 -0.29586595242942543 -0.13938555706053329 0 -0.31307925575344558 -0.1384942810828155 0 -0.29586595242942543 -0.13938555706053329 0 -0.29747731762085372 -0.1279545414832306 0 -0.31307925575344558 -0.1384942810828155 0 -0.31006355623993481 -0.1263872934522848 0 -0.29747731762085372 -0.1279545414832306 0 -0.31307925575344558 -0.1384942810828155 0 -0.3225036501573223 -0.12404634494251141 0 -0.31307925575344558 -0.1384942810828155 0 -0.3342835947972061 -0.1347873950942847 0 -0.3225036501573223 -0.12404634494251141 0 -0.31006355623993481 -0.1263872934522848 0 -0.31307925575344558 -0.1384942810828155 0 -0.30538097886430288 -0.1607163531945589 0 -0.31307925575344558 -0.1384942810828155 0 -0.32787843898020969 -0.15584715147898279 0 -0.31307925575344558 -0.1384942810828155 0 -0.32787843898020969 -0.15584715147898279 0 -0.3342835947972061 -0.1347873950942847 0 -0.32787843898020969 -0.15584715147898279 0 -0.3342835947972061 -0.1347873950942847 0 -0.35330255987653197 -0.14955286406747301 0 -0.33811219102594647 -0.1217605482715514 0 -0.3342835947972061 -0.1347873950942847 0 -0.35567264038270568 -0.12859403757664631 0 -0.3225036501573223 -0.12404634494251141 0 -0.33811219102594647 -0.1217605482715514 0 -0.3342835947972061 -0.1347873950942847 0 -0.3342835947972061 -0.1347873950942847 0 -0.35567264038270568 -0.12859403757664631 0 -0.35330255987653197 -0.14955286406747301 0 -0.36884517744043788 -0.13558738470653109 0 -0.37855065435307172 -0.1466831742225351 0 -0.37538114861739841 -0.1202770349219929 0 -0.35567264038270568 -0.12859403757664631 0 -0.36884517744043788 -0.13558738470653109 0 -0.36577626640857602 -0.14679529210494999 0 -0.35567264038270568 -0.12859403757664631 0 -0.36884517744043788 -0.13558738470653109 0 -0.37538114861739841 -0.1202770349219929 0 -0.37177587339135271 -0.15489205407800821 0 -0.36577626640857602 -0.14679529210494999 0 -0.36641928828261178 -0.16101491986341329 0 -0.37177587339135271 -0.15489205407800821 0 -0.36577626640857602 -0.14679529210494999 0 -0.37855065435307172 -0.1466831742225351 0 -0.36884517744043788 -0.13558738470653109 0 -0.36577626640857602 -0.14679529210494999 0 -0.37855065435307172 -0.1466831742225351 0 -0.36577626640857602 -0.14679529210494999 0 -0.35330255987653197 -0.14955286406747301 0 -0.36641928828261178 -0.16101491986341329 0 -0.35567264038270568 -0.12859403757664631 0 -0.36577626640857602 -0.14679529210494999 0 -0.35330255987653197 -0.14955286406747301 0 -0.32787843898020969 -0.15584715147898279 0 -0.35330255987653197 -0.14955286406747301 0 -0.35534244434382761 -0.1755861707541628 0 -0.35330255987653197 -0.14955286406747301 0 -0.36641928828261178 -0.16101491986341329 0 -0.35534244434382761 -0.1755861707541628 0 -0.35330255987653197 -0.14955286406747301 0 -0.35534244434382761 -0.1755861707541628 0 -0.36641928828261178 -0.16101491986341329 0 -0.37008581414090258 -0.17227520085974471 0 -0.35534244434382761 -0.1755861707541628 0 -0.36641928828261178 -0.16101491986341329 0 -0.37008581414090258 -0.17227520085974471 0 -0.37635728452115108 -0.1650748301211343 0 -0.37177587339135271 -0.15489205407800821 0 -0.36641928828261178 -0.16101491986341329 0 -0.37635728452115108 -0.1650748301211343 0 -0.36821472642966019 -0.1828474118050829 0 -0.37057118668358091 -0.20037104882530959 0 -0.38172016008874421 -0.17308931352307749 0 -0.36821472642966019 -0.1828474118050829 0 -0.37008581414090258 -0.17227520085974471 0 -0.38172016008874421 -0.17308931352307749 0 -0.36821472642966019 -0.1828474118050829 0 -0.37008581414090258 -0.17227520085974471 0 -0.35534244434382761 -0.1755861707541628 0 -0.36821472642966019 -0.1828474118050829 0 -0.35534244434382761 -0.1755861707541628 0 -0.36287767156704798 -0.19010602720635189 0 -0.35534244434382761 -0.1755861707541628 0 -0.32714007660029071 -0.1813017030636436 0 -0.34869148346176071 -0.20133189079518429 0 -0.32787843898020969 -0.15584715147898279 0 -0.35534244434382761 -0.1755861707541628 0 -0.32714007660029071 -0.1813017030636436 0 -0.32787843898020969 -0.15584715147898279 0 -0.32714007660029071 -0.1813017030636436 0 -0.30538097886430288 -0.1607163531945589 0 -0.32787843898020969 -0.15584715147898279 0 -0.32714007660029071 -0.1813017030636436 0 -0.30696194478611838 -0.18621837476502071 0 -0.30538097886430288 -0.1607163531945589 0 -0.32714007660029071 -0.1813017030636436 0 -0.30696194478611838 -0.18621837476502071 0 -0.32714007660029071 -0.1813017030636436 0 -0.32640171422037162 -0.2067562546483043 0 -0.32714007660029071 -0.1813017030636436 0 -0.32640171422037162 -0.2067562546483043 0 -0.31125929781508349 -0.2228581231231512 0 -0.30083048510493898 -0.2054967275705834 0 -0.32640171422037162 -0.2067562546483043 0 -0.32640171422037162 -0.2067562546483043 0 -0.34869148346176071 -0.20133189079518429 0 -0.33835301019829073 -0.22719365407118169 0 -0.34869148346176071 -0.20133189079518429 0 -0.33835301019829073 -0.22719365407118169 0 -0.32714007660029071 -0.1813017030636436 0 -0.32640171422037162 -0.2067562546483043 0 -0.34869148346176071 -0.20133189079518429 0 -0.35534244434382761 -0.1755861707541628 0 -0.3573823288111232 -0.2016194774408524 0 -0.36287767156704798 -0.19010602720635189 0 -0.35534244434382761 -0.1755861707541628 0 -0.3573823288111232 -0.2016194774408524 0 -0.35534244434382761 -0.1755861707541628 0 -0.34869148346176071 -0.20133189079518429 0 -0.3573823288111232 -0.2016194774408524 0 -0.36821472642966019 -0.1828474118050829 0 -0.36287767156704798 -0.19010602720635189 0 -0.37057118668358091 -0.20037104882530959 0 -0.3573823288111232 -0.2016194774408524 0 -0.36287767156704798 -0.19010602720635189 0 -0.37057118668358091 -0.20037104882530959 0 -0.37057118668358091 -0.20037104882530959 0 -0.35942221327841839 -0.22765278412754211 0 -0.37057118668358091 -0.20037104882530959 0 -0.37322784133871512 -0.22011919425356541 0 -0.38011935835803989 -0.21250459539245531 0 -0.37057118668358091 -0.20037104882530959 0 -0.35942221327841839 -0.22765278412754211 0 -0.37322784133871512 -0.22011919425356541 0 -0.3573823288111232 -0.2016194774408524 0 -0.37057118668358091 -0.20037104882530959 0 -0.35942221327841839 -0.22765278412754211 0 -0.3573823288111232 -0.2016194774408524 0 -0.35036972706394087 -0.2163832171451 0 -0.35942221327841839 -0.22765278412754211 0 -0.3573823288111232 -0.2016194774408524 0 -0.35942221327841839 -0.22765278412754211 0 -0.34869148346176071 -0.20133189079518429 0 -0.35036972706394087 -0.2163832171451 0 -0.33835301019829073 -0.22719365407118169 0 -0.34869148346176071 -0.20133189079518429 0 -0.3573823288111232 -0.2016194774408524 0 -0.35036972706394087 -0.2163832171451 0 -0.35036972706394087 -0.2163832171451 0 -0.34874127534846361 -0.22675654501749301 0 -0.33835301019829073 -0.22719365407118169 0 -0.34874127534846361 -0.22675654501749301 0 -0.34682015085320422 -0.23579652472614809 0 -0.33835301019829073 -0.22719365407118169 0 -0.34874127534846361 -0.22675654501749301 0 -0.35942221327841839 -0.22765278412754211 0 -0.34682015085320422 -0.23579652472614809 0 -0.35036972706394087 -0.2163832171451 0 -0.34874127534846361 -0.22675654501749301 0 -0.35942221327841839 -0.22765278412754211 0 -0.35942221327841839 -0.22765278412754211 0 -0.37322784133871512 -0.22011919425356541 0 -0.37391372286860919 -0.23617982309288749 0 -0.37139449004158193 -0.25050051947318991 0 -0.37391372286860919 -0.23617982309288749 0 -0.36060906861732539 -0.24279960715887561 0 -0.35942221327841839 -0.22765278412754211 0 -0.37391372286860919 -0.23617982309288749 0 -0.36060906861732539 -0.24279960715887561 0 -0.35942221327841839 -0.22765278412754211 0 -0.36060906861732539 -0.24279960715887561 0 -0.34805119160101139 -0.25547787548306539 0 -0.34682015085320422 -0.23579652472614809 0 -0.3402747396181886 -0.24454003065821181 0 -0.34805119160101139 -0.25547787548306539 0 -0.35942221327841839 -0.22765278412754211 0 -0.34805119160101139 -0.25547787548306539 0 -0.35942221327841839 -0.22765278412754211 0 -0.34682015085320422 -0.23579652472614809 0 -0.34805119160101139 -0.25547787548306539 0 -0.35942221327841839 -0.22765278412754211 0 -0.36060906861732539 -0.24279960715887561 0 -0.32801453693482069 -0.25305541734717912 0 -0.3402747396181886 -0.24454003065821181 0 -0.33835301019829073 -0.22719365407118169 0 -0.34682015085320422 -0.23579652472614809 0 -0.3402747396181886 -0.24454003065821181 0 -0.33835301019829073 -0.22719365407118169 0 -0.32801453693482069 -0.25305541734717912 0 -0.33835301019829073 -0.22719365407118169 0 -0.32801453693482069 -0.25305541734717912 0 -0.33835301019829073 -0.22719365407118169 0 -0.32566335184045248 -0.23221080623296489 0 -0.32640171422037162 -0.2067562546483043 0 -0.33835301019829073 -0.22719365407118169 0 -0.32566335184045248 -0.23221080623296489 0 -0.31125929781508349 -0.2228581231231512 0 -0.32640171422037162 -0.2067562546483043 0 -0.32566335184045248 -0.23221080623296489 0 -0.32640171422037162 -0.2067562546483043 0 -0.32566335184045248 -0.23221080623296489 0 -0.31125929781508349 -0.2228581231231512 0 -0.32566335184045248 -0.23221080623296489 0 -0.31400301762240418 -0.23795941011151489 0 -0.32492498946053339 -0.25766535781762562 0 -0.32566335184045248 -0.23221080623296489 0 -0.32566335184045248 -0.23221080623296489 0 -0.31400301762240418 -0.23795941011151489 0 -0.3196985982825582 -0.24607621173107741 0 -0.32801453693482069 -0.25305541734717912 0 -0.32492498946053339 -0.25766535781762562 0 -0.32566335184045248 -0.23221080623296489 0 -0.32492498946053339 -0.25766535781762562 0 -0.32566335184045248 -0.23221080623296489 0 -0.3196985982825582 -0.24607621173107741 0 -0.31400301762240418 -0.23795941011151489 0 -0.3196985982825582 -0.24607621173107741 0 -0.3128026899048888 -0.2490093066069573 0 -0.31739474192710271 -0.2546974775692164 0 -0.3196985982825582 -0.24607621173107741 0 -0.3128026899048888 -0.2490093066069573 0 -0.43470717633851957 -0.25130824331758839 0 -0.41861209482226069 -0.23857156752833081 0 -0.43929607622674333 -0.2360122189590288 0 -0.41861209482226069 -0.23857156752833081 0 -0.43429994684084772 -0.2183135850739811 0 -0.43929607622674333 -0.2360122189590288 0 -0.40981033083772911 -0.22262292339398199 0 -0.41861209482226069 -0.23857156752833081 0 -0.43429994684084772 -0.2183135850739811 0 -0.40981033083772911 -0.22262292339398199 0 -0.41861209482226069 -0.23857156752833081 0 -0.39470122960746168 -0.23374799771988641 0 -0.40002834122183201 -0.25088796108084532 0 -0.41794274386765629 -0.26031799379438691 0 -0.41861209482226069 -0.23857156752833081 0 -0.38353271496343849 -0.25037699086215182 0 -0.40002834122183201 -0.25088796108084532 0 -0.39470122960746168 -0.23374799771988641 0 -0.40002834122183201 -0.25088796108084532 0 -0.41861209482226069 -0.23857156752833081 0 -0.39470122960746168 -0.23374799771988641 0 -0.38353271496343849 -0.25037699086215182 0 -0.37391372286860919 -0.23617982309288749 0 -0.39470122960746168 -0.23374799771988641 0 -0.38353271496343849 -0.25037699086215182 0 -0.37139449004158193 -0.25050051947318991 0 -0.37391372286860919 -0.23617982309288749 0 -0.38211272550492748 -0.2238877198296324 0 -0.39470122960746168 -0.23374799771988641 0 -0.39459572701633061 -0.21455416342795491 0 -0.37391372286860919 -0.23617982309288749 0 -0.38211272550492748 -0.2238877198296324 0 -0.39470122960746168 -0.23374799771988641 0 -0.37322784133871512 -0.22011919425356541 0 -0.37391372286860919 -0.23617982309288749 0 -0.38211272550492748 -0.2238877198296324 0 -0.37322784133871512 -0.22011919425356541 0 -0.38211272550492748 -0.2238877198296324 0 -0.38011935835803989 -0.21250459539245531 0 -0.40981033083772911 -0.22262292339398199 0 -0.39470122960746168 -0.23374799771988641 0 -0.39459572701633061 -0.21455416342795491 0 -0.40981033083772911 -0.22262292339398199 0 -0.39459572701633061 -0.21455416342795491 0 -0.41129835290489591 -0.20629514269825239 0 -0.39459572701633061 -0.21455416342795491 0 -0.39813067367614441 -0.2000530572418317 0 -0.41129835290489591 -0.20629514269825239 0 -0.39459572701633061 -0.21455416342795491 0 -0.38599741822511657 -0.20276770771964461 0 -0.39813067367614441 -0.2000530572418317 0 -0.38211272550492748 -0.2238877198296324 0 -0.39459572701633061 -0.21455416342795491 0 -0.38011935835803989 -0.21250459539245531 0 -0.39459572701633061 -0.21455416342795491 0 -0.38011935835803989 -0.21250459539245531 0 -0.38599741822511657 -0.20276770771964461 0 -0.37057118668358091 -0.20037104882530959 0 -0.38011935835803989 -0.21250459539245531 0 -0.38599741822511657 -0.20276770771964461 0 -0.37057118668358091 -0.20037104882530959 0 -0.38907934866248289 -0.1900100932880471 0 -0.38221614655988329 -0.1772215312694137 0 -0.37057118668358091 -0.20037104882530959 0 -0.38599741822511657 -0.20276770771964461 0 -0.38907934866248289 -0.1900100932880471 0 -0.38907934866248289 -0.1900100932880471 0 -0.39813067367614441 -0.2000530572418317 0 -0.40530302564967641 -0.19135898694787509 0 -0.38599741822511657 -0.20276770771964461 0 -0.38907934866248289 -0.1900100932880471 0 -0.39813067367614441 -0.2000530572418317 0 -0.39813067367614441 -0.2000530572418317 0 -0.40530302564967641 -0.19135898694787509 0 -0.41129835290489591 -0.20629514269825239 0 -0.40530302564967641 -0.19135898694787509 0 -0.41129835290489591 -0.20629514269825239 0 -0.42640780904327807 -0.19219590080648041 0 -0.40530302564967641 -0.19135898694787509 0 -0.42640780904327807 -0.19219590080648041 0 -0.40911339471691721 -0.1796792898253019 0 -0.40981033083772911 -0.22262292339398199 0 -0.41129835290489591 -0.20629514269825239 0 -0.43429994684084772 -0.2183135850739811 0 -0.43429994684084772 -0.2183135850739811 0 -0.42640780904327807 -0.19219590080648041 0 -0.4490611343448182 -0.20394858131056789 0 -0.41129835290489591 -0.20629514269825239 0 -0.43429994684084772 -0.2183135850739811 0 -0.42640780904327807 -0.19219590080648041 0 -0.43429994684084772 -0.2183135850739811 0 -0.42640780904327807 -0.19219590080648041 0 -0.42640780904327807 -0.19219590080648041 0 -0.41851567124570838 -0.16607821653897961 0 -0.42640780904327807 -0.19219590080648041 0 -0.43339752378087187 -0.17038685030690129 0 -0.41851567124570838 -0.16607821653897961 0 -0.42640780904327807 -0.19219590080648041 0 -0.43339752378087187 -0.17038685030690129 0 -0.44514738207402449 -0.18048510213161009 0 -0.43339752378087187 -0.17038685030690129 0 -0.42662473556966601 -0.15339768982018859 0 -0.44123362980323072 -0.15702162295265229 0 -0.43339752378087187 -0.17038685030690129 0 -0.41851567124570838 -0.16607821653897961 0 -0.42662473556966601 -0.15339768982018859 0 -0.41851567124570838 -0.16607821653897961 0 -0.40911339471691721 -0.1796792898253019 0 -0.39969513578232779 -0.17004917132083361 0 -0.42640780904327807 -0.19219590080648041 0 -0.41851567124570838 -0.16607821653897961 0 -0.40911339471691721 -0.1796792898253019 0 -0.38907934866248289 -0.1900100932880471 0 -0.40530302564967641 -0.19135898694787509 0 -0.39778857489434061 -0.1799204378273376 0 -0.40530302564967641 -0.19135898694787509 0 -0.40911339471691721 -0.1796792898253019 0 -0.39778857489434061 -0.1799204378273376 0 -0.40911339471691721 -0.1796792898253019 0 -0.39778857489434061 -0.1799204378273376 0 -0.39969513578232779 -0.17004917132083361 0 -0.39246699157627551 -0.17499514395732041 0 -0.39778857489434061 -0.1799204378273376 0 -0.39969513578232779 -0.17004917132083361 0 -0.39246699157627551 -0.17499514395732041 0 -0.39778857489434061 -0.1799204378273376 0 -0.38947837552063391 -0.17936755928908871 0 -0.38907934866248289 -0.1900100932880471 0 -0.39778857489434061 -0.1799204378273376 0 -0.38947837552063391 -0.17936755928908871 0 -0.37057118668358091 -0.20037104882530959 0 -0.38172016008874421 -0.17308931352307749 0 -0.37057118668358091 -0.20037104882530959 0 -0.38221614655988329 -0.1772215312694137 0 -0.38172016008874421 -0.17308931352307749 0 -0.38907934866248289 -0.1900100932880471 0 -0.38947837552063391 -0.17936755928908871 0 -0.38221614655988329 -0.1772215312694137 0 -0.39246699157627551 -0.17499514395732041 0 -0.38947837552063391 -0.17936755928908871 0 -0.3863918439260452 -0.1737090613350388 0 -0.39246699157627551 -0.17499514395732041 0 -0.3863918439260452 -0.1737090613350388 0 -0.38996060135925981 -0.1691522562735773 0 -0.3863918439260452 -0.1737090613350388 0 -0.38221614655988329 -0.1772215312694137 0 -0.38172016008874421 -0.17308931352307749 0 -0.3863918439260452 -0.1737090613350388 0 -0.38172016008874421 -0.17308931352307749 0 -0.38340331456774179 -0.16897060471464731 0 -0.38947837552063391 -0.17936755928908871 0 -0.3863918439260452 -0.1737090613350388 0 -0.38221614655988329 -0.1772215312694137 0 -0.38221614655988329 -0.1772215312694137 0 -0.38172016008874421 -0.17308931352307749 0 -0.38172016008874421 -0.17308931352307749 0 -0.37855065435307172 -0.1466831742225351 0 -0.38172016008874421 -0.17308931352307749 0 -0.37635728452115108 -0.1650748301211343 0 -0.37855065435307172 -0.1466831742225351 0 -0.38340331456774179 -0.16897060471464731 0 -0.38424052887217641 -0.15711631531194231 0 -0.37855065435307172 -0.1466831742225351 0 -0.38172016008874421 -0.17308931352307749 0 -0.38340331456774179 -0.16897060471464731 0 -0.37855065435307172 -0.1466831742225351 0 -0.37008581414090258 -0.17227520085974471 0 -0.38172016008874421 -0.17308931352307749 0 -0.37635728452115108 -0.1650748301211343 0 -0.38172016008874421 -0.17308931352307749 0 -0.38340331456774179 -0.16897060471464731 0 -0.3863918439260452 -0.1737090613350388 0 -0.38340331456774179 -0.16897060471464731 0 -0.38996060135925981 -0.1691522562735773 0 -0.38996060135925981 -0.1691522562735773 0 -0.38737476517511882 -0.16467835153513791 0 -0.39189461590129732 -0.16347422984038479 0 -0.38340331456774179 -0.16897060471464731 0 -0.38996060135925981 -0.1691522562735773 0 -0.38737476517511882 -0.16467835153513791 0 -0.38737476517511882 -0.16467835153513791 0 -0.38424052887217641 -0.15711631531194231 0 -0.39189461590129732 -0.16347422984038479 0 -0.38340331456774179 -0.16897060471464731 0 -0.38737476517511882 -0.16467835153513791 0 -0.38424052887217641 -0.15711631531194231 0 -0.39189461590129732 -0.16347422984038479 0 -0.39969513578232779 -0.17004917132083361 0 -0.39902062689876328 -0.1575866659998261 0 -0.41851567124570838 -0.16607821653897961 0 -0.39969513578232779 -0.17004917132083361 0 -0.39902062689876328 -0.1575866659998261 0 -0.38424052887217641 -0.15711631531194231 0 -0.39189461590129732 -0.16347422984038479 0 -0.39902062689876328 -0.1575866659998261 0 -0.38996060135925981 -0.1691522562735773 0 -0.39189461590129732 -0.16347422984038479 0 -0.39969513578232779 -0.17004917132083361 0 -0.39246699157627551 -0.17499514395732041 0 -0.38996060135925981 -0.1691522562735773 0 -0.39969513578232779 -0.17004917132083361 0 -0.39122151298678309 -0.14826476149203721 0 -0.38367222136176482 -0.13997711965440371 0 -0.41062353344813962 -0.13996053227147859 0 -0.39902062689876328 -0.1575866659998261 0 -0.39122151298678309 -0.14826476149203721 0 -0.41062353344813962 -0.13996053227147859 0 -0.38424052887217641 -0.15711631531194231 0 -0.39902062689876328 -0.1575866659998261 0 -0.39122151298678309 -0.14826476149203721 0 -0.38424052887217641 -0.15711631531194231 0 -0.39122151298678309 -0.14826476149203721 0 -0.37855065435307172 -0.1466831742225351 0 -0.37177587339135271 -0.15489205407800821 0 -0.37635728452115108 -0.1650748301211343 0 -0.37855065435307172 -0.1466831742225351 0 -0.39122151298678309 -0.14826476149203721 0 -0.37855065435307172 -0.1466831742225351 0 -0.38367222136176482 -0.13997711965440371 0 -0.37855065435307172 -0.1466831742225351 0 -0.37538114861739841 -0.1202770349219929 0 -0.38367222136176482 -0.13997711965440371 0 -0.39166551301888047 -0.12600444437155989 0 -0.37538114861739841 -0.1202770349219929 0 -0.37855065435307172 -0.1466831742225351 0 -0.38367222136176482 -0.13997711965440371 0 -0.37538114861739841 -0.1202770349219929 0 -0.39166551301888047 -0.12600444437155989 0 -0.41062353344813962 -0.13996053227147859 0 -0.40456446698810822 -0.1199090850187944 0 -0.38367222136176482 -0.13997711965440371 0 -0.39166551301888047 -0.12600444437155989 0 -0.41062353344813962 -0.13996053227147859 0 -0.38367222136176482 -0.13997711965440371 0 -0.41062353344813962 -0.13996053227147859 0 -0.42141751455395621 -0.12746583615606311 0 -0.41062353344813962 -0.13996053227147859 0 -0.43337891272890711 -0.13994652730620399 0 -0.42141751455395621 -0.12746583615606311 0 -0.41062353344813962 -0.13996053227147859 0 -0.40456446698810822 -0.1199090850187944 0 -0.41062353344813962 -0.13996053227147859 0 -0.40456446698810822 -0.1199090850187944 0 -0.41851567124570838 -0.16607821653897961 0 -0.41062353344813962 -0.13996053227147859 0 -0.42662473556966601 -0.15339768982018859 0 -0.41851567124570838 -0.16607821653897961 0 -0.41062353344813962 -0.13996053227147859 0 -0.41851567124570838 -0.16607821653897961 0 -0.39902062689876328 -0.1575866659998261 0 -0.41062353344813962 -0.13996053227147859 0 -0.42662473556966601 -0.15339768982018859 0 -0.43337891272890711 -0.13994652730620399 0 -0.44123362980323072 -0.15702162295265229 0 -0.41062353344813962 -0.13996053227147859 0 -0.42662473556966601 -0.15339768982018859 0 -0.43337891272890711 -0.13994652730620399 0 -0.41062353344813962 -0.13996053227147859 0 -0.43337891272890711 -0.13994652730620399 0 -0.42141751455395621 -0.12746583615606311 0 -0.43337891272890711 -0.13994652730620399 0 -0.4344654894736259 -0.1184030698884825 0 -0.43337891272890711 -0.13994652730620399 0 -0.45613429200967448 -0.1399325223409322 0 -0.43337891272890711 -0.13994652730620399 0 -0.44700390668255813 -0.12874299900512129 0 -0.4344654894736259 -0.1184030698884825 0 -0.43337891272890711 -0.13994652730620399 0 -0.44700390668255813 -0.12874299900512129 0 -0.45613429200967448 -0.1399325223409322 0 -0.45613429200967448 -0.1399325223409322 0 -0.45928276544890839 -0.1573255183892571 0 -0.44123362980323072 -0.15702162295265229 0 -0.43337891272890711 -0.13994652730620399 0 -0.45613429200967448 -0.1399325223409322 0 -0.44123362980323072 -0.15702162295265229 0 -0.45613429200967448 -0.1399325223409322 0 -0.47888967129044202 -0.13991851737566041 0 -0.45928276544890839 -0.1573255183892571 0 -0.44700390668255813 -0.12874299900512129 0 -0.45613429200967448 -0.1399325223409322 0 -0.4640369325180248 -0.1166898764848666 0 -0.45613429200967448 -0.1399325223409322 0 -0.47888967129044202 -0.13991851737566041 0 -0.4640369325180248 -0.1166898764848666 0 -0.45613429200967448 -0.1399325223409322 0 -0.47888967129044202 -0.13991851737566041 0 -0.48333479178802591 -0.12577140760093511 0 -0.47888967129044202 -0.13991851737566041 0 -0.4640369325180248 -0.1166898764848666 0 -0.5 -0.1313154071231766 0 -0.49680418778121282 -0.1315005534619656 0 -0.50000000000000211 -0.11460639040366941 0 -0.48333479178802591 -0.12577140760093511 0 -0.47888967129044202 -0.13991851737566041 0 -0.49680418778121282 -0.1315005534619656 0 -0.49680418778121282 -0.1315005534619656 0 -0.50000000000000089 -0.14802442384268369 0 -0.5 -0.1313154071231766 0 -0.49680418778121282 -0.1315005534619656 0 -0.50000000000000089 -0.14802442384268369 0 -0.47888967129044202 -0.13991851737566041 0 -0.49680418778121282 -0.1315005534619656 0 -0.50000000000000089 -0.14802442384268369 0 -0.47888967129044202 -0.13991851737566041 0 -0.50000000000000089 -0.14802442384268369 0 -0.4823658771875301 -0.16054228421342229 0 -0.47888967129044202 -0.13991851737566041 0 -0.4823658771875301 -0.16054228421342229 0 -0.45928276544890839 -0.1573255183892571 0 -0.4823658771875301 -0.16054228421342229 0 -0.46782008749016818 -0.1732102705851514 0 -0.45928276544890839 -0.1573255183892571 0 -0.50000000000000089 -0.14802442384268369 0 -0.4823658771875301 -0.16054228421342229 0 -0.5 -0.17309765303380659 0 -0.5 -0.17309765303380659 0 -0.48264238642240082 -0.18428783184047701 0 -0.5 -0.1981708822249296 0 -0.4823658771875301 -0.16054228421342229 0 -0.5 -0.17309765303380659 0 -0.48264238642240082 -0.18428783184047701 0 -0.48264238642240082 -0.18428783184047701 0 -0.46782008749016818 -0.1732102705851514 0 -0.46452736119336102 -0.1934704029411094 0 -0.4823658771875301 -0.16054228421342229 0 -0.48264238642240082 -0.18428783184047701 0 -0.46782008749016818 -0.1732102705851514 0 -0.46782008749016818 -0.1732102705851514 0 -0.44514738207402449 -0.18048510213161009 0 -0.46452736119336102 -0.1934704029411094 0 -0.46782008749016818 -0.1732102705851514 0 -0.45928276544890839 -0.1573255183892571 0 -0.44514738207402449 -0.18048510213161009 0 -0.43339752378087187 -0.17038685030690129 0 -0.44123362980323072 -0.15702162295265229 0 -0.44514738207402449 -0.18048510213161009 0 -0.44123362980323072 -0.15702162295265229 0 -0.44514738207402449 -0.18048510213161009 0 -0.45928276544890839 -0.1573255183892571 0 -0.44123362980323072 -0.15702162295265229 0 -0.44514738207402449 -0.18048510213161009 0 -0.44514738207402449 -0.18048510213161009 0 -0.4490611343448182 -0.20394858131056789 0 -0.42640780904327807 -0.19219590080648041 0 -0.44514738207402449 -0.18048510213161009 0 -0.4490611343448182 -0.20394858131056789 0 -0.44514738207402449 -0.18048510213161009 0 -0.4490611343448182 -0.20394858131056789 0 -0.46452736119336102 -0.1934704029411094 0 -0.4490611343448182 -0.20394858131056789 0 -0.45297488661561192 -0.22741206048952589 0 -0.43429994684084772 -0.2183135850739811 0 -0.4490611343448182 -0.20394858131056789 0 -0.45297488661561192 -0.22741206048952589 0 -0.4490611343448182 -0.20394858131056789 0 -0.46349181923471899 -0.2132168511628236 0 -0.45297488661561192 -0.22741206048952589 0 -0.4490611343448182 -0.20394858131056789 0 -0.46349181923471899 -0.2132168511628236 0 -0.46452736119336102 -0.1934704029411094 0 -0.48264238642240082 -0.18428783184047701 0 -0.46452736119336102 -0.1934704029411094 0 -0.48114099266334559 -0.20723549804444261 0 -0.48264238642240082 -0.18428783184047701 0 -0.5 -0.1981708822249296 0 -0.48114099266334559 -0.20723549804444261 0 -0.5 -0.1981708822249296 0 -0.48114099266334559 -0.20723549804444261 0 -0.5 -0.2232441114160526 0 -0.46349181923471899 -0.2132168511628236 0 -0.46452736119336102 -0.1934704029411094 0 -0.48114099266334559 -0.20723549804444261 0 -0.46349181923471899 -0.2132168511628236 0 -0.48114099266334559 -0.20723549804444261 0 -0.47612088491518212 -0.2321901948733415 0 -0.48114099266334559 -0.20723549804444261 0 -0.47612088491518212 -0.2321901948733415 0 -0.5 -0.2232441114160526 0 -0.47612088491518212 -0.2321901948733415 0 -0.5 -0.2232441114160526 0 -0.5 -0.24831734060717561 0 -0.48093252799823838 -0.25533176491691217 0 -0.47612088491518212 -0.2321901948733415 0 -0.5 -0.24831734060717561 0 -0.45688863888640568 -0.2508755396684838 0 -0.48093252799823838 -0.25533176491691217 0 -0.47612088491518212 -0.2321901948733415 0 -0.45688863888640568 -0.2508755396684838 0 -0.45297488661561192 -0.22741206048952589 0 -0.45688863888640568 -0.2508755396684838 0 -0.47612088491518212 -0.2321901948733415 0 -0.45297488661561192 -0.22741206048952589 0 -0.46349181923471899 -0.2132168511628236 0 -0.47612088491518212 -0.2321901948733415 0 -0.45297488661561192 -0.22741206048952589 0 -0.43429994684084772 -0.2183135850739811 0 -0.45297488661561192 -0.22741206048952589 0 -0.43929607622674333 -0.2360122189590288 0 -0.45688863888640568 -0.2508755396684838 0 -0.43470717633851957 -0.25130824331758839 0 -0.43929607622674333 -0.2360122189590288 0 -0.45688863888640568 -0.2508755396684838 0 -0.45297488661561192 -0.22741206048952589 0 -0.43929607622674333 -0.2360122189590288 0 -0.41612814263507503 -0.034713687586265377 0 -0.40989874706071411 -0.047623658253634737 0 -0.42745084025522517 -0.042358495134064852 0 -0.41612814263507503 -0.034713687586265377 0 -0.40989874706071411 -0.047623658253634737 0 -0.40321956358448319 -0.041453291499801058 0 -0.42055977815430179 -0.056827646225320799 0 -0.40989874706071411 -0.047623658253634737 0 -0.40340033615980131 -0.064037193306543866 0 -0.42055977815430179 -0.056827646225320799 0 -0.40989874706071411 -0.047623658253634737 0 -0.42745084025522517 -0.042358495134064852 0 -0.42055977815430179 -0.056827646225320799 0 -0.43700205161436417 -0.056843091038956933 0 -0.42745084025522517 -0.042358495134064852 0 -0.42055977815430179 -0.056827646225320799 0 -0.43700205161436417 -0.056843091038956933 0 -0.42449495483033151 -0.07293221561000944 0 -0.41612814263507503 -0.034713687586265377 0 -0.42745084025522517 -0.042358495134064852 0 -0.43592216005646561 -0.028163239130263029 0 -0.41612814263507503 -0.034713687586265377 0 -0.42303654219691922 -0.016421805236390589 0 -0.43592216005646561 -0.028163239130263029 0 -0.42303654219691922 -0.016421805236390589 0 -0.43592216005646561 -0.028163239130263029 0 -0.44817393074442441 -0.015937698336927309 0 -0.42303654219691922 -0.016421805236390589 0 -0.44817393074442441 -0.015937698336927309 0 -0.4370619965171243 7.1554614970265127e-05 0 -0.42303654219691922 -0.016421805236390589 0 -0.4370619965171243 7.1554614970265127e-05 0 -0.41883399922651388 0.0023550694591607199 0 -0.42303654219691922 -0.016421805236390589 0 -0.4007512518415568 -0.0023088368062816359 0 -0.41883399922651388 0.0023550694591607199 0 -0.42303654219691922 -0.016421805236390589 0 -0.39770493166896781 -0.018780038939487369 0 -0.4007512518415568 -0.0023088368062816359 0 -0.42303654219691922 -0.016421805236390589 0 -0.39770493166896781 -0.018780038939487369 0 -0.39872580929011858 -0.032124135592065582 0 -0.42303654219691922 -0.016421805236390589 0 -0.39872580929011858 -0.032124135592065582 0 -0.41612814263507503 -0.034713687586265377 0 -0.42303654219691922 -0.016421805236390589 0 -0.39872580929011858 -0.032124135592065582 0 -0.39770493166896781 -0.018780038939487369 0 -0.38713253087600602 -0.01166682718392492 0 -0.3946896722105111 -0.031819031116374512 0 -0.39770493166896781 -0.018780038939487369 0 -0.3946896722105111 -0.031819031116374512 0 -0.39872580929011858 -0.032124135592065582 0 -0.39770493166896781 -0.018780038939487369 0 -0.4007512518415568 -0.0023088368062816359 0 -0.38713253087600602 -0.01166682718392492 0 -0.37383096054174009 -0.01694448260508848 0 -0.38713253087600602 -0.01166682718392492 0 -0.38080236514241322 0.004967057045595173 0 -0.4007512518415568 -0.0023088368062816359 0 -0.38713253087600602 -0.01166682718392492 0 -0.38080236514241322 0.004967057045595173 0 -0.37383096054174009 -0.01694448260508848 0 -0.3946896722105111 -0.031819031116374512 0 -0.37383096054174009 -0.01694448260508848 0 -0.37861335428236148 -0.032300542027819283 0 -0.3946896722105111 -0.031819031116374512 0 -0.37383096054174009 -0.01694448260508848 0 -0.38713253087600602 -0.01166682718392492 0 -0.3946896722105111 -0.031819031116374512 0 -0.37441507638331828 -0.047826465947740468 0 -0.37861335428236148 -0.032300542027819283 0 -0.3946896722105111 -0.031819031116374512 0 -0.37441507638331828 -0.047826465947740468 0 -0.39872580929011858 -0.032124135592065582 0 -0.37441507638331828 -0.047826465947740468 0 -0.3946896722105111 -0.031819031116374512 0 -0.39872580929011858 -0.032124135592065582 0 -0.37441507638331828 -0.047826465947740468 0 -0.39872580929011858 -0.032124135592065582 0 -0.39292968423042729 -0.049820834235987849 0 -0.41612814263507503 -0.034713687586265377 0 -0.40321956358448319 -0.041453291499801058 0 -0.39872580929011858 -0.032124135592065582 0 -0.40321956358448319 -0.041453291499801058 0 -0.39872580929011858 -0.032124135592065582 0 -0.39292968423042729 -0.049820834235987849 0 -0.40989874706071411 -0.047623658253634737 0 -0.40321956358448319 -0.041453291499801058 0 -0.39292968423042729 -0.049820834235987849 0 -0.39292968423042729 -0.049820834235987849 0 -0.38530944224751301 -0.061576127093174123 0 -0.40340033615980131 -0.064037193306543866 0 -0.40989874706071411 -0.047623658253634737 0 -0.39292968423042729 -0.049820834235987849 0 -0.40340033615980131 -0.064037193306543866 0 -0.36904213714605161 -0.067464756320908037 0 -0.37441507638331828 -0.047826465947740468 0 -0.38530944224751301 -0.061576127093174123 0 -0.37441507638331828 -0.047826465947740468 0 -0.39292968423042729 -0.049820834235987849 0 -0.38530944224751301 -0.061576127093174123 0 -0.36904213714605161 -0.067464756320908037 0 -0.38530944224751301 -0.061576127093174123 0 -0.38675997731796619 -0.078731385654690386 0 -0.37221164288172492 -0.093870895621450484 0 -0.36904213714605161 -0.067464756320908037 0 -0.38675997731796619 -0.078731385654690386 0 -0.37221164288172492 -0.093870895621450484 0 -0.38675997731796619 -0.078731385654690386 0 -0.39850540052807748 -0.099857637766109897 0 -0.38675997731796619 -0.078731385654690386 0 -0.39850540052807748 -0.099857637766109897 0 -0.40850516465896608 -0.084350670097050232 0 -0.38530944224751301 -0.061576127093174123 0 -0.38675997731796619 -0.078731385654690386 0 -0.40340033615980131 -0.064037193306543866 0 -0.38675997731796619 -0.078731385654690386 0 -0.40340033615980131 -0.064037193306543866 0 -0.40850516465896608 -0.084350670097050232 0 -0.39166551301888047 -0.12600444437155989 0 -0.37538114861739841 -0.1202770349219929 0 -0.38814122312187788 -0.1115614454057391 0 -0.37221164288172492 -0.093870895621450484 0 -0.37538114861739841 -0.1202770349219929 0 -0.38814122312187788 -0.1115614454057391 0 -0.37221164288172492 -0.093870895621450484 0 -0.38814122312187788 -0.1115614454057391 0 -0.39850540052807748 -0.099857637766109897 0 -0.39166551301888047 -0.12600444437155989 0 -0.38814122312187788 -0.1115614454057391 0 -0.40456446698810822 -0.1199090850187944 0 -0.39850540052807748 -0.099857637766109897 0 -0.40456446698810822 -0.1199090850187944 0 -0.38814122312187788 -0.1115614454057391 0 -0.39850540052807748 -0.099857637766109897 0 -0.40456446698810822 -0.1199090850187944 0 -0.39850540052807748 -0.099857637766109897 0 -0.40456446698810822 -0.1199090850187944 0 -0.41902630756570669 -0.1094538160003011 0 -0.42141751455395621 -0.12746583615606311 0 -0.40456446698810822 -0.1199090850187944 0 -0.41902630756570669 -0.1094538160003011 0 -0.39850540052807748 -0.099857637766109897 0 -0.41902630756570669 -0.1094538160003011 0 -0.40850516465896608 -0.084350670097050232 0 -0.41902630756570669 -0.1094538160003011 0 -0.40850516465896608 -0.084350670097050232 0 -0.42497855726919798 -0.092229247362683175 0 -0.41902630756570669 -0.1094538160003011 0 -0.42497855726919798 -0.092229247362683175 0 -0.43915701500654819 -0.10373894302177079 0 -0.42497855726919798 -0.092229247362683175 0 -0.43987285451831309 -0.087385560503147691 0 -0.43915701500654819 -0.10373894302177079 0 -0.42141751455395621 -0.12746583615606311 0 -0.41902630756570669 -0.1094538160003011 0 -0.4344654894736259 -0.1184030698884825 0 -0.41902630756570669 -0.1094538160003011 0 -0.4344654894736259 -0.1184030698884825 0 -0.43915701500654819 -0.10373894302177079 0 -0.40340033615980131 -0.064037193306543866 0 -0.40850516465896608 -0.084350670097050232 0 -0.42449495483033151 -0.07293221561000944 0 -0.42055977815430179 -0.056827646225320799 0 -0.40340033615980131 -0.064037193306543866 0 -0.42449495483033151 -0.07293221561000944 0 -0.40850516465896608 -0.084350670097050232 0 -0.42497855726919798 -0.092229247362683175 0 -0.42449495483033151 -0.07293221561000944 0 -0.42497855726919798 -0.092229247362683175 0 -0.42449495483033151 -0.07293221561000944 0 -0.43987285451831309 -0.087385560503147691 0 -0.42449495483033151 -0.07293221561000944 0 -0.4450478898227983 -0.072087610448250489 0 -0.43987285451831309 -0.087385560503147691 0 -0.43700205161436417 -0.056843091038956933 0 -0.42449495483033151 -0.07293221561000944 0 -0.4450478898227983 -0.072087610448250489 0 -0.4450478898227983 -0.072087610448250489 0 -0.46105621767291022 -0.072841363544366433 0 -0.45275749887225653 -0.058252362302607233 0 -0.43987285451831309 -0.087385560503147691 0 -0.45593634810792311 -0.085658442964338333 0 -0.45256194869442112 -0.098272087891143944 0 -0.4450478898227983 -0.072087610448250489 0 -0.43987285451831309 -0.087385560503147691 0 -0.45593634810792311 -0.085658442964338333 0 -0.45593634810792311 -0.085658442964338333 0 -0.46542771273640288 -0.098117042517888317 0 -0.47300748109043228 -0.086439006542169267 0 -0.45593634810792311 -0.085658442964338333 0 -0.46105621767291022 -0.072841363544366433 0 -0.47300748109043228 -0.086439006542169267 0 -0.4450478898227983 -0.072087610448250489 0 -0.45593634810792311 -0.085658442964338333 0 -0.46105621767291022 -0.072841363544366433 0 -0.46105621767291022 -0.072841363544366433 0 -0.4743646763249027 -0.060568893512669232 0 -0.46337506697110292 -0.059696613329322808 0 -0.46105621767291022 -0.072841363544366433 0 -0.46337506697110292 -0.059696613329322808 0 -0.45275749887225653 -0.058252362302607233 0 -0.4344654894736259 -0.1184030698884825 0 -0.43915701500654819 -0.10373894302177079 0 -0.4640369325180248 -0.1166898764848666 0 -0.4344654894736259 -0.1184030698884825 0 -0.4640369325180248 -0.1166898764848666 0 -0.44700390668255813 -0.12874299900512129 0 -0.4344654894736259 -0.1184030698884825 0 -0.4640369325180248 -0.1166898764848666 0 -0.43987285451831309 -0.087385560503147691 0 -0.43915701500654819 -0.10373894302177079 0 -0.45256194869442112 -0.098272087891143944 0 -0.43915701500654819 -0.10373894302177079 0 -0.45256194869442112 -0.098272087891143944 0 -0.4640369325180248 -0.1166898764848666 0 -0.45256194869442112 -0.098272087891143944 0 -0.46542771273640288 -0.098117042517888317 0 -0.4640369325180248 -0.1166898764848666 0 -0.45593634810792311 -0.085658442964338333 0 -0.45256194869442112 -0.098272087891143944 0 -0.46542771273640288 -0.098117042517888317 0 -0.4640369325180248 -0.1166898764848666 0 -0.47812622174360869 -0.1028415142727778 0 -0.4936083755624236 -0.1149766830812478 0 -0.4640369325180248 -0.1166898764848666 0 -0.4936083755624236 -0.1149766830812478 0 -0.48333479178802591 -0.12577140760093511 0 -0.4640369325180248 -0.1166898764848666 0 -0.4936083755624236 -0.1149766830812478 0 -0.46542771273640288 -0.098117042517888317 0 -0.47812622174360869 -0.1028415142727778 0 -0.47300748109043228 -0.086439006542169267 0 -0.46542771273640288 -0.098117042517888317 0 -0.4640369325180248 -0.1166898764848666 0 -0.47812622174360869 -0.1028415142727778 0 -0.47812622174360869 -0.1028415142727778 0 -0.4936083755624236 -0.1149766830812478 0 -0.48840954506365503 -0.088096254754473427 0 -0.4936083755624236 -0.1149766830812478 0 -0.48840954506365503 -0.088096254754473427 0 -0.50000000000000211 -0.11460639040366941 0 -0.4936083755624236 -0.1149766830812478 0 -0.5 -0.086686357989542939 0 -0.4936083755624236 -0.1149766830812478 0 -0.48840954506365503 -0.088096254754473427 0 -0.5 -0.086686357989542939 0 -0.48333479178802591 -0.12577140760093511 0 -0.49680418778121282 -0.1315005534619656 0 -0.4936083755624236 -0.1149766830812478 0 -0.49680418778121282 -0.1315005534619656 0 -0.50000000000000211 -0.11460639040366941 0 -0.4936083755624236 -0.1149766830812478 0 -0.49680418778121282 -0.1315005534619656 0 -0.4936083755624236 -0.1149766830812478 0 -0.50000000000000211 -0.11460639040366941 0 -0.4936083755624236 -0.1149766830812478 0 -0.47300748109043228 -0.086439006542169267 0 -0.4743646763249027 -0.060568893512669232 0 -0.46105621767291022 -0.072841363544366433 0 -0.47300748109043228 -0.086439006542169267 0 -0.4743646763249027 -0.060568893512669232 0 -0.47300748109043228 -0.086439006542169267 0 -0.48321071456488612 -0.061215826427699169 0 -0.4743646763249027 -0.060568893512669232 0 -0.47300748109043228 -0.086439006542169267 0 -0.48840954506365503 -0.088096254754473427 0 -0.48321071456488612 -0.061215826427699169 0 -0.47812622174360869 -0.1028415142727778 0 -0.47300748109043228 -0.086439006542169267 0 -0.48840954506365503 -0.088096254754473427 0 -0.48840954506365503 -0.088096254754473427 0 -0.5 -0.086686357989542939 0 -0.49260416167150511 -0.073448072588008631 0 -0.48840954506365503 -0.088096254754473427 0 -0.49260416167150511 -0.073448072588008631 0 -0.48321071456488612 -0.061215826427699169 0 -0.48840954506365503 -0.088096254754473427 0 -0.48321071456488612 -0.061215826427699169 0 -0.5 -0.086686357989542939 0 -0.49260416167150511 -0.073448072588008631 0 -0.5 -0.058766325575416389 0 -0.49260416167150511 -0.073448072588008631 0 -0.5 -0.058766325575416389 0 -0.48321071456488612 -0.061215826427699169 0 -0.5 -0.058766325575416389 0 -0.48976176310743502 -0.046107455800107458 0 -0.48321071456488612 -0.061215826427699169 0 -0.47801188406611711 -0.034335398100925119 0 -0.49999999999999761 -0.03084629316128986 0 -0.48976176310743502 -0.046107455800107458 0 -0.47801188406611711 -0.034335398100925119 0 -0.49999999999999761 -0.03084629316128986 0 -0.5 -0.058766325575416389 0 -0.48976176310743502 -0.046107455800107458 0 -0.49999999999999761 -0.03084629316128986 0 -0.47801188406611711 -0.034335398100925119 0 -0.47572187155937218 -0.034698780483169142 0 -0.4743646763249027 -0.060568893512669232 0 -0.47801188406611711 -0.034335398100925119 0 -0.47572187155937218 -0.034698780483169142 0 -0.47622549787584262 -0.02509893117572165 0 -0.47801188406611711 -0.034335398100925119 0 -0.47572187155937218 -0.034698780483169142 0 -0.48976176310743502 -0.046107455800107458 0 -0.47801188406611711 -0.034335398100925119 0 -0.48321071456488612 -0.061215826427699169 0 -0.47572187155937218 -0.034698780483169142 0 -0.4743646763249027 -0.060568893512669232 0 -0.46532187501434208 -0.047123833957648423 0 -0.47572187155937218 -0.034698780483169142 0 -0.4743646763249027 -0.060568893512669232 0 -0.47801188406611711 -0.034335398100925119 0 -0.48321071456488612 -0.061215826427699169 0 -0.47801188406611711 -0.034335398100925119 0 -0.48321071456488612 -0.061215826427699169 0 -0.4743646763249027 -0.060568893512669232 0 -0.46532187501434208 -0.047123833957648423 0 -0.45158635590729829 -0.038528637808614999 0 -0.45275749887225653 -0.058252362302607233 0 -0.4743646763249027 -0.060568893512669232 0 -0.46337506697110292 -0.059696613329322808 0 -0.46532187501434208 -0.047123833957648423 0 -0.46337506697110292 -0.059696613329322808 0 -0.46532187501434208 -0.047123833957648423 0 -0.45275749887225653 -0.058252362302607233 0 -0.47572187155937218 -0.034698780483169142 0 -0.45158635590729829 -0.038528637808614999 0 -0.47572187155937218 -0.034698780483169142 0 -0.45158635590729829 -0.038528637808614999 0 -0.46255950394027429 -0.02698214433802754 0 -0.47572187155937218 -0.034698780483169142 0 -0.46532187501434208 -0.047123833957648423 0 -0.45158635590729829 -0.038528637808614999 0 -0.42745084025522517 -0.042358495134064852 0 -0.45158635590729829 -0.038528637808614999 0 -0.42745084025522517 -0.042358495134064852 0 -0.43592216005646561 -0.028163239130263029 0 -0.45158635590729829 -0.038528637808614999 0 -0.43700205161436417 -0.056843091038956933 0 -0.42745084025522517 -0.042358495134064852 0 -0.45158635590729829 -0.038528637808614999 0 -0.43700205161436417 -0.056843091038956933 0 -0.4450478898227983 -0.072087610448250489 0 -0.45275749887225653 -0.058252362302607233 0 -0.43700205161436417 -0.056843091038956933 0 -0.45158635590729829 -0.038528637808614999 0 -0.45275749887225653 -0.058252362302607233 0 -0.44817393074442441 -0.015937698336927309 0 -0.46045072757487943 -0.0028516328721894602 0 -0.4370619965171243 7.1554614970265127e-05 0 -0.43592216005646561 -0.028163239130263029 0 -0.45158635590729829 -0.038528637808614999 0 -0.44817393074442441 -0.015937698336927309 0 -0.44817393074442441 -0.015937698336927309 0 -0.46255950394027429 -0.02698214433802754 0 -0.46125641390778138 -0.016229455218376539 0 -0.45158635590729829 -0.038528637808614999 0 -0.44817393074442441 -0.015937698336927309 0 -0.46255950394027429 -0.02698214433802754 0 -0.46255950394027429 -0.02698214433802754 0 -0.46125641390778138 -0.016229455218376539 0 -0.47622549787584262 -0.02509893117572165 0 -0.46125641390778138 -0.016229455218376539 0 -0.46045072757487943 -0.0028516328721894602 0 -0.47410745492303458 -0.014147640919295769 0 -0.44817393074442441 -0.015937698336927309 0 -0.46125641390778138 -0.016229455218376539 0 -0.46045072757487943 -0.0028516328721894602 0 -0.47410745492303458 -0.014147640919295769 0 -0.47622549787584262 -0.02509893117572165 0 -0.47765648087023932 0.0021776837637466771 0 -0.46045072757487943 -0.0028516328721894602 0 -0.47410745492303458 -0.014147640919295769 0 -0.47765648087023932 0.0021776837637466771 0 -0.47622549787584262 -0.02509893117572165 0 -0.48836695319487128 -0.01857801119988255 0 -0.47765648087023932 0.0021776837637466771 0 -0.47622549787584262 -0.02509893117572165 0 -0.47765648087023932 0.0021776837637466771 0 -0.47801188406611711 -0.034335398100925119 0 -0.47622549787584262 -0.02509893117572165 0 -0.48836695319487128 -0.01857801119988255 0 -0.47572187155937218 -0.034698780483169142 0 -0.47622549787584262 -0.02509893117572165 0 -0.47572187155937218 -0.034698780483169142 0 -0.46255950394027429 -0.02698214433802754 0 -0.47622549787584262 -0.02509893117572165 0 -0.47410745492303458 -0.014147640919295769 0 -0.47622549787584262 -0.02509893117572165 0 -0.46125641390778138 -0.016229455218376539 0 -0.47410745492303458 -0.014147640919295769 0 -0.47622549787584262 -0.02509893117572165 0 -0.47801188406611711 -0.034335398100925119 0 -0.47622549787584262 -0.02509893117572165 0 -0.48836695319487128 -0.01857801119988255 0 -0.49999999999999761 -0.03084629316128986 0 -0.5 -0.0058619022051656922 0 -0.47801188406611711 -0.034335398100925119 0 -0.48836695319487128 -0.01857801119988255 0 -0.49999999999999761 -0.03084629316128986 0 -0.48836695319487128 -0.01857801119988255 0 -0.5 -0.0058619022051656922 0 -0.47765648087023932 0.0021776837637466771 0 -0.5 -0.0058619022051656922 0 -0.5 0.01912248875095857 0 -0.47765648087023932 0.0021776837637466771 0 -0.5 0.01912248875095857 0 -0.47908746386463569 0.029454298703215118 0 -0.5 0.044106879707082769 0 -0.5 0.01912248875095857 0 -0.47908746386463569 0.029454298703215118 0 -0.47765648087023932 0.0021776837637466771 0 -0.47908746386463569 0.029454298703215118 0 -0.47765648087023932 0.0021776837637466771 0 -0.47908746386463569 0.029454298703215118 0 -0.47765648087023932 0.0021776837637466771 0 -0.46565083058413342 0.013799769221309001 0 -0.5 0.044106879707082769 0 -0.48051844685903222 0.056730913642683428 0 -0.5 0.069091270663206972 0 -0.47908746386463569 0.029454298703215118 0 -0.5 0.044106879707082769 0 -0.48051844685903222 0.056730913642683428 0 -0.47908746386463569 0.029454298703215118 0 -0.48051844685903222 0.056730913642683428 0 -0.46840662202671918 0.043580285666373363 0 -0.47908746386463569 0.029454298703215118 0 -0.48051844685903222 0.056730913642683428 0 -0.47908746386463569 0.029454298703215118 0 -0.46840662202671918 0.043580285666373363 0 -0.46051380747272003 0.027945707014819479 0 -0.48051844685903222 0.056730913642683428 0 -0.46840662202671918 0.043580285666373363 0 -0.46779760718159241 0.063127588076605831 0 -0.45263482542370692 0.055505782572788182 0 -0.45071793963611118 0.064595248585115492 0 -0.46779760718159241 0.063127588076605831 0 -0.46840662202671918 0.043580285666373363 0 -0.45364578450975612 0.042247647571059879 0 -0.46779760718159241 0.063127588076605831 0 -0.45364578450975612 0.042247647571059879 0 -0.45263482542370692 0.055505782572788182 0 -0.46779760718159241 0.063127588076605831 0 -0.45364578450975612 0.042247647571059879 0 -0.46779760718159241 0.063127588076605831 0 -0.46840662202671918 0.043580285666373363 0 -0.45364578450975612 0.042247647571059879 0 -0.46051380747272003 0.027945707014819479 0 -0.44446182175278037 0.032162717777662372 0 -0.43837797036736798 0.052052646058371538 0 -0.45364578450975612 0.042247647571059879 0 -0.44446182175278037 0.032162717777662372 0 -0.43837797036736798 0.052052646058371538 0 -0.45364578450975612 0.042247647571059879 0 -0.44446182175278037 0.032162717777662372 0 -0.46051380747272003 0.027945707014819479 0 -0.45364578450975612 0.042247647571059879 0 -0.43837797036736798 0.052052646058371538 0 -0.45263482542370692 0.055505782572788182 0 -0.43837797036736798 0.052052646058371538 0 -0.45263482542370692 0.055505782572788182 0 -0.45071793963611118 0.064595248585115492 0 -0.46045072757487943 -0.0028516328721894602 0 -0.46565083058413342 0.013799769221309001 0 -0.45054567313819271 0.01227278949695319 0 -0.46045072757487943 -0.0028516328721894602 0 -0.47765648087023932 0.0021776837637466771 0 -0.46565083058413342 0.013799769221309001 0 -0.47908746386463569 0.029454298703215118 0 -0.46565083058413342 0.013799769221309001 0 -0.46051380747272003 0.027945707014819479 0 -0.46565083058413342 0.013799769221309001 0 -0.46051380747272003 0.027945707014819479 0 -0.45054567313819271 0.01227278949695319 0 -0.44446182175278037 0.032162717777662372 0 -0.45054567313819271 0.01227278949695319 0 -0.43362585305048362 0.026370252832627859 0 -0.44446182175278037 0.032162717777662372 0 -0.45054567313819271 0.01227278949695319 0 -0.44446182175278037 0.032162717777662372 0 -0.46051380747272003 0.027945707014819479 0 -0.45054567313819271 0.01227278949695319 0 -0.45054567313819271 0.01227278949695319 0 -0.4370619965171243 7.1554614970265127e-05 0 -0.42695481873938662 0.014698102171828891 0 -0.46045072757487943 -0.0028516328721894602 0 -0.45054567313819271 0.01227278949695319 0 -0.4370619965171243 7.1554614970265127e-05 0 -0.4370619965171243 7.1554614970265127e-05 0 -0.42695481873938662 0.014698102171828891 0 -0.41883399922651388 0.0023550694591607199 0 -0.42695481873938662 0.014698102171828891 0 -0.41883399922651388 0.0023550694591607199 0 -0.40636538683758222 0.015736332551676668 0 -0.4007512518415568 -0.0023088368062816359 0 -0.41883399922651388 0.0023550694591607199 0 -0.40636538683758222 0.015736332551676668 0 -0.42695481873938662 0.014698102171828891 0 -0.40636538683758222 0.015736332551676668 0 -0.41650680544887092 0.032220039953751688 0 -0.40636538683758222 0.015736332551676668 0 -0.41650680544887092 0.032220039953751688 0 -0.40145110647280258 0.031949364862800769 0 -0.45054567313819271 0.01227278949695319 0 -0.42695481873938662 0.014698102171828891 0 -0.43362585305048362 0.026370252832627859 0 -0.42695481873938662 0.014698102171828891 0 -0.43362585305048362 0.026370252832627859 0 -0.41650680544887092 0.032220039953751688 0 -0.44446182175278037 0.032162717777662372 0 -0.43362585305048362 0.026370252832627859 0 -0.4296601461731871 0.040497614762943147 0 -0.44446182175278037 0.032162717777662372 0 -0.43837797036736798 0.052052646058371538 0 -0.4296601461731871 0.040497614762943147 0 -0.43362585305048362 0.026370252832627859 0 -0.4296601461731871 0.040497614762943147 0 -0.41650680544887092 0.032220039953751688 0 -0.43837797036736798 0.052052646058371538 0 -0.4296601461731871 0.040497614762943147 0 -0.42683497128128428 0.056534325313874069 0 -0.4296601461731871 0.040497614762943147 0 -0.42683497128128428 0.056534325313874069 0 -0.41636092678876768 0.051078406373428413 0 -0.43837797036736798 0.052052646058371538 0 -0.42683497128128428 0.056534325313874069 0 -0.4322941189819548 0.07194257433908044 0 -0.43837797036736798 0.052052646058371538 0 -0.4322941189819548 0.07194257433908044 0 -0.41636092678876768 0.051078406373428413 0 -0.40266926920833279 0.062258195732013077 0 -0.41748169409514391 0.067100385035546786 0 -0.42683497128128428 0.056534325313874069 0 -0.41636092678876768 0.051078406373428413 0 -0.41748169409514391 0.067100385035546786 0 -0.41636092678876768 0.051078406373428413 0 -0.40364737790358052 0.04552424823329905 0 -0.40266926920833279 0.062258195732013077 0 -0.4296601461731871 0.040497614762943147 0 -0.41636092678876768 0.051078406373428413 0 -0.41650680544887092 0.032220039953751688 0 -0.41636092678876768 0.051078406373428413 0 -0.41650680544887092 0.032220039953751688 0 -0.40364737790358052 0.04552424823329905 0 -0.41650680544887092 0.032220039953751688 0 -0.40145110647280258 0.031949364862800769 0 -0.40364737790358052 0.04552424823329905 0 -0.40145110647280258 0.031949364862800769 0 -0.39127852911692901 0.041723251055067002 0 -0.38945714678993287 0.023500899978206601 0 -0.40145110647280258 0.031949364862800769 0 -0.40364737790358052 0.04552424823329905 0 -0.39127852911692901 0.041723251055067002 0 -0.40364737790358052 0.04552424823329905 0 -0.40266926920833279 0.062258195732013077 0 -0.39361763038578002 0.053916231422733413 0 -0.40364737790358052 0.04552424823329905 0 -0.39127852911692901 0.041723251055067002 0 -0.39361763038578002 0.053916231422733413 0 -0.40266926920833279 0.062258195732013077 0 -0.39361763038578002 0.053916231422733413 0 -0.39167820526631231 0.064998639129889804 0 -0.37881448416662777 0.05403477042139529 0 -0.39167820526631231 0.064998639129889804 0 -0.36923477768781721 0.067959962031115387 0 -0.39361763038578002 0.053916231422733413 0 -0.37881448416662777 0.05403477042139529 0 -0.39167820526631231 0.064998639129889804 0 -0.39127852911692901 0.041723251055067002 0 -0.39361763038578002 0.053916231422733413 0 -0.37881448416662777 0.05403477042139529 0 -0.39127852911692901 0.041723251055067002 0 -0.37949143914559857 0.036242752105375461 0 -0.38945714678993287 0.023500899978206601 0 -0.39127852911692901 0.041723251055067002 0 -0.37881448416662777 0.05403477042139529 0 -0.37949143914559857 0.036242752105375461 0 -0.37530289853567472 0.024066489134638241 0 -0.38945714678993287 0.023500899978206601 0 -0.38080236514241322 0.004967057045595173 0 -0.37949143914559857 0.036242752105375461 0 -0.37530289853567472 0.024066489134638241 0 -0.38945714678993287 0.023500899978206601 0 -0.38945714678993287 0.023500899978206601 0 -0.38080236514241322 0.004967057045595173 0 -0.39434403765287118 0.010473863192299201 0 -0.4007512518415568 -0.0023088368062816359 0 -0.38080236514241322 0.004967057045595173 0 -0.39434403765287118 0.010473863192299201 0 -0.4007512518415568 -0.0023088368062816359 0 -0.40636538683758222 0.015736332551676668 0 -0.39434403765287118 0.010473863192299201 0 -0.40636538683758222 0.015736332551676668 0 -0.38945714678993287 0.023500899978206601 0 -0.39434403765287118 0.010473863192299201 0 -0.40636538683758222 0.015736332551676668 0 -0.40145110647280258 0.031949364862800769 0 -0.38945714678993287 0.023500899978206601 0 -0.39516205123788789 0.097029060920832216 0 -0.38994225145532407 0.11309264056990589 0 -0.40919742424558447 0.1025799360978743 0 -0.39516205123788789 0.097029060920832216 0 -0.40015093153361392 0.084981967430904706 0 -0.40919742424558447 0.1025799360978743 0 -0.38994225145532407 0.11309264056990589 0 -0.40919742424558447 0.1025799360978743 0 -0.38994225145532407 0.11309264056990589 0 -0.40919742424558447 0.1025799360978743 0 -0.41091339531256499 0.11985446763867851 0 -0.38994225145532407 0.11309264056990589 0 -0.41091339531256499 0.11985446763867851 0 -0.39824728542694371 0.13788872927615101 0 -0.38994225145532407 0.11309264056990589 0 -0.38081074812960902 0.118078147420154 0 -0.38994225145532407 0.11309264056990589 0 -0.38081074812960902 0.118078147420154 0 -0.38426453797111237 0.12968304781706139 0 -0.38994225145532407 0.11309264056990589 0 -0.38081074812960902 0.118078147420154 0 -0.3744588290726677 0.10588125947093401 0 -0.38994225145532407 0.11309264056990589 0 -0.38135759771702921 0.087461699584644087 0 -0.3744588290726677 0.10588125947093401 0 -0.39516205123788789 0.097029060920832216 0 -0.38994225145532407 0.11309264056990589 0 -0.38135759771702921 0.087461699584644087 0 -0.38994225145532407 0.11309264056990589 0 -0.38135759771702921 0.087461699584644087 0 -0.38135759771702921 0.087461699584644087 0 -0.38770806322894308 0.076776986752666032 0 -0.40015093153361392 0.084981967430904706 0 -0.39167820526631231 0.064998639129889804 0 -0.36923477768781721 0.067959962031115387 0 -0.38135759771702921 0.087461699584644087 0 -0.38770806322894308 0.076776986752666032 0 -0.36923477768781721 0.067959962031115387 0 -0.38770806322894308 0.076776986752666032 0 -0.39167820526631231 0.064998639129889804 0 -0.36923477768781721 0.067959962031115387 0 -0.40266926920833279 0.062258195732013077 0 -0.39167820526631231 0.064998639129889804 0 -0.39837046617690841 0.072566644051778692 0 -0.38770806322894308 0.076776986752666032 0 -0.39167820526631231 0.064998639129889804 0 -0.39837046617690841 0.072566644051778692 0 -0.38770806322894308 0.076776986752666032 0 -0.39837046617690841 0.072566644051778692 0 -0.40015093153361392 0.084981967430904706 0 -0.39837046617690841 0.072566644051778692 0 -0.40015093153361392 0.084981967430904706 0 -0.40895890545025249 0.075338867380473434 0 -0.40266926920833279 0.062258195732013077 0 -0.39837046617690841 0.072566644051778692 0 -0.40895890545025249 0.075338867380473434 0 -0.39516205123788789 0.097029060920832216 0 -0.38135759771702921 0.087461699584644087 0 -0.40015093153361392 0.084981967430904706 0 -0.40015093153361392 0.084981967430904706 0 -0.41539591730156028 0.087228720025027337 0 -0.40919742424558447 0.1025799360978743 0 -0.40015093153361392 0.084981967430904706 0 -0.41539591730156028 0.087228720025027337 0 -0.40895890545025249 0.075338867380473434 0 -0.41539591730156028 0.087228720025027337 0 -0.41968515438595588 0.07789729200757009 0 -0.42811031435002039 0.085620681971562168 0 -0.41539591730156028 0.087228720025027337 0 -0.40895890545025249 0.075338867380473434 0 -0.41968515438595588 0.07789729200757009 0 -0.40266926920833279 0.062258195732013077 0 -0.41748169409514391 0.067100385035546786 0 -0.40266926920833279 0.062258195732013077 0 -0.40895890545025249 0.075338867380473434 0 -0.41748169409514391 0.067100385035546786 0 -0.40895890545025249 0.075338867380473434 0 -0.41968515438595588 0.07789729200757009 0 -0.41748169409514391 0.067100385035546786 0 -0.42683497128128428 0.056534325313874069 0 -0.41748169409514391 0.067100385035546786 0 -0.4322941189819548 0.07194257433908044 0 -0.41748169409514391 0.067100385035546786 0 -0.4322941189819548 0.07194257433908044 0 -0.41968515438595588 0.07789729200757009 0 -0.41748169409514391 0.067100385035546786 0 -0.4322941189819548 0.07194257433908044 0 -0.42845259703584582 0.092067231625844348 0 -0.43572096814581002 0.081903245571944533 0 -0.44770776982610699 0.081554527153814449 0 -0.41539591730156028 0.087228720025027337 0 -0.42845259703584582 0.092067231625844348 0 -0.42811031435002039 0.085620681971562168 0 -0.41968515438595588 0.07789729200757009 0 -0.4322941189819548 0.07194257433908044 0 -0.42811031435002039 0.085620681971562168 0 -0.4322941189819548 0.07194257433908044 0 -0.42811031435002039 0.085620681971562168 0 -0.4322941189819548 0.07194257433908044 0 -0.42811031435002039 0.085620681971562168 0 -0.43572096814581002 0.081903245571944533 0 -0.42845259703584582 0.092067231625844348 0 -0.42811031435002039 0.085620681971562168 0 -0.43572096814581002 0.081903245571944533 0 -0.42845259703584582 0.092067231625844348 0 -0.43526958644754132 0.098499336538904414 0 -0.44357583155332603 0.093117415193050418 0 -0.43526958644754132 0.098499336538904414 0 -0.43205572915834822 0.1061912517698821 0 -0.44057626668841482 0.104540780718091 0 -0.43526958644754132 0.098499336538904414 0 -0.43205572915834822 0.1061912517698821 0 -0.42519296891236658 0.1018151414717553 0 -0.43205572915834822 0.1061912517698821 0 -0.42519296891236658 0.1018151414717553 0 -0.42098950767451337 0.1097379513262715 0 -0.42845259703584582 0.092067231625844348 0 -0.43526958644754132 0.098499336538904414 0 -0.42519296891236658 0.1018151414717553 0 -0.42519296891236658 0.1018151414717553 0 -0.40919742424558447 0.1025799360978743 0 -0.42098950767451337 0.1097379513262715 0 -0.42845259703584582 0.092067231625844348 0 -0.40919742424558447 0.1025799360978743 0 -0.41539591730156028 0.087228720025027337 0 -0.42845259703584582 0.092067231625844348 0 -0.40919742424558447 0.1025799360978743 0 -0.42845259703584582 0.092067231625844348 0 -0.42519296891236658 0.1018151414717553 0 -0.40919742424558447 0.1025799360978743 0 -0.41091339531256499 0.11985446763867851 0 -0.42098950767451337 0.1097379513262715 0 -0.42843871526248972 0.1195503787707476 0 -0.40919742424558447 0.1025799360978743 0 -0.41091339531256499 0.11985446763867851 0 -0.42098950767451337 0.1097379513262715 0 -0.43205572915834822 0.1061912517698821 0 -0.42098950767451337 0.1097379513262715 0 -0.42843871526248972 0.1195503787707476 0 -0.43205572915834822 0.1061912517698821 0 -0.42843871526248972 0.1195503787707476 0 -0.44111884157641379 0.11247782063164111 0 -0.42843871526248972 0.1195503787707476 0 -0.44339392736274491 0.1240025757341465 0 -0.43283935041835708 0.13023277035992861 0 -0.44339392736274491 0.1240025757341465 0 -0.4533304568866256 0.1161668058525617 0 -0.45431087667096709 0.13210183166380249 0 -0.42843871526248972 0.1195503787707476 0 -0.44339392736274491 0.1240025757341465 0 -0.44111884157641379 0.11247782063164111 0 -0.44339392736274491 0.1240025757341465 0 -0.44111884157641379 0.11247782063164111 0 -0.4533304568866256 0.1161668058525617 0 -0.44111884157641379 0.11247782063164111 0 -0.44981883286060842 0.1063138546991431 0 -0.4533304568866256 0.1161668058525617 0 -0.44111884157641379 0.11247782063164111 0 -0.44057626668841482 0.104540780718091 0 -0.44981883286060842 0.1063138546991431 0 -0.43205572915834822 0.1061912517698821 0 -0.44111884157641379 0.11247782063164111 0 -0.44057626668841482 0.104540780718091 0 -0.44057626668841482 0.104540780718091 0 -0.44461834339916201 0.099221639950884177 0 -0.44981883286060842 0.1063138546991431 0 -0.43526958644754132 0.098499336538904414 0 -0.44461834339916201 0.099221639950884177 0 -0.44357583155332603 0.093117415193050418 0 -0.43526958644754132 0.098499336538904414 0 -0.44057626668841482 0.104540780718091 0 -0.44461834339916201 0.099221639950884177 0 -0.44461834339916201 0.099221639950884177 0 -0.45162335632240669 0.097836524261584845 0 -0.44357583155332603 0.093117415193050418 0 -0.44461834339916201 0.099221639950884177 0 -0.45162335632240669 0.097836524261584845 0 -0.44981883286060842 0.1063138546991431 0 -0.45162335632240669 0.097836524261584845 0 -0.44981883286060842 0.1063138546991431 0 -0.45791397853277072 0.10277929998761121 0 -0.44981883286060842 0.1063138546991431 0 -0.45791397853277072 0.10277929998761121 0 -0.46156211942495368 0.11093009046359049 0 -0.45162335632240669 0.097836524261584845 0 -0.46036773850359902 0.096680681014349096 0 -0.45344541308497421 0.088906254724470959 0 -0.45162335632240669 0.097836524261584845 0 -0.45791397853277072 0.10277929998761121 0 -0.46036773850359902 0.096680681014349096 0 -0.45791397853277072 0.10277929998761121 0 -0.46036773850359902 0.096680681014349096 0 -0.46588125048399559 0.1031100801824162 0 -0.46036773850359902 0.096680681014349096 0 -0.4674014883008753 0.096222265042702926 0 -0.46560302109265228 0.090610684984509207 0 -0.46036773850359902 0.096680681014349096 0 -0.4674014883008753 0.096222265042702926 0 -0.46588125048399559 0.1031100801824162 0 -0.45791397853277072 0.10277929998761121 0 -0.46588125048399559 0.1031100801824162 0 -0.46156211942495368 0.11093009046359049 0 -0.46588125048399559 0.1031100801824162 0 -0.46156211942495368 0.11093009046359049 0 -0.47290792073729948 0.112590027989717 0 -0.46481262985809968 0.1231840057036422 0 -0.4533304568866256 0.1161668058525617 0 -0.45431087667096709 0.13210183166380249 0 -0.46156211942495368 0.11093009046359049 0 -0.46481262985809968 0.1231840057036422 0 -0.47290792073729948 0.112590027989717 0 -0.46156211942495368 0.11093009046359049 0 -0.46481262985809968 0.1231840057036422 0 -0.4533304568866256 0.1161668058525617 0 -0.44981883286060842 0.1063138546991431 0 -0.46156211942495368 0.11093009046359049 0 -0.4533304568866256 0.1161668058525617 0 -0.4322941189819548 0.07194257433908044 0 -0.44770776982610699 0.081554527153814449 0 -0.45723299651418331 0.080095106213602718 0 -0.4322941189819548 0.07194257433908044 0 -0.45723299651418331 0.080095106213602718 0 -0.4322941189819548 0.07194257433908044 0 -0.45071793963611118 0.064595248585115492 0 -0.45723299651418331 0.080095106213602718 0 -0.43837797036736798 0.052052646058371538 0 -0.4322941189819548 0.07194257433908044 0 -0.45071793963611118 0.064595248585115492 0 -0.42845259703584582 0.092067231625844348 0 -0.44770776982610699 0.081554527153814449 0 -0.42845259703584582 0.092067231625844348 0 -0.44770776982610699 0.081554527153814449 0 -0.44357583155332603 0.093117415193050418 0 -0.44770776982610699 0.081554527153814449 0 -0.45344541308497421 0.088906254724470959 0 -0.45723299651418331 0.080095106213602718 0 -0.4322941189819548 0.07194257433908044 0 -0.43572096814581002 0.081903245571944533 0 -0.44770776982610699 0.081554527153814449 0 -0.44770776982610699 0.081554527153814449 0 -0.44357583155332603 0.093117415193050418 0 -0.45344541308497421 0.088906254724470959 0 -0.45162335632240669 0.097836524261584845 0 -0.44357583155332603 0.093117415193050418 0 -0.45344541308497421 0.088906254724470959 0 -0.46560302109265228 0.090610684984509207 0 -0.45723299651418331 0.080095106213602718 0 -0.48217187404641121 0.088247638088125885 0 -0.45344541308497421 0.088906254724470959 0 -0.46560302109265228 0.090610684984509207 0 -0.45723299651418331 0.080095106213602718 0 -0.46036773850359902 0.096680681014349096 0 -0.45344541308497421 0.088906254724470959 0 -0.46560302109265228 0.090610684984509207 0 -0.45071793963611118 0.064595248585115492 0 -0.46028270760199608 0.070359811798434035 0 -0.46779760718159241 0.063127588076605831 0 -0.45071793963611118 0.064595248585115492 0 -0.45723299651418331 0.080095106213602718 0 -0.46028270760199608 0.070359811798434035 0 -0.46028270760199608 0.070359811798434035 0 -0.46779760718159241 0.063127588076605831 0 -0.47028901318714877 0.077643018486848514 0 -0.45723299651418331 0.080095106213602718 0 -0.46028270760199608 0.070359811798434035 0 -0.47028901318714877 0.077643018486848514 0 -0.48051844685903222 0.056730913642683428 0 -0.4819494298534287 0.084007528582151686 0 -0.48051844685903222 0.056730913642683428 0 -0.46779760718159241 0.063127588076605831 0 -0.4819494298534287 0.084007528582151686 0 -0.46779760718159241 0.063127588076605831 0 -0.4819494298534287 0.084007528582151686 0 -0.46779760718159241 0.063127588076605831 0 -0.47028901318714877 0.077643018486848514 0 -0.4819494298534287 0.084007528582151686 0 -0.46560302109265228 0.090610684984509207 0 -0.48217187404641121 0.088247638088125885 0 -0.47362291157993119 0.094308818292894669 0 -0.45723299651418331 0.080095106213602718 0 -0.47028901318714877 0.077643018486848514 0 -0.48217187404641121 0.088247638088125885 0 -0.45723299651418331 0.080095106213602718 0 -0.48217187404641121 0.088247638088125885 0 -0.47028901318714877 0.077643018486848514 0 -0.4819494298534287 0.084007528582151686 0 -0.48217187404641121 0.088247638088125885 0 -0.4674014883008753 0.096222265042702926 0 -0.46560302109265228 0.090610684984509207 0 -0.47362291157993119 0.094308818292894669 0 -0.48217187404641121 0.088247638088125885 0 -0.4855779076344291 0.089361072217472276 0 -0.48263942425885681 0.09715982443817936 0 -0.48217187404641121 0.088247638088125885 0 -0.47362291157993119 0.094308818292894669 0 -0.48263942425885681 0.09715982443817936 0 -0.48217187404641121 0.088247638088125885 0 -0.48263942425885681 0.09715982443817936 0 -0.4819494298534287 0.084007528582151686 0 -0.48217187404641121 0.088247638088125885 0 -0.4819494298534287 0.084007528582151686 0 -0.48217187404641121 0.088247638088125885 0 -0.4855779076344291 0.089361072217472276 0 -0.4819494298534287 0.084007528582151686 0 -0.4855779076344291 0.089361072217472276 0 -0.48217187404641121 0.088247638088125885 0 -0.4855779076344291 0.089361072217472276 0 -0.4855779076344291 0.089361072217472276 0 -0.5 0.069091270663206972 0 -0.50000000000000422 0.094075661619331133 0 -0.4819494298534287 0.084007528582151686 0 -0.4855779076344291 0.089361072217472276 0 -0.5 0.069091270663206972 0 -0.4855779076344291 0.089361072217472276 0 -0.50000000000000422 0.094075661619331133 0 -0.48051844685903222 0.056730913642683428 0 -0.4819494298534287 0.084007528582151686 0 -0.5 0.069091270663206972 0 -0.46481262985809968 0.1231840057036422 0 -0.47290792073729948 0.112590027989717 0 -0.484265849479741 0.1254732530392568 0 -0.47290792073729948 0.112590027989717 0 -0.48540810418175229 0.11120420965980619 0 -0.484265849479741 0.1254732530392568 0 -0.46588125048399559 0.1031100801824162 0 -0.47290792073729948 0.112590027989717 0 -0.47469799201062762 0.1022856531947187 0 -0.4674014883008753 0.096222265042702926 0 -0.46588125048399559 0.1031100801824162 0 -0.47469799201062762 0.1022856531947187 0 -0.4674014883008753 0.096222265042702926 0 -0.47469799201062762 0.1022856531947187 0 -0.47362291157993119 0.094308818292894669 0 -0.47469799201062762 0.1022856531947187 0 -0.47362291157993119 0.094308818292894669 0 -0.48263942425885681 0.09715982443817936 0 -0.47469799201062762 0.1022856531947187 0 -0.48263942425885681 0.09715982443817936 0 -0.48540810418175229 0.11120420965980619 0 -0.47290792073729948 0.112590027989717 0 -0.47469799201062762 0.1022856531947187 0 -0.48540810418175229 0.11120420965980619 0 -0.4855779076344291 0.089361072217472276 0 -0.50000000000000422 0.094075661619331133 0 -0.49999999999999911 0.1106397751479325 0 -0.48263942425885681 0.09715982443817936 0 -0.49999999999999911 0.1106397751479325 0 -0.48540810418175229 0.11120420965980619 0 -0.4855779076344291 0.089361072217472276 0 -0.48263942425885681 0.09715982443817936 0 -0.49999999999999911 0.1106397751479325 0 -0.4855779076344291 0.089361072217472276 0 -0.49999999999999911 0.1106397751479325 0 -0.49999999999999911 0.1106397751479325 0 -0.5 0.13713965413030721 0 -0.484265849479741 0.1254732530392568 0 -0.49999999999999911 0.1106397751479325 0 -0.48540810418175229 0.11120420965980619 0 -0.484265849479741 0.1254732530392568 0 -0.5 0.13713965413030721 0 -0.484265849479741 0.1254732530392568 0 -0.48316776953879831 0.1400455744600998 0 -0.46481262985809968 0.1231840057036422 0 -0.484265849479741 0.1254732530392568 0 -0.46852542168594358 0.13834185578140501 0 -0.484265849479741 0.1254732530392568 0 -0.48316776953879831 0.1400455744600998 0 -0.46852542168594358 0.13834185578140501 0 -0.48316776953879831 0.1400455744600998 0 -0.46852542168594358 0.13834185578140501 0 -0.46841727905673691 0.15215231162174639 0 -0.48316776953879831 0.1400455744600998 0 -0.48255357798344167 0.1555378984270073 0 -0.46841727905673691 0.15215231162174639 0 -0.5 0.13713965413030721 0 -0.48255357798344167 0.1555378984270073 0 -0.5 0.1636395331126819 0 -0.5 0.13713965413030721 0 -0.48316776953879831 0.1400455744600998 0 -0.48255357798344167 0.1555378984270073 0 -0.48255357798344167 0.1555378984270073 0 -0.5 0.1636395331126819 0 -0.47889976827961811 0.17390408998246379 0 -0.5 0.1636395331126819 0 -0.49043028334799521 0.18074757548944051 0 -0.50000000000000044 0.19013941209505661 0 -0.5 0.1636395331126819 0 -0.49043028334799521 0.18074757548944051 0 -0.47889976827961811 0.17390408998246379 0 -0.47889976827961811 0.17390408998246379 0 -0.46591398360407338 0.1831918212595082 0 -0.48052642446464022 0.18978636140597019 0 -0.49043028334799521 0.18074757548944051 0 -0.47889976827961811 0.17390408998246379 0 -0.48052642446464022 0.18978636140597019 0 -0.47889976827961811 0.17390408998246379 0 -0.46483665102549698 0.16634622725474521 0 -0.46591398360407338 0.1831918212595082 0 -0.46591398360407338 0.1831918212595082 0 -0.48052642446464022 0.18978636140597019 0 -0.48255357798344167 0.1555378984270073 0 -0.47889976827961811 0.17390408998246379 0 -0.46483665102549698 0.16634622725474521 0 -0.48255357798344167 0.1555378984270073 0 -0.46483665102549698 0.16634622725474521 0 -0.46841727905673691 0.15215231162174639 0 -0.46483665102549698 0.16634622725474521 0 -0.46841727905673691 0.15215231162174639 0 -0.45505178300016091 0.1509434600035453 0 -0.46483665102549698 0.16634622725474521 0 -0.44770033427020423 0.1749720691392492 0 -0.45245022324546841 0.16299082886497041 0 -0.46483665102549698 0.16634622725474521 0 -0.45245022324546841 0.16299082886497041 0 -0.45505178300016091 0.1509434600035453 0 -0.46591398360407338 0.1831918212595082 0 -0.44770033427020423 0.1749720691392492 0 -0.46483665102549698 0.16634622725474521 0 -0.46591398360407338 0.1831918212595082 0 -0.44770033427020423 0.1749720691392492 0 -0.46591398360407338 0.1831918212595082 0 -0.44770033427020423 0.1749720691392492 0 -0.45529494843704199 0.19418302809394031 0 -0.46483665102549698 0.16634622725474521 0 -0.46591398360407338 0.1831918212595082 0 -0.44770033427020423 0.1749720691392492 0 -0.45529494843704199 0.19418302809394031 0 -0.43507615090361268 0.19083196739128999 0 -0.44770033427020423 0.1749720691392492 0 -0.42948668493633479 0.16675231701899079 0 -0.44770033427020423 0.1749720691392492 0 -0.44132917321745768 0.15736951564693119 0 -0.42948668493633479 0.16675231701899079 0 -0.44770033427020423 0.1749720691392492 0 -0.45245022324546841 0.16299082886497041 0 -0.44132917321745768 0.15736951564693119 0 -0.45245022324546841 0.16299082886497041 0 -0.44132917321745768 0.15736951564693119 0 -0.45505178300016091 0.1509434600035453 0 -0.44132917321745768 0.15736951564693119 0 -0.44018440602587139 0.14036281809616361 0 -0.45505178300016091 0.1509434600035453 0 -0.44018440602587139 0.14036281809616361 0 -0.45431087667096709 0.13210183166380249 0 -0.45505178300016091 0.1509434600035453 0 -0.44339392736274491 0.1240025757341465 0 -0.44018440602587139 0.14036281809616361 0 -0.43283935041835708 0.13023277035992861 0 -0.44339392736274491 0.1240025757341465 0 -0.44018440602587139 0.14036281809616361 0 -0.45431087667096709 0.13210183166380249 0 -0.45431087667096709 0.13210183166380249 0 -0.46852542168594358 0.13834185578140501 0 -0.45505178300016091 0.1509434600035453 0 -0.46481262985809968 0.1231840057036422 0 -0.45431087667096709 0.13210183166380249 0 -0.46852542168594358 0.13834185578140501 0 -0.46852542168594358 0.13834185578140501 0 -0.46841727905673691 0.15215231162174639 0 -0.45505178300016091 0.1509434600035453 0 -0.46891111927803181 0.2300562081208917 0 -0.46829859294929671 0.24125222961407239 0 -0.47030806071801612 0.25189933141855891 0 -0.46891111927803181 0.2300562081208917 0 -0.47030806071801612 0.25189933141855891 0 -0.48487107148390468 0.23984817863281541 0 -0.46891111927803181 0.2300562081208917 0 -0.47030806071801612 0.25189933141855891 0 -0.48487107148390468 0.23984817863281541 0 -0.5 0.22551850204434101 0 -0.5 0.25246229055944291 0 -0.48487107148390468 0.23984817863281541 0 -0.5 0.22551850204434101 0 -0.48202499230161899 0.21321855483666391 0 -0.48487107148390468 0.23984817863281541 0 -0.46891111927803181 0.2300562081208917 0 -0.48202499230161899 0.21321855483666391 0 -0.46891111927803181 0.2300562081208917 0 -0.48202499230161899 0.21321855483666391 0 -0.46891111927803181 0.2300562081208917 0 -0.48202499230161899 0.21321855483666391 0 -0.46741255144105182 0.2066240146902 0 -0.48202499230161899 0.21321855483666391 0 -0.47843620342071258 0.20168405404498541 0 -0.46741255144105182 0.2066240146902 0 -0.48202499230161899 0.21321855483666391 0 -0.49513886532520551 0.19638090155243559 0 -0.5 0.22551850204434101 0 -0.48202499230161899 0.21321855483666391 0 -0.50000000000000011 0.19857471352923919 0 -0.48202499230161899 0.21321855483666391 0 -0.49513886532520551 0.19638090155243559 0 -0.47843620342071258 0.20168405404498541 0 -0.48202499230161899 0.21321855483666391 0 -0.49513886532520551 0.19638090155243559 0 -0.50000000000000011 0.19857471352923919 0 -0.49043028334799521 0.18074757548944051 0 -0.49513886532520551 0.19638090155243559 0 -0.48052642446464022 0.18978636140597019 0 -0.49043028334799521 0.18074757548944051 0 -0.49513886532520551 0.19638090155243559 0 -0.50000000000000044 0.19013941209505661 0 -0.49513886532520551 0.19638090155243559 0 -0.48052642446464022 0.18978636140597019 0 -0.47843620342071258 0.20168405404498541 0 -0.49513886532520551 0.19638090155243559 0 -0.50000000000000011 0.19857471352923919 0 -0.49513886532520551 0.19638090155243559 0 -0.50000000000000011 0.19857471352923919 0 -0.50000000000000044 0.19013941209505661 0 -0.49513886532520551 0.19638090155243559 0 -0.50000000000000044 0.19013941209505661 0 -0.49513886532520551 0.19638090155243559 0 -0.48052642446464022 0.18978636140597019 0 -0.46591398360407338 0.1831918212595082 0 -0.48052642446464022 0.18978636140597019 0 -0.47843620342071258 0.20168405404498541 0 -0.46591398360407338 0.1831918212595082 0 -0.47843620342071258 0.20168405404498541 0 -0.46741255144105182 0.2066240146902 0 -0.46591398360407338 0.1831918212595082 0 -0.45529494843704199 0.19418302809394031 0 -0.46741255144105182 0.2066240146902 0 -0.46591398360407338 0.1831918212595082 0 -0.46741255144105182 0.2066240146902 0 -0.45529494843704199 0.19418302809394031 0 -0.43507615090361268 0.19083196739128999 0 -0.45529494843704199 0.19418302809394031 0 -0.44332108990924501 0.2064547416925743 0 -0.43507615090361268 0.19083196739128999 0 -0.44332108990924501 0.2064547416925743 0 -0.45644021906532201 0.21482931636337671 0 -0.4463274506925361 0.22219510540042409 0 -0.44332108990924501 0.2064547416925743 0 -0.4463274506925361 0.22219510540042409 0 -0.42404834927402502 0.21492218513605349 0 -0.45529494843704199 0.19418302809394031 0 -0.44332108990924501 0.2064547416925743 0 -0.45644021906532201 0.21482931636337671 0 -0.45529494843704199 0.19418302809394031 0 -0.45644021906532201 0.21482931636337671 0 -0.46741255144105182 0.2066240146902 0 -0.46891111927803181 0.2300562081208917 0 -0.46741255144105182 0.2066240146902 0 -0.46891111927803181 0.2300562081208917 0 -0.45644021906532201 0.21482931636337671 0 -0.46741255144105182 0.2066240146902 0 -0.46891111927803181 0.2300562081208917 0 -0.45737415463402531 0.2294628001822297 0 -0.46049113127065799 0.2408671133714248 0 -0.45644021906532201 0.21482931636337671 0 -0.45737415463402531 0.2294628001822297 0 -0.4463274506925361 0.22219510540042409 0 -0.46891111927803181 0.2300562081208917 0 -0.45644021906532201 0.21482931636337671 0 -0.45737415463402531 0.2294628001822297 0 -0.4463274506925361 0.22219510540042409 0 -0.4391639888176283 0.232861810253565 0 -0.44944243757294211 0.23359780497830709 0 -0.45737415463402531 0.2294628001822297 0 -0.4463274506925361 0.22219510540042409 0 -0.44944243757294211 0.23359780497830709 0 -0.44689953720935099 0.23790310505455009 0 -0.43850059117617612 0.24428569161490341 0 -0.46049113127065799 0.2408671133714248 0 -0.44944243757294211 0.23359780497830709 0 -0.44689953720935099 0.23790310505455009 0 -0.46049113127065799 0.2408671133714248 0 -0.4391639888176283 0.232861810253565 0 -0.44944243757294211 0.23359780497830709 0 -0.44689953720935099 0.23790310505455009 0 -0.4391639888176283 0.232861810253565 0 -0.44689953720935099 0.23790310505455009 0 -0.43850059117617612 0.24428569161490341 0 -0.43850059117617612 0.24428569161490341 0 -0.45407962648622052 0.24944900702720779 0 -0.44435632404652542 0.25325983155990861 0 -0.43850059117617612 0.24428569161490341 0 -0.45407962648622052 0.24944900702720779 0 -0.46829859294929671 0.24125222961407239 0 -0.43850059117617612 0.24428569161490341 0 -0.46049113127065799 0.2408671133714248 0 -0.46829859294929671 0.24125222961407239 0 -0.43850059117617612 0.24428569161490341 0 -0.46829859294929671 0.24125222961407239 0 -0.45737415463402531 0.2294628001822297 0 -0.44944243757294211 0.23359780497830709 0 -0.46049113127065799 0.2408671133714248 0 -0.46891111927803181 0.2300562081208917 0 -0.46049113127065799 0.2408671133714248 0 -0.46891111927803181 0.2300562081208917 0 -0.46049113127065799 0.2408671133714248 0 -0.46829859294929671 0.24125222961407239 0 -0.45407962648622052 0.24944900702720779 0 -0.46829859294929671 0.24125222961407239 0 -0.46313750112468022 0.24981470823400551 0 -0.46829859294929671 0.24125222961407239 0 -0.46313750112468022 0.24981470823400551 0 -0.47030806071801612 0.25189933141855891 0 -0.4087025894030557 0.24731915361573439 0 -0.41745041572628289 0.2327756236722926 0 -0.40381137905018327 0.22649769235391709 0 -0.4087025894030557 0.24731915361573439 0 -0.43323934517786772 0.24236346358346539 0 -0.41745041572628289 0.2327756236722926 0 -0.43850059117617612 0.24428569161490341 0 -0.4087025894030557 0.24731915361573439 0 -0.42459853110205897 0.25559547230202512 0 -0.43850059117617612 0.24428569161490341 0 -0.4087025894030557 0.24731915361573439 0 -0.43323934517786772 0.24236346358346539 0 -0.43850059117617612 0.24428569161490341 0 -0.4087025894030557 0.24731915361573439 0 -0.4391639888176283 0.232861810253565 0 -0.43850059117617612 0.24428569161490341 0 -0.43323934517786772 0.24236346358346539 0 -0.43323934517786772 0.24236346358346539 0 -0.41745041572628289 0.2327756236722926 0 -0.42404834927402502 0.21492218513605349 0 -0.43323934517786772 0.24236346358346539 0 -0.42404834927402502 0.21492218513605349 0 -0.4463274506925361 0.22219510540042409 0 -0.4391639888176283 0.232861810253565 0 -0.42404834927402502 0.21492218513605349 0 -0.4391639888176283 0.232861810253565 0 -0.43323934517786772 0.24236346358346539 0 -0.42404834927402502 0.21492218513605349 0 -0.41745041572628289 0.2327756236722926 0 -0.42404834927402502 0.21492218513605349 0 -0.40381137905018327 0.22649769235391709 0 -0.42404834927402502 0.21492218513605349 0 -0.40171581647771792 0.20604722931767641 0 -0.40381137905018327 0.22649769235391709 0 -0.44332108990924501 0.2064547416925743 0 -0.42404834927402502 0.21492218513605349 0 -0.43507615090361268 0.19083196739128999 0 -0.42404834927402502 0.21492218513605349 0 -0.43507615090361268 0.19083196739128999 0 -0.41485735337018309 0.1874809066886414 0 -0.43507615090361268 0.19083196739128999 0 -0.41485735337018309 0.1874809066886414 0 -0.42404834927402502 0.21492218513605349 0 -0.40171581647771792 0.20604722931767641 0 -0.41485735337018309 0.1874809066886414 0 -0.42404834927402502 0.21492218513605349 0 -0.41485735337018309 0.1874809066886414 0 -0.40171581647771792 0.20604722931767641 0 -0.41485735337018309 0.1874809066886414 0 -0.39625526449226228 0.18439779905462039 0 -0.38557116171505079 0.19661153841976189 0 -0.40171581647771792 0.20604722931767641 0 -0.39625526449226228 0.18439779905462039 0 -0.38557116171505079 0.19661153841976189 0 -0.37765317561434109 0.181314691420601 0 -0.37185451132587982 0.19843202101231161 0 -0.38557116171505079 0.19661153841976189 0 -0.38169568447594349 0.21726690550201561 0 -0.40171581647771792 0.20604722931767641 0 -0.38557116171505079 0.19661153841976189 0 -0.38169568447594349 0.21726690550201561 0 -0.37185451132587982 0.19843202101231161 0 -0.38169568447594349 0.21726690550201561 0 -0.40171581647771792 0.20604722931767641 0 -0.40381137905018327 0.22649769235391709 0 -0.38169568447594349 0.21726690550201561 0 -0.40381137905018327 0.22649769235391709 0 -0.38774509679536712 0.23854247795735389 0 -0.38169568447594349 0.21726690550201561 0 -0.38774509679536712 0.23854247795735389 0 -0.37021098632183191 0.23455152808732249 0 -0.38774509679536712 0.23854247795735389 0 -0.36746752041369107 0.25111480917134987 0 -0.38774509679536712 0.23854247795735389 0 -0.37890458762993517 0.25035261561656552 0 -0.36746752041369107 0.25111480917134987 0 -0.38774509679536712 0.23854247795735389 0 -0.37021098632183191 0.23455152808732249 0 -0.36746752041369107 0.25111480917134987 0 -0.4087025894030557 0.24731915361573439 0 -0.38774509679536712 0.23854247795735389 0 -0.37890458762993517 0.25035261561656552 0 -0.4087025894030557 0.24731915361573439 0 -0.37890458762993517 0.25035261561656552 0 -0.4087025894030557 0.24731915361573439 0 -0.40381137905018327 0.22649769235391709 0 -0.38774509679536712 0.23854247795735389 0 -0.41934035302232242 0.13701530883865681 0 -0.42676425802092288 0.15248518590798171 0 -0.40655231939856301 0.16268481798239631 0 -0.41934035302232242 0.13701530883865681 0 -0.40655231939856301 0.16268481798239631 0 -0.39824728542694371 0.13788872927615101 0 -0.41091339531256499 0.11985446763867851 0 -0.41934035302232242 0.13701530883865681 0 -0.39824728542694371 0.13788872927615101 0 -0.41091339531256499 0.11985446763867851 0 -0.42843871526248972 0.1195503787707476 0 -0.41934035302232242 0.13701530883865681 0 -0.42843871526248972 0.1195503787707476 0 -0.41934035302232242 0.13701530883865681 0 -0.43283935041835708 0.13023277035992861 0 -0.44018440602587139 0.14036281809616361 0 -0.41934035302232242 0.13701530883865681 0 -0.43283935041835708 0.13023277035992861 0 -0.44132917321745768 0.15736951564693119 0 -0.44018440602587139 0.14036281809616361 0 -0.42676425802092288 0.15248518590798171 0 -0.44018440602587139 0.14036281809616361 0 -0.41934035302232242 0.13701530883865681 0 -0.42676425802092288 0.15248518590798171 0 -0.44132917321745768 0.15736951564693119 0 -0.42676425802092288 0.15248518590798171 0 -0.42948668493633479 0.16675231701899079 0 -0.43507615090361268 0.19083196739128999 0 -0.42948668493633479 0.16675231701899079 0 -0.41485735337018309 0.1874809066886414 0 -0.44770033427020423 0.1749720691392492 0 -0.43507615090361268 0.19083196739128999 0 -0.42948668493633479 0.16675231701899079 0 -0.41485735337018309 0.1874809066886414 0 -0.40655231939856301 0.16268481798239631 0 -0.42948668493633479 0.16675231701899079 0 -0.41485735337018309 0.1874809066886414 0 -0.40655231939856301 0.16268481798239631 0 -0.42676425802092288 0.15248518590798171 0 -0.42948668493633479 0.16675231701899079 0 -0.40655231939856301 0.16268481798239631 0 -0.40655231939856301 0.16268481798239631 0 -0.39625526449226228 0.18439779905462039 0 -0.38660126961116048 0.16374482183589351 0 -0.41485735337018309 0.1874809066886414 0 -0.39625526449226228 0.18439779905462039 0 -0.41485735337018309 0.1874809066886414 0 -0.40655231939856301 0.16268481798239631 0 -0.39625526449226228 0.18439779905462039 0 -0.39625526449226228 0.18439779905462039 0 -0.37765317561434109 0.181314691420601 0 -0.38557116171505079 0.19661153841976189 0 -0.39625526449226228 0.18439779905462039 0 -0.37765317561434109 0.181314691420601 0 -0.39625526449226228 0.18439779905462039 0 -0.37765317561434109 0.181314691420601 0 -0.38660126961116048 0.16374482183589351 0 -0.37765317561434109 0.181314691420601 0 -0.38660126961116048 0.16374482183589351 0 -0.36250846971583361 0.1670705518296714 0 -0.38660126961116048 0.16374482183589351 0 -0.39824728542694371 0.13788872927615101 0 -0.37455412299323421 0.14791890609254069 0 -0.40655231939856301 0.16268481798239631 0 -0.38660126961116048 0.16374482183589351 0 -0.39824728542694371 0.13788872927615101 0 -0.40655231939856301 0.16268481798239631 0 -0.39824728542694371 0.13788872927615101 0 -0.38994225145532407 0.11309264056990589 0 -0.39824728542694371 0.13788872927615101 0 -0.38994225145532407 0.11309264056990589 0 -0.39824728542694371 0.13788872927615101 0 -0.38426453797111237 0.12968304781706139 0 -0.39824728542694371 0.13788872927615101 0 -0.38426453797111237 0.12968304781706139 0 -0.37455412299323421 0.14791890609254069 0 -0.38426453797111237 0.12968304781706139 0 -0.37179195211218818 0.13082898094233089 0 -0.37455412299323421 0.14791890609254069 0 -0.38081074812960902 0.118078147420154 0 -0.38426453797111237 0.12968304781706139 0 -0.37179195211218818 0.13082898094233089 0 -0.37179195211218818 0.13082898094233089 0 -0.37455412299323421 0.14791890609254069 0 -0.36109479275648398 0.14174714174385761 0 -0.37179195211218818 0.13082898094233089 0 -0.35883378796463877 0.1285902162577425 0 -0.36109479275648398 0.14174714174385761 0 -0.37179195211218818 0.13082898094233089 0 -0.35883378796463877 0.1285902162577425 0 -0.36551678714643399 0.1182648797270809 0 -0.34378998236141373 0.1325811052390071 0 -0.34648150408815459 0.1458894611082775 0 -0.36109479275648398 0.14174714174385761 0 -0.35883378796463877 0.1285902162577425 0 -0.34378998236141373 0.1325811052390071 0 -0.36109479275648398 0.14174714174385761 0 -0.35883378796463877 0.1285902162577425 0 -0.34378998236141373 0.1325811052390071 0 -0.35006072096937452 0.1194457977994226 0 -0.34648150408815459 0.1458894611082775 0 -0.35681685966710619 0.15244950643647681 0 -0.33944540878182489 0.15962147140803709 0 -0.34648150408815459 0.1458894611082775 0 -0.35681685966710619 0.15244950643647681 0 -0.36109479275648398 0.14174714174385761 0 -0.35681685966710619 0.15244950643647681 0 -0.37455412299323421 0.14791890609254069 0 -0.36250846971583361 0.1670705518296714 0 -0.35681685966710619 0.15244950643647681 0 -0.37455412299323421 0.14791890609254069 0 -0.36109479275648398 0.14174714174385761 0 -0.38660126961116048 0.16374482183589351 0 -0.37455412299323421 0.14791890609254069 0 -0.36250846971583361 0.1670705518296714 0 -0.37765317561434109 0.181314691420601 0 -0.36250846971583361 0.1670705518296714 0 -0.3575121235417667 0.18630731409443341 0 -0.36250846971583361 0.1670705518296714 0 -0.3575121235417667 0.18630731409443341 0 -0.34388698482893071 0.17541811683167879 0 -0.3575121235417667 0.18630731409443341 0 -0.34388698482893071 0.17541811683167879 0 -0.34028465865790192 0.1890947290034535 0 -0.36250846971583361 0.1670705518296714 0 -0.34388698482893071 0.17541811683167879 0 -0.33944540878182489 0.15962147140803709 0 -0.35681685966710619 0.15244950643647681 0 -0.36250846971583361 0.1670705518296714 0 -0.33944540878182489 0.15962147140803709 0 -0.33944540878182489 0.15962147140803709 0 -0.33213637272007662 0.1748071154596208 0 -0.32052586442682102 0.16702718828380481 0 -0.34388698482893071 0.17541811683167879 0 -0.33944540878182489 0.15962147140803709 0 -0.33213637272007662 0.1748071154596208 0 -0.33213637272007662 0.1748071154596208 0 -0.32215489606647651 0.18377346075440021 0 -0.34028465865790192 0.1890947290034535 0 -0.34388698482893071 0.17541811683167879 0 -0.33213637272007662 0.1748071154596208 0 -0.34028465865790192 0.1890947290034535 0 -0.33213637272007662 0.1748071154596208 0 -0.32215489606647651 0.18377346075440021 0 -0.32052586442682102 0.16702718828380481 0 -0.32215489606647651 0.18377346075440021 0 -0.3138480064571928 0.17908476376436069 0 -0.30712986489500371 0.19744515587020739 0 -0.32215489606647651 0.18377346075440021 0 -0.3138480064571928 0.17908476376436069 0 -0.32052586442682102 0.16702718828380481 0 -0.33944540878182489 0.15962147140803709 0 -0.32052586442682102 0.16702718828380481 0 -0.32195024192711669 0.15208868878742729 0 -0.3138480064571928 0.17908476376436069 0 -0.32052586442682102 0.16702718828380481 0 -0.30558140044047011 0.16809325014903029 0 -0.32052586442682102 0.16702718828380481 0 -0.31470085631756289 0.1585371609342508 0 -0.30558140044047011 0.16809325014903029 0 -0.32052586442682102 0.16702718828380481 0 -0.31470085631756289 0.1585371609342508 0 -0.32195024192711669 0.15208868878742729 0 -0.31470085631756289 0.1585371609342508 0 -0.32195024192711669 0.15208868878742729 0 -0.31232695417734357 0.1503830775751902 0 -0.32195024192711669 0.15208868878742729 0 -0.31845869170851709 0.14134572123326991 0 -0.33214133050784322 0.14165506849516729 0 -0.32195024192711669 0.15208868878742729 0 -0.31845869170851709 0.14134572123326991 0 -0.31232695417734357 0.1503830775751902 0 -0.31845869170851709 0.14134572123326991 0 -0.32338945450278478 0.12786240373903121 0 -0.30410565189604982 0.13873768888887161 0 -0.31845869170851709 0.14134572123326991 0 -0.32338945450278478 0.12786240373903121 0 -0.33214133050784322 0.14165506849516729 0 -0.34378998236141373 0.1325811052390071 0 -0.32338945450278478 0.12786240373903121 0 -0.33214133050784322 0.14165506849516729 0 -0.34378998236141373 0.1325811052390071 0 -0.32338945450278478 0.12786240373903121 0 -0.33720184765550582 0.1197275374297867 0 -0.34378998236141373 0.1325811052390071 0 -0.34648150408815459 0.1458894611082775 0 -0.33214133050784322 0.14165506849516729 0 -0.33944540878182489 0.15962147140803709 0 -0.32195024192711669 0.15208868878742729 0 -0.33214133050784322 0.14165506849516729 0 -0.34648150408815459 0.1458894611082775 0 -0.33944540878182489 0.15962147140803709 0 -0.33214133050784322 0.14165506849516729 0 -0.35768221540864881 0.24032066889640971 0 -0.34237109131147281 0.23780188451099049 0 -0.34718994403201497 0.26368714038534602 0 -0.35768221540864881 0.24032066889640971 0 -0.35755704034962599 0.22643139928569311 0 -0.34237109131147281 0.23780188451099049 0 -0.35768221540864881 0.24032066889640971 0 -0.37021098632183191 0.23455152808732249 0 -0.36746752041369107 0.25111480917134987 0 -0.38169568447594349 0.21726690550201561 0 -0.37021098632183191 0.23455152808732249 0 -0.35755704034962599 0.22643139928569311 0 -0.35768221540864881 0.24032066889640971 0 -0.37021098632183191 0.23455152808732249 0 -0.35755704034962599 0.22643139928569311 0 -0.35755704034962599 0.22643139928569311 0 -0.33916415529944338 0.2201924419955768 0 -0.34237109131147281 0.23780188451099049 0 -0.35755704034962599 0.22643139928569311 0 -0.35684041128229688 0.2106596556247462 0 -0.33916415529944338 0.2201924419955768 0 -0.35684041128229688 0.2106596556247462 0 -0.33198513808865032 0.20405240574747691 0 -0.38169568447594349 0.21726690550201561 0 -0.35755704034962599 0.22643139928569311 0 -0.35684041128229688 0.2106596556247462 0 -0.38169568447594349 0.21726690550201561 0 -0.35684041128229688 0.2106596556247462 0 -0.38169568447594349 0.21726690550201561 0 -0.35684041128229688 0.2106596556247462 0 -0.37185451132587982 0.19843202101231161 0 -0.37765317561434109 0.181314691420601 0 -0.3575121235417667 0.18630731409443341 0 -0.37185451132587982 0.19843202101231161 0 -0.3575121235417667 0.18630731409443341 0 -0.35684041128229688 0.2106596556247462 0 -0.37185451132587982 0.19843202101231161 0 -0.3575121235417667 0.18630731409443341 0 -0.35684041128229688 0.2106596556247462 0 -0.34028465865790192 0.1890947290034535 0 -0.35684041128229688 0.2106596556247462 0 -0.34028465865790192 0.1890947290034535 0 -0.33198513808865032 0.20405240574747691 0 -0.32215489606647651 0.18377346075440021 0 -0.34028465865790192 0.1890947290034535 0 -0.33198513808865032 0.20405240574747691 0 -0.33198513808865032 0.20405240574747691 0 -0.30712986489500371 0.19744515587020739 0 -0.32215489606647651 0.18377346075440021 0 -0.33198513808865032 0.20405240574747691 0 -0.30712986489500371 0.19744515587020739 0 -0.32197406220590069 0.21452094748279779 0 -0.33198513808865032 0.20405240574747691 0 -0.30712986489500371 0.19744515587020739 0 -0.35684041128229688 0.2106596556247462 0 -0.33198513808865032 0.20405240574747691 0 -0.33916415529944338 0.2201924419955768 0 -0.32197406220590069 0.21452094748279779 0 -0.33198513808865032 0.20405240574747691 0 -0.33916415529944338 0.2201924419955768 0 -0.33916415529944338 0.2201924419955768 0 -0.32534981439283139 0.22860697969796609 0 -0.34237109131147281 0.23780188451099049 0 -0.32197406220590069 0.21452094748279779 0 -0.33916415529944338 0.2201924419955768 0 -0.32534981439283139 0.22860697969796609 0 -0.32534981439283139 0.22860697969796609 0 -0.30920185950743451 0.2401113512896435 0 -0.30812950424616242 0.21878008134941609 0 -0.32197406220590069 0.21452094748279779 0 -0.32534981439283139 0.22860697969796609 0 -0.30812950424616242 0.21878008134941609 0 -0.32534981439283139 0.22860697969796609 0 -0.30920185950743451 0.2401113512896435 0 -0.32688321527713321 0.25131824145219323 0 -0.32534981439283139 0.22860697969796609 0 -0.34237109131147281 0.23780188451099049 0 -0.32688321527713321 0.25131824145219323 0 -0.28682597215349082 0.24123755195021351 0 -0.29192725723398733 0.24551974856901621 0 -0.28141857519000429 0.22057087440773351 0 -0.285434535126875 0.24425141730610381 0 -0.28787906502867361 0.24702893637846299 0 -0.2831608256048781 0.24687078180887551 0 -0.285434535126875 0.24425141730610381 0 -0.28871638082395967 0.24453710730739661 0 -0.28682597215349082 0.24123755195021351 0 -0.285434535126875 0.24425141730610381 0 -0.28871638082395967 0.24453710730739661 0 -0.28787906502867361 0.24702893637846299 0 -0.28871638082395967 0.24453710730739661 0 -0.28787906502867361 0.24702893637846299 0 -0.28992113247653528 0.24615742583604211 0 -0.28787906502867361 0.24702893637846299 0 -0.2831608256048781 0.24687078180887551 0 -0.28657407794942868 0.25091609649300578 0 -0.28787906502867361 0.24702893637846299 0 -0.29148923229504348 0.24929222322603489 0 -0.28657407794942868 0.25091609649300578 0 -0.2831608256048781 0.24687078180887551 0 -0.28657407794942868 0.25091609649300578 0 -0.27967146927513509 0.25155831602854029 0 -0.285434535126875 0.24425141730610381 0 -0.28682597215349082 0.24123755195021351 0 -0.28059043202337292 0.24158270908557061 0 -0.285434535126875 0.24425141730610381 0 -0.2831608256048781 0.24687078180887551 0 -0.28059043202337292 0.24158270908557061 0 -0.28682597215349082 0.24123755195021351 0 -0.27912514908456232 0.23330960159718539 0 -0.28059043202337292 0.24158270908557061 0 -0.29192725723398733 0.24551974856901621 0 -0.29943009016011352 0.2497420521595328 0 -0.2988117873315051 0.24231714405126811 0 -0.29192725723398733 0.24551974856901621 0 -0.29148923229504348 0.24929222322603489 0 -0.29943009016011352 0.2497420521595328 0 -0.28871638082395967 0.24453710730739661 0 -0.28682597215349082 0.24123755195021351 0 -0.29192725723398733 0.24551974856901621 0 -0.28871638082395967 0.24453710730739661 0 -0.29192725723398733 0.24551974856901621 0 -0.28992113247653528 0.24615742583604211 0 -0.28787906502867361 0.24702893637846299 0 -0.28992113247653528 0.24615742583604211 0 -0.29148923229504348 0.24929222322603489 0 -0.29192725723398733 0.24551974856901621 0 -0.28992113247653528 0.24615742583604211 0 -0.29148923229504348 0.24929222322603489 0 -0.29192725723398733 0.24551974856901621 0 -0.29148923229504348 0.24929222322603489 0 -0.29943009016011352 0.2497420521595328 0 -0.2988117873315051 0.24231714405126811 0 -0.30920185950743451 0.2401113512896435 0 -0.29192725723398733 0.24551974856901621 0 -0.2988117873315051 0.24231714405126811 0 -0.30053727911634032 0.23381829586541319 0 -0.2988117873315051 0.24231714405126811 0 -0.30920185950743451 0.2401113512896435 0 -0.30053727911634032 0.23381829586541319 0 -0.30920185950743451 0.2401113512896435 0 -0.30053727911634032 0.23381829586541319 0 -0.30812950424616242 0.21878008134941609 0 -0.30920185950743451 0.2401113512896435 0 -0.30812950424616242 0.21878008134941609 0 -0.30053727911634032 0.23381829586541319 0 -0.30812950424616242 0.21878008134941609 0 -0.2946159872626124 0.22236315406772181 0 -0.29192725723398733 0.24551974856901621 0 -0.30053727911634032 0.23381829586541319 0 -0.2946159872626124 0.22236315406772181 0 -0.29192725723398733 0.24551974856901621 0 -0.2946159872626124 0.22236315406772181 0 -0.29192725723398733 0.24551974856901621 0 -0.28141857519000429 0.22057087440773351 0 -0.29192725723398733 0.24551974856901621 0 -0.2946159872626124 0.22236315406772181 0 -0.28141857519000429 0.22057087440773351 0 -0.28682597215349082 0.24123755195021351 0 -0.28141857519000429 0.22057087440773351 0 -0.27912514908456232 0.23330960159718539 0 -0.2946159872626124 0.22236315406772181 0 -0.28956599870194838 0.21007494828872181 0 -0.29730471729123831 0.1992065595664276 0 -0.28141857519000429 0.22057087440773351 0 -0.28956599870194838 0.21007494828872181 0 -0.28489331368084292 0.19852547619562269 0 -0.2946159872626124 0.22236315406772181 0 -0.29730471729123831 0.1992065595664276 0 -0.2946159872626124 0.22236315406772181 0 -0.28141857519000429 0.22057087440773351 0 -0.28956599870194838 0.21007494828872181 0 -0.30812950424616242 0.21878008134941609 0 -0.2946159872626124 0.22236315406772181 0 -0.29730471729123831 0.1992065595664276 0 -0.30812950424616242 0.21878008134941609 0 -0.30712986489500371 0.19744515587020739 0 -0.30812950424616242 0.21878008134941609 0 -0.30712986489500371 0.19744515587020739 0 -0.29730471729123831 0.1992065595664276 0 -0.32197406220590069 0.21452094748279779 0 -0.30812950424616242 0.21878008134941609 0 -0.30712986489500371 0.19744515587020739 0 -0.29730471729123831 0.1992065595664276 0 -0.29999344731986421 0.1760499650651334 0 -0.30712986489500371 0.19744515587020739 0 -0.29730471729123831 0.1992065595664276 0 -0.29999344731986421 0.1760499650651334 0 -0.29730471729123831 0.1992065595664276 0 -0.28489331368084292 0.19852547619562269 0 -0.28564141019288858 0.18611793148497219 0 -0.28956599870194838 0.21007494828872181 0 -0.29730471729123831 0.1992065595664276 0 -0.28489331368084292 0.19852547619562269 0 -0.28489331368084292 0.19852547619562269 0 -0.27090989314602049 0.1956220002464511 0 -0.28564141019288858 0.18611793148497219 0 -0.27090989314602049 0.1956220002464511 0 -0.25157622486723979 0.18960923580231259 0 -0.25690740407328971 0.21100693030726669 0 -0.25690740407328971 0.21100693030726669 0 -0.26913582617907422 0.21632965728921841 0 -0.26161130476441502 0.2265024552436094 0 -0.28141857519000429 0.22057087440773351 0 -0.28489331368084292 0.19852547619562269 0 -0.27090989314602049 0.1956220002464511 0 -0.27090989314602049 0.1956220002464511 0 -0.25690740407328971 0.21100693030726669 0 -0.26913582617907422 0.21632965728921841 0 -0.28141857519000429 0.22057087440773351 0 -0.27090989314602049 0.1956220002464511 0 -0.26913582617907422 0.21632965728921841 0 -0.28141857519000429 0.22057087440773351 0 -0.27090989314602049 0.1956220002464511 0 -0.28141857519000429 0.22057087440773351 0 -0.26913582617907422 0.21632965728921841 0 -0.27257532905162751 0.22687722343616221 0 -0.28141857519000429 0.22057087440773351 0 -0.27912514908456232 0.23330960159718539 0 -0.27257532905162751 0.22687722343616221 0 -0.27912514908456232 0.23330960159718539 0 -0.27257532905162751 0.22687722343616221 0 -0.27158579004008171 0.23767352864306401 0 -0.27257532905162751 0.22687722343616221 0 -0.26161130476441502 0.2265024552436094 0 -0.27158579004008171 0.23767352864306401 0 -0.26913582617907422 0.21632965728921841 0 -0.27257532905162751 0.22687722343616221 0 -0.26161130476441502 0.2265024552436094 0 -0.25690740407328971 0.21100693030726669 0 -0.26161130476441502 0.2265024552436094 0 -0.24750538697543659 0.22102034697483891 0 -0.26161130476441502 0.2265024552436094 0 -0.25183482859182199 0.2331833224768842 0 -0.24750538697543659 0.22102034697483891 0 -0.26161130476441502 0.2265024552436094 0 -0.25183482859182199 0.2331833224768842 0 -0.25994170841285108 0.240553324518512 0 -0.26161130476441502 0.2265024552436094 0 -0.25994170841285108 0.240553324518512 0 -0.27158579004008171 0.23767352864306401 0 -0.25183482859182199 0.2331833224768842 0 -0.25994170841285108 0.240553324518512 0 -0.24744121717665701 0.24359974376900731 0 -0.25994170841285108 0.240553324518512 0 -0.25586356126195242 0.25254648764433929 0 -0.24744121717665701 0.24359974376900731 0 -0.25994170841285108 0.240553324518512 0 -0.26673435921377309 0.24912711786423289 0 -0.25586356126195242 0.25254648764433929 0 -0.26673435921377309 0.24912711786423289 0 -0.27158579004008171 0.23767352864306401 0 -0.27642936889687458 0.24563194384886791 0 -0.25994170841285108 0.240553324518512 0 -0.26673435921377309 0.24912711786423289 0 -0.27158579004008171 0.23767352864306401 0 -0.27912514908456232 0.23330960159718539 0 -0.27158579004008171 0.23767352864306401 0 -0.28059043202337292 0.24158270908557061 0 -0.27158579004008171 0.23767352864306401 0 -0.28059043202337292 0.24158270908557061 0 -0.27642936889687458 0.24563194384886791 0 -0.2831608256048781 0.24687078180887551 0 -0.28059043202337292 0.24158270908557061 0 -0.27642936889687458 0.24563194384886791 0 -0.2831608256048781 0.24687078180887551 0 -0.27642936889687458 0.24563194384886791 0 -0.27967146927513509 0.25155831602854029 0 -0.28796757995062189 0.14656953089956529 0 -0.30268217734849001 0.1528933705638392 0 -0.29140789426202152 0.16250560913866169 0 -0.28796757995062189 0.14656953089956529 0 -0.29045535401113692 0.12750277853522429 0 -0.27542291317864531 0.13000042255835989 0 -0.28796757995062189 0.14656953089956529 0 -0.29045535401113692 0.12750277853522429 0 -0.30410565189604982 0.13873768888887161 0 -0.29045535401113692 0.12750277853522429 0 -0.30410565189604982 0.13873768888887161 0 -0.30262990335162948 0.1093821276287129 0 -0.32338945450278478 0.12786240373903121 0 -0.30410565189604982 0.13873768888887161 0 -0.30262990335162948 0.1093821276287129 0 -0.30410565189604982 0.13873768888887161 0 -0.30268217734849001 0.1528933705638392 0 -0.30558140044047011 0.16809325014903029 0 -0.28796757995062189 0.14656953089956529 0 -0.30410565189604982 0.13873768888887161 0 -0.30268217734849001 0.1528933705638392 0 -0.30410565189604982 0.13873768888887161 0 -0.30558140044047011 0.16809325014903029 0 -0.30410565189604982 0.13873768888887161 0 -0.31232695417734357 0.1503830775751902 0 -0.30558140044047011 0.16809325014903029 0 -0.31845869170851709 0.14134572123326991 0 -0.30410565189604982 0.13873768888887161 0 -0.31232695417734357 0.1503830775751902 0 -0.31470085631756289 0.1585371609342508 0 -0.31232695417734357 0.1503830775751902 0 -0.30558140044047011 0.16809325014903029 0 -0.30268217734849001 0.1528933705638392 0 -0.30558140044047011 0.16809325014903029 0 -0.29999344731986421 0.1760499650651334 0 -0.30268217734849001 0.1528933705638392 0 -0.29999344731986421 0.1760499650651334 0 -0.30268217734849001 0.1528933705638392 0 -0.29999344731986421 0.1760499650651334 0 -0.29140789426202152 0.16250560913866169 0 -0.30712986489500371 0.19744515587020739 0 -0.30558140044047011 0.16809325014903029 0 -0.30712986489500371 0.19744515587020739 0 -0.30558140044047011 0.16809325014903029 0 -0.29999344731986421 0.1760499650651334 0 -0.3138480064571928 0.17908476376436069 0 -0.30712986489500371 0.19744515587020739 0 -0.30558140044047011 0.16809325014903029 0 -0.29730471729123831 0.1992065595664276 0 -0.29999344731986421 0.1760499650651334 0 -0.28564141019288858 0.18611793148497219 0 -0.29999344731986421 0.1760499650651334 0 -0.28637725148530602 0.17332338913426171 0 -0.28564141019288858 0.18611793148497219 0 -0.28637725148530602 0.17332338913426171 0 -0.28564141019288858 0.18611793148497219 0 -0.27639372424904401 0.17777616170199331 0 -0.28796757995062189 0.14656953089956529 0 -0.29140789426202152 0.16250560913866169 0 -0.27863885531896809 0.16314436155911241 0 -0.29999344731986421 0.1760499650651334 0 -0.28637725148530602 0.17332338913426171 0 -0.29140789426202152 0.16250560913866169 0 -0.28637725148530602 0.17332338913426171 0 -0.29140789426202152 0.16250560913866169 0 -0.27863885531896809 0.16314436155911241 0 -0.27863885531896809 0.16314436155911241 0 -0.26040121110203679 0.17067312608516891 0 -0.26879085016601811 0.14839066108957211 0 -0.27863885531896809 0.16314436155911241 0 -0.27639372424904401 0.17777616170199331 0 -0.26040121110203679 0.17067312608516891 0 -0.28637725148530602 0.17332338913426171 0 -0.27863885531896809 0.16314436155911241 0 -0.27639372424904401 0.17777616170199331 0 -0.27090989314602049 0.1956220002464511 0 -0.27639372424904401 0.17777616170199331 0 -0.26040121110203679 0.17067312608516891 0 -0.27090989314602049 0.1956220002464511 0 -0.28564141019288858 0.18611793148497219 0 -0.27639372424904401 0.17777616170199331 0 -0.27090989314602049 0.1956220002464511 0 -0.26040121110203679 0.17067312608516891 0 -0.27090989314602049 0.1956220002464511 0 -0.25157622486723979 0.18960923580231259 0 -0.26040121110203679 0.17067312608516891 0 -0.26040121110203679 0.17067312608516891 0 -0.24989252905805309 0.14572425192388661 0 -0.26040121110203679 0.17067312608516891 0 -0.26879085016601811 0.14839066108957211 0 -0.24989252905805309 0.14572425192388661 0 -0.26879085016601811 0.14839066108957211 0 -0.25824117398475482 0.13157462597297609 0 -0.24989252905805309 0.14572425192388661 0 -0.28796757995062189 0.14656953089956529 0 -0.27863885531896809 0.16314436155911241 0 -0.26879085016601811 0.14839066108957211 0 -0.28796757995062189 0.14656953089956529 0 -0.26879085016601811 0.14839066108957211 0 -0.27542291317864531 0.13000042255835989 0 -0.27542291317864531 0.13000042255835989 0 -0.25824117398475482 0.13157462597297609 0 -0.26657404898383191 0.11628405645814301 0 -0.26879085016601811 0.14839066108957211 0 -0.27542291317864531 0.13000042255835989 0 -0.25824117398475482 0.13157462597297609 0 -0.25824117398475482 0.13157462597297609 0 -0.2504401116513022 0.1175669994668319 0 -0.26657404898383191 0.11628405645814301 0 -0.2504401116513022 0.1175669994668319 0 -0.25614250856294141 0.1060336952946898 0 -0.26657404898383191 0.11628405645814301 0 -0.2504401116513022 0.1175669994668319 0 -0.25614250856294141 0.1060336952946898 0 -0.24399133905966969 0.1017712822813191 0 -0.25614250856294141 0.1060336952946898 0 -0.25345726023504728 0.092538554859935451 0 -0.24399133905966969 0.1017712822813191 0 -0.25614250856294141 0.1060336952946898 0 -0.2673985475369049 0.1020723176603909 0 -0.26657404898383191 0.11628405645814301 0 -0.25614250856294141 0.1060336952946898 0 -0.2673985475369049 0.1020723176603909 0 -0.25345726023504728 0.092538554859935451 0 -0.2673985475369049 0.1020723176603909 0 -0.2668911809479298 0.087303920800490376 0 -0.25345726023504728 0.092538554859935451 0 -0.2673985475369049 0.1020723176603909 0 -0.28156652755607531 0.11324370744987081 0 -0.28411847247898508 0.096172871158113279 0 -0.2673985475369049 0.1020723176603909 0 -0.28411847247898508 0.096172871158113279 0 -0.2668911809479298 0.087303920800490376 0 -0.27542291317864531 0.13000042255835989 0 -0.26657404898383191 0.11628405645814301 0 -0.28156652755607531 0.11324370744987081 0 -0.2673985475369049 0.1020723176603909 0 -0.26657404898383191 0.11628405645814301 0 -0.28156652755607531 0.11324370744987081 0 -0.29045535401113692 0.12750277853522429 0 -0.28156652755607531 0.11324370744987081 0 -0.30262990335162948 0.1093821276287129 0 -0.28411847247898508 0.096172871158113279 0 -0.30262990335162948 0.1093821276287129 0 -0.30190449495233201 0.076843930734792107 0 -0.30262990335162948 0.1093821276287129 0 -0.30190449495233201 0.076843930734792107 0 -0.32232464320094628 0.095100195065147969 0 -0.29045535401113692 0.12750277853522429 0 -0.27542291317864531 0.13000042255835989 0 -0.28156652755607531 0.11324370744987081 0 -0.28156652755607531 0.11324370744987081 0 -0.28411847247898508 0.096172871158113279 0 -0.30262990335162948 0.1093821276287129 0 -0.30410565189604982 0.13873768888887161 0 -0.30262990335162948 0.1093821276287129 0 -0.30190449495233201 0.076843930734792107 0 -0.30336336020187388 0.057190159916313432 0 -0.32434792253082712 0.073882607833566538 0 -0.28411847247898508 0.096172871158113279 0 -0.30190449495233201 0.076843930734792107 0 -0.28023335146110839 0.079349917744914719 0 -0.30190449495233201 0.076843930734792107 0 -0.28142701919489421 0.062576539701893946 0 -0.28023335146110839 0.079349917744914719 0 -0.30190449495233201 0.076843930734792107 0 -0.28142701919489421 0.062576539701893946 0 -0.30336336020187388 0.057190159916313432 0 -0.28142701919489421 0.062576539701893946 0 -0.26946599790727721 0.073824816068535498 0 -0.26259185852319739 0.062901806931174253 0 -0.28142701919489421 0.062576539701893946 0 -0.26946599790727721 0.073824816068535498 0 -0.28023335146110839 0.079349917744914719 0 -0.28411847247898508 0.096172871158113279 0 -0.28023335146110839 0.079349917744914719 0 -0.2668911809479298 0.087303920800490376 0 -0.26946599790727721 0.073824816068535498 0 -0.28023335146110839 0.079349917744914719 0 -0.2668911809479298 0.087303920800490376 0 -0.2668911809479298 0.087303920800490376 0 -0.25345726023504728 0.092538554859935451 0 -0.25618657940925621 0.076991895164204183 0 -0.26946599790727721 0.073824816068535498 0 -0.2668911809479298 0.087303920800490376 0 -0.25618657940925621 0.076991895164204183 0 -0.25345726023504728 0.092538554859935451 0 -0.25618657940925621 0.076991895164204183 0 -0.24744940670915899 0.082982612093996336 0 -0.26946599790727721 0.073824816068535498 0 -0.26259185852319739 0.062901806931174253 0 -0.25618657940925621 0.076991895164204183 0 -0.25618657940925621 0.076991895164204183 0 -0.2519811322907059 0.063581899575077552 0 -0.24512548103058551 0.074285041536547206 0 -0.26259185852319739 0.062901806931174253 0 -0.25618657940925621 0.076991895164204183 0 -0.2519811322907059 0.063581899575077552 0 -0.26259185852319739 0.062901806931174253 0 -0.2519811322907059 0.063581899575077552 0 -0.25332614084858979 0.052582736700977219 0 -0.26259185852319739 0.062901806931174253 0 -0.25332614084858979 0.052582736700977219 0 -0.26575739479122318 0.04829647565578335 0 -0.25332614084858979 0.052582736700977219 0 -0.25393077756618421 0.041175500899520059 0 -0.26575739479122318 0.04829647565578335 0 -0.25332614084858979 0.052582736700977219 0 -0.25393077756618421 0.041175500899520059 0 -0.24735551461620839 0.044536386278428472 0 -0.25393077756618421 0.041175500899520059 0 -0.24996056485392651 0.029949614958286779 0 -0.2480435708098894 0.038562984200042033 0 -0.25393077756618421 0.041175500899520059 0 -0.26186027198777689 0.033778234709138703 0 -0.24996056485392651 0.029949614958286779 0 -0.25393077756618421 0.041175500899520059 0 -0.26186027198777689 0.033778234709138703 0 -0.26575739479122318 0.04829647565578335 0 -0.26186027198777689 0.033778234709138703 0 -0.26575739479122318 0.04829647565578335 0 -0.28160155961983052 0.043451884536013348 0 -0.26186027198777689 0.033778234709138703 0 -0.27824486054215608 0.02404329732483991 0 -0.28160155961983052 0.043451884536013348 0 -0.28142701919489421 0.062576539701893946 0 -0.26575739479122318 0.04829647565578335 0 -0.28160155961983052 0.043451884536013348 0 -0.28142701919489421 0.062576539701893946 0 -0.26259185852319739 0.062901806931174253 0 -0.26575739479122318 0.04829647565578335 0 -0.25439413989377241 -0.0032653670090099212 0 -0.25762566453262548 0.011077362923249619 0 -0.24766078304850581 0.017662533827461479 0 -0.25439413989377241 -0.0032653670090099212 0 -0.24766078304850581 0.017662533827461479 0 -0.25439413989377241 -0.0032653670090099212 0 -0.25762566453262548 0.011077362923249619 0 -0.26839520126254701 0.0088666212175328163 0 -0.25762566453262548 0.011077362923249619 0 -0.26005253392567651 0.021045663657013991 0 -0.26839520126254701 0.0088666212175328163 0 -0.26005253392567651 0.021045663657013991 0 -0.24996056485392651 0.029949614958286779 0 -0.24766078304850581 0.017662533827461479 0 -0.25762566453262548 0.011077362923249619 0 -0.26005253392567651 0.021045663657013991 0 -0.24766078304850581 0.017662533827461479 0 -0.26186027198777689 0.033778234709138703 0 -0.26005253392567651 0.021045663657013991 0 -0.24996056485392651 0.029949614958286779 0 -0.26005253392567651 0.021045663657013991 0 -0.27824486054215608 0.02404329732483991 0 -0.26839520126254701 0.0088666212175328163 0 -0.26186027198777689 0.033778234709138703 0 -0.26005253392567651 0.021045663657013991 0 -0.27824486054215608 0.02404329732483991 0 -0.27824486054215608 0.02404329732483991 0 -0.26839520126254701 0.0088666212175328163 0 -0.28549640923868341 0.0058388088596524838 0 -0.2797152221951521 -0.0086292804435675226 0 -0.26839520126254701 0.0088666212175328163 0 -0.28549640923868341 0.0058388088596524838 0 -0.27824486054215608 0.02404329732483991 0 -0.28549640923868341 0.0058388088596524838 0 -0.29991595031090612 0.01236481056600826 0 -0.30503630449653202 -0.01399319387812435 0 -0.28549640923868341 0.0058388088596524838 0 -0.29991595031090612 0.01236481056600826 0 -0.27824486054215608 0.02404329732483991 0 -0.29991595031090612 0.01236481056600826 0 -0.29893783638589749 0.03370007286539712 0 -0.29991595031090612 0.01236481056600826 0 -0.29893783638589749 0.03370007286539712 0 -0.31607994891177182 0.02210775111810491 0 -0.29991595031090612 0.01236481056600826 0 -0.32009090194009132 0.00022972968992290691 0 -0.31607994891177182 0.02210775111810491 0 -0.28142701919489421 0.062576539701893946 0 -0.28160155961983052 0.043451884536013348 0 -0.30336336020187388 0.057190159916313432 0 -0.27824486054215608 0.02404329732483991 0 -0.28160155961983052 0.043451884536013348 0 -0.29893783638589749 0.03370007286539712 0 -0.28160155961983052 0.043451884536013348 0 -0.29893783638589749 0.03370007286539712 0 -0.30336336020187388 0.057190159916313432 0 -0.29893783638589749 0.03370007286539712 0 -0.31507051671741138 0.041216162763960909 0 -0.31607994891177182 0.02210775111810491 0 -0.29893783638589749 0.03370007286539712 0 -0.30336336020187388 0.057190159916313432 0 -0.31507051671741138 0.041216162763960909 0 -0.30336336020187388 0.057190159916313432 0 -0.32565397068097501 0.055696115370954688 0 -0.32434792253082712 0.073882607833566538 0 -0.30336336020187388 0.057190159916313432 0 -0.32565397068097501 0.055696115370954688 0 -0.31507051671741138 0.041216162763960909 0 -0.31507051671741138 0.041216162763960909 0 -0.33035095091212707 0.032331116405856557 0 -0.31607994891177182 0.02210775111810491 0 -0.32565397068097501 0.055696115370954688 0 -0.31507051671741138 0.041216162763960909 0 -0.33035095091212707 0.032331116405856557 0 -0.32565397068097501 0.055696115370954688 0 -0.33035095091212707 0.032331116405856557 0 -0.34172237366091007 0.046878670849061173 0 -0.33035095091212707 0.032331116405856557 0 -0.34172237366091007 0.046878670849061173 0 -0.34717532602634837 0.027517980939089099 0 -0.32565397068097501 0.055696115370954688 0 -0.34172237366091007 0.046878670849061173 0 -0.34679135010932199 0.070921284932340969 0 -0.32009090194009132 0.00022972968992290691 0 -0.31607994891177182 0.02210775111810491 0 -0.3321135372041979 0.012804614417483699 0 -0.33035095091212707 0.032331116405856557 0 -0.31607994891177182 0.02210775111810491 0 -0.3321135372041979 0.012804614417483699 0 -0.3321135372041979 0.012804614417483699 0 -0.35066328345835063 0.012839518646858309 0 -0.34717532602634837 0.027517980939089099 0 -0.33035095091212707 0.032331116405856557 0 -0.3321135372041979 0.012804614417483699 0 -0.34717532602634837 0.027517980939089099 0 -0.35297224887296907 -0.002069934093802447 0 -0.3321135372041979 0.012804614417483699 0 -0.35297224887296907 -0.002069934093802447 0 -0.33753724430434129 -0.0053325751836834773 0 -0.3321135372041979 0.012804614417483699 0 -0.33753724430434129 -0.0053325751836834773 0 -0.32009090194009132 0.00022972968992290691 0 -0.3321135372041979 0.012804614417483699 0 -0.35297224887296907 -0.002069934093802447 0 -0.35066328345835063 0.012839518646858309 0 -0.36630240863329833 0.0029484098375479289 0 -0.35297224887296907 -0.002069934093802447 0 -0.3321135372041979 0.012804614417483699 0 -0.35066328345835063 0.012839518646858309 0 -0.34717532602634837 0.027517980939089099 0 -0.36376164912298592 0.01817276862949924 0 -0.3630018924774428 0.0374489679145147 0 -0.35066328345835063 0.012839518646858309 0 -0.34717532602634837 0.027517980939089099 0 -0.36376164912298592 0.01817276862949924 0 -0.37530289853567472 0.024066489134638241 0 -0.36376164912298592 0.01817276862949924 0 -0.3630018924774428 0.0374489679145147 0 -0.37530289853567472 0.024066489134638241 0 -0.38080236514241322 0.004967057045595173 0 -0.36376164912298592 0.01817276862949924 0 -0.35066328345835063 0.012839518646858309 0 -0.36376164912298592 0.01817276862949924 0 -0.36630240863329833 0.0029484098375479289 0 -0.38080236514241322 0.004967057045595173 0 -0.36376164912298592 0.01817276862949924 0 -0.36630240863329833 0.0029484098375479289 0 -0.34172237366091007 0.046878670849061173 0 -0.35756799466000422 0.055720920099965168 0 -0.34679135010932199 0.070921284932340969 0 -0.34172237366091007 0.046878670849061173 0 -0.34717532602634837 0.027517980939089099 0 -0.3630018924774428 0.0374489679145147 0 -0.34172237366091007 0.046878670849061173 0 -0.35756799466000422 0.055720920099965168 0 -0.3630018924774428 0.0374489679145147 0 -0.37881448416662777 0.05403477042139529 0 -0.37949143914559857 0.036242752105375461 0 -0.3630018924774428 0.0374489679145147 0 -0.37949143914559857 0.036242752105375461 0 -0.37530289853567472 0.024066489134638241 0 -0.3630018924774428 0.0374489679145147 0 -0.37881448416662777 0.05403477042139529 0 -0.35756799466000422 0.055720920099965168 0 -0.36923477768781721 0.067959962031115387 0 -0.37881448416662777 0.05403477042139529 0 -0.35756799466000422 0.055720920099965168 0 -0.3630018924774428 0.0374489679145147 0 -0.35756799466000422 0.055720920099965168 0 -0.36923477768781721 0.067959962031115387 0 -0.34679135010932199 0.070921284932340969 0 -0.36923477768781721 0.067959962031115387 0 -0.34679135010932199 0.070921284932340969 0 -0.35094235513860428 0.090864003732814502 0 -0.36923477768781721 0.067959962031115387 0 -0.34679135010932199 0.070921284932340969 0 -0.34679135010932199 0.070921284932340969 0 -0.35094235513860428 0.090864003732814502 0 -0.33613833718795699 0.086916591216606637 0 -0.36923477768781721 0.067959962031115387 0 -0.35094235513860428 0.090864003732814502 0 -0.36738458816629349 0.092635949826567421 0 -0.38135759771702921 0.087461699584644087 0 -0.36923477768781721 0.067959962031115387 0 -0.36738458816629349 0.092635949826567421 0 -0.38135759771702921 0.087461699584644087 0 -0.36738458816629349 0.092635949826567421 0 -0.3744588290726677 0.10588125947093401 0 -0.36738458816629349 0.092635949826567421 0 -0.3744588290726677 0.10588125947093401 0 -0.35905223097883082 0.105366610493816 0 -0.38081074812960902 0.118078147420154 0 -0.37179195211218818 0.13082898094233089 0 -0.36551678714643399 0.1182648797270809 0 -0.38081074812960902 0.118078147420154 0 -0.3744588290726677 0.10588125947093401 0 -0.36551678714643399 0.1182648797270809 0 -0.3744588290726677 0.10588125947093401 0 -0.36551678714643399 0.1182648797270809 0 -0.35905223097883082 0.105366610493816 0 -0.35006072096937452 0.1194457977994226 0 -0.35905223097883082 0.105366610493816 0 -0.34127467774544801 0.1064819949191291 0 -0.35883378796463877 0.1285902162577425 0 -0.36551678714643399 0.1182648797270809 0 -0.35006072096937452 0.1194457977994226 0 -0.36551678714643399 0.1182648797270809 0 -0.35006072096937452 0.1194457977994226 0 -0.35905223097883082 0.105366610493816 0 -0.35094235513860428 0.090864003732814502 0 -0.35905223097883082 0.105366610493816 0 -0.34127467774544801 0.1064819949191291 0 -0.35094235513860428 0.090864003732814502 0 -0.36738458816629349 0.092635949826567421 0 -0.35905223097883082 0.105366610493816 0 -0.34127467774544801 0.1064819949191291 0 -0.32232464320094628 0.095100195065147969 0 -0.33613833718795699 0.086916591216606637 0 -0.35094235513860428 0.090864003732814502 0 -0.34127467774544801 0.1064819949191291 0 -0.33613833718795699 0.086916591216606637 0 -0.34127467774544801 0.1064819949191291 0 -0.32749440269850788 0.1122663854523434 0 -0.32232464320094628 0.095100195065147969 0 -0.34378998236141373 0.1325811052390071 0 -0.35006072096937452 0.1194457977994226 0 -0.33720184765550582 0.1197275374297867 0 -0.35006072096937452 0.1194457977994226 0 -0.34127467774544801 0.1064819949191291 0 -0.33720184765550582 0.1197275374297867 0 -0.34127467774544801 0.1064819949191291 0 -0.33720184765550582 0.1197275374297867 0 -0.32749440269850788 0.1122663854523434 0 -0.32338945450278478 0.12786240373903121 0 -0.33720184765550582 0.1197275374297867 0 -0.32749440269850788 0.1122663854523434 0 -0.32338945450278478 0.12786240373903121 0 -0.30262990335162948 0.1093821276287129 0 -0.32749440269850788 0.1122663854523434 0 -0.30262990335162948 0.1093821276287129 0 -0.32749440269850788 0.1122663854523434 0 -0.32232464320094628 0.095100195065147969 0 -0.30190449495233201 0.076843930734792107 0 -0.32232464320094628 0.095100195065147969 0 -0.32434792253082712 0.073882607833566538 0 -0.32232464320094628 0.095100195065147969 0 -0.32434792253082712 0.073882607833566538 0 -0.33613833718795699 0.086916591216606637 0 -0.30190449495233201 0.076843930734792107 0 -0.32434792253082712 0.073882607833566538 0 -0.32565397068097501 0.055696115370954688 0 -0.34679135010932199 0.070921284932340969 0 -0.32434792253082712 0.073882607833566538 0 -0.34679135010932199 0.070921284932340969 0 -0.32434792253082712 0.073882607833566538 0 -0.34679135010932199 0.070921284932340969 0 -0.32434792253082712 0.073882607833566538 0 -0.33613833718795699 0.086916591216606637 0 -0.37970986147604191 0.47475688960593432 0 -0.40159987421830651 0.46639559680418241 0 -0.40839015412074853 0.48287893084953343 0 -0.39864959540656658 0.5 0 -0.37970986147604191 0.47475688960593432 0 -0.40839015412074853 0.48287893084953343 0 -0.39864959540656658 0.5 0 -0.37970986147604191 0.47475688960593432 0 -0.37055951731891279 0.5 0 -0.37970986147604191 0.47475688960593432 0 -0.39319124296951519 0.44983298757046269 0 -0.3668312948086474 0.44355591656239413 0 -0.39319124296951519 0.44983298757046269 0 -0.38571487447136549 0.43459852461144061 0 -0.3668312948086474 0.44355591656239413 0 -0.39319124296951519 0.44983298757046269 0 -0.41127741675959539 0.45688696688153468 0 -0.41002854892558771 0.43974393366278142 0 -0.39319124296951519 0.44983298757046269 0 -0.41002854892558771 0.43974393366278142 0 -0.39684383565145159 0.43541303444044721 0 -0.39319124296951519 0.44983298757046269 0 -0.39684383565145159 0.43541303444044721 0 -0.38571487447136549 0.43459852461144061 0 -0.39319124296951519 0.44983298757046269 0 -0.40159987421830651 0.46639559680418241 0 -0.41127741675959539 0.45688696688153468 0 -0.37970986147604191 0.47475688960593432 0 -0.39319124296951519 0.44983298757046269 0 -0.40159987421830651 0.46639559680418241 0 -0.40159987421830651 0.46639559680418241 0 -0.41127741675959539 0.45688696688153468 0 -0.4185912067943332 0.47122810939015108 0 -0.41127741675959539 0.45688696688153468 0 -0.43178120756625632 0.45772591489133879 0 -0.4185912067943332 0.47122810939015108 0 -0.41002854892558771 0.43974393366278142 0 -0.43178120756625632 0.45772591489133879 0 -0.41127741675959539 0.45688696688153468 0 -0.41002854892558771 0.43974393366278142 0 -0.43178120756625632 0.45772591489133879 0 -0.41002854892558771 0.43974393366278142 0 -0.43178120756625632 0.45772591489133879 0 -0.42798637342007118 0.43207109587577891 0 -0.43178120756625632 0.45772591489133879 0 -0.42798637342007118 0.43207109587577891 0 -0.43178120756625632 0.45772591489133879 0 -0.44072121040616108 0.44329544550161393 0 -0.42798637342007118 0.43207109587577891 0 -0.43178120756625632 0.45772591489133879 0 -0.43433543087100929 0.4749936357150884 0 -0.43178120756625632 0.45772591489133879 0 -0.43433543087100929 0.4749936357150884 0 -0.4185912067943332 0.47122810939015108 0 -0.43433543087100929 0.4749936357150884 0 -0.43688965417576209 0.49226135653883812 0 -0.43433543087100929 0.4749936357150884 0 -0.42505071333502242 0.48489298929693292 0 -0.43688965417576209 0.49226135653883812 0 -0.43433543087100929 0.4749936357150884 0 -0.4185912067943332 0.47122810939015108 0 -0.42505071333502242 0.48489298929693292 0 -0.40159987421830651 0.46639559680418241 0 -0.40839015412074853 0.48287893084953343 0 -0.4185912067943332 0.47122810939015108 0 -0.40839015412074853 0.48287893084953343 0 -0.4185912067943332 0.47122810939015108 0 -0.42505071333502242 0.48489298929693292 0 -0.40839015412074853 0.48287893084953343 0 -0.42673967349422037 0.5 0 -0.42505071333502242 0.48489298929693292 0 -0.39864959540656658 0.5 0 -0.40839015412074853 0.48287893084953343 0 -0.42673967349422037 0.5 0 -0.42673967349422037 0.5 0 -0.42505071333502242 0.48489298929693292 0 -0.43688965417576209 0.49226135653883812 0 -0.43688965417576209 0.49226135653883812 0 -0.45011131719227288 0.48627438041833088 0 -0.45482975158187411 0.5 0 -0.42673967349422037 0.5 0 -0.43688965417576209 0.49226135653883812 0 -0.45482975158187411 0.5 0 -0.43433543087100929 0.4749936357150884 0 -0.43688965417576209 0.49226135653883812 0 -0.45011131719227288 0.48627438041833088 0 -0.43433543087100929 0.4749936357150884 0 -0.45011131719227288 0.48627438041833088 0 -0.44882741493401301 0.47181727659422718 0 -0.44882741493401301 0.47181727659422718 0 -0.4658736223017701 0.48590863829711528 0 -0.45011131719227288 0.48627438041833088 0 -0.44882741493401301 0.47181727659422718 0 -0.4658736223017701 0.48590863829711528 0 -0.44882741493401301 0.47181727659422718 0 -0.46555178096022432 0.46945767897652319 0 -0.4658736223017701 0.48590863829711528 0 -0.45011131719227288 0.48627438041833088 0 -0.4658736223017701 0.48590863829711528 0 -0.45482975158187411 0.5 0 -0.4658736223017701 0.48590863829711528 0 -0.45482975158187411 0.5 0 -0.48291982966952812 0.50000000000000211 0 -0.4658736223017701 0.48590863829711528 0 -0.48291982966952812 0.50000000000000211 0 -0.48244158627099659 0.48237415505600539 0 -0.4658736223017701 0.48590863829711528 0 -0.48291982966952812 0.50000000000000211 0 -0.46555178096022432 0.46945767897652319 0 -0.4658736223017701 0.48590863829711528 0 -0.48244158627099659 0.48237415505600539 0 -0.46555178096022432 0.46945767897652319 0 -0.48244158627099659 0.48237415505600539 0 -0.47918673974543619 0.46120646105258573 0 -0.50000000000000144 0.47750369354486583 0 -0.47918673974543619 0.46120646105258573 0 -0.48244158627099659 0.48237415505600539 0 -0.50000000000000144 0.47750369354486583 0 -0.47918673974543619 0.46120646105258573 0 -0.48244158627099659 0.48237415505600539 0 -0.50000000000000144 0.47750369354486583 0 -0.5 0.5 0 -0.48291982966952812 0.50000000000000211 0 -0.48244158627099659 0.48237415505600539 0 -0.5 0.5 0 -0.5 0.4503836813998332 0 -0.482186678353478 0.44155128144564282 0 -0.5 0.42326366925480069 0 -0.5 0.4503836813998332 0 -0.47918673974543619 0.46120646105258573 0 -0.482186678353478 0.44155128144564282 0 -0.50000000000000144 0.47750369354486583 0 -0.5 0.4503836813998332 0 -0.47918673974543619 0.46120646105258573 0 -0.47918673974543619 0.46120646105258573 0 -0.45837347949087037 0.44490922856030629 0 -0.47918673974543619 0.46120646105258573 0 -0.482186678353478 0.44155128144564282 0 -0.45837347949087037 0.44490922856030629 0 -0.46555178096022432 0.46945767897652319 0 -0.47918673974543619 0.46120646105258573 0 -0.45837347949087037 0.44490922856030629 0 -0.44882741493401301 0.47181727659422718 0 -0.46555178096022432 0.46945767897652319 0 -0.45837347949087037 0.44490922856030629 0 -0.43178120756625632 0.45772591489133879 0 -0.44882741493401301 0.47181727659422718 0 -0.43178120756625632 0.45772591489133879 0 -0.43433543087100929 0.4749936357150884 0 -0.44882741493401301 0.47181727659422718 0 -0.43178120756625632 0.45772591489133879 0 -0.44882741493401301 0.47181727659422718 0 -0.44072121040616108 0.44329544550161393 0 -0.44882741493401301 0.47181727659422718 0 -0.45837347949087037 0.44490922856030629 0 -0.44072121040616108 0.44329544550161393 0 -0.45837347949087037 0.44490922856030629 0 -0.44072121040616108 0.44329544550161393 0 -0.45128080835636958 0.426930309457841 0 -0.44072121040616108 0.44329544550161393 0 -0.45128080835636958 0.426930309457841 0 -0.43662309505331831 0.42431803124163509 0 -0.45128080835636958 0.426930309457841 0 -0.4444809857055812 0.41791130407042049 0 -0.43662309505331831 0.42431803124163509 0 -0.4444809857055812 0.41791130407042049 0 -0.45600801576505468 0.40738748165483601 0 -0.43401202364758229 0.41300939392737002 0 -0.45128080835636958 0.426930309457841 0 -0.4444809857055812 0.41791130407042049 0 -0.45600801576505468 0.40738748165483601 0 -0.45600801576505468 0.40738748165483601 0 -0.43401202364758229 0.41300939392737002 0 -0.45600801576505468 0.40738748165483601 0 -0.43482747629417301 0.40443349611897578 0 -0.43401202364758229 0.41300939392737002 0 -0.4444809857055812 0.41791130407042049 0 -0.43401202364758229 0.41300939392737002 0 -0.43662309505331831 0.42431803124163509 0 -0.45128080835636958 0.426930309457841 0 -0.45600801576505468 0.40738748165483601 0 -0.47097549830804991 0.42430125662595469 0 -0.45600801576505468 0.40738748165483601 0 -0.47097549830804991 0.42430125662595469 0 -0.478004007882527 0.40176556938230201 0 -0.45837347949087037 0.44490922856030629 0 -0.45128080835636958 0.426930309457841 0 -0.47097549830804991 0.42430125662595469 0 -0.482186678353478 0.44155128144564282 0 -0.45837347949087037 0.44490922856030629 0 -0.47097549830804991 0.42430125662595469 0 -0.47097549830804991 0.42430125662595469 0 -0.5 0.42326366925480069 0 -0.478004007882527 0.40176556938230201 0 -0.5 0.42326366925480069 0 -0.49999999999999939 0.39614365710976818 0 -0.478004007882527 0.40176556938230201 0 -0.482186678353478 0.44155128144564282 0 -0.47097549830804991 0.42430125662595469 0 -0.5 0.42326366925480069 0 -0.5 0.37519365677476169 0 -0.49999999999999939 0.39614365710976818 0 -0.47755100820336571 0.37900058100025608 0 -0.49999999999999939 0.39614365710976818 0 -0.478004007882527 0.40176556938230201 0 -0.49999999999999939 0.39614365710976818 0 -0.478004007882527 0.40176556938230201 0 -0.47755100820336571 0.37900058100025608 0 -0.478004007882527 0.40176556938230201 0 -0.47755100820336571 0.37900058100025608 0 -0.45948040304135512 0.38731137843528068 0 -0.45948040304135512 0.38731137843528068 0 -0.44167601578374138 0.3782137112395334 0 -0.46111734385582792 0.36324035952793859 0 -0.47755100820336571 0.37900058100025608 0 -0.45948040304135512 0.38731137843528068 0 -0.46111734385582792 0.36324035952793859 0 -0.45600801576505468 0.40738748165483601 0 -0.478004007882527 0.40176556938230201 0 -0.45948040304135512 0.38731137843528068 0 -0.45600801576505468 0.40738748165483601 0 -0.478004007882527 0.40176556938230201 0 -0.45600801576505468 0.40738748165483601 0 -0.45948040304135512 0.38731137843528068 0 -0.44252602675761399 0.39426056780681878 0 -0.45600801576505468 0.40738748165483601 0 -0.44252602675761399 0.39426056780681878 0 -0.43482747629417301 0.40443349611897578 0 -0.45948040304135512 0.38731137843528068 0 -0.44252602675761399 0.39426056780681878 0 -0.44167601578374138 0.3782137112395334 0 -0.44167601578374138 0.3782137112395334 0 -0.42223468771165362 0.39318706295112621 0 -0.44252602675761399 0.39426056780681878 0 -0.44167601578374138 0.3782137112395334 0 -0.42223468771165362 0.39318706295112621 0 -0.44167601578374138 0.3782137112395334 0 -0.42223468771165362 0.39318706295112621 0 -0.41783725995846421 0.36345843482242302 0 -0.42223468771165362 0.39318706295112621 0 -0.40453832738447698 0.38634672320869229 0 -0.41783725995846421 0.36345843482242302 0 -0.42223468771165362 0.39318706295112621 0 -0.41783725995846421 0.36345843482242302 0 -0.40684578236468077 0.40549478543062301 0 -0.42419153927388698 0.40641627686021881 0 -0.40453832738447698 0.38634672320869229 0 -0.41815953575215969 0.39632566970378752 0 -0.42223468771165362 0.39318706295112621 0 -0.40453832738447698 0.38634672320869229 0 -0.41815953575215969 0.39632566970378752 0 -0.42419153927388698 0.40641627686021881 0 -0.40453832738447698 0.38634672320869229 0 -0.42419153927388698 0.40641627686021881 0 -0.40453832738447698 0.38634672320869229 0 -0.41815953575215969 0.39632566970378752 0 -0.42223468771165362 0.39318706295112621 0 -0.41815953575215969 0.39632566970378752 0 -0.42223468771165362 0.39318706295112621 0 -0.42419153927388698 0.40641627686021881 0 -0.44252602675761399 0.39426056780681878 0 -0.42223468771165362 0.39318706295112621 0 -0.43482747629417301 0.40443349611897578 0 -0.42223468771165362 0.39318706295112621 0 -0.43482747629417301 0.40443349611897578 0 -0.42419153927388698 0.40641627686021881 0 -0.42223468771165362 0.39318706295112621 0 -0.42419153927388698 0.40641627686021881 0 -0.42999256460924851 0.41234019351348561 0 -0.42419153927388698 0.40641627686021881 0 -0.42798637342007118 0.43207109587577891 0 -0.43482747629417301 0.40443349611897578 0 -0.43401202364758229 0.41300939392737002 0 -0.42999256460924851 0.41234019351348561 0 -0.42419153927388698 0.40641627686021881 0 -0.42798637342007118 0.43207109587577891 0 -0.43401202364758229 0.41300939392737002 0 -0.42999256460924851 0.41234019351348561 0 -0.43662309505331831 0.42431803124163509 0 -0.43482747629417301 0.40443349611897578 0 -0.42999256460924851 0.41234019351348561 0 -0.42419153927388698 0.40641627686021881 0 -0.42999256460924851 0.41234019351348561 0 -0.42419153927388698 0.40641627686021881 0 -0.42999256460924851 0.41234019351348561 0 -0.42798637342007118 0.43207109587577891 0 -0.43662309505331831 0.42431803124163509 0 -0.44072121040616108 0.44329544550161393 0 -0.42798637342007118 0.43207109587577891 0 -0.43662309505331831 0.42431803124163509 0 -0.41002854892558771 0.43974393366278142 0 -0.42798637342007118 0.43207109587577891 0 -0.41335551801995463 0.41988708812111408 0 -0.41002854892558771 0.43974393366278142 0 -0.41335551801995463 0.41988708812111408 0 -0.40210989515704137 0.41864511502718182 0 -0.42419153927388698 0.40641627686021881 0 -0.42798637342007118 0.43207109587577891 0 -0.41335551801995463 0.41988708812111408 0 -0.40684578236468077 0.40549478543062301 0 -0.42419153927388698 0.40641627686021881 0 -0.41335551801995463 0.41988708812111408 0 -0.40684578236468077 0.40549478543062301 0 -0.41335551801995463 0.41988708812111408 0 -0.40210989515704137 0.41864511502718182 0 -0.40684578236468077 0.40549478543062301 0 -0.40210989515704137 0.41864511502718182 0 -0.39219592457604457 0.40710697747620878 0 -0.40210989515704137 0.41864511502718182 0 -0.39219592457604457 0.40710697747620878 0 -0.38827589028491932 0.42176195243422349 0 -0.41002854892558771 0.43974393366278142 0 -0.39684383565145159 0.43541303444044721 0 -0.38827589028491932 0.42176195243422349 0 -0.41002854892558771 0.43974393366278142 0 -0.38827589028491932 0.42176195243422349 0 -0.41002854892558771 0.43974393366278142 0 -0.40210989515704137 0.41864511502718182 0 -0.38827589028491932 0.42176195243422349 0 -0.39684383565145159 0.43541303444044721 0 -0.38826700018613569 0.42450289028025773 0 -0.38827589028491932 0.42176195243422349 0 -0.38344099874107768 0.41968779420364127 0 -0.3668312948086474 0.44355591656239413 0 -0.38571487447136549 0.43459852461144061 0 -0.38344099874107768 0.41968779420364127 0 -0.3668312948086474 0.44355591656239413 0 -0.39684383565145159 0.43541303444044721 0 -0.38571487447136549 0.43459852461144061 0 -0.38826700018613569 0.42450289028025773 0 -0.38571487447136549 0.43459852461144061 0 -0.38826700018613569 0.42450289028025773 0 -0.38344099874107768 0.41968779420364127 0 -0.38826700018613569 0.42450289028025773 0 -0.38827589028491932 0.42176195243422349 0 -0.38344099874107768 0.41968779420364127 0 -0.38826700018613569 0.42450289028025773 0 -0.38344099874107768 0.41968779420364127 0 -0.39219592457604457 0.40710697747620878 0 -0.38344099874107768 0.41968779420364127 0 -0.36455429342647683 0.40084376738434452 0 -0.39219592457604457 0.40710697747620878 0 -0.38344099874107768 0.41968779420364127 0 -0.39219592457604457 0.40710697747620878 0 -0.38827589028491932 0.42176195243422349 0 -0.38344099874107768 0.41968779420364127 0 -0.39219592457604457 0.40710697747620878 0 -0.3831206870632981 0.38766252540295532 0 -0.36455429342647683 0.40084376738434452 0 -0.3831206870632981 0.38766252540295532 0 -0.38488511549506632 0.36627716955716688 0 -0.36673548599109601 0.38017737622897257 0 -0.3831206870632981 0.38766252540295532 0 -0.40453832738447698 0.38634672320869229 0 -0.38488511549506632 0.36627716955716688 0 -0.40453832738447698 0.38634672320869229 0 -0.38488511549506632 0.36627716955716688 0 -0.39219592457604457 0.40710697747620878 0 -0.3831206870632981 0.38766252540295532 0 -0.40453832738447698 0.38634672320869229 0 -0.40684578236468077 0.40549478543062301 0 -0.39219592457604457 0.40710697747620878 0 -0.40453832738447698 0.38634672320869229 0 -0.39689865310155642 0.3538410737138894 0 -0.39311369449648459 0.33754186958230631 0 -0.4061745528634812 0.34346789584517579 0 -0.39689865310155642 0.3538410737138894 0 -0.38212257022435703 0.34267813894350813 0 -0.39311369449648459 0.33754186958230631 0 -0.39689865310155642 0.3538410737138894 0 -0.40195724648696701 0.3691422204709735 0 -0.41783725995846421 0.36345843482242302 0 -0.39689865310155642 0.3538410737138894 0 -0.40195724648696701 0.3691422204709735 0 -0.38488511549506632 0.36627716955716688 0 -0.40453832738447698 0.38634672320869229 0 -0.40195724648696701 0.3691422204709735 0 -0.38488511549506632 0.36627716955716688 0 -0.38488511549506632 0.36627716955716688 0 -0.36523190360565799 0.3462076159056392 0 -0.38488511549506632 0.36627716955716688 0 -0.38212257022435703 0.34267813894350813 0 -0.36523190360565799 0.3462076159056392 0 -0.39689865310155642 0.3538410737138894 0 -0.38488511549506632 0.36627716955716688 0 -0.38212257022435703 0.34267813894350813 0 -0.38212257022435703 0.34267813894350813 0 -0.38696058311718629 0.32993114757855541 0 -0.37572796940123798 0.32700548764778892 0 -0.38212257022435703 0.34267813894350813 0 -0.38696058311718629 0.32993114757855541 0 -0.39311369449648459 0.33754186958230631 0 -0.38536958895497309 0.31909242379913449 0 -0.36637100609937712 0.32418286915583128 0 -0.37572796940123798 0.32700548764778892 0 -0.38536958895497309 0.31909242379913449 0 -0.36637100609937712 0.32418286915583128 0 -0.38696058311718629 0.32993114757855541 0 -0.37572796940123798 0.32700548764778892 0 -0.38536958895497309 0.31909242379913449 0 -0.38536958895497309 0.31909242379913449 0 -0.40958332455562502 0.32876829441354072 0 -0.38696058311718629 0.32993114757855541 0 -0.38536958895497309 0.31909242379913449 0 -0.40958332455562502 0.32876829441354072 0 -0.38536958895497309 0.31909242379913449 0 -0.40958332455562502 0.32876829441354072 0 -0.40730267761572619 0.31321571235282408 0 -0.38536958895497309 0.31909242379913449 0 -0.40730267761572619 0.31321571235282408 0 -0.38696058311718629 0.32993114757855541 0 -0.39311369449648459 0.33754186958230631 0 -0.40958332455562502 0.32876829441354072 0 -0.39311369449648459 0.33754186958230631 0 -0.4061745528634812 0.34346789584517579 0 -0.40958332455562502 0.32876829441354072 0 -0.4061745528634812 0.34346789584517579 0 -0.40958332455562502 0.32876829441354072 0 -0.41343983220527591 0.33372980669371949 0 -0.41343983220527591 0.33372980669371949 0 -0.42116343197350092 0.33197939615069622 0 -0.42382211320753288 0.34008373130356512 0 -0.41343983220527591 0.33372980669371949 0 -0.42116343197350092 0.33197939615069622 0 -0.41965310847614262 0.32377204751155791 0 -0.40958332455562502 0.32876829441354072 0 -0.41343983220527591 0.33372980669371949 0 -0.41965310847614262 0.32377204751155791 0 -0.40730267761572619 0.31321571235282408 0 -0.41965310847614262 0.32377204751155791 0 -0.4292357662764793 0.30733900090651389 0 -0.40958332455562502 0.32876829441354072 0 -0.40730267761572619 0.31321571235282408 0 -0.41965310847614262 0.32377204751155791 0 -0.41965310847614262 0.32377204751155791 0 -0.4317101855609729 0.32110649339278102 0 -0.4292357662764793 0.30733900090651389 0 -0.41965310847614262 0.32377204751155791 0 -0.4317101855609729 0.32110649339278102 0 -0.42773867400505239 0.3303319990939419 0 -0.4317101855609729 0.32110649339278102 0 -0.42773867400505239 0.3303319990939419 0 -0.43854110986065431 0.32768635174567318 0 -0.4317101855609729 0.32110649339278102 0 -0.44338226918653589 0.31640306770621812 0 -0.4292357662764793 0.30733900090651389 0 -0.42382211320753288 0.34008373130356512 0 -0.42773867400505239 0.3303319990939419 0 -0.43494989388067928 0.33913848042708328 0 -0.42382211320753288 0.34008373130356512 0 -0.43494989388067928 0.33913848042708328 0 -0.4301394477675578 0.34763796402419272 0 -0.42116343197350092 0.33197939615069622 0 -0.41965310847614262 0.32377204751155791 0 -0.42773867400505239 0.3303319990939419 0 -0.42116343197350092 0.33197939615069622 0 -0.42382211320753288 0.34008373130356512 0 -0.42773867400505239 0.3303319990939419 0 -0.42773867400505239 0.3303319990939419 0 -0.43494989388067928 0.33913848042708328 0 -0.43854110986065431 0.32768635174567318 0 -0.42382211320753288 0.34008373130356512 0 -0.4301394477675578 0.34763796402419272 0 -0.41783725995846421 0.36345843482242302 0 -0.43494989388067928 0.33913848042708328 0 -0.4301394477675578 0.34763796402419272 0 -0.44315849926902789 0.35151082535734968 0 -0.4301394477675578 0.34763796402419272 0 -0.41783725995846421 0.36345843482242302 0 -0.44315849926902789 0.35151082535734968 0 -0.4061745528634812 0.34346789584517579 0 -0.41343983220527591 0.33372980669371949 0 -0.41783725995846421 0.36345843482242302 0 -0.39689865310155642 0.3538410737138894 0 -0.4061745528634812 0.34346789584517579 0 -0.41783725995846421 0.36345843482242302 0 -0.41343983220527591 0.33372980669371949 0 -0.41783725995846421 0.36345843482242302 0 -0.41343983220527591 0.33372980669371949 0 -0.42382211320753288 0.34008373130356512 0 -0.41783725995846421 0.36345843482242302 0 -0.40453832738447698 0.38634672320869229 0 -0.40195724648696701 0.3691422204709735 0 -0.41783725995846421 0.36345843482242302 0 -0.44167601578374138 0.3782137112395334 0 -0.41783725995846421 0.36345843482242302 0 -0.44315849926902789 0.35151082535734968 0 -0.44167601578374138 0.3782137112395334 0 -0.44315849926902789 0.35151082535734968 0 -0.46111734385582792 0.36324035952793859 0 -0.44167601578374138 0.3782137112395334 0 -0.46111734385582792 0.36324035952793859 0 -0.44315849926902789 0.35151082535734968 0 -0.45900481174474672 0.34748843540166352 0 -0.45501938528704688 0.33714454484285422 0 -0.45900481174474672 0.34748843540166352 0 -0.46853240445054201 0.34817929709406059 0 -0.46111734385582792 0.36324035952793859 0 -0.44315849926902789 0.35151082535734968 0 -0.45900481174474672 0.34748843540166352 0 -0.46111734385582792 0.36324035952793859 0 -0.45900481174474672 0.34748843540166352 0 -0.46853240445054201 0.34817929709406059 0 -0.4657499135142274 0.33738355658495828 0 -0.47755100820336571 0.37900058100025608 0 -0.46111734385582792 0.36324035952793859 0 -0.48625726788124463 0.36433864186420911 0 -0.46111734385582792 0.36324035952793859 0 -0.4805586719279144 0.34826700781634379 0 -0.48625726788124463 0.36433864186420911 0 -0.46111734385582792 0.36324035952793859 0 -0.4805586719279144 0.34826700781634379 0 -0.46853240445054201 0.34817929709406059 0 -0.46111734385582792 0.36324035952793859 0 -0.4805586719279144 0.34826700781634379 0 -0.46853240445054201 0.34817929709406059 0 -0.47623128120999331 0.34451712613939911 0 -0.4805586719279144 0.34826700781634379 0 -0.4805586719279144 0.34826700781634379 0 -0.5 0.35424365643975531 0 -0.48625726788124463 0.36433864186420911 0 -0.4805586719279144 0.34826700781634379 0 -0.5 0.35424365643975531 0 -0.50000000000000067 0.33329365610474881 0 -0.5 0.37519365677476169 0 -0.5 0.35424365643975531 0 -0.48625726788124463 0.36433864186420911 0 -0.5 0.37519365677476169 0 -0.47755100820336571 0.37900058100025608 0 -0.48625726788124463 0.36433864186420911 0 -0.48902942154366291 0.31979260451315478 0 -0.50000000000000067 0.33329365610474881 0 -0.5 0.30634986758964688 0 -0.4805586719279144 0.34826700781634379 0 -0.50000000000000067 0.33329365610474881 0 -0.48461472212404272 0.33294099330716748 0 -0.4805586719279144 0.34826700781634379 0 -0.50000000000000067 0.33329365610474881 0 -0.48902942154366291 0.31979260451315478 0 -0.50000000000000067 0.33329365610474881 0 -0.48461472212404272 0.33294099330716748 0 -0.47623128120999331 0.34451712613939911 0 -0.47466661240398922 0.32005135207664631 0 -0.47623128120999331 0.34451712613939911 0 -0.48461472212404272 0.33294099330716748 0 -0.47466661240398922 0.32005135207664631 0 -0.47623128120999331 0.34451712613939911 0 -0.47466661240398922 0.32005135207664631 0 -0.4657499135142274 0.33738355658495828 0 -0.47623128120999331 0.34451712613939911 0 -0.4805586719279144 0.34826700781634379 0 -0.48461472212404272 0.33294099330716748 0 -0.46853240445054201 0.34817929709406059 0 -0.47623128120999331 0.34451712613939911 0 -0.4657499135142274 0.33738355658495828 0 -0.48902942154366291 0.31979260451315478 0 -0.48461472212404272 0.33294099330716748 0 -0.47466661240398922 0.32005135207664631 0 -0.48902942154366291 0.31979260451315478 0 -0.47466661240398922 0.32005135207664631 0 -0.4858657731902824 0.30632715348756467 0 -0.47466661240398922 0.32005135207664631 0 -0.461768242976828 0.32732272648854899 0 -0.45914568748554091 0.31459052264203718 0 -0.461768242976828 0.32732272648854899 0 -0.45914568748554091 0.31459052264203718 0 -0.45078620181067441 0.32671812210671303 0 -0.47466661240398922 0.32005135207664631 0 -0.461768242976828 0.32732272648854899 0 -0.4657499135142274 0.33738355658495828 0 -0.461768242976828 0.32732272648854899 0 -0.45501938528704688 0.33714454484285422 0 -0.45078620181067441 0.32671812210671303 0 -0.461768242976828 0.32732272648854899 0 -0.4657499135142274 0.33738355658495828 0 -0.45501938528704688 0.33714454484285422 0 -0.45900481174474672 0.34748843540166352 0 -0.4657499135142274 0.33738355658495828 0 -0.45501938528704688 0.33714454484285422 0 -0.44315849926902789 0.35151082535734968 0 -0.45501938528704688 0.33714454484285422 0 -0.44479409112676571 0.33635106306862772 0 -0.45501938528704688 0.33714454484285422 0 -0.44479409112676571 0.33635106306862772 0 -0.45078620181067441 0.32671812210671303 0 -0.43494989388067928 0.33913848042708328 0 -0.44479409112676571 0.33635106306862772 0 -0.43854110986065431 0.32768635174567318 0 -0.44479409112676571 0.33635106306862772 0 -0.45078620181067441 0.32671812210671303 0 -0.43854110986065431 0.32768635174567318 0 -0.43494989388067928 0.33913848042708328 0 -0.44315849926902789 0.35151082535734968 0 -0.44479409112676571 0.33635106306862772 0 -0.45914568748554091 0.31459052264203718 0 -0.45078620181067441 0.32671812210671303 0 -0.44338226918653589 0.31640306770621812 0 -0.4317101855609729 0.32110649339278102 0 -0.43854110986065431 0.32768635174567318 0 -0.44338226918653589 0.31640306770621812 0 -0.45078620181067441 0.32671812210671303 0 -0.43854110986065431 0.32768635174567318 0 -0.44338226918653589 0.31640306770621812 0 -0.45914568748554091 0.31459052264203718 0 -0.44338226918653589 0.31640306770621812 0 -0.45116885493723241 0.3014622894602037 0 -0.45116885493723241 0.3014622894602037 0 -0.4292357662764793 0.30733900090651389 0 -0.44338226918653589 0.31640306770621812 0 -0.45116885493723241 0.3014622894602037 0 -0.4292357662764793 0.30733900090651389 0 -0.45116885493723241 0.3014622894602037 0 -0.43958503139600602 0.29056447189921519 0 -0.4292357662764793 0.30733900090651389 0 -0.45116885493723241 0.3014622894602037 0 -0.43958503139600602 0.29056447189921519 0 -0.45374196233245018 0.28217265186871487 0 -0.43958503139600602 0.29056447189921519 0 -0.45374196233245018 0.28217265186871487 0 -0.43810658346665071 0.27548945722806839 0 -0.45374196233245018 0.28217265186871487 0 -0.47310194359798541 0.2955855780138934 0 -0.47170500215800071 0.27374245471622621 0 -0.45116885493723241 0.3014622894602037 0 -0.45374196233245018 0.28217265186871487 0 -0.47310194359798541 0.2955855780138934 0 -0.45914568748554091 0.31459052264203718 0 -0.45116885493723241 0.3014622894602037 0 -0.47310194359798541 0.2955855780138934 0 -0.45116885493723241 0.3014622894602037 0 -0.47310194359798541 0.2955855780138934 0 -0.47310194359798541 0.2955855780138934 0 -0.48994326487112089 0.29107314535893758 0 -0.4858657731902824 0.30632715348756467 0 -0.47466661240398922 0.32005135207664631 0 -0.45914568748554091 0.31459052264203718 0 -0.47310194359798541 0.2955855780138934 0 -0.47466661240398922 0.32005135207664631 0 -0.47310194359798541 0.2955855780138934 0 -0.4858657731902824 0.30632715348756467 0 -0.47466661240398922 0.32005135207664631 0 -0.47310194359798541 0.2955855780138934 0 -0.47310194359798541 0.2955855780138934 0 -0.48994326487112089 0.29107314535893758 0 -0.48454649344657369 0.28114828839611927 0 -0.47310194359798541 0.2955855780138934 0 -0.48454649344657369 0.28114828839611927 0 -0.47170500215800071 0.27374245471622621 0 -0.47310194359798541 0.2955855780138934 0 -0.48994326487112089 0.29107314535893758 0 -0.47310194359798541 0.2955855780138934 0 -0.47170500215800071 0.27374245471622621 0 -0.48994326487112089 0.29107314535893758 0 -0.5 0.30634986758964688 0 -0.5 0.2794060790745449 0 -0.48994326487112089 0.29107314535893758 0 -0.5 0.2794060790745449 0 -0.48454649344657369 0.28114828839611927 0 -0.48902942154366291 0.31979260451315478 0 -0.5 0.30634986758964688 0 -0.4858657731902824 0.30632715348756467 0 -0.48994326487112089 0.29107314535893758 0 -0.5 0.30634986758964688 0 -0.4858657731902824 0.30632715348756467 0 -0.48487107148390468 0.23984817863281541 0 -0.5 0.25246229055944291 0 -0.48798225660576139 0.26593418481699399 0 -0.5 0.25246229055944291 0 -0.5 0.2794060790745449 0 -0.48798225660576139 0.26593418481699399 0 -0.5 0.2794060790745449 0 -0.48454649344657369 0.28114828839611927 0 -0.48798225660576139 0.26593418481699399 0 -0.48454649344657369 0.28114828839611927 0 -0.48798225660576139 0.26593418481699399 0 -0.47170500215800071 0.27374245471622621 0 -0.48798225660576139 0.26593418481699399 0 -0.47170500215800071 0.27374245471622621 0 -0.47030806071801612 0.25189933141855891 0 -0.47170500215800071 0.27374245471622621 0 -0.47030806071801612 0.25189933141855891 0 -0.48487107148390468 0.23984817863281541 0 -0.48798225660576139 0.26593418481699399 0 -0.47030806071801612 0.25189933141855891 0 -0.47170500215800071 0.27374245471622621 0 -0.47030806071801612 0.25189933141855891 0 -0.46111407638008373 0.25850899492438029 0 -0.46313750112468022 0.24981470823400551 0 -0.47030806071801612 0.25189933141855891 0 -0.46111407638008373 0.25850899492438029 0 -0.46111407638008373 0.25850899492438029 0 -0.4565324981801564 0.26824090022237679 0 -0.45094121507152102 0.25947673104022112 0 -0.45407962648622052 0.24944900702720779 0 -0.46111407638008373 0.25850899492438029 0 -0.45094121507152102 0.25947673104022112 0 -0.45407962648622052 0.24944900702720779 0 -0.46313750112468022 0.24981470823400551 0 -0.46111407638008373 0.25850899492438029 0 -0.45374196233245018 0.28217265186871487 0 -0.47170500215800071 0.27374245471622621 0 -0.4565324981801564 0.26824090022237679 0 -0.47170500215800071 0.27374245471622621 0 -0.46111407638008373 0.25850899492438029 0 -0.4565324981801564 0.26824090022237679 0 -0.45374196233245018 0.28217265186871487 0 -0.44703753700227877 0.26958113039047499 0 -0.43810658346665071 0.27548945722806839 0 -0.45374196233245018 0.28217265186871487 0 -0.4565324981801564 0.26824090022237679 0 -0.44703753700227877 0.26958113039047499 0 -0.4565324981801564 0.26824090022237679 0 -0.44703753700227877 0.26958113039047499 0 -0.45094121507152102 0.25947673104022112 0 -0.44703753700227877 0.26958113039047499 0 -0.43810658346665071 0.27548945722806839 0 -0.44191838305026993 0.26021532503106481 0 -0.43810658346665071 0.27548945722806839 0 -0.44191838305026993 0.26021532503106481 0 -0.43290498919586012 0.2638967569770862 0 -0.45094121507152102 0.25947673104022112 0 -0.44191838305026993 0.26021532503106481 0 -0.44435632404652542 0.25325983155990861 0 -0.45407962648622052 0.24944900702720779 0 -0.45094121507152102 0.25947673104022112 0 -0.44435632404652542 0.25325983155990861 0 -0.44703753700227877 0.26958113039047499 0 -0.45094121507152102 0.25947673104022112 0 -0.44191838305026993 0.26021532503106481 0 -0.43850059117617612 0.24428569161490341 0 -0.44435632404652542 0.25325983155990861 0 -0.4364557637141781 0.25545061549699771 0 -0.44191838305026993 0.26021532503106481 0 -0.44435632404652542 0.25325983155990861 0 -0.4364557637141781 0.25545061549699771 0 -0.43850059117617612 0.24428569161490341 0 -0.4364557637141781 0.25545061549699771 0 -0.42459853110205897 0.25559547230202512 0 -0.4364557637141781 0.25545061549699771 0 -0.43290498919586012 0.2638967569770862 0 -0.42459853110205897 0.25559547230202512 0 -0.44191838305026993 0.26021532503106481 0 -0.4364557637141781 0.25545061549699771 0 -0.43290498919586012 0.2638967569770862 0 -0.43290498919586012 0.2638967569770862 0 -0.42459853110205897 0.25559547230202512 0 -0.42413776322478158 0.27077668304957342 0 -0.4087025894030557 0.24731915361573439 0 -0.42459853110205897 0.25559547230202512 0 -0.41067945301003211 0.26375420459122467 0 -0.42459853110205897 0.25559547230202512 0 -0.41067945301003211 0.26375420459122467 0 -0.42413776322478158 0.27077668304957342 0 -0.41067945301003211 0.26375420459122467 0 -0.41286503260687057 0.27956524716646119 0 -0.42413776322478158 0.27077668304957342 0 -0.41286503260687057 0.27956524716646119 0 -0.42413776322478158 0.27077668304957342 0 -0.42567198996721728 0.28635896003257488 0 -0.43810658346665071 0.27548945722806839 0 -0.42413776322478158 0.27077668304957342 0 -0.42567198996721728 0.28635896003257488 0 -0.43810658346665071 0.27548945722806839 0 -0.43290498919586012 0.2638967569770862 0 -0.42413776322478158 0.27077668304957342 0 -0.43958503139600602 0.29056447189921519 0 -0.42567198996721728 0.28635896003257488 0 -0.4292357662764793 0.30733900090651389 0 -0.43958503139600602 0.29056447189921519 0 -0.43810658346665071 0.27548945722806839 0 -0.42567198996721728 0.28635896003257488 0 -0.40730267761572619 0.31321571235282408 0 -0.4292357662764793 0.30733900090651389 0 -0.40730267761572619 0.31321571235282408 0 -0.4292357662764793 0.30733900090651389 0 -0.40768184004778779 0.29376612277032821 0 -0.42567198996721728 0.28635896003257488 0 -0.4292357662764793 0.30733900090651389 0 -0.40768184004778779 0.29376612277032821 0 -0.41286503260687057 0.27956524716646119 0 -0.42567198996721728 0.28635896003257488 0 -0.40768184004778779 0.29376612277032821 0 -0.40768184004778779 0.29376612277032821 0 -0.39364585738537089 0.30076851299951779 0 -0.39271930918867293 0.27901177764759388 0 -0.41286503260687057 0.27956524716646119 0 -0.40768184004778779 0.29376612277032821 0 -0.39271930918867293 0.27901177764759388 0 -0.40730267761572619 0.31321571235282408 0 -0.40768184004778779 0.29376612277032821 0 -0.39364585738537089 0.30076851299951779 0 -0.38536958895497309 0.31909242379913449 0 -0.40730267761572619 0.31321571235282408 0 -0.39364585738537089 0.30076851299951779 0 -0.38536958895497309 0.31909242379913449 0 -0.39364585738537089 0.30076851299951779 0 -0.3772184939828645 0.29432641885338279 0 -0.39364585738537089 0.30076851299951779 0 -0.3772184939828645 0.29432641885338279 0 -0.39271930918867293 0.27901177764759388 0 -0.3772184939828645 0.29432641885338279 0 -0.39271930918867293 0.27901177764759388 0 -0.37389711327003311 0.27303789856321442 0 -0.3772184939828645 0.29432641885338279 0 -0.39271930918867293 0.27901177764759388 0 -0.38290356341143661 0.26430745472112588 0 -0.39271930918867293 0.27901177764759388 0 -0.37389711327003311 0.27303789856321442 0 -0.38290356341143661 0.26430745472112588 0 -0.39522008950518039 0.25953809094259628 0 -0.39271930918867293 0.27901177764759388 0 -0.38290356341143661 0.26430745472112588 0 -0.3737767174633615 0.25959689083565962 0 -0.37389711327003311 0.27303789856321442 0 -0.37890458762993517 0.25035261561656552 0 -0.38290356341143661 0.26430745472112588 0 -0.39522008950518039 0.25953809094259628 0 -0.37890458762993517 0.25035261561656552 0 -0.38290356341143661 0.26430745472112588 0 -0.3737767174633615 0.25959689083565962 0 -0.4087025894030557 0.24731915361573439 0 -0.41067945301003211 0.26375420459122467 0 -0.39522008950518039 0.25953809094259628 0 -0.4087025894030557 0.24731915361573439 0 -0.37890458762993517 0.25035261561656552 0 -0.39522008950518039 0.25953809094259628 0 -0.41067945301003211 0.26375420459122467 0 -0.41286503260687057 0.27956524716646119 0 -0.39271930918867293 0.27901177764759388 0 -0.41067945301003211 0.26375420459122467 0 -0.39522008950518039 0.25953809094259628 0 -0.39271930918867293 0.27901177764759388 0 -0.34718994403201497 0.26368714038534602 0 -0.36049900904904703 0.27413550603869002 0 -0.3519326552299733 0.28175344953957149 0 -0.34718994403201497 0.26368714038534602 0 -0.36456606084562948 0.26431444899885198 0 -0.36049900904904703 0.27413550603869002 0 -0.34718994403201497 0.26368714038534602 0 -0.3519326552299733 0.28175344953957149 0 -0.33999947897578409 0.2811931581593663 0 -0.36049900904904703 0.27413550603869002 0 -0.36454806260860478 0.28649060884730759 0 -0.3519326552299733 0.28175344953957149 0 -0.34718994403201497 0.26368714038534602 0 -0.36746752041369107 0.25111480917134987 0 -0.35768221540864881 0.24032066889640971 0 -0.34718994403201497 0.26368714038534602 0 -0.36746752041369107 0.25111480917134987 0 -0.34718994403201497 0.26368714038534602 0 -0.36456606084562948 0.26431444899885198 0 -0.36746752041369107 0.25111480917134987 0 -0.37890458762993517 0.25035261561656552 0 -0.36746752041369107 0.25111480917134987 0 -0.3737767174633615 0.25959689083565962 0 -0.36456606084562948 0.26431444899885198 0 -0.36746752041369107 0.25111480917134987 0 -0.3737767174633615 0.25959689083565962 0 -0.36456606084562948 0.26431444899885198 0 -0.3737767174633615 0.25959689083565962 0 -0.37389711327003311 0.27303789856321442 0 -0.36456606084562948 0.26431444899885198 0 -0.37389711327003311 0.27303789856321442 0 -0.36049900904904703 0.27413550603869002 0 -0.37389711327003311 0.27303789856321442 0 -0.36049900904904703 0.27413550603869002 0 -0.36454806260860478 0.28649060884730759 0 -0.3772184939828645 0.29432641885338279 0 -0.37389711327003311 0.27303789856321442 0 -0.36454806260860478 0.28649060884730759 0 -0.3772184939828645 0.29432641885338279 0 -0.36454806260860478 0.28649060884730759 0 -0.36143266317281397 0.29759048622767043 0 -0.36454806260860478 0.28649060884730759 0 -0.36143266317281397 0.29759048622767043 0 -0.35364832124434609 0.29231375131191262 0 -0.38536958895497309 0.31909242379913449 0 -0.3772184939828645 0.29432641885338279 0 -0.36171767877705507 0.30964106005917058 0 -0.3772184939828645 0.29432641885338279 0 -0.36143266317281397 0.29759048622767043 0 -0.36171767877705507 0.30964106005917058 0 -0.3772184939828645 0.29432641885338279 0 -0.36171767877705507 0.30964106005917058 0 -0.36171767877705507 0.30964106005917058 0 -0.34862800971323299 0.30441039485592369 0 -0.34223952297840587 0.31980371185188361 0 -0.36171767877705507 0.30964106005917058 0 -0.34862800971323299 0.30441039485592369 0 -0.36143266317281397 0.29759048622767043 0 -0.34862800971323299 0.30441039485592369 0 -0.35364832124434609 0.29231375131191262 0 -0.36143266317281397 0.29759048622767043 0 -0.36171767877705507 0.30964106005917058 0 -0.34862800971323299 0.30441039485592369 0 -0.34862800971323299 0.30441039485592369 0 -0.3480760370236865 0.29751927736541428 0 -0.35364832124434609 0.29231375131191262 0 -0.34862800971323299 0.30441039485592369 0 -0.35364832124434609 0.29231375131191262 0 -0.34862800971323299 0.30441039485592369 0 -0.34223952297840587 0.31980371185188361 0 -0.36454806260860478 0.28649060884730759 0 -0.3519326552299733 0.28175344953957149 0 -0.35364832124434609 0.29231375131191262 0 -0.3480760370236865 0.29751927736541428 0 -0.35364832124434609 0.29231375131191262 0 -0.3443184377967668 0.28946099661633751 0 -0.3519326552299733 0.28175344953957149 0 -0.35364832124434609 0.29231375131191262 0 -0.3443184377967668 0.28946099661633751 0 -0.3519326552299733 0.28175344953957149 0 -0.3443184377967668 0.28946099661633751 0 -0.33999947897578409 0.2811931581593663 0 -0.3443184377967668 0.28946099661633751 0 -0.32735541414617891 0.29317554008939362 0 -0.33999947897578409 0.2811931581593663 0 -0.3480760370236865 0.29751927736541428 0 -0.33362630223294742 0.29841567421601939 0 -0.32735541414617891 0.29317554008939362 0 -0.32735541414617891 0.29317554008939362 0 -0.32691236765033888 0.276259471599342 0 -0.33999947897578409 0.2811931581593663 0 -0.3480760370236865 0.29751927736541428 0 -0.3443184377967668 0.28946099661633751 0 -0.32735541414617891 0.29317554008939362 0 -0.3480760370236865 0.29751927736541428 0 -0.32735541414617891 0.29317554008939362 0 -0.34862800971323299 0.30441039485592369 0 -0.33794355788402092 0.30755074079239092 0 -0.34223952297840587 0.31980371185188361 0 -0.34862800971323299 0.30441039485592369 0 -0.3480760370236865 0.29751927736541428 0 -0.33362630223294742 0.29841567421601939 0 -0.34862800971323299 0.30441039485592369 0 -0.33794355788402092 0.30755074079239092 0 -0.33362630223294742 0.29841567421601939 0 -0.34862800971323299 0.30441039485592369 0 -0.33362630223294742 0.29841567421601939 0 -0.33362630223294742 0.29841567421601939 0 -0.32692289756408482 0.30102368883687841 0 -0.32735541414617891 0.29317554008939362 0 -0.33794355788402092 0.30755074079239092 0 -0.33362630223294742 0.29841567421601939 0 -0.33090961690994553 0.30529521586596581 0 -0.33362630223294742 0.29841567421601939 0 -0.33090961690994553 0.30529521586596581 0 -0.32692289756408482 0.30102368883687841 0 -0.33794355788402092 0.30755074079239092 0 -0.33090961690994553 0.30529521586596581 0 -0.3311593187953375 0.31244887855710712 0 -0.33090961690994553 0.30529521586596581 0 -0.3311593187953375 0.31244887855710712 0 -0.32489600807333707 0.30703709692743331 0 -0.3311593187953375 0.31244887855710712 0 -0.32489600807333707 0.30703709692743331 0 -0.32299898026031781 0.31324208103485901 0 -0.32489600807333707 0.30703709692743331 0 -0.31835915064752679 0.30770476226947602 0 -0.32299898026031781 0.31324208103485901 0 -0.32489600807333707 0.30703709692743331 0 -0.32094345605673757 0.30204863511337859 0 -0.31835915064752679 0.30770476226947602 0 -0.32692289756408482 0.30102368883687841 0 -0.32290760739637742 0.2982441291885537 0 -0.32735541414617891 0.29317554008939362 0 -0.32489600807333707 0.30703709692743331 0 -0.32094345605673757 0.30204863511337859 0 -0.32692289756408482 0.30102368883687841 0 -0.33090961690994553 0.30529521586596581 0 -0.32489600807333707 0.30703709692743331 0 -0.32692289756408482 0.30102368883687841 0 -0.32094345605673757 0.30204863511337859 0 -0.32692289756408482 0.30102368883687841 0 -0.32290760739637742 0.2982441291885537 0 -0.32094345605673757 0.30204863511337859 0 -0.32290760739637742 0.2982441291885537 0 -0.31640866181850807 0.29672865271456422 0 -0.32094345605673757 0.30204863511337859 0 -0.31571294065133998 0.30275788939892878 0 -0.31640866181850807 0.29672865271456422 0 -0.31281886700241918 0.29893052291487598 0 -0.31571294065133998 0.30275788939892878 0 -0.31640866181850807 0.29672865271456422 0 -0.31281886700241918 0.29893052291487598 0 -0.31571294065133998 0.30275788939892878 0 -0.31068443637985299 0.30453122591283271 0 -0.32094345605673757 0.30204863511337859 0 -0.31571294065133998 0.30275788939892878 0 -0.31835915064752679 0.30770476226947602 0 -0.31571294065133998 0.30275788939892878 0 -0.314230128820911 0.30764108664253548 0 -0.31068443637985299 0.30453122591283271 0 -0.31571294065133998 0.30275788939892878 0 -0.31835915064752679 0.30770476226947602 0 -0.314230128820911 0.30764108664253548 0 -0.31835915064752679 0.30770476226947602 0 -0.314230128820911 0.30764108664253548 0 -0.31569656436715549 0.31218802710508442 0 -0.314230128820911 0.30764108664253548 0 -0.31569656436715549 0.31218802710508442 0 -0.31106609011984732 0.31197389217113369 0 -0.31835915064752679 0.30770476226947602 0 -0.31569656436715549 0.31218802710508442 0 -0.32299898026031781 0.31324208103485901 0 -0.32735541414617891 0.29317554008939362 0 -0.30663479126867471 0.28883180281335702 0 -0.32691236765033888 0.276259471599342 0 -0.30663479126867471 0.28883180281335702 0 -0.32735541414617891 0.29317554008939362 0 -0.32691236765033888 0.276259471599342 0 -0.30663479126867471 0.28883180281335702 0 -0.32735541414617891 0.29317554008939362 0 -0.31640866181850807 0.29672865271456422 0 -0.30663479126867471 0.28883180281335702 0 -0.32290760739637742 0.2982441291885537 0 -0.32735541414617891 0.29317554008939362 0 -0.31640866181850807 0.29672865271456422 0 -0.32691236765033888 0.276259471599342 0 -0.30965708344842191 0.27518412479841359 0 -0.30663479126867471 0.28883180281335702 0 -0.32691236765033888 0.276259471599342 0 -0.31027421476870648 0.26144262122987089 0 -0.30965708344842191 0.27518412479841359 0 -0.34718994403201497 0.26368714038534602 0 -0.32691236765033888 0.276259471599342 0 -0.34718994403201497 0.26368714038534602 0 -0.32691236765033888 0.276259471599342 0 -0.33999947897578409 0.2811931581593663 0 -0.34718994403201497 0.26368714038534602 0 -0.32691236765033888 0.276259471599342 0 -0.32688321527713321 0.25131824145219323 0 -0.34237109131147281 0.23780188451099049 0 -0.34718994403201497 0.26368714038534602 0 -0.32688321527713321 0.25131824145219323 0 -0.30920185950743451 0.2401113512896435 0 -0.32688321527713321 0.25131824145219323 0 -0.31027421476870648 0.26144262122987089 0 -0.32691236765033888 0.276259471599342 0 -0.32688321527713321 0.25131824145219323 0 -0.31027421476870648 0.26144262122987089 0 -0.29943009016011352 0.2497420521595328 0 -0.30920185950743451 0.2401113512896435 0 -0.31027421476870648 0.26144262122987089 0 -0.30920185950743451 0.2401113512896435 0 -0.31027421476870648 0.26144262122987089 0 -0.29881186878211607 0.25857005934189498 0 -0.3003455931724221 0.26884157550479881 0 -0.29397072040473982 0.26230633446863821 0 -0.31027421476870648 0.26144262122987089 0 -0.29881186878211607 0.25857005934189498 0 -0.3003455931724221 0.26884157550479881 0 -0.29943009016011352 0.2497420521595328 0 -0.31027421476870648 0.26144262122987089 0 -0.29881186878211607 0.25857005934189498 0 -0.29943009016011352 0.2497420521595328 0 -0.29881186878211607 0.25857005934189498 0 -0.29479610988401589 0.25304712672527419 0 -0.31027421476870648 0.26144262122987089 0 -0.30965708344842191 0.27518412479841359 0 -0.3003455931724221 0.26884157550479881 0 -0.3003455931724221 0.26884157550479881 0 -0.30072561835078548 0.2800137707389283 0 -0.29329193078998372 0.27544292340270721 0 -0.30965708344842191 0.27518412479841359 0 -0.3003455931724221 0.26884157550479881 0 -0.30072561835078548 0.2800137707389283 0 -0.28909660663945808 0.26921907838932457 0 -0.28092658074448251 0.2665812954817417 0 -0.27960707296608761 0.28316588687200611 0 -0.30072561835078548 0.2800137707389283 0 -0.29329193078998372 0.27544292340270721 0 -0.27960707296608761 0.28316588687200611 0 -0.3003455931724221 0.26884157550479881 0 -0.28909660663945808 0.26921907838932457 0 -0.29397072040473982 0.26230633446863821 0 -0.3003455931724221 0.26884157550479881 0 -0.29329193078998372 0.27544292340270721 0 -0.28909660663945808 0.26921907838932457 0 -0.28909660663945808 0.26921907838932457 0 -0.28814610173965438 0.26219448656690991 0 -0.28092658074448251 0.2665812954817417 0 -0.29329193078998372 0.27544292340270721 0 -0.28909660663945808 0.26921907838932457 0 -0.27960707296608761 0.28316588687200611 0 -0.29148923229504348 0.24929222322603489 0 -0.29943009016011352 0.2497420521595328 0 -0.29479610988401589 0.25304712672527419 0 -0.29193948787493468 0.25690730868048473 0 -0.29068662609876728 0.25269926208257271 0 -0.29479610988401589 0.25304712672527419 0 -0.29193948787493468 0.25690730868048473 0 -0.29068662609876728 0.25269926208257271 0 -0.28479711303465721 0.25595841581436041 0 -0.29148923229504348 0.24929222322603489 0 -0.29068662609876728 0.25269926208257271 0 -0.29479610988401589 0.25304712672527419 0 -0.29148923229504348 0.24929222322603489 0 -0.29068662609876728 0.25269926208257271 0 -0.28657407794942868 0.25091609649300578 0 -0.29881186878211607 0.25857005934189498 0 -0.29193948787493468 0.25690730868048473 0 -0.29479610988401589 0.25304712672527419 0 -0.29881186878211607 0.25857005934189498 0 -0.29193948787493468 0.25690730868048473 0 -0.29397072040473982 0.26230633446863821 0 -0.28909660663945808 0.26921907838932457 0 -0.29397072040473982 0.26230633446863821 0 -0.28814610173965438 0.26219448656690991 0 -0.29193948787493468 0.25690730868048473 0 -0.29397072040473982 0.26230633446863821 0 -0.28814610173965438 0.26219448656690991 0 -0.29193948787493468 0.25690730868048473 0 -0.28814610173965438 0.26219448656690991 0 -0.28479711303465721 0.25595841581436041 0 -0.28814610173965438 0.26219448656690991 0 -0.28479711303465721 0.25595841581436041 0 -0.28092658074448251 0.2665812954817417 0 -0.29068662609876728 0.25269926208257271 0 -0.28479711303465721 0.25595841581436041 0 -0.28657407794942868 0.25091609649300578 0 -0.28479711303465721 0.25595841581436041 0 -0.28657407794942868 0.25091609649300578 0 -0.27967146927513509 0.25155831602854029 0 -0.27334892069424122 0.25668160198723111 0 -0.27061738291764442 0.27298094091969272 0 -0.26323680597663751 0.26167582054338362 0 -0.27334892069424122 0.25668160198723111 0 -0.28092658074448251 0.2665812954817417 0 -0.27061738291764442 0.27298094091969272 0 -0.27642936889687458 0.24563194384886791 0 -0.27967146927513509 0.25155831602854029 0 -0.27334892069424122 0.25668160198723111 0 -0.28479711303465721 0.25595841581436041 0 -0.27967146927513509 0.25155831602854029 0 -0.27334892069424122 0.25668160198723111 0 -0.26673435921377309 0.24912711786423289 0 -0.27642936889687458 0.24563194384886791 0 -0.27334892069424122 0.25668160198723111 0 -0.26673435921377309 0.24912711786423289 0 -0.27334892069424122 0.25668160198723111 0 -0.26323680597663751 0.26167582054338362 0 -0.28479711303465721 0.25595841581436041 0 -0.27334892069424122 0.25668160198723111 0 -0.28092658074448251 0.2665812954817417 0 -0.25257935466350379 0.27749997093063922 0 -0.27960707296608761 0.28316588687200611 0 -0.28092658074448251 0.2665812954817417 0 -0.27061738291764442 0.27298094091969272 0 -0.27960707296608761 0.28316588687200611 0 -0.27061738291764442 0.27298094091969272 0 -0.25257935466350379 0.27749997093063922 0 -0.27960707296608761 0.28316588687200611 0 -0.27061738291764442 0.27298094091969272 0 -0.25981331597303692 0.26915507563383551 0 -0.26323680597663751 0.26167582054338362 0 -0.27061738291764442 0.27298094091969272 0 -0.25981331597303692 0.26915507563383551 0 -0.25257935466350379 0.27749997093063922 0 -0.25981331597303692 0.26915507563383551 0 -0.25257935466350379 0.27749997093063922 0 -0.25281972033436212 0.26446357014162658 0 -0.25281972033436212 0.26446357014162658 0 -0.25586356126195242 0.25254648764433929 0 -0.26323680597663751 0.26167582054338362 0 -0.25281972033436212 0.26446357014162658 0 -0.25586356126195242 0.25254648764433929 0 -0.24353882222885451 0.25569364620056573 0 -0.26673435921377309 0.24912711786423289 0 -0.25586356126195242 0.25254648764433929 0 -0.26323680597663751 0.26167582054338362 0 -0.25981331597303692 0.26915507563383551 0 -0.25281972033436212 0.26446357014162658 0 -0.26323680597663751 0.26167582054338362 0 -0.25668054465708301 0.30337589444719648 0 -0.26218597083199557 0.29018513817704888 0 -0.24241170841135681 0.29729643834828612 0 -0.25668054465708301 0.30337589444719648 0 -0.26319726975372382 0.31576356710911402 0 -0.24134005376476139 0.31191202820942182 0 -0.25257935466350379 0.27749997093063922 0 -0.26218597083199557 0.29018513817704888 0 -0.24175063809895281 0.27664983422161188 0 -0.26218597083199557 0.29018513817704888 0 -0.24175063809895281 0.27664983422161188 0 -0.25257935466350379 0.27749997093063922 0 -0.26218597083199557 0.29018513817704888 0 -0.27960707296608761 0.28316588687200611 0 -0.26218597083199557 0.29018513817704888 0 -0.27960707296608761 0.28316588687200611 0 -0.28262130356504012 0.3037204421324835 0 -0.26218597083199557 0.29018513817704888 0 -0.28262130356504012 0.3037204421324835 0 -0.25668054465708301 0.30337589444719648 0 -0.28262130356504012 0.3037204421324835 0 -0.26319726975372382 0.31576356710911402 0 -0.25668054465708301 0.30337589444719648 0 -0.26218597083199557 0.29018513817704888 0 -0.28262130356504012 0.3037204421324835 0 -0.28262130356504012 0.3037204421324835 0 -0.26319726975372382 0.31576356710911402 0 -0.28262130356504012 0.3037204421324835 0 -0.30663479126867471 0.28883180281335702 0 -0.30051691859616558 0.30118528780929071 0 -0.28262130356504012 0.3037204421324835 0 -0.30478970296232838 0.31840363951260853 0 -0.28262130356504012 0.3037204421324835 0 -0.30051691859616558 0.30118528780929071 0 -0.30478970296232838 0.31840363951260853 0 -0.27960707296608761 0.28316588687200611 0 -0.28262130356504012 0.3037204421324835 0 -0.30663479126867471 0.28883180281335702 0 -0.30072561835078548 0.2800137707389283 0 -0.27960707296608761 0.28316588687200611 0 -0.30663479126867471 0.28883180281335702 0 -0.28262130356504012 0.3037204421324835 0 -0.30663479126867471 0.28883180281335702 0 -0.27960707296608761 0.28316588687200611 0 -0.30663479126867471 0.28883180281335702 0 -0.31281886700241918 0.29893052291487598 0 -0.31640866181850807 0.29672865271456422 0 -0.30802187658861918 0.29378526677871358 0 -0.30802187658861918 0.29378526677871358 0 -0.30663479126867471 0.28883180281335702 0 -0.30051691859616558 0.30118528780929071 0 -0.31640866181850807 0.29672865271456422 0 -0.30802187658861918 0.29378526677871358 0 -0.30663479126867471 0.28883180281335702 0 -0.30965708344842191 0.27518412479841359 0 -0.30072561835078548 0.2800137707389283 0 -0.30663479126867471 0.28883180281335702 0 -0.30802187658861918 0.29378526677871358 0 -0.30051691859616558 0.30118528780929071 0 -0.30478970296232838 0.31840363951260853 0 -0.30802187658861918 0.29378526677871358 0 -0.31068443637985299 0.30453122591283271 0 -0.30478970296232838 0.31840363951260853 0 -0.30802187658861918 0.29378526677871358 0 -0.30478970296232838 0.31840363951260853 0 -0.31281886700241918 0.29893052291487598 0 -0.30802187658861918 0.29378526677871358 0 -0.31068443637985299 0.30453122591283271 0 -0.31068443637985299 0.30453122591283271 0 -0.31106609011984732 0.31197389217113369 0 -0.30478970296232838 0.31840363951260853 0 -0.314230128820911 0.30764108664253548 0 -0.31068443637985299 0.30453122591283271 0 -0.31106609011984732 0.31197389217113369 0 -0.31106609011984732 0.31197389217113369 0 -0.30478970296232838 0.31840363951260853 0 -0.31359850631401709 0.31807085437442828 0 -0.30478970296232838 0.31840363951260853 0 -0.30653486340462549 0.32165535025568343 0 -0.32132564843889388 0.32935619169953961 0 -0.30653486340462549 0.32165535025568343 0 -0.30410633458619218 0.32360862517967942 0 -0.31145530532406979 0.33025933752326098 0 -0.30478970296232838 0.31840363951260853 0 -0.30653486340462549 0.32165535025568343 0 -0.30410633458619218 0.32360862517967942 0 -0.30653486340462549 0.32165535025568343 0 -0.30410633458619218 0.32360862517967942 0 -0.30478970296232838 0.31840363951260853 0 -0.30410633458619218 0.32360862517967942 0 -0.30478970296232838 0.31840363951260853 0 -0.30410633458619218 0.32360862517967942 0 -0.29263066729416159 0.32107189792095953 0 -0.30410633458619218 0.32360862517967942 0 -0.30042468941121447 0.35165047059737642 0 -0.31145530532406979 0.33025933752326098 0 -0.30042468941121447 0.35165047059737642 0 -0.31358411869941327 0.34489669461951372 0 -0.30410633458619218 0.32360862517967942 0 -0.31145530532406979 0.33025933752326098 0 -0.30042468941121447 0.35165047059737642 0 -0.30410633458619218 0.32360862517967942 0 -0.28487813136776402 0.33907394183352008 0 -0.30042468941121447 0.35165047059737642 0 -0.30410633458619218 0.32360862517967942 0 -0.28487813136776402 0.33907394183352008 0 -0.30410633458619218 0.32360862517967942 0 -0.28487813136776402 0.33907394183352008 0 -0.29263066729416159 0.32107189792095953 0 -0.28262130356504012 0.3037204421324835 0 -0.30478970296232838 0.31840363951260853 0 -0.29263066729416159 0.32107189792095953 0 -0.28262130356504012 0.3037204421324835 0 -0.29263066729416159 0.32107189792095953 0 -0.27864091738780777 0.32272171564370461 0 -0.28487813136776402 0.33907394183352008 0 -0.29263066729416159 0.32107189792095953 0 -0.27864091738780777 0.32272171564370461 0 -0.27864091738780777 0.32272171564370461 0 -0.26463173231376491 0.33354572747263589 0 -0.26319726975372382 0.31576356710911402 0 -0.28262130356504012 0.3037204421324835 0 -0.27864091738780777 0.32272171564370461 0 -0.26319726975372382 0.31576356710911402 0 -0.28487813136776402 0.33907394183352008 0 -0.27864091738780777 0.32272171564370461 0 -0.26463173231376491 0.33354572747263589 0 -0.28487813136776402 0.33907394183352008 0 -0.26463173231376491 0.33354572747263589 0 -0.2656499281493358 0.35453925848736101 0 -0.26463173231376491 0.33354572747263589 0 -0.2516509112815502 0.34136918967637098 0 -0.24377323594240821 0.32780669208574548 0 -0.26463173231376491 0.33354572747263589 0 -0.2516509112815502 0.34136918967637098 0 -0.2656499281493358 0.35453925848736101 0 -0.26463173231376491 0.33354572747263589 0 -0.26319726975372382 0.31576356710911402 0 -0.24377323594240821 0.32780669208574548 0 -0.26319726975372382 0.31576356710911402 0 -0.24377323594240821 0.32780669208574548 0 -0.2656499281493358 0.35453925848736101 0 -0.24642172493090769 0.37000457514120177 0 -0.26435012016035359 0.37041003291037039 0 -0.2656499281493358 0.35453925848736101 0 -0.24642172493090769 0.37000457514120177 0 -0.2656499281493358 0.35453925848736101 0 -0.24762008502569799 0.35442213632686742 0 -0.24642172493090769 0.37000457514120177 0 -0.26435012016035359 0.37041003291037039 0 -0.25846530012533597 0.38323992067714052 0 -0.24642172493090769 0.37000457514120177 0 -0.2516509112815502 0.34136918967637098 0 -0.2656499281493358 0.35453925848736101 0 -0.24762008502569799 0.35442213632686742 0 -0.28487813136776402 0.33907394183352008 0 -0.2656499281493358 0.35453925848736101 0 -0.28215030632798271 0.3632398414673455 0 -0.28487813136776402 0.33907394183352008 0 -0.2656499281493358 0.35453925848736101 0 -0.26435012016035359 0.37041003291037039 0 -0.2656499281493358 0.35453925848736101 0 -0.28215030632798271 0.3632398414673455 0 -0.26435012016035359 0.37041003291037039 0 -0.28215030632798271 0.3632398414673455 0 -0.27304144609874509 0.38192906274302407 0 -0.28215030632798271 0.3632398414673455 0 -0.29674304423623649 0.37969231601507342 0 -0.27304144609874509 0.38192906274302407 0 -0.28215030632798271 0.3632398414673455 0 -0.30042468941121447 0.35165047059737642 0 -0.29674304423623649 0.37969231601507342 0 -0.28487813136776402 0.33907394183352008 0 -0.28215030632798271 0.3632398414673455 0 -0.30042468941121447 0.35165047059737642 0 -0.30042468941121447 0.35165047059737642 0 -0.31266780404190059 0.36105930621838039 0 -0.31358411869941327 0.34489669461951372 0 -0.30042468941121447 0.35165047059737642 0 -0.31266780404190059 0.36105930621838039 0 -0.29674304423623649 0.37969231601507342 0 -0.31266780404190059 0.36105930621838039 0 -0.31840564121037329 0.37723241328431728 0 -0.29674304423623649 0.37969231601507342 0 -0.30042468941121447 0.35165047059737642 0 -0.29674304423623649 0.37969231601507342 0 -0.32712833872697528 0.35621472106607999 0 -0.31840564121037329 0.37723241328431728 0 -0.31266780404190059 0.36105930621838039 0 -0.32712833872697528 0.35621472106607999 0 -0.31840564121037329 0.37723241328431728 0 -0.33140434391092161 0.36776872717357773 0 -0.32712833872697528 0.35621472106607999 0 -0.31840564121037329 0.37723241328431728 0 -0.33140434391092161 0.36776872717357773 0 -0.34075643407870748 0.3638728520643672 0 -0.34566758811187281 0.38199974056505082 0 -0.33140434391092161 0.36776872717357773 0 -0.34075643407870748 0.3638728520643672 0 -0.32712833872697528 0.35621472106607999 0 -0.33140434391092161 0.36776872717357773 0 -0.34566758811187281 0.38199974056505082 0 -0.34075643407870748 0.3638728520643672 0 -0.32712833872697528 0.35621472106607999 0 -0.34413215378500212 0.34927739328178231 0 -0.32712833872697528 0.35621472106607999 0 -0.3282172633360439 0.34273911560735498 0 -0.33585103624357782 0.33519702884784303 0 -0.32712833872697528 0.35621472106607999 0 -0.33585103624357782 0.33519702884784303 0 -0.34413215378500212 0.34927739328178231 0 -0.32712833872697528 0.35621472106607999 0 -0.33585103624357782 0.33519702884784303 0 -0.3210185335073934 0.35013220882643731 0 -0.32712833872697528 0.35621472106607999 0 -0.3282172633360439 0.34273911560735498 0 -0.31266780404190059 0.36105930621838039 0 -0.3210185335073934 0.35013220882643731 0 -0.31358411869941327 0.34489669461951372 0 -0.3210185335073934 0.35013220882643731 0 -0.31358411869941327 0.34489669461951372 0 -0.3282172633360439 0.34273911560735498 0 -0.31266780404190059 0.36105930621838039 0 -0.3210185335073934 0.35013220882643731 0 -0.32712833872697528 0.35621472106607999 0 -0.31145530532406979 0.33025933752326098 0 -0.31358411869941327 0.34489669461951372 0 -0.32132564843889388 0.32935619169953961 0 -0.31358411869941327 0.34489669461951372 0 -0.32132564843889388 0.32935619169953961 0 -0.3282172633360439 0.34273911560735498 0 -0.30478970296232838 0.31840363951260853 0 -0.32132564843889388 0.32935619169953961 0 -0.31359850631401709 0.31807085437442828 0 -0.30478970296232838 0.31840363951260853 0 -0.32132564843889388 0.32935619169953961 0 -0.31569656436715549 0.31218802710508442 0 -0.31944667754547218 0.31872052720844207 0 -0.32299898026031781 0.31324208103485901 0 -0.31569656436715549 0.31218802710508442 0 -0.31106609011984732 0.31197389217113369 0 -0.31359850631401709 0.31807085437442828 0 -0.31569656436715549 0.31218802710508442 0 -0.31359850631401709 0.31807085437442828 0 -0.31944667754547218 0.31872052720844207 0 -0.30653486340462549 0.32165535025568343 0 -0.31145530532406979 0.33025933752326098 0 -0.32132564843889388 0.32935619169953961 0 -0.32132564843889388 0.32935619169953961 0 -0.31359850631401709 0.31807085437442828 0 -0.31944667754547218 0.31872052720844207 0 -0.32132564843889388 0.32935619169953961 0 -0.31944667754547218 0.31872052720844207 0 -0.32843616213307769 0.32135319414161118 0 -0.3311593187953375 0.31244887855710712 0 -0.32299898026031781 0.31324208103485901 0 -0.32843616213307769 0.32135319414161118 0 -0.31944667754547218 0.31872052720844207 0 -0.32299898026031781 0.31324208103485901 0 -0.32843616213307769 0.32135319414161118 0 -0.3311593187953375 0.31244887855710712 0 -0.32843616213307769 0.32135319414161118 0 -0.34223952297840587 0.31980371185188361 0 -0.32843616213307769 0.32135319414161118 0 -0.34223952297840587 0.31980371185188361 0 -0.33585103624357782 0.33519702884784303 0 -0.34223952297840587 0.31980371185188361 0 -0.33585103624357782 0.33519702884784303 0 -0.34530402461077192 0.32585757648718189 0 -0.34223952297840587 0.31980371185188361 0 -0.33585103624357782 0.33519702884784303 0 -0.33794355788402092 0.30755074079239092 0 -0.3311593187953375 0.31244887855710712 0 -0.34223952297840587 0.31980371185188361 0 -0.33585103624357782 0.33519702884784303 0 -0.34530402461077192 0.32585757648718189 0 -0.34413215378500212 0.34927739328178231 0 -0.3282172633360439 0.34273911560735498 0 -0.33585103624357782 0.33519702884784303 0 -0.32132564843889388 0.32935619169953961 0 -0.3282172633360439 0.34273911560735498 0 -0.33585103624357782 0.33519702884784303 0 -0.32132564843889388 0.32935619169953961 0 -0.32843616213307769 0.32135319414161118 0 -0.33585103624357782 0.33519702884784303 0 -0.33585103624357782 0.33519702884784303 0 -0.34530402461077192 0.32585757648718189 0 -0.34530402461077192 0.32585757648718189 0 -0.36523190360565799 0.3462076159056392 0 -0.34413215378500212 0.34927739328178231 0 -0.34530402461077192 0.32585757648718189 0 -0.36523190360565799 0.3462076159056392 0 -0.34530402461077192 0.32585757648718189 0 -0.36637100609937712 0.32418286915583128 0 -0.36523190360565799 0.3462076159056392 0 -0.36171767877705507 0.30964106005917058 0 -0.34530402461077192 0.32585757648718189 0 -0.36637100609937712 0.32418286915583128 0 -0.36171767877705507 0.30964106005917058 0 -0.34530402461077192 0.32585757648718189 0 -0.36171767877705507 0.30964106005917058 0 -0.34223952297840587 0.31980371185188361 0 -0.34530402461077192 0.32585757648718189 0 -0.38536958895497309 0.31909242379913449 0 -0.36171767877705507 0.30964106005917058 0 -0.38536958895497309 0.31909242379913449 0 -0.36171767877705507 0.30964106005917058 0 -0.36637100609937712 0.32418286915583128 0 -0.37572796940123798 0.32700548764778892 0 -0.36523190360565799 0.3462076159056392 0 -0.37572796940123798 0.32700548764778892 0 -0.36637100609937712 0.32418286915583128 0 -0.36523190360565799 0.3462076159056392 0 -0.38212257022435703 0.34267813894350813 0 -0.37572796940123798 0.32700548764778892 0 -0.36523190360565799 0.3462076159056392 0 -0.36523190360565799 0.3462076159056392 0 -0.35544974585876571 0.36410367823534512 0 -0.38488511549506632 0.36627716955716688 0 -0.36523190360565799 0.3462076159056392 0 -0.35544974585876571 0.36410367823534512 0 -0.38488511549506632 0.36627716955716688 0 -0.35544974585876571 0.36410367823534512 0 -0.36673548599109601 0.38017737622897257 0 -0.35544974585876571 0.36410367823534512 0 -0.34566758811187281 0.38199974056505082 0 -0.34075643407870748 0.3638728520643672 0 -0.35544974585876571 0.36410367823534512 0 -0.34566758811187281 0.38199974056505082 0 -0.34075643407870748 0.3638728520643672 0 -0.35544974585876571 0.36410367823534512 0 -0.34413215378500212 0.34927739328178231 0 -0.36523190360565799 0.3462076159056392 0 -0.35544974585876571 0.36410367823534512 0 -0.34413215378500212 0.34927739328178231 0 -0.34566758811187281 0.38199974056505082 0 -0.36455429342647683 0.40084376738434452 0 -0.33623710032026077 0.39925243692151718 0 -0.34566758811187281 0.38199974056505082 0 -0.36455429342647683 0.40084376738434452 0 -0.36455429342647683 0.40084376738434452 0 -0.34374530510800738 0.41776388605288223 0 -0.33623710032026077 0.39925243692151718 0 -0.35544974585876571 0.36410367823534512 0 -0.34566758811187281 0.38199974056505082 0 -0.36673548599109601 0.38017737622897257 0 -0.34566758811187281 0.38199974056505082 0 -0.36673548599109601 0.38017737622897257 0 -0.36455429342647683 0.40084376738434452 0 -0.3831206870632981 0.38766252540295532 0 -0.36673548599109601 0.38017737622897257 0 -0.36455429342647683 0.40084376738434452 0 -0.38344099874107768 0.41968779420364127 0 -0.36455429342647683 0.40084376738434452 0 -0.38344099874107768 0.41968779420364127 0 -0.36455429342647683 0.40084376738434452 0 -0.361888185590727 0.42240266714234159 0 -0.38344099874107768 0.41968779420364127 0 -0.361888185590727 0.42240266714234159 0 -0.3668312948086474 0.44355591656239413 0 -0.361888185590727 0.42240266714234159 0 -0.34488001558336689 0.4358468319092193 0 -0.3668312948086474 0.44355591656239413 0 -0.361888185590727 0.42240266714234159 0 -0.34488001558336689 0.4358468319092193 0 -0.34374530510800738 0.41776388605288223 0 -0.36455429342647683 0.40084376738434452 0 -0.361888185590727 0.42240266714234159 0 -0.34374530510800738 0.41776388605288223 0 -0.32680661252864918 0.41650513327798411 0 -0.33623710032026077 0.39925243692151718 0 -0.34374530510800738 0.41776388605288223 0 -0.32680661252864918 0.41650513327798411 0 -0.33623710032026077 0.39925243692151718 0 -0.34374530510800738 0.41776388605288223 0 -0.32810562319856412 0.43173247968188638 0 -0.32680661252864918 0.41650513327798411 0 -0.34488001558336689 0.4358468319092193 0 -0.34374530510800738 0.41776388605288223 0 -0.32810562319856412 0.43173247968188638 0 -0.32810562319856412 0.43173247968188638 0 -0.32680661252864918 0.41650513327798411 0 -0.30593439510487191 0.42355896658402409 0 -0.32810562319856412 0.43173247968188638 0 -0.30593439510487191 0.42355896658402409 0 -0.31512874901788229 0.43980466920665229 0 -0.32680661252864918 0.41650513327798411 0 -0.31534329201115952 0.39795583210411017 0 -0.30593439510487191 0.42355896658402409 0 -0.32680661252864918 0.41650513327798411 0 -0.31534329201115952 0.39795583210411017 0 -0.33623710032026077 0.39925243692151718 0 -0.31534329201115952 0.39795583210411017 0 -0.33623710032026077 0.39925243692151718 0 -0.32941159311291762 0.38484183000971461 0 -0.34566758811187281 0.38199974056505082 0 -0.33623710032026077 0.39925243692151718 0 -0.33140434391092161 0.36776872717357773 0 -0.34566758811187281 0.38199974056505082 0 -0.32941159311291762 0.38484183000971461 0 -0.34566758811187281 0.38199974056505082 0 -0.33623710032026077 0.39925243692151718 0 -0.32941159311291762 0.38484183000971461 0 -0.33140434391092161 0.36776872717357773 0 -0.32941159311291762 0.38484183000971461 0 -0.31840564121037329 0.37723241328431728 0 -0.31534329201115952 0.39795583210411017 0 -0.32941159311291762 0.38484183000971461 0 -0.31840564121037329 0.37723241328431728 0 -0.31534329201115952 0.39795583210411017 0 -0.31840564121037329 0.37723241328431728 0 -0.29674304423623649 0.37969231601507342 0 -0.31534329201115952 0.39795583210411017 0 -0.29674304423623649 0.37969231601507342 0 -0.29306139906125861 0.4077341614327703 0 -0.28472280265360422 0.39237677144549188 0 -0.2776229275867671 0.41756432528692372 0 -0.29306139906125861 0.4077341614327703 0 -0.28472280265360422 0.39237677144549188 0 -0.29674304423623649 0.37969231601507342 0 -0.29306139906125861 0.4077341614327703 0 -0.29674304423623649 0.37969231601507342 0 -0.29306139906125861 0.4077341614327703 0 -0.28472280265360422 0.39237677144549188 0 -0.29674304423623649 0.37969231601507342 0 -0.27304144609874509 0.38192906274302407 0 -0.28472280265360422 0.39237677144549188 0 -0.26298900584177642 0.39982167639886529 0 -0.2776229275867671 0.41756432528692372 0 -0.28472280265360422 0.39237677144549188 0 -0.27304144609874509 0.38192906274302407 0 -0.26298900584177642 0.39982167639886529 0 -0.26298900584177642 0.39982167639886529 0 -0.25846530012533597 0.38323992067714052 0 -0.2455242035948976 0.39403425619224119 0 -0.26298900584177642 0.39982167639886529 0 -0.24440005972636669 0.41216703809138788 0 -0.2455242035948976 0.39403425619224119 0 -0.27304144609874509 0.38192906274302407 0 -0.26298900584177642 0.39982167639886529 0 -0.25846530012533597 0.38323992067714052 0 -0.25846530012533597 0.38323992067714052 0 -0.2455242035948976 0.39403425619224119 0 -0.24642172493090769 0.37000457514120177 0 -0.26435012016035359 0.37041003291037039 0 -0.27304144609874509 0.38192906274302407 0 -0.25846530012533597 0.38323992067714052 0 -0.26174820758900708 0.4323204355392441 0 -0.26608739651648711 0.44377191133283611 0 -0.24864194769054601 0.43415437624979641 0 -0.26175919591892932 0.42088619650776082 0 -0.24440005972636669 0.41216703809138788 0 -0.24864194769054601 0.43415437624979641 0 -0.26174820758900708 0.4323204355392441 0 -0.26175919591892932 0.42088619650776082 0 -0.27050429023006622 0.4304692580665832 0 -0.26174820758900708 0.4323204355392441 0 -0.26175919591892932 0.42088619650776082 0 -0.24864194769054601 0.43415437624979641 0 -0.26298900584177642 0.39982167639886529 0 -0.26175919591892932 0.42088619650776082 0 -0.24440005972636669 0.41216703809138788 0 -0.26298900584177642 0.39982167639886529 0 -0.26175919591892932 0.42088619650776082 0 -0.2776229275867671 0.41756432528692372 0 -0.2776229275867671 0.41756432528692372 0 -0.27050429023006622 0.4304692580665832 0 -0.27833634693854281 0.43477904382448013 0 -0.26175919591892932 0.42088619650776082 0 -0.2776229275867671 0.41756432528692372 0 -0.27050429023006622 0.4304692580665832 0 -0.26174820758900708 0.4323204355392441 0 -0.27050429023006622 0.4304692580665832 0 -0.26608739651648711 0.44377191133283611 0 -0.27050429023006622 0.4304692580665832 0 -0.27833634693854281 0.43477904382448013 0 -0.26608739651648711 0.44377191133283611 0 -0.28937975388628068 0.43577600685046741 0 -0.29306139906125861 0.4077341614327703 0 -0.30593439510487191 0.42355896658402409 0 -0.2776229275867671 0.41756432528692372 0 -0.27833634693854281 0.43477904382448013 0 -0.28937975388628068 0.43577600685046741 0 -0.28937975388628068 0.43577600685046741 0 -0.29306139906125861 0.4077341614327703 0 -0.2776229275867671 0.41756432528692372 0 -0.28937975388628068 0.43577600685046741 0 -0.29306139906125861 0.4077341614327703 0 -0.31534329201115952 0.39795583210411017 0 -0.29306139906125861 0.4077341614327703 0 -0.30593439510487191 0.42355896658402409 0 -0.28937975388628068 0.43577600685046741 0 -0.30593439510487191 0.42355896658402409 0 -0.30143392273675212 0.44055121190741092 0 -0.30593439510487191 0.42355896658402409 0 -0.30143392273675212 0.44055121190741092 0 -0.31512874901788229 0.43980466920665229 0 -0.30996569658379219 0.45182674533825612 0 -0.30143392273675212 0.44055121190741092 0 -0.31512874901788229 0.43980466920665229 0 -0.30996569658379219 0.45182674533825612 0 -0.29727260375396142 0.44865297481023753 0 -0.30143392273675212 0.44055121190741092 0 -0.29727260375396142 0.44865297481023753 0 -0.30143392273675212 0.44055121190741092 0 -0.29273956242407068 0.44226989654740267 0 -0.30996569658379219 0.45182674533825612 0 -0.30273779262327899 0.46273292841432928 0 -0.31675322867637129 0.46518033760899907 0 -0.30996569658379219 0.45182674533825612 0 -0.29727260375396142 0.44865297481023753 0 -0.30273779262327899 0.46273292841432928 0 -0.30273779262327899 0.46273292841432928 0 -0.28469198616966862 0.46385050106185649 0 -0.28287196931928882 0.444099392621495 0 -0.30273779262327899 0.46273292841432928 0 -0.28469198616966862 0.46385050106185649 0 -0.28924857595910253 0.47673474341788358 0 -0.30273779262327899 0.46273292841432928 0 -0.28287196931928882 0.444099392621495 0 -0.29727260375396142 0.44865297481023753 0 -0.30273779262327899 0.46273292841432928 0 -0.28287196931928882 0.444099392621495 0 -0.29727260375396142 0.44865297481023753 0 -0.29273956242407068 0.44226989654740267 0 -0.28287196931928882 0.444099392621495 0 -0.28937975388628068 0.43577600685046741 0 -0.30143392273675212 0.44055121190741092 0 -0.29273956242407068 0.44226989654740267 0 -0.27833634693854281 0.43477904382448013 0 -0.28937975388628068 0.43577600685046741 0 -0.28287196931928882 0.444099392621495 0 -0.28937975388628068 0.43577600685046741 0 -0.29273956242407068 0.44226989654740267 0 -0.28287196931928882 0.444099392621495 0 -0.28287196931928882 0.444099392621495 0 -0.26608739651648711 0.44377191133283611 0 -0.27231339364895862 0.45941737013880818 0 -0.27833634693854281 0.43477904382448013 0 -0.28287196931928882 0.444099392621495 0 -0.26608739651648711 0.44377191133283611 0 -0.28469198616966862 0.46385050106185649 0 -0.28287196931928882 0.444099392621495 0 -0.27231339364895862 0.45941737013880818 0 -0.28469198616966862 0.46385050106185649 0 -0.27231339364895862 0.45941737013880818 0 -0.27532062029615773 0.48178834855928371 0 -0.27231339364895862 0.45941737013880818 0 -0.2525949959431909 0.46357669711856991 0 -0.27532062029615773 0.48178834855928371 0 -0.26608739651648711 0.44377191133283611 0 -0.27231339364895862 0.45941737013880818 0 -0.2525949959431909 0.46357669711856991 0 -0.26608739651648711 0.44377191133283611 0 -0.2525949959431909 0.46357669711856991 0 -0.24864194769054601 0.43415437624979641 0 -0.25543417718413158 0.48487826342428841 0 -0.27046772952741971 0.5 0 -0.24288921440571579 0.5 0 -0.2525949959431909 0.46357669711856991 0 -0.27532062029615773 0.48178834855928371 0 -0.2525949959431909 0.46357669711856991 0 -0.25543417718413158 0.48487826342428841 0 -0.27532062029615773 0.48178834855928371 0 -0.25543417718413158 0.48487826342428841 0 -0.27532062029615773 0.48178834855928371 0 -0.27046772952741971 0.5 0 -0.27532062029615773 0.48178834855928371 0 -0.28924857595910253 0.47673474341788358 0 -0.29804624464912349 0.49999999999999839 0 -0.28924857595910253 0.47673474341788358 0 -0.30186578344162629 0.47717778485268131 0 -0.29804624464912349 0.49999999999999839 0 -0.27532062029615773 0.48178834855928371 0 -0.27046772952741971 0.5 0 -0.29804624464912349 0.49999999999999839 0 -0.27532062029615773 0.48178834855928371 0 -0.29804624464912349 0.49999999999999839 0 -0.28469198616966862 0.46385050106185649 0 -0.27532062029615773 0.48178834855928371 0 -0.28924857595910253 0.47673474341788358 0 -0.30273779262327899 0.46273292841432928 0 -0.30186578344162629 0.47717778485268131 0 -0.32260361592726938 0.48136646420716372 0 -0.30186578344162629 0.47717778485268131 0 -0.321765530945954 0.48858889242634213 0 -0.30273779262327899 0.46273292841432928 0 -0.28924857595910253 0.47673474341788358 0 -0.30186578344162629 0.47717778485268131 0 -0.30186578344162629 0.47717778485268131 0 -0.29804624464912349 0.49999999999999839 0 -0.30895100309941342 0.49230960965027842 0 -0.29804624464912349 0.49999999999999839 0 -0.30895100309941342 0.49230960965027842 0 -0.31985576154970302 0.5 0 -0.30186578344162629 0.47717778485268131 0 -0.30895100309941342 0.49230960965027842 0 -0.321765530945954 0.48858889242634213 0 -0.30895100309941342 0.49230960965027842 0 -0.31985576154970302 0.5 0 -0.321765530945954 0.48858889242634213 0 -0.31985576154970302 0.5 0 -0.321765530945954 0.48858889242634213 0 -0.34246943923125911 0.49999999999999878 0 -0.33341243350838778 0.49150480512533479 0 -0.32260361592726938 0.48136646420716372 0 -0.321765530945954 0.48858889242634213 0 -0.33341243350838778 0.49150480512533479 0 -0.32260361592726938 0.48136646420716372 0 -0.321765530945954 0.48858889242634213 0 -0.33341243350838778 0.49150480512533479 0 -0.34246943923125911 0.49999999999999878 0 -0.321765530945954 0.48858889242634213 0 -0.34246943923125911 0.49999999999999878 0 -0.33341243350838778 0.49150480512533479 0 -0.34246943923125911 0.49999999999999878 0 -0.35354552174784842 0.48603130546884249 0 -0.33341243350838778 0.49150480512533479 0 -0.34246943923125911 0.49999999999999878 0 -0.33341243350838778 0.49150480512533479 0 -0.33242275282910938 0.47110222380934991 0 -0.35022159087621751 0.46742403892114731 0 -0.33341243350838778 0.49150480512533479 0 -0.33242275282910938 0.47110222380934991 0 -0.32260361592726938 0.48136646420716372 0 -0.33341243350838778 0.49150480512533479 0 -0.35022159087621751 0.46742403892114731 0 -0.30273779262327899 0.46273292841432928 0 -0.32260361592726938 0.48136646420716372 0 -0.33242275282910938 0.47110222380934991 0 -0.3238526809072233 0.47019297392663723 0 -0.32260361592726938 0.48136646420716372 0 -0.3238526809072233 0.47019297392663723 0 -0.32260361592726938 0.48136646420716372 0 -0.31675322867637129 0.46518033760899907 0 -0.30273779262327899 0.46273292841432928 0 -0.32260361592726938 0.48136646420716372 0 -0.31675322867637129 0.46518033760899907 0 -0.30186578344162629 0.47717778485268131 0 -0.321765530945954 0.48858889242634213 0 -0.32260361592726938 0.48136646420716372 0 -0.30996569658379219 0.45182674533825612 0 -0.31675322867637129 0.46518033760899907 0 -0.32460635734029281 0.45978257615860912 0 -0.3238526809072233 0.47019297392663723 0 -0.31675322867637129 0.46518033760899907 0 -0.32460635734029281 0.45978257615860912 0 -0.33242275282910938 0.47110222380934991 0 -0.3238526809072233 0.47019297392663723 0 -0.32460635734029281 0.45978257615860912 0 -0.30996569658379219 0.45182674533825612 0 -0.31512874901788229 0.43980466920665229 0 -0.32768476437153221 0.44588732282539317 0 -0.30996569658379219 0.45182674533825612 0 -0.32460635734029281 0.45978257615860912 0 -0.32768476437153221 0.44588732282539317 0 -0.32810562319856412 0.43173247968188638 0 -0.31512874901788229 0.43980466920665229 0 -0.32768476437153221 0.44588732282539317 0 -0.34488001558336689 0.4358468319092193 0 -0.32768476437153221 0.44588732282539317 0 -0.34110779596819429 0.45393315169768539 0 -0.34488001558336689 0.4358468319092193 0 -0.32810562319856412 0.43173247968188638 0 -0.32768476437153221 0.44588732282539317 0 -0.33242275282910938 0.47110222380934991 0 -0.32460635734029281 0.45978257615860912 0 -0.34110779596819429 0.45393315169768539 0 -0.33242275282910938 0.47110222380934991 0 -0.34110779596819429 0.45393315169768539 0 -0.35022159087621751 0.46742403892114731 0 -0.32460635734029281 0.45978257615860912 0 -0.32768476437153221 0.44588732282539317 0 -0.34110779596819429 0.45393315169768539 0 -0.35022159087621751 0.46742403892114731 0 -0.3668312948086474 0.44355591656239413 0 -0.34110779596819429 0.45393315169768539 0 -0.35022159087621751 0.46742403892114731 0 -0.3668312948086474 0.44355591656239413 0 -0.34488001558336689 0.4358468319092193 0 -0.34110779596819429 0.45393315169768539 0 -0.3668312948086474 0.44355591656239413 0 -0.37970986147604191 0.47475688960593432 0 -0.35022159087621751 0.46742403892114731 0 -0.3668312948086474 0.44355591656239413 0 -0.37970986147604191 0.47475688960593432 0 -0.35022159087621751 0.46742403892114731 0 -0.35354552174784842 0.48603130546884249 0 -0.37970986147604191 0.47475688960593432 0 -0.37055951731891279 0.5 0 -0.35354552174784842 0.48603130546884249 0 -0.34246943923125911 0.49999999999999878 0 -0.37055951731891279 0.5 0 -0.35354552174784842 0.48603130546884249 0 -0.33341243350838778 0.49150480512533479 0 -0.35022159087621751 0.46742403892114731 0 -0.35354552174784842 0.48603130546884249 0 -0.14679809386281251 0.48203758878369729 0 -0.14037036694861099 0.46452656445244572 0 -0.16060386958922629 0.46264758475431089 0 -0.14679809386281251 0.48203758878369729 0 -0.13257515391890029 0.5 0 -0.1601536690406041 0.5 0 -0.14679809386281251 0.48203758878369729 0 -0.13257515391890029 0.5 0 -0.1263230820352379 0.47739936264286009 0 -0.14679809386281251 0.48203758878369729 0 -0.1263230820352379 0.47739936264286009 0 -0.14037036694861099 0.46452656445244572 0 -0.1263230820352379 0.47739936264286009 0 -0.14037036694861099 0.46452656445244572 0 -0.12579200730107051 0.45303246416568882 0 -0.14037036694861099 0.46452656445244572 0 -0.12579200730107051 0.45303246416568882 0 -0.146177017159761 0.44907436132567469 0 -0.1333877762442611 0.43750216830862121 0 -0.12579200730107051 0.45303246416568882 0 -0.146177017159761 0.44907436132567469 0 -0.1333877762442611 0.43750216830862121 0 -0.12579200730107051 0.45303246416568882 0 -0.1181616549298001 0.43433742834474792 0 -0.146177017159761 0.44907436132567469 0 -0.16060386958922629 0.46264758475431089 0 -0.16116621177105209 0.44063855810972119 0 -0.1333877762442611 0.43750216830862121 0 -0.146177017159761 0.44907436132567469 0 -0.14803057896027871 0.42980252857783441 0 -0.146177017159761 0.44907436132567469 0 -0.16116621177105209 0.44063855810972119 0 -0.14803057896027871 0.42980252857783441 0 -0.14037036694861099 0.46452656445244572 0 -0.146177017159761 0.44907436132567469 0 -0.16060386958922629 0.46264758475431089 0 -0.16060386958922629 0.46264758475431089 0 -0.16116621177105209 0.44063855810972119 0 -0.1787295224848936 0.44658572245317418 0 -0.1787295224848936 0.44658572245317418 0 -0.18631921617817709 0.47384690961836018 0 -0.16060386958922629 0.46264758475431089 0 -0.1787295224848936 0.44658572245317418 0 -0.18631921617817709 0.47384690961836018 0 -0.16060386958922629 0.46264758475431089 0 -0.18631921617817709 0.47384690961836018 0 -0.16839059548722779 0.48207529960280959 0 -0.14679809386281251 0.48203758878369729 0 -0.16060386958922629 0.46264758475431089 0 -0.16839059548722779 0.48207529960280959 0 -0.14679809386281251 0.48203758878369729 0 -0.16839059548722779 0.48207529960280959 0 -0.1601536690406041 0.5 0 -0.16839059548722779 0.48207529960280959 0 -0.1601536690406041 0.5 0 -0.187732184162308 0.5 0 -0.18631921617817709 0.47384690961836018 0 -0.16839059548722779 0.48207529960280959 0 -0.187732184162308 0.5 0 -0.18631921617817709 0.47384690961836018 0 -0.187732184162308 0.5 0 -0.20076225761832209 0.48634166420211672 0 -0.187732184162308 0.5 0 -0.20076225761832209 0.48634166420211672 0 -0.21531069928401189 0.5 0 -0.18631921617817709 0.47384690961836018 0 -0.20076225761832209 0.48634166420211672 0 -0.21368693084879151 0.47151974719010648 0 -0.20076225761832209 0.48634166420211672 0 -0.21368693084879151 0.47151974719010648 0 -0.21531069928401189 0.5 0 -0.21531069928401189 0.5 0 -0.23555791240797869 0.47849068621213142 0 -0.24288921440571579 0.5 0 -0.21368693084879151 0.47151974719010648 0 -0.21531069928401189 0.5 0 -0.23555791240797869 0.47849068621213142 0 -0.2525949959431909 0.46357669711856991 0 -0.25543417718413158 0.48487826342428841 0 -0.23555791240797869 0.47849068621213142 0 -0.25543417718413158 0.48487826342428841 0 -0.23555791240797869 0.47849068621213142 0 -0.24288921440571579 0.5 0 -0.2525949959431909 0.46357669711856991 0 -0.23555791240797869 0.47849068621213142 0 -0.22986937159022419 0.44536504567785618 0 -0.21368693084879151 0.47151974719010648 0 -0.23555791240797869 0.47849068621213142 0 -0.22986937159022419 0.44536504567785618 0 -0.2525949959431909 0.46357669711856991 0 -0.22986937159022419 0.44536504567785618 0 -0.24864194769054601 0.43415437624979641 0 -0.2525949959431909 0.46357669711856991 0 -0.22986937159022419 0.44536504567785618 0 -0.22986937159022419 0.44536504567785618 0 -0.20199084512817189 0.45146888454934681 0 -0.19856752050880649 0.42478363537206038 0 -0.21368693084879151 0.47151974719010648 0 -0.22986937159022419 0.44536504567785618 0 -0.20199084512817189 0.45146888454934681 0 -0.1787295224848936 0.44658572245317418 0 -0.18631921617817709 0.47384690961836018 0 -0.20199084512817189 0.45146888454934681 0 -0.18631921617817709 0.47384690961836018 0 -0.21368693084879151 0.47151974719010648 0 -0.20199084512817189 0.45146888454934681 0 -0.1787295224848936 0.44658572245317418 0 -0.20199084512817189 0.45146888454934681 0 -0.19856752050880649 0.42478363537206038 0 -0.22986937159022419 0.44536504567785618 0 -0.19856752050880649 0.42478363537206038 0 -0.22450012948637429 0.41820540239531911 0 -0.19856752050880649 0.42478363537206038 0 -0.1882550508736931 0.40948861350634019 0 -0.20369231328772261 0.39760543153038769 0 -0.19856752050880649 0.42478363537206038 0 -0.22450012948637429 0.41820540239531911 0 -0.20369231328772261 0.39760543153038769 0 -0.22986937159022419 0.44536504567785618 0 -0.22450012948637429 0.41820540239531911 0 -0.24864194769054601 0.43415437624979641 0 -0.22450012948637429 0.41820540239531911 0 -0.24440005972636669 0.41216703809138788 0 -0.22591252504203679 0.3949142458973654 0 -0.22450012948637429 0.41820540239531911 0 -0.24440005972636669 0.41216703809138788 0 -0.24864194769054601 0.43415437624979641 0 -0.2455242035948976 0.39403425619224119 0 -0.2308690747112421 0.37255935513230448 0 -0.2455242035948976 0.39403425619224119 0 -0.2308690747112421 0.37255935513230448 0 -0.24642172493090769 0.37000457514120177 0 -0.24440005972636669 0.41216703809138788 0 -0.2455242035948976 0.39403425619224119 0 -0.22591252504203679 0.3949142458973654 0 -0.22591252504203679 0.3949142458973654 0 -0.2131435578472248 0.37758959116696172 0 -0.2308690747112421 0.37255935513230448 0 -0.2455242035948976 0.39403425619224119 0 -0.22591252504203679 0.3949142458973654 0 -0.2308690747112421 0.37255935513230448 0 -0.2131435578472248 0.37758959116696172 0 -0.20369231328772261 0.39760543153038769 0 -0.1947844321931583 0.37058783826991998 0 -0.22591252504203679 0.3949142458973654 0 -0.2131435578472248 0.37758959116696172 0 -0.20369231328772261 0.39760543153038769 0 -0.22450012948637429 0.41820540239531911 0 -0.22591252504203679 0.3949142458973654 0 -0.20369231328772261 0.39760543153038769 0 -0.1882550508736931 0.40948861350634019 0 -0.20369231328772261 0.39760543153038769 0 -0.18305016194077331 0.39179132967395569 0 -0.20369231328772261 0.39760543153038769 0 -0.18305016194077331 0.39179132967395569 0 -0.1947844321931583 0.37058783826991998 0 -0.1810809742621744 0.37585466714060062 0 -0.16859697395581311 0.37869818650800668 0 -0.18305016194077331 0.39179132967395569 0 -0.1810809742621744 0.37585466714060062 0 -0.18305016194077331 0.39179132967395569 0 -0.1947844321931583 0.37058783826991998 0 -0.16859697395581311 0.37869818650800668 0 -0.1569964504180503 0.38276106030289442 0 -0.15828472942556601 0.3656558946208131 0 -0.16859697395581311 0.37869818650800668 0 -0.16355013509832669 0.39206334812280258 0 -0.18305016194077331 0.39179132967395569 0 -0.16859697395581311 0.37869818650800668 0 -0.1569964504180503 0.38276106030289442 0 -0.16355013509832669 0.39206334812280258 0 -0.16355013509832669 0.39206334812280258 0 -0.17113982879161019 0.41932453528798841 0 -0.16355013509832669 0.39206334812280258 0 -0.17113982879161019 0.41932453528798841 0 -0.14952053714563679 0.39891015655452727 0 -0.1569964504180503 0.38276106030289442 0 -0.16355013509832669 0.39206334812280258 0 -0.14952053714563679 0.39891015655452727 0 -0.16355013509832669 0.39206334812280258 0 -0.18305016194077331 0.39179132967395569 0 -0.17113982879161019 0.41932453528798841 0 -0.1882550508736931 0.40948861350634019 0 -0.18305016194077331 0.39179132967395569 0 -0.17113982879161019 0.41932453528798841 0 -0.19856752050880649 0.42478363537206038 0 -0.1882550508736931 0.40948861350634019 0 -0.17113982879161019 0.41932453528798841 0 -0.1787295224848936 0.44658572245317418 0 -0.19856752050880649 0.42478363537206038 0 -0.17113982879161019 0.41932453528798841 0 -0.1787295224848936 0.44658572245317418 0 -0.17113982879161019 0.41932453528798841 0 -0.16116621177105209 0.44063855810972119 0 -0.17113982879161019 0.41932453528798841 0 -0.14803057896027871 0.42980252857783441 0 -0.16116621177105209 0.44063855810972119 0 -0.1787295224848936 0.44658572245317418 0 -0.17113982879161019 0.41932453528798841 0 -0.17113982879161019 0.41932453528798841 0 -0.14638244855281951 0.41492994313207238 0 -0.14952053714563679 0.39891015655452727 0 -0.17113982879161019 0.41932453528798841 0 -0.14638244855281951 0.41492994313207238 0 -0.14803057896027871 0.42980252857783441 0 -0.14638244855281951 0.41492994313207238 0 -0.13133782601494551 0.40590280900909848 0 -0.14952053714563679 0.39891015655452727 0 -0.14638244855281951 0.41492994313207238 0 -0.14803057896027871 0.42980252857783441 0 -0.12877762287039521 0.42126405912916032 0 -0.1333877762442611 0.43750216830862121 0 -0.12877762287039521 0.42126405912916032 0 -0.1181616549298001 0.43433742834474792 0 -0.1333877762442611 0.43750216830862121 0 -0.14803057896027871 0.42980252857783441 0 -0.12877762287039521 0.42126405912916032 0 -0.12877762287039521 0.42126405912916032 0 -0.13133782601494551 0.40590280900909848 0 -0.11537355113267091 0.40621267877170603 0 -0.14638244855281951 0.41492994313207238 0 -0.12877762287039521 0.42126405912916032 0 -0.13133782601494551 0.40590280900909848 0 -0.13133782601494551 0.40590280900909848 0 -0.13450802477891219 0.3913248975831814 0 -0.14952053714563679 0.39891015655452727 0 -0.13133782601494551 0.40590280900909848 0 -0.13450802477891219 0.3913248975831814 0 -0.1245237874651631 0.39644185346730137 0 -0.13450802477891219 0.3913248975831814 0 -0.12533687557160031 0.38327028691968229 0 -0.1245237874651631 0.39644185346730137 0 -0.13450802477891219 0.3913248975831814 0 -0.12533687557160031 0.38327028691968229 0 -0.13653821673684599 0.37918866042555671 0 -0.12533687557160031 0.38327028691968229 0 -0.13653821673684599 0.37918866042555671 0 -0.12720986748145821 0.36889988388829348 0 -0.13450802477891219 0.3913248975831814 0 -0.13653821673684599 0.37918866042555671 0 -0.14501652804210111 0.38589425251316922 0 -0.1569964504180503 0.38276106030289442 0 -0.14501652804210111 0.38589425251316922 0 -0.14952053714563679 0.39891015655452727 0 -0.1569964504180503 0.38276106030289442 0 -0.1475194111310601 0.37728648769968609 0 -0.15828472942556601 0.3656558946208131 0 -0.13653821673684599 0.37918866042555671 0 -0.14501652804210111 0.38589425251316922 0 -0.1475194111310601 0.37728648769968609 0 -0.1569964504180503 0.38276106030289442 0 -0.14501652804210111 0.38589425251316922 0 -0.1475194111310601 0.37728648769968609 0 -0.13450802477891219 0.3913248975831814 0 -0.14501652804210111 0.38589425251316922 0 -0.14952053714563679 0.39891015655452727 0 -0.1459742233862649 0.3536355027212586 0 -0.13984712351000461 0.34039967602600979 0 -0.1588614360252236 0.34201797493727321 0 -0.1459742233862649 0.3536355027212586 0 -0.1588614360252236 0.34201797493727321 0 -0.15828472942556601 0.3656558946208131 0 -0.1459742233862649 0.3536355027212586 0 -0.14125514881141249 0.36613823679405472 0 -0.15828472942556601 0.3656558946208131 0 -0.1475194111310601 0.37728648769968609 0 -0.14125514881141249 0.36613823679405472 0 -0.15828472942556601 0.3656558946208131 0 -0.13653821673684599 0.37918866042555671 0 -0.1475194111310601 0.37728648769968609 0 -0.14125514881141249 0.36613823679405472 0 -0.14125514881141249 0.36613823679405472 0 -0.12720986748145821 0.36889988388829348 0 -0.13337861670681411 0.35369863215608238 0 -0.13653821673684599 0.37918866042555671 0 -0.14125514881141249 0.36613823679405472 0 -0.12720986748145821 0.36889988388829348 0 -0.12720986748145821 0.36889988388829348 0 -0.13337861670681411 0.35369863215608238 0 -0.1199889907943389 0.35585059104355998 0 -0.1459742233862649 0.3536355027212586 0 -0.14125514881141249 0.36613823679405472 0 -0.13337861670681411 0.35369863215608238 0 -0.1459742233862649 0.3536355027212586 0 -0.13337861670681411 0.35369863215608238 0 -0.13984712351000461 0.34039967602600979 0 -0.13337861670681411 0.35369863215608238 0 -0.12653007299808491 0.34241022530505377 0 -0.13984712351000461 0.34039967602600979 0 -0.13337861670681411 0.35369863215608238 0 -0.12653007299808491 0.34241022530505377 0 -0.1199889907943389 0.35585059104355998 0 -0.12653007299808491 0.34241022530505377 0 -0.1328518871389559 0.32814280017159841 0 -0.11873796741778669 0.33144672616027387 0 -0.12653007299808491 0.34241022530505377 0 -0.1328518871389559 0.32814280017159841 0 -0.13984712351000461 0.34039967602600979 0 -0.1328518871389559 0.32814280017159841 0 -0.1405852110445609 0.31346816415910739 0 -0.1232576263346882 0.31297321709810427 0 -0.1328518871389559 0.32814280017159841 0 -0.1405852110445609 0.31346816415910739 0 -0.14978262724932401 0.32655635073667638 0 -0.1405852110445609 0.31346816415910739 0 -0.14978262724932401 0.32655635073667638 0 -0.1533067555320041 0.31352946225224732 0 -0.14978262724932401 0.32655635073667638 0 -0.1533067555320041 0.31352946225224732 0 -0.16378382797846799 0.32001000510956962 0 -0.13984712351000461 0.34039967602600979 0 -0.14978262724932401 0.32655635073667638 0 -0.1588614360252236 0.34201797493727321 0 -0.1328518871389559 0.32814280017159841 0 -0.13984712351000461 0.34039967602600979 0 -0.14978262724932401 0.32655635073667638 0 -0.1588614360252236 0.34201797493727321 0 -0.17445178466239389 0.33249839098890033 0 -0.1715243793091035 0.35559828874845362 0 -0.14978262724932401 0.32655635073667638 0 -0.1588614360252236 0.34201797493727321 0 -0.16204204234532341 0.33048468835201739 0 -0.1588614360252236 0.34201797493727321 0 -0.16204204234532341 0.33048468835201739 0 -0.17445178466239389 0.33249839098890033 0 -0.16378382797846799 0.32001000510956962 0 -0.17445178466239389 0.33249839098890033 0 -0.17737919001568431 0.30939849322934698 0 -0.1533067555320041 0.31352946225224732 0 -0.16378382797846799 0.32001000510956962 0 -0.16319192233553881 0.30794661483078128 0 -0.14978262724932401 0.32655635073667638 0 -0.16204204234532341 0.33048468835201739 0 -0.16378382797846799 0.32001000510956962 0 -0.16204204234532341 0.33048468835201739 0 -0.16378382797846799 0.32001000510956962 0 -0.17445178466239389 0.33249839098890033 0 -0.18833541373241711 0.32743871086207882 0 -0.1914623095494857 0.30863450873520309 0 -0.17737919001568431 0.30939849322934698 0 -0.17445178466239389 0.33249839098890033 0 -0.18833541373241711 0.32743871086207882 0 -0.17737919001568431 0.30939849322934698 0 -0.17445178466239389 0.33249839098890033 0 -0.17737919001568431 0.30939849322934698 0 -0.17445178466239389 0.33249839098890033 0 -0.1859222613927253 0.33885739036162849 0 -0.1715243793091035 0.35559828874845362 0 -0.17445178466239389 0.33249839098890033 0 -0.1859222613927253 0.33885739036162849 0 -0.18833541373241711 0.32743871086207882 0 -0.1715243793091035 0.35559828874845362 0 -0.1947844321931583 0.37058783826991998 0 -0.19374091231578081 0.34914200819627822 0 -0.1859222613927253 0.33885739036162849 0 -0.1715243793091035 0.35559828874845362 0 -0.19374091231578081 0.34914200819627822 0 -0.17445178466239389 0.33249839098890033 0 -0.1715243793091035 0.35559828874845362 0 -0.1588614360252236 0.34201797493727321 0 -0.1715243793091035 0.35559828874845362 0 -0.15828472942556601 0.3656558946208131 0 -0.16859697395581311 0.37869818650800668 0 -0.1715243793091035 0.35559828874845362 0 -0.16859697395581311 0.37869818650800668 0 -0.1715243793091035 0.35559828874845362 0 -0.15828472942556601 0.3656558946208131 0 -0.1810809742621744 0.37585466714060062 0 -0.1715243793091035 0.35559828874845362 0 -0.1947844321931583 0.37058783826991998 0 -0.1810809742621744 0.37585466714060062 0 -0.16859697395581311 0.37869818650800668 0 -0.1715243793091035 0.35559828874845362 0 -0.1947844321931583 0.37058783826991998 0 -0.19374091231578081 0.34914200819627822 0 -0.2162139458275866 0.35108445407236799 0 -0.2131435578472248 0.37758959116696172 0 -0.1947844321931583 0.37058783826991998 0 -0.2162139458275866 0.35108445407236799 0 -0.2162139458275866 0.35108445407236799 0 -0.2308690747112421 0.37255935513230448 0 -0.2131435578472248 0.37758959116696172 0 -0.2162139458275866 0.35108445407236799 0 -0.2308690747112421 0.37255935513230448 0 -0.2162139458275866 0.35108445407236799 0 -0.2308690747112421 0.37255935513230448 0 -0.23628107763543141 0.35943544856568638 0 -0.2162139458275866 0.35108445407236799 0 -0.2380967831312652 0.34676220976371669 0 -0.22974432275829129 0.33722643629442223 0 -0.2162139458275866 0.35108445407236799 0 -0.2380967831312652 0.34676220976371669 0 -0.23628107763543141 0.35943544856568638 0 -0.2380967831312652 0.34676220976371669 0 -0.24762008502569799 0.35442213632686742 0 -0.23628107763543141 0.35943544856568638 0 -0.2516509112815502 0.34136918967637098 0 -0.2380967831312652 0.34676220976371669 0 -0.24762008502569799 0.35442213632686742 0 -0.24762008502569799 0.35442213632686742 0 -0.24642172493090769 0.37000457514120177 0 -0.23628107763543141 0.35943544856568638 0 -0.2308690747112421 0.37255935513230448 0 -0.24642172493090769 0.37000457514120177 0 -0.23628107763543141 0.35943544856568638 0 -0.26319726975372382 0.31576356710911402 0 -0.24377323594240821 0.32780669208574548 0 -0.24134005376476139 0.31191202820942182 0 -0.24377323594240821 0.32780669208574548 0 -0.2208933261319049 0.32325238925585881 0 -0.24134005376476139 0.31191202820942182 0 -0.2380967831312652 0.34676220976371669 0 -0.24377323594240821 0.32780669208574548 0 -0.22974432275829129 0.33722643629442223 0 -0.2516509112815502 0.34136918967637098 0 -0.2380967831312652 0.34676220976371669 0 -0.24377323594240821 0.32780669208574548 0 -0.2162139458275866 0.35108445407236799 0 -0.22974432275829129 0.33722643629442223 0 -0.2208933261319049 0.32325238925585881 0 -0.24377323594240821 0.32780669208574548 0 -0.22974432275829129 0.33722643629442223 0 -0.2208933261319049 0.32325238925585881 0 -0.2208933261319049 0.32325238925585881 0 -0.22618861038972271 0.30429508356569063 0 -0.24134005376476139 0.31191202820942182 0 -0.2208933261319049 0.32325238925585881 0 -0.2122399038699237 0.31553434004126429 0 -0.22618861038972271 0.30429508356569063 0 -0.2208933261319049 0.32325238925585881 0 -0.2122399038699237 0.31553434004126429 0 -0.2015588169439311 0.32960955301243139 0 -0.2122399038699237 0.31553434004126429 0 -0.2015588169439311 0.32960955301243139 0 -0.20130633286353261 0.31537904131948757 0 -0.2162139458275866 0.35108445407236799 0 -0.2015588169439311 0.32960955301243139 0 -0.2162139458275866 0.35108445407236799 0 -0.2208933261319049 0.32325238925585881 0 -0.2015588169439311 0.32960955301243139 0 -0.19374091231578081 0.34914200819627822 0 -0.2162139458275866 0.35108445407236799 0 -0.2015588169439311 0.32960955301243139 0 -0.1859222613927253 0.33885739036162849 0 -0.19374091231578081 0.34914200819627822 0 -0.2015588169439311 0.32960955301243139 0 -0.1859222613927253 0.33885739036162849 0 -0.2015588169439311 0.32960955301243139 0 -0.18833541373241711 0.32743871086207882 0 -0.18833541373241711 0.32743871086207882 0 -0.1914623095494857 0.30863450873520309 0 -0.20130633286353261 0.31537904131948757 0 -0.18833541373241711 0.32743871086207882 0 -0.1914623095494857 0.30863450873520309 0 -0.2015588169439311 0.32960955301243139 0 -0.20130633286353261 0.31537904131948757 0 -0.18833541373241711 0.32743871086207882 0 -0.1914623095494857 0.30863450873520309 0 -0.2006887481154154 0.30283229588196542 0 -0.19458920536652879 0.2898303066083231 0 -0.1914623095494857 0.30863450873520309 0 -0.19458920536652879 0.2898303066083231 0 -0.18593432507516761 0.2985404760106683 0 -0.1914623095494857 0.30863450873520309 0 -0.19458920536652879 0.2898303066083231 0 -0.20130633286353261 0.31537904131948757 0 -0.1914623095494857 0.30863450873520309 0 -0.2006887481154154 0.30283229588196542 0 -0.19458920536652879 0.2898303066083231 0 -0.20556032275500749 0.2948523874317201 0 -0.19684998228517689 0.2762346805853918 0 -0.20556032275500749 0.2948523874317201 0 -0.19684998228517689 0.2762346805853918 0 -0.19458920536652879 0.2898303066083231 0 -0.20556032275500749 0.2948523874317201 0 -0.2006887481154154 0.30283229588196542 0 -0.19458920536652879 0.2898303066083231 0 -0.20556032275500749 0.2948523874317201 0 -0.19458920536652879 0.2898303066083231 0 -0.19684998228517689 0.2762346805853918 0 -0.20556032275500749 0.2948523874317201 0 -0.21217829796348259 0.28040972061113301 0 -0.19684998228517689 0.2762346805853918 0 -0.20556032275500749 0.2948523874317201 0 -0.2183251370943779 0.29163146828295411 0 -0.21217829796348259 0.28040972061113301 0 -0.20556032275500749 0.2948523874317201 0 -0.21052557004252351 0.30546523531509062 0 -0.22618861038972271 0.30429508356569063 0 -0.2122399038699237 0.31553434004126429 0 -0.21052557004252351 0.30546523531509062 0 -0.22618861038972271 0.30429508356569063 0 -0.20556032275500749 0.2948523874317201 0 -0.2183251370943779 0.29163146828295411 0 -0.22618861038972271 0.30429508356569063 0 -0.20556032275500749 0.2948523874317201 0 -0.22618861038972271 0.30429508356569063 0 -0.2122399038699237 0.31553434004126429 0 -0.20130633286353261 0.31537904131948757 0 -0.21052557004252351 0.30546523531509062 0 -0.20130633286353261 0.31537904131948757 0 -0.2006887481154154 0.30283229588196542 0 -0.21052557004252351 0.30546523531509062 0 -0.20556032275500749 0.2948523874317201 0 -0.21052557004252351 0.30546523531509062 0 -0.2006887481154154 0.30283229588196542 0 -0.20556032275500749 0.2948523874317201 0 -0.21052557004252351 0.30546523531509062 0 -0.2183251370943779 0.29163146828295411 0 -0.22937331726929719 0.28696868152327643 0 -0.21217829796348259 0.28040972061113301 0 -0.22618861038972271 0.30429508356569063 0 -0.22937331726929719 0.28696868152327643 0 -0.24241170841135681 0.29729643834828612 0 -0.2183251370943779 0.29163146828295411 0 -0.22618861038972271 0.30429508356569063 0 -0.22937331726929719 0.28696868152327643 0 -0.26218597083199557 0.29018513817704888 0 -0.24393040865290061 0.28777502306755581 0 -0.24241170841135681 0.29729643834828612 0 -0.26218597083199557 0.29018513817704888 0 -0.24393040865290061 0.28777502306755581 0 -0.24175063809895281 0.27664983422161188 0 -0.22937331726929719 0.28696868152327643 0 -0.24393040865290061 0.28777502306755581 0 -0.24241170841135681 0.29729643834828612 0 -0.22937331726929719 0.28696868152327643 0 -0.24393040865290061 0.28777502306755581 0 -0.24175063809895281 0.27664983422161188 0 -0.25668054465708301 0.30337589444719648 0 -0.24241170841135681 0.29729643834828612 0 -0.24134005376476139 0.31191202820942182 0 -0.22618861038972271 0.30429508356569063 0 -0.24241170841135681 0.29729643834828612 0 -0.24134005376476139 0.31191202820942182 0 -0.24353882222885451 0.25569364620056573 0 -0.24149438810508619 0.26617857873859441 0 -0.23298240693779049 0.26140165143086758 0 -0.24353882222885451 0.25569364620056573 0 -0.23298240693779049 0.26140165143086758 0 -0.2319164096706777 0.25192477476912239 0 -0.24353882222885451 0.25569364620056573 0 -0.2319164096706777 0.25192477476912239 0 -0.23806129760687211 0.24589395612401979 0 -0.25586356126195242 0.25254648764433929 0 -0.24353882222885451 0.25569364620056573 0 -0.24744121717665701 0.24359974376900731 0 -0.25281972033436212 0.26446357014162658 0 -0.24353882222885451 0.25569364620056573 0 -0.24149438810508619 0.26617857873859441 0 -0.25257935466350379 0.27749997093063922 0 -0.24175063809895281 0.27664983422161188 0 -0.22555163636092021 0.27183405498927238 0 -0.25257935466350379 0.27749997093063922 0 -0.25281972033436212 0.26446357014162658 0 -0.24149438810508619 0.26617857873859441 0 -0.25257935466350379 0.27749997093063922 0 -0.24149438810508619 0.26617857873859441 0 -0.22555163636092021 0.27183405498927238 0 -0.25257935466350379 0.27749997093063922 0 -0.22555163636092021 0.27183405498927238 0 -0.22937331726929719 0.28696868152327643 0 -0.24175063809895281 0.27664983422161188 0 -0.22555163636092021 0.27183405498927238 0 -0.22937331726929719 0.28696868152327643 0 -0.22555163636092021 0.27183405498927238 0 -0.21217829796348259 0.28040972061113301 0 -0.24149438810508619 0.26617857873859441 0 -0.22555163636092021 0.27183405498927238 0 -0.23298240693779049 0.26140165143086758 0 -0.22555163636092021 0.27183405498927238 0 -0.22413343963303001 0.25842490022858439 0 -0.20997016578269259 0.25747486871218839 0 -0.22555163636092021 0.27183405498927238 0 -0.22413343963303001 0.25842490022858439 0 -0.23298240693779049 0.26140165143086758 0 -0.22413343963303001 0.25842490022858439 0 -0.23298240693779049 0.26140165143086758 0 -0.2319164096706777 0.25192477476912239 0 -0.22413343963303001 0.25842490022858439 0 -0.2319164096706777 0.25192477476912239 0 -0.2202465794130691 0.24948915124147089 0 -0.20997016578269259 0.25747486871218839 0 -0.19852391805833669 0.26616813904790471 0 -0.20195325842869671 0.24554512719886959 0 -0.22413343963303001 0.25842490022858439 0 -0.20997016578269259 0.25747486871218839 0 -0.2202465794130691 0.24948915124147089 0 -0.22555163636092021 0.27183405498927238 0 -0.20997016578269259 0.25747486871218839 0 -0.19852391805833669 0.26616813904790471 0 -0.20997016578269259 0.25747486871218839 0 -0.2202465794130691 0.24948915124147089 0 -0.21118024833874621 0.24766558581212031 0 -0.20997016578269259 0.25747486871218839 0 -0.20195325842869671 0.24554512719886959 0 -0.21118024833874621 0.24766558581212031 0 -0.22555163636092021 0.27183405498927238 0 -0.21217829796348259 0.28040972061113301 0 -0.19852391805833669 0.26616813904790471 0 -0.22555163636092021 0.27183405498927238 0 -0.19852391805833669 0.26616813904790471 0 -0.21217829796348259 0.28040972061113301 0 -0.19684998228517689 0.2762346805853918 0 -0.19852391805833669 0.26616813904790471 0 -0.19684998228517689 0.2762346805853918 0 -0.19852391805833669 0.26616813904790471 0 -0.1914461561039445 0.26468440283912281 0 -0.19684998228517689 0.2762346805853918 0 -0.19852391805833669 0.26616813904790471 0 -0.19684998228517689 0.2762346805853918 0 -0.1914461561039445 0.26468440283912281 0 -0.19684998228517689 0.2762346805853918 0 -0.1914461561039445 0.26468440283912281 0 -0.18292262961190789 0.27422205158375579 0 -0.19458920536652879 0.2898303066083231 0 -0.19684998228517689 0.2762346805853918 0 -0.18292262961190789 0.27422205158375579 0 -0.1914461561039445 0.26468440283912281 0 -0.20195325842869671 0.24554512719886959 0 -0.18182304793252041 0.24411572271617801 0 -0.19852391805833669 0.26616813904790471 0 -0.20195325842869671 0.24554512719886959 0 -0.19852391805833669 0.26616813904790471 0 -0.1914461561039445 0.26468440283912281 0 -0.20195325842869671 0.24554512719886959 0 -0.19852391805833669 0.26616813904790471 0 -0.1914461561039445 0.26468440283912281 0 -0.1914461561039445 0.26468440283912281 0 -0.1653765498824955 0.25921933931352698 0 -0.18182304793252041 0.24411572271617801 0 -0.1914461561039445 0.26468440283912281 0 -0.18182304793252041 0.24411572271617801 0 -0.1914461561039445 0.26468440283912281 0 -0.1653765498824955 0.25921933931352698 0 -0.1653765498824955 0.25921933931352698 0 -0.16771100776294259 0.2775266846551212 0 -0.1408328101593592 0.26522306270191298 0 -0.19458920536652879 0.2898303066083231 0 -0.16771100776294259 0.2775266846551212 0 -0.18292262961190789 0.27422205158375579 0 -0.1914461561039445 0.26468440283912281 0 -0.1653765498824955 0.25921933931352698 0 -0.18292262961190789 0.27422205158375579 0 -0.1653765498824955 0.25921933931352698 0 -0.16771100776294259 0.2775266846551212 0 -0.18292262961190789 0.27422205158375579 0 -0.19458920536652879 0.2898303066083231 0 -0.16771100776294259 0.2775266846551212 0 -0.19458920536652879 0.2898303066083231 0 -0.16771100776294259 0.2775266846551212 0 -0.18030659536897459 0.28629859546979369 0 -0.19458920536652879 0.2898303066083231 0 -0.18030659536897459 0.28629859546979369 0 -0.18593432507516761 0.2985404760106683 0 -0.18030659536897459 0.28629859546979369 0 -0.18593432507516761 0.2985404760106683 0 -0.17737919001568431 0.30939849322934698 0 -0.18030659536897459 0.28629859546979369 0 -0.17737919001568431 0.30939849322934698 0 -0.18030659536897459 0.28629859546979369 0 -0.17737919001568431 0.30939849322934698 0 -0.16629016324912241 0.2962577612321321 0 -0.1914623095494857 0.30863450873520309 0 -0.18593432507516761 0.2985404760106683 0 -0.17737919001568431 0.30939849322934698 0 -0.16378382797846799 0.32001000510956962 0 -0.17737919001568431 0.30939849322934698 0 -0.16319192233553881 0.30794661483078128 0 -0.17737919001568431 0.30939849322934698 0 -0.16319192233553881 0.30794661483078128 0 -0.16629016324912241 0.2962577612321321 0 -0.16319192233553881 0.30794661483078128 0 -0.16629016324912241 0.2962577612321321 0 -0.15087206319983709 0.30143227970188508 0 -0.16771100776294259 0.2775266846551212 0 -0.18030659536897459 0.28629859546979369 0 -0.16629016324912241 0.2962577612321321 0 -0.16771100776294259 0.2775266846551212 0 -0.16629016324912241 0.2962577612321321 0 -0.14872226724115739 0.28671925517815011 0 -0.16629016324912241 0.2962577612321321 0 -0.14872226724115739 0.28671925517815011 0 -0.15087206319983709 0.30143227970188508 0 -0.14872226724115739 0.28671925517815011 0 -0.15087206319983709 0.30143227970188508 0 -0.13597375517832491 0.29836585688449813 0 -0.1533067555320041 0.31352946225224732 0 -0.16319192233553881 0.30794661483078128 0 -0.15087206319983709 0.30143227970188508 0 -0.1405852110445609 0.31346816415910739 0 -0.15087206319983709 0.30143227970188508 0 -0.13597375517832491 0.29836585688449813 0 -0.1405852110445609 0.31346816415910739 0 -0.1533067555320041 0.31352946225224732 0 -0.15087206319983709 0.30143227970188508 0 -0.1405852110445609 0.31346816415910739 0 -0.13597375517832491 0.29836585688449813 0 -0.1232576263346882 0.31297321709810427 0 -0.13597375517832491 0.29836585688449813 0 -0.1201566217417159 0.29295529164830603 0 -0.1232576263346882 0.31297321709810427 0 -0.13597375517832491 0.29836585688449813 0 -0.13224874150799029 0.28264693352143561 0 -0.1201566217417159 0.29295529164830603 0 -0.14872226724115739 0.28671925517815011 0 -0.13597375517832491 0.29836585688449813 0 -0.13224874150799029 0.28264693352143561 0 -0.13224874150799029 0.28264693352143561 0 -0.1408328101593592 0.26522306270191298 0 -0.1170556171487437 0.27293736619850772 0 -0.14872226724115739 0.28671925517815011 0 -0.13224874150799029 0.28264693352143561 0 -0.1408328101593592 0.26522306270191298 0 -0.13930694366104451 0.25375427578794052 0 -0.1408328101593592 0.26522306270191298 0 -0.1139546125557739 0.25291944074870898 0 -0.13930694366104451 0.25375427578794052 0 -0.1132373374395927 0.2482892122623577 0 -0.1408328101593592 0.26522306270191298 0 -0.1139546125557739 0.25291944074870898 0 -0.1653765498824955 0.25921933931352698 0 -0.13930694366104451 0.25375427578794052 0 -0.15833413270530139 0.2385391050354419 0 -0.1653765498824955 0.25921933931352698 0 -0.13930694366104451 0.25375427578794052 0 -0.1408328101593592 0.26522306270191298 0 -0.1653765498824955 0.25921933931352698 0 -0.13930694366104451 0.25375427578794052 0 -0.16771100776294259 0.2775266846551212 0 -0.14872226724115739 0.28671925517815011 0 -0.1408328101593592 0.26522306270191298 0 -0.16771100776294259 0.2775266846551212 0 -0.1408328101593592 0.26522306270191298 0 -0.10374810429169171 0.2789578332157342 0 -0.1016912460074153 0.26433928262594109 0 -0.1097566026263791 0.25602722766853242 0 -0.10374810429169171 0.2789578332157342 0 -0.1097566026263791 0.25602722766853242 0 -0.10374810429169171 0.2789578332157342 0 -0.094797121056927641 0.27654500441837759 0 -0.098836676466413281 0.2704866030501113 0 -0.094797121056927641 0.27654500441837759 0 -0.098836676466413281 0.2704866030501113 0 -0.092834619037872032 0.26462023335482349 0 -0.098836676466413281 0.2704866030501113 0 -0.1016912460074153 0.26433928262594109 0 -0.092834619037872032 0.26462023335482349 0 -0.10374810429169171 0.2789578332157342 0 -0.098836676466413281 0.2704866030501113 0 -0.1016912460074153 0.26433928262594109 0 -0.1097566026263791 0.25602722766853242 0 -0.1139546125557739 0.25291944074870898 0 -0.095899470041642246 0.24465461395185101 0 -0.098728996671227573 0.25663639866936561 0 -0.1016912460074153 0.26433928262594109 0 -0.092834619037872032 0.26462023335482349 0 -0.098728996671227573 0.25663639866936561 0 -0.091944161823561771 0.25465332983941341 0 -0.092834619037872032 0.26462023335482349 0 -0.098728996671227573 0.25663639866936561 0 -0.091944161823561771 0.25465332983941341 0 -0.095899470041642246 0.24465461395185101 0 -0.098728996671227573 0.25663639866936561 0 -0.1097566026263791 0.25602722766853242 0 -0.095899470041642246 0.24465461395185101 0 -0.098728996671227573 0.25663639866936561 0 -0.1016912460074153 0.26433928262594109 0 -0.1097566026263791 0.25602722766853242 0 -0.1097566026263791 0.25602722766853242 0 -0.1139546125557739 0.25291944074870898 0 -0.1170556171487437 0.27293736619850772 0 -0.13930694366104451 0.25375427578794052 0 -0.1139546125557739 0.25291944074870898 0 -0.1132373374395927 0.2482892122623577 0 -0.1408328101593592 0.26522306270191298 0 -0.1139546125557739 0.25291944074870898 0 -0.1170556171487437 0.27293736619850772 0 -0.1139546125557739 0.25291944074870898 0 -0.1170556171487437 0.27293736619850772 0 -0.1139546125557739 0.25291944074870898 0 -0.1132373374395927 0.2482892122623577 0 -0.10374810429169171 0.2789578332157342 0 -0.1170556171487437 0.27293736619850772 0 -0.1096633756054072 0.29060307594058088 0 -0.10374810429169171 0.2789578332157342 0 -0.1097566026263791 0.25602722766853242 0 -0.1170556171487437 0.27293736619850772 0 -0.1096633756054072 0.29060307594058088 0 -0.1201566217417159 0.29295529164830603 0 -0.1096169288878803 0.30627644987742081 0 -0.1170556171487437 0.27293736619850772 0 -0.1201566217417159 0.29295529164830603 0 -0.1170556171487437 0.27293736619850772 0 -0.1096633756054072 0.29060307594058088 0 -0.1201566217417159 0.29295529164830603 0 -0.13224874150799029 0.28264693352143561 0 -0.1170556171487437 0.27293736619850772 0 -0.1201566217417159 0.29295529164830603 0 -0.1201566217417159 0.29295529164830603 0 -0.1232576263346882 0.31297321709810427 0 -0.1201566217417159 0.29295529164830603 0 -0.1096169288878803 0.30627644987742081 0 -0.1232576263346882 0.31297321709810427 0 -0.1096633756054072 0.29060307594058088 0 -0.1096169288878803 0.30627644987742081 0 -0.097739605957004261 0.30188843876293592 0 -0.1096169288878803 0.30627644987742081 0 -0.097739605957004261 0.30188843876293592 0 -0.1008880225659705 0.31496592233981968 0 -0.10374810429169171 0.2789578332157342 0 -0.097739605957004261 0.30188843876293592 0 -0.10374810429169171 0.2789578332157342 0 -0.097739605957004261 0.30188843876293592 0 -0.093482566379728835 0.28923327791837489 0 -0.10374810429169171 0.2789578332157342 0 -0.1096633756054072 0.29060307594058088 0 -0.097739605957004261 0.30188843876293592 0 -0.10374810429169171 0.2789578332157342 0 -0.094797121056927641 0.27654500441837759 0 -0.093482566379728835 0.28923327791837489 0 -0.088368969303332517 0.28322487782340011 0 -0.084173067197849089 0.29862357478759721 0 -0.076615026773381778 0.27242810526505662 0 -0.079996534763224922 0.28778705358475443 0 -0.084173067197849089 0.29862357478759721 0 -0.076615026773381778 0.27242810526505662 0 -0.084173067197849089 0.29862357478759721 0 -0.076615026773381778 0.27242810526505662 0 -0.094797121056927641 0.27654500441837759 0 -0.088368969303332517 0.28322487782340011 0 -0.093482566379728835 0.28923327791837489 0 -0.097739605957004261 0.30188843876293592 0 -0.093482566379728835 0.28923327791837489 0 -0.084173067197849089 0.29862357478759721 0 -0.088368969303332517 0.28322487782340011 0 -0.093482566379728835 0.28923327791837489 0 -0.084173067197849089 0.29862357478759721 0 -0.097739605957004261 0.30188843876293592 0 -0.084173067197849089 0.29862357478759721 0 -0.091731107622316621 0.32481904431013781 0 -0.084173067197849089 0.29862357478759721 0 -0.091731107622316621 0.32481904431013781 0 -0.079996534763224922 0.28778705358475443 0 -0.085503905024892149 0.30767661938318169 0 -0.084173067197849089 0.29862357478759721 0 -0.085503905024892149 0.30767661938318169 0 -0.091731107622316621 0.32481904431013781 0 -0.079996534763224922 0.28778705358475443 0 -0.084173067197849089 0.29862357478759721 0 -0.085503905024892149 0.30767661938318169 0 -0.079996534763224922 0.28778705358475443 0 -0.085503905024892149 0.30767661938318169 0 -0.074475406756069687 0.30014082219329891 0 -0.085503905024892149 0.30767661938318169 0 -0.074475406756069687 0.30014082219329891 0 -0.074462361939892197 0.31255100903197508 0 -0.063187521980971093 0.30138407853576787 0 -0.062057332074788252 0.32168253789907342 0 -0.074462361939892197 0.31255100903197508 0 -0.074475406756069687 0.30014082219329891 0 -0.063187521980971093 0.30138407853576787 0 -0.074462361939892197 0.31255100903197508 0 -0.074475406756069687 0.30014082219329891 0 -0.063187521980971093 0.30138407853576787 0 -0.068665133690897509 0.29058306502305048 0 -0.063187521980971093 0.30138407853576787 0 -0.068665133690897509 0.29058306502305048 0 -0.056936679253298372 0.28346499769766131 0 -0.079996534763224922 0.28778705358475443 0 -0.068665133690897509 0.29058306502305048 0 -0.068729525700923486 0.28013837310376999 0 -0.079996534763224922 0.28778705358475443 0 -0.074475406756069687 0.30014082219329891 0 -0.068665133690897509 0.29058306502305048 0 -0.068665133690897509 0.29058306502305048 0 -0.068729525700923486 0.28013837310376999 0 -0.056936679253298372 0.28346499769766131 0 -0.079996534763224922 0.28778705358475443 0 -0.074489164501557681 0.26789748778632699 0 -0.068729525700923486 0.28013837310376999 0 -0.063509654398401685 0.27009292173805738 0 -0.056936679253298372 0.28346499769766131 0 -0.079996534763224922 0.28778705358475443 0 -0.076615026773381778 0.27242810526505662 0 -0.074489164501557681 0.26789748778632699 0 -0.079996534763224922 0.28778705358475443 0 -0.068729525700923486 0.28013837310376999 0 -0.074489164501557681 0.26789748778632699 0 -0.068729525700923486 0.28013837310376999 0 -0.063509654398401685 0.27009292173805738 0 -0.074489164501557681 0.26789748778632699 0 -0.088368969303332517 0.28322487782340011 0 -0.076615026773381778 0.27242810526505662 0 -0.087243999049809895 0.27243119463976229 0 -0.076615026773381778 0.27242810526505662 0 -0.087243999049809895 0.27243119463976229 0 -0.083604259077535492 0.2653377523371539 0 -0.087243999049809895 0.27243119463976229 0 -0.092834619037872032 0.26462023335482349 0 -0.083604259077535492 0.2653377523371539 0 -0.094797121056927641 0.27654500441837759 0 -0.087243999049809895 0.27243119463976229 0 -0.092834619037872032 0.26462023335482349 0 -0.094797121056927641 0.27654500441837759 0 -0.088368969303332517 0.28322487782340011 0 -0.087243999049809895 0.27243119463976229 0 -0.087846419425038916 0.25002539475982699 0 -0.091944161823561771 0.25465332983941341 0 -0.084411303942028615 0.25733000846119869 0 -0.092834619037872032 0.26462023335482349 0 -0.083604259077535492 0.2653377523371539 0 -0.084411303942028615 0.25733000846119869 0 -0.091944161823561771 0.25465332983941341 0 -0.092834619037872032 0.26462023335482349 0 -0.084411303942028615 0.25733000846119869 0 -0.078330237166176209 0.25811796813635862 0 -0.083604259077535492 0.2653377523371539 0 -0.084411303942028615 0.25733000846119869 0 -0.076615026773381778 0.27242810526505662 0 -0.078330237166176209 0.25811796813635862 0 -0.083604259077535492 0.2653377523371539 0 -0.087846419425038916 0.25002539475982699 0 -0.084411303942028615 0.25733000846119869 0 -0.080161358985251369 0.24910441659422339 0 -0.078330237166176209 0.25811796813635862 0 -0.084411303942028615 0.25733000846119869 0 -0.080161358985251369 0.24910441659422339 0 -0.076615026773381778 0.27242810526505662 0 -0.074489164501557681 0.26789748778632699 0 -0.069056986348909832 0.24623263574251739 0 -0.076615026773381778 0.27242810526505662 0 -0.078330237166176209 0.25811796813635862 0 -0.069056986348909832 0.24623263574251739 0 -0.074489164501557681 0.26789748778632699 0 -0.065186548193085753 0.25871654727929821 0 -0.069056986348909832 0.24623263574251739 0 -0.076615026773381778 0.27242810526505662 0 -0.069056986348909832 0.24623263574251739 0 -0.078330237166176209 0.25811796813635862 0 -0.069056986348909832 0.24623263574251739 0 -0.080161358985251369 0.24910441659422339 0 -0.063509654398401685 0.27009292173805738 0 -0.074489164501557681 0.26789748778632699 0 -0.065186548193085753 0.25871654727929821 0 -0.065186548193085753 0.25871654727929821 0 -0.052206354343143122 0.26024720282323049 0 -0.069056986348909832 0.24623263574251739 0 -0.052206354343143122 0.26024720282323049 0 -0.069056986348909832 0.24623263574251739 0 -0.053727016073584467 0.24549115984460171 0 -0.052206354343143122 0.26024720282323049 0 -0.069056986348909832 0.24623263574251739 0 -0.063509654398401685 0.27009292173805738 0 -0.065186548193085753 0.25871654727929821 0 -0.052206354343143122 0.26024720282323049 0 -0.052206354343143122 0.26024720282323049 0 -0.040614352755267667 0.25721351647262058 0 -0.053727016073584467 0.24549115984460171 0 -0.063509654398401685 0.27009292173805738 0 -0.052206354343143122 0.26024720282323049 0 -0.056936679253298372 0.28346499769766131 0 -0.052206354343143122 0.26024720282323049 0 -0.035355722337377597 0.27426176990394519 0 -0.056936679253298372 0.28346499769766131 0 -0.052206354343143122 0.26024720282323049 0 -0.035355722337377597 0.27426176990394519 0 -0.028005074644629559 0.26534652576599849 0 -0.037505058957649627 0.2424167145473391 0 -0.035355722337377597 0.27426176990394519 0 -0.040614352755267667 0.25721351647262058 0 -0.028005074644629559 0.26534652576599849 0 -0.052206354343143122 0.26024720282323049 0 -0.035355722337377597 0.27426176990394519 0 -0.040614352755267667 0.25721351647262058 0 -0.040614352755267667 0.25721351647262058 0 -0.028005074644629559 0.26534652576599849 0 -0.037505058957649627 0.2424167145473391 0 -0.01631993764872924 0.25821318273977228 0 -0.028005074644629559 0.26534652576599849 0 -0.02258671171905104 0.24968245727908639 0 -0.028005074644629559 0.26534652576599849 0 -0.037505058957649627 0.2424167145473391 0 -0.02258671171905104 0.24968245727908639 0 -0.01631993764872924 0.25821318273977228 0 -0.028005074644629559 0.26534652576599849 0 -0.0089883946882110457 0.26901310806805018 0 -0.028005074644629559 0.26534652576599849 0 -0.018505090331610921 0.28827633698465849 0 -0.035355722337377597 0.27426176990394519 0 -0.028005074644629559 0.26534652576599849 0 -0.018505090331610921 0.28827633698465849 0 -0.028005074644629559 0.26534652576599849 0 -0.0089883946882110457 0.26901310806805018 0 -0.018505090331610921 0.28827633698465849 0 -0.0089883946882110457 0.26901310806805018 0 -0.001418554502264915 0.28717865170253037 0 0.0083028186825339686 0.27684628714416698 0 -0.01631993764872924 0.25821318273977228 0 -0.0056995695430253424 0.24881063984595411 0 -0.02258671171905104 0.24968245727908639 0 -0.0089883946882110457 0.26901310806805018 0 -0.0056995695430253424 0.24881063984595411 0 0.01026063558519786 0.25922996976751439 0 -0.01631993764872924 0.25821318273977228 0 -0.0089883946882110457 0.26901310806805018 0 -0.0056995695430253424 0.24881063984595411 0 -0.010885775454445761 0.30666683595731842 0 -0.018505090331610921 0.28827633698465849 0 -0.010885775454445761 0.30666683595731842 0 -0.018505090331610921 0.28827633698465849 0 0.00040933639570822628 0.30400734945188329 0 -0.010885775454445761 0.30666683595731842 0 0.0040085258537659778 0.31432247436608168 0 0.00040933639570822628 0.30400734945188329 0 -0.001418554502264915 0.28717865170253037 0 -0.018505090331610921 0.28827633698465849 0 0.00040933639570822628 0.30400734945188329 0 -0.0089883946882110457 0.26901310806805018 0 -0.001418554502264915 0.28717865170253037 0 -0.018505090331610921 0.28827633698465849 0 -0.018505090331610921 0.28827633698465849 0 0.00040933639570822628 0.30400734945188329 0 -0.035355722337377597 0.27426176990394519 0 -0.018505090331610921 0.28827633698465849 0 -0.035355722337377597 0.27426176990394519 0 -0.018505090331610921 0.28827633698465849 0 -0.039515191428954828 0.30020307063681528 0 -0.018505090331610921 0.28827633698465849 0 -0.024799216732842431 0.30165765617147822 0 -0.039515191428954828 0.30020307063681528 0 -0.010885775454445761 0.30666683595731842 0 -0.018505090331610921 0.28827633698465849 0 -0.024799216732842431 0.30165765617147822 0 -0.010885775454445761 0.30666683595731842 0 -0.024799216732842431 0.30165765617147822 0 -0.032661896326035458 0.32336993641452649 0 -0.024799216732842431 0.30165765617147822 0 -0.039515191428954828 0.30020307063681528 0 -0.032661896326035458 0.32336993641452649 0 -0.035355722337377597 0.27426176990394519 0 -0.039515191428954828 0.30020307063681528 0 -0.056936679253298372 0.28346499769766131 0 -0.063187521980971093 0.30138407853576787 0 -0.039515191428954828 0.30020307063681528 0 -0.056936679253298372 0.28346499769766131 0 -0.063187521980971093 0.30138407853576787 0 -0.039515191428954828 0.30020307063681528 0 -0.062057332074788252 0.32168253789907342 0 -0.062057332074788252 0.32168253789907342 0 -0.032661896326035458 0.32336993641452649 0 -0.050965603039722529 0.34273084808830401 0 -0.065404299096684548 0.34898183251417209 0 -0.069156896288682573 0.3360644718214264 0 -0.062057332074788252 0.32168253789907342 0 -0.050965603039722529 0.34273084808830401 0 -0.032661896326035458 0.32336993641452649 0 -0.062057332074788252 0.32168253789907342 0 -0.050965603039722529 0.34273084808830401 0 -0.069156896288682573 0.3360644718214264 0 -0.050965603039722529 0.34273084808830401 0 -0.032661896326035458 0.32336993641452649 0 -0.032964379246318558 0.34728185706622589 0 -0.039515191428954828 0.30020307063681528 0 -0.062057332074788252 0.32168253789907342 0 -0.032661896326035458 0.32336993641452649 0 -0.032661896326035458 0.32336993641452649 0 -0.003266460577282769 0.32505733492997929 0 -0.032661896326035458 0.32336993641452649 0 -0.003266460577282769 0.32505733492997929 0 -0.01420972401362478 0.34408347122854072 0 -0.032661896326035458 0.32336993641452649 0 -0.01420972401362478 0.34408347122854072 0 -0.032964379246318558 0.34728185706622589 0 -0.003266460577282769 0.32505733492997929 0 -0.01420972401362478 0.34408347122854072 0 0.006982754410723358 0.34979554049652001 0 -0.010885775454445761 0.30666683595731842 0 -0.003266460577282769 0.32505733492997929 0 0.0040085258537659778 0.31432247436608168 0 -0.010885775454445761 0.30666683595731842 0 -0.003266460577282769 0.32505733492997929 0 -0.010885775454445761 0.30666683595731842 0 -0.032661896326035458 0.32336993641452649 0 -0.003266460577282769 0.32505733492997929 0 -0.003230469334243001 0.36843033323843127 0 -0.02429250105558383 0.36563633744835361 0 -0.010583799764655641 0.38308260013621809 0 -0.003230469334243001 0.36843033323843127 0 -0.01420972401362478 0.34408347122854072 0 -0.02429250105558383 0.36563633744835361 0 -0.003230469334243001 0.36843033323843127 0 -0.01420972401362478 0.34408347122854072 0 0.006982754410723358 0.34979554049652001 0 -0.01420972401362478 0.34408347122854072 0 -0.02429250105558383 0.36563633744835361 0 -0.032964379246318558 0.34728185706622589 0 -0.02429250105558383 0.36563633744835361 0 -0.039989016583730469 0.37434328507282277 0 -0.02830044206548931 0.38430896759004302 0 -0.041842017219414877 0.35961041140408623 0 -0.039989016583730469 0.37434328507282277 0 -0.056917844201104739 0.36336398175759532 0 -0.02429250105558383 0.36563633744835361 0 -0.041842017219414877 0.35961041140408623 0 -0.039989016583730469 0.37434328507282277 0 -0.050965603039722529 0.34273084808830401 0 -0.041842017219414877 0.35961041140408623 0 -0.032964379246318558 0.34728185706622589 0 -0.02429250105558383 0.36563633744835361 0 -0.041842017219414877 0.35961041140408623 0 -0.032964379246318558 0.34728185706622589 0 -0.050965603039722529 0.34273084808830401 0 -0.056917844201104739 0.36336398175759532 0 -0.065404299096684548 0.34898183251417209 0 -0.050965603039722529 0.34273084808830401 0 -0.041842017219414877 0.35961041140408623 0 -0.056917844201104739 0.36336398175759532 0 -0.039989016583730469 0.37434328507282277 0 -0.056917844201104739 0.36336398175759532 0 -0.056922329742129602 0.37899575032362409 0 -0.056917844201104739 0.36336398175759532 0 -0.067385567010988065 0.3712379723199743 0 -0.056922329742129602 0.37899575032362409 0 -0.067385567010988065 0.3712379723199743 0 -0.075155356740434817 0.3597147318505215 0 -0.083891681199012261 0.37142820311611252 0 -0.056917844201104739 0.36336398175759532 0 -0.067385567010988065 0.3712379723199743 0 -0.075155356740434817 0.3597147318505215 0 -0.067385567010988065 0.3712379723199743 0 -0.083891681199012261 0.37142820311611252 0 -0.075081013647644496 0.38146940199053991 0 -0.075155356740434817 0.3597147318505215 0 -0.083891681199012261 0.37142820311611252 0 -0.088553092417108348 0.36133271144209689 0 -0.083891681199012261 0.37142820311611252 0 -0.088553092417108348 0.36133271144209689 0 -0.098884584060269232 0.3698099262379404 0 -0.083891681199012261 0.37142820311611252 0 -0.098884584060269232 0.3698099262379404 0 -0.093438496671686189 0.38062732629358681 0 -0.075155356740434817 0.3597147318505215 0 -0.086676138162574787 0.35107453173824821 0 -0.077784466745306605 0.34373567799591193 0 -0.086676138162574787 0.35107453173824821 0 -0.097818566326166589 0.3552372235823229 0 -0.095849856669270095 0.3450404566051789 0 -0.086676138162574787 0.35107453173824821 0 -0.086979902884855159 0.34087157230644871 0 -0.095849856669270095 0.3450404566051789 0 -0.088553092417108348 0.36133271144209689 0 -0.086676138162574787 0.35107453173824821 0 -0.097818566326166589 0.3552372235823229 0 -0.075155356740434817 0.3597147318505215 0 -0.088553092417108348 0.36133271144209689 0 -0.086676138162574787 0.35107453173824821 0 -0.086676138162574787 0.35107453173824821 0 -0.077784466745306605 0.34373567799591193 0 -0.086979902884855159 0.34087157230644871 0 -0.075155356740434817 0.3597147318505215 0 -0.065404299096684548 0.34898183251417209 0 -0.077784466745306605 0.34373567799591193 0 -0.056917844201104739 0.36336398175759532 0 -0.075155356740434817 0.3597147318505215 0 -0.065404299096684548 0.34898183251417209 0 -0.069156896288682573 0.3360644718214264 0 -0.076388870651820526 0.32534005020356732 0 -0.082340806123773008 0.33391588422752999 0 -0.069156896288682573 0.3360644718214264 0 -0.077784466745306605 0.34373567799591193 0 -0.082340806123773008 0.33391588422752999 0 -0.065404299096684548 0.34898183251417209 0 -0.069156896288682573 0.3360644718214264 0 -0.077784466745306605 0.34373567799591193 0 -0.062057332074788252 0.32168253789907342 0 -0.069156896288682573 0.3360644718214264 0 -0.076388870651820526 0.32534005020356732 0 -0.062057332074788252 0.32168253789907342 0 -0.076388870651820526 0.32534005020356732 0 -0.074462361939892197 0.31255100903197508 0 -0.076388870651820526 0.32534005020356732 0 -0.074462361939892197 0.31255100903197508 0 -0.082059821792236518 0.32005840273505048 0 -0.085503905024892149 0.30767661938318169 0 -0.091011275286559112 0.32756618518160902 0 -0.091731107622316621 0.32481904431013781 0 -0.085503905024892149 0.30767661938318169 0 -0.082059821792236518 0.32005840273505048 0 -0.091011275286559112 0.32756618518160902 0 -0.085503905024892149 0.30767661938318169 0 -0.091011275286559112 0.32756618518160902 0 -0.085503905024892149 0.30767661938318169 0 -0.074462361939892197 0.31255100903197508 0 -0.082059821792236518 0.32005840273505048 0 -0.076388870651820526 0.32534005020356732 0 -0.082059821792236518 0.32005840273505048 0 -0.084809804115548115 0.32749436666262621 0 -0.082059821792236518 0.32005840273505048 0 -0.084809804115548115 0.32749436666262621 0 -0.091011275286559112 0.32756618518160902 0 -0.091011275286559112 0.32756618518160902 0 -0.091731107622316621 0.32481904431013781 0 -0.091011275286559112 0.32756618518160902 0 -0.09022401965089287 0.33057063778202872 0 -0.095849856669270095 0.3450404566051789 0 -0.091011275286559112 0.32756618518160902 0 -0.095849856669270095 0.3450404566051789 0 -0.077784466745306605 0.34373567799591193 0 -0.082340806123773008 0.33391588422752999 0 -0.086979902884855159 0.34087157230644871 0 -0.076388870651820526 0.32534005020356732 0 -0.084809804115548115 0.32749436666262621 0 -0.082340806123773008 0.33391588422752999 0 -0.084809804115548115 0.32749436666262621 0 -0.082340806123773008 0.33391588422752999 0 -0.09022401965089287 0.33057063778202872 0 -0.091731107622316621 0.32481904431013781 0 -0.094625781961113639 0.33485171801404812 0 -0.082340806123773008 0.33391588422752999 0 -0.09022401965089287 0.33057063778202872 0 -0.086979902884855159 0.34087157230644871 0 -0.091011275286559112 0.32756618518160902 0 -0.091731107622316621 0.32481904431013781 0 -0.094625781961113639 0.33485171801404812 0 -0.084809804115548115 0.32749436666262621 0 -0.091011275286559112 0.32756618518160902 0 -0.09022401965089287 0.33057063778202872 0 -0.091011275286559112 0.32756618518160902 0 -0.09022401965089287 0.33057063778202872 0 -0.09022401965089287 0.33057063778202872 0 -0.086979902884855159 0.34087157230644871 0 -0.095849856669270095 0.3450404566051789 0 -0.094625781961113639 0.33485171801404812 0 -0.10569777350102739 0.33708295465386878 0 -0.095849856669270095 0.3450404566051789 0 -0.091011275286559112 0.32756618518160902 0 -0.094625781961113639 0.33485171801404812 0 -0.095849856669270095 0.3450404566051789 0 -0.094625781961113639 0.33485171801404812 0 -0.10569777350102739 0.33708295465386878 0 -0.10073361495971341 0.32765552782927471 0 -0.091731107622316621 0.32481904431013781 0 -0.094625781961113639 0.33485171801404812 0 -0.10073361495971341 0.32765552782927471 0 -0.10569777350102739 0.33708295465386878 0 -0.10073361495971341 0.32765552782927471 0 -0.1088691834807759 0.32286828977011661 0 -0.097739605957004261 0.30188843876293592 0 -0.091731107622316621 0.32481904431013781 0 -0.1096169288878803 0.30627644987742081 0 -0.1008880225659705 0.31496592233981968 0 -0.1088691834807759 0.32286828977011661 0 -0.097739605957004261 0.30188843876293592 0 -0.091731107622316621 0.32481904431013781 0 -0.1008880225659705 0.31496592233981968 0 -0.091731107622316621 0.32481904431013781 0 -0.10073361495971341 0.32765552782927471 0 -0.10055548215719411 0.32257719606233709 0 -0.091731107622316621 0.32481904431013781 0 -0.1008880225659705 0.31496592233981968 0 -0.10055548215719411 0.32257719606233709 0 -0.10073361495971341 0.32765552782927471 0 -0.10055548215719411 0.32257719606233709 0 -0.1088691834807759 0.32286828977011661 0 -0.1008880225659705 0.31496592233981968 0 -0.10055548215719411 0.32257719606233709 0 -0.1088691834807759 0.32286828977011661 0 -0.1088691834807759 0.32286828977011661 0 -0.1232576263346882 0.31297321709810427 0 -0.11873796741778669 0.33144672616027387 0 -0.1096169288878803 0.30627644987742081 0 -0.1088691834807759 0.32286828977011661 0 -0.1232576263346882 0.31297321709810427 0 -0.1328518871389559 0.32814280017159841 0 -0.1232576263346882 0.31297321709810427 0 -0.11873796741778669 0.33144672616027387 0 -0.10569777350102739 0.33708295465386878 0 -0.11873796741778669 0.33144672616027387 0 -0.1154749213458854 0.34397274745442291 0 -0.10569777350102739 0.33708295465386878 0 -0.1088691834807759 0.32286828977011661 0 -0.11873796741778669 0.33144672616027387 0 -0.12653007299808491 0.34241022530505377 0 -0.11873796741778669 0.33144672616027387 0 -0.1154749213458854 0.34397274745442291 0 -0.12653007299808491 0.34241022530505377 0 -0.1154749213458854 0.34397274745442291 0 -0.1199889907943389 0.35585059104355998 0 -0.1154749213458854 0.34397274745442291 0 -0.1199889907943389 0.35585059104355998 0 -0.1069271226035841 0.35061299509239968 0 -0.1199889907943389 0.35585059104355998 0 -0.1086466078502748 0.36270971991131851 0 -0.1069271226035841 0.35061299509239968 0 -0.12720986748145821 0.36889988388829348 0 -0.1199889907943389 0.35585059104355998 0 -0.11747977853110279 0.36577696700602907 0 -0.12720986748145821 0.36889988388829348 0 -0.11747977853110279 0.36577696700602907 0 -0.1142628490971402 0.37523323407939041 0 -0.11747977853110279 0.36577696700602907 0 -0.1086466078502748 0.36270971991131851 0 -0.1142628490971402 0.37523323407939041 0 -0.1199889907943389 0.35585059104355998 0 -0.11747977853110279 0.36577696700602907 0 -0.1086466078502748 0.36270971991131851 0 -0.1086466078502748 0.36270971991131851 0 -0.098884584060269232 0.3698099262379404 0 -0.097818566326166589 0.3552372235823229 0 -0.1086466078502748 0.36270971991131851 0 -0.098884584060269232 0.3698099262379404 0 -0.1142628490971402 0.37523323407939041 0 -0.088553092417108348 0.36133271144209689 0 -0.098884584060269232 0.3698099262379404 0 -0.097818566326166589 0.3552372235823229 0 -0.097818566326166589 0.3552372235823229 0 -0.095849856669270095 0.3450404566051789 0 -0.1069271226035841 0.35061299509239968 0 -0.10569777350102739 0.33708295465386878 0 -0.095849856669270095 0.3450404566051789 0 -0.1069271226035841 0.35061299509239968 0 -0.10569777350102739 0.33708295465386878 0 -0.1154749213458854 0.34397274745442291 0 -0.1069271226035841 0.35061299509239968 0 -0.1086466078502748 0.36270971991131851 0 -0.097818566326166589 0.3552372235823229 0 -0.1069271226035841 0.35061299509239968 0 -0.099619837507371731 0.39576076561699303 0 -0.095789079558307733 0.41514356627422561 0 -0.08789176360947791 0.4030622881029533 0 -0.099619837507371731 0.39576076561699303 0 -0.11537355113267091 0.40621267877170603 0 -0.095789079558307733 0.41514356627422561 0 -0.099619837507371731 0.39576076561699303 0 -0.1051294976340009 0.38278963014602269 0 -0.093438496671686189 0.38062732629358681 0 -0.098884584060269232 0.3698099262379404 0 -0.1051294976340009 0.38278963014602269 0 -0.093438496671686189 0.38062732629358681 0 -0.098884584060269232 0.3698099262379404 0 -0.1051294976340009 0.38278963014602269 0 -0.1142628490971402 0.37523323407939041 0 -0.099619837507371731 0.39576076561699303 0 -0.1051294976340009 0.38278963014602269 0 -0.1148952993504979 0.3898666715118323 0 -0.1051294976340009 0.38278963014602269 0 -0.1148952993504979 0.3898666715118323 0 -0.1142628490971402 0.37523323407939041 0 -0.12533687557160031 0.38327028691968229 0 -0.12720986748145821 0.36889988388829348 0 -0.1142628490971402 0.37523323407939041 0 -0.12533687557160031 0.38327028691968229 0 -0.1148952993504979 0.3898666715118323 0 -0.1142628490971402 0.37523323407939041 0 -0.12533687557160031 0.38327028691968229 0 -0.1148952993504979 0.3898666715118323 0 -0.1245237874651631 0.39644185346730137 0 -0.1148952993504979 0.3898666715118323 0 -0.1245237874651631 0.39644185346730137 0 -0.11537355113267091 0.40621267877170603 0 -0.099619837507371731 0.39576076561699303 0 -0.1148952993504979 0.3898666715118323 0 -0.11537355113267091 0.40621267877170603 0 -0.13133782601494551 0.40590280900909848 0 -0.1245237874651631 0.39644185346730137 0 -0.11537355113267091 0.40621267877170603 0 -0.12877762287039521 0.42126405912916032 0 -0.11537355113267091 0.40621267877170603 0 -0.1108498178832915 0.42142965410425848 0 -0.12877762287039521 0.42126405912916032 0 -0.1108498178832915 0.42142965410425848 0 -0.1181616549298001 0.43433742834474792 0 -0.1108498178832915 0.42142965410425848 0 -0.1181616549298001 0.43433742834474792 0 -0.098715704330298193 0.43372304762681457 0 -0.1108498178832915 0.42142965410425848 0 -0.098715704330298193 0.43372304762681457 0 -0.095789079558307733 0.41514356627422561 0 -0.11537355113267091 0.40621267877170603 0 -0.1108498178832915 0.42142965410425848 0 -0.095789079558307733 0.41514356627422561 0 -0.095789079558307733 0.41514356627422561 0 -0.081855987431363214 0.41310317327939627 0 -0.079155930525234314 0.42859204883374857 0 -0.095789079558307733 0.41514356627422561 0 -0.081855987431363214 0.41310317327939627 0 -0.08789176360947791 0.4030622881029533 0 -0.098715704330298193 0.43372304762681457 0 -0.095789079558307733 0.41514356627422561 0 -0.079155930525234314 0.42859204883374857 0 -0.079155930525234314 0.42859204883374857 0 -0.056548159655326807 0.42107315999461542 0 -0.061122717029777229 0.44289605845780472 0 -0.081855987431363214 0.41310317327939627 0 -0.079155930525234314 0.42859204883374857 0 -0.068738376403882057 0.41097751692832502 0 -0.079155930525234314 0.42859204883374857 0 -0.068738376403882057 0.41097751692832502 0 -0.056548159655326807 0.42107315999461542 0 -0.081855987431363214 0.41310317327939627 0 -0.068738376403882057 0.41097751692832502 0 -0.075736514236940583 0.39942755318577522 0 -0.075736514236940583 0.39942755318577522 0 -0.075081013647644496 0.38146940199053991 0 -0.060201366477072582 0.39757400091682371 0 -0.068738376403882057 0.41097751692832502 0 -0.075736514236940583 0.39942755318577522 0 -0.060201366477072582 0.39757400091682371 0 -0.081855987431363214 0.41310317327939627 0 -0.075736514236940583 0.39942755318577522 0 -0.08789176360947791 0.4030622881029533 0 -0.075736514236940583 0.39942755318577522 0 -0.086457399313406222 0.39187638215837639 0 -0.075081013647644496 0.38146940199053991 0 -0.075736514236940583 0.39942755318577522 0 -0.086457399313406222 0.39187638215837639 0 -0.08789176360947791 0.4030622881029533 0 -0.099619837507371731 0.39576076561699303 0 -0.086457399313406222 0.39187638215837639 0 -0.08789176360947791 0.4030622881029533 0 -0.086457399313406222 0.39187638215837639 0 -0.093438496671686189 0.38062732629358681 0 -0.075081013647644496 0.38146940199053991 0 -0.083891681199012261 0.37142820311611252 0 -0.093438496671686189 0.38062732629358681 0 -0.075081013647644496 0.38146940199053991 0 -0.099619837507371731 0.39576076561699303 0 -0.086457399313406222 0.39187638215837639 0 -0.093438496671686189 0.38062732629358681 0 -0.067385567010988065 0.3712379723199743 0 -0.075081013647644496 0.38146940199053991 0 -0.056922329742129602 0.37899575032362409 0 -0.075081013647644496 0.38146940199053991 0 -0.056922329742129602 0.37899575032362409 0 -0.060201366477072582 0.39757400091682371 0 -0.056922329742129602 0.37899575032362409 0 -0.060201366477072582 0.39757400091682371 0 -0.043102171693076813 0.38949175943231179 0 -0.060201366477072582 0.39757400091682371 0 -0.043102171693076813 0.38949175943231179 0 -0.045469764993687482 0.40653246674689958 0 -0.043102171693076813 0.38949175943231179 0 -0.02830044206548931 0.38430896759004302 0 -0.026388780756889111 0.39951155123153459 0 -0.043102171693076813 0.38949175943231179 0 -0.026388780756889111 0.39951155123153459 0 -0.045469764993687482 0.40653246674689958 0 -0.039989016583730469 0.37434328507282277 0 -0.056922329742129602 0.37899575032362409 0 -0.043102171693076813 0.38949175943231179 0 -0.039989016583730469 0.37434328507282277 0 -0.043102171693076813 0.38949175943231179 0 -0.02830044206548931 0.38430896759004302 0 -0.02429250105558383 0.36563633744835361 0 -0.02830044206548931 0.38430896759004302 0 -0.010583799764655641 0.38308260013621809 0 -0.02830044206548931 0.38430896759004302 0 -0.026388780756889111 0.39951155123153459 0 -0.010583799764655641 0.38308260013621809 0 -0.026388780756889111 0.39951155123153459 0 -0.00042721496257028051 0.39595132885435019 0 -0.010583799764655641 0.38308260013621809 0 -0.026388780756889111 0.39951155123153459 0 -0.00042721496257028051 0.39595132885435019 0 -0.019115731465172939 0.41654954659603177 0 -0.0081425709555884122 0.4354078604818632 0 -0.0012406144994851411 0.41540870768952831 0 -0.019115731465172939 0.41654954659603177 0 -0.0081425709555884122 0.4354078604818632 0 -0.0012406144994851411 0.41540870768952831 0 0.0080554846440630493 0.42635277819034512 0 -0.00042721496257028051 0.39595132885435019 0 -0.0012406144994851411 0.41540870768952831 0 -0.019115731465172939 0.41654954659603177 0 -0.026388780756889111 0.39951155123153459 0 -0.019115731465172939 0.41654954659603177 0 -0.037163453045462078 0.42246229980150418 0 -0.019115731465172939 0.41654954659603177 0 -0.037163453045462078 0.42246229980150418 0 -0.02661039075134292 0.44040617805346671 0 -0.0081425709555884122 0.4354078604818632 0 -0.019115731465172939 0.41654954659603177 0 -0.02661039075134292 0.44040617805346671 0 -0.037163453045462078 0.42246229980150418 0 -0.056548159655326807 0.42107315999461542 0 -0.044558679032520497 0.43861027214730708 0 -0.037163453045462078 0.42246229980150418 0 -0.044558679032520497 0.43861027214730708 0 -0.02661039075134292 0.44040617805346671 0 -0.026388780756889111 0.39951155123153459 0 -0.037163453045462078 0.42246229980150418 0 -0.045469764993687482 0.40653246674689958 0 -0.037163453045462078 0.42246229980150418 0 -0.045469764993687482 0.40653246674689958 0 -0.056548159655326807 0.42107315999461542 0 -0.068738376403882057 0.41097751692832502 0 -0.060201366477072582 0.39757400091682371 0 -0.056548159655326807 0.42107315999461542 0 -0.060201366477072582 0.39757400091682371 0 -0.045469764993687482 0.40653246674689958 0 -0.056548159655326807 0.42107315999461542 0 -0.056548159655326807 0.42107315999461542 0 -0.061122717029777229 0.44289605845780472 0 -0.044558679032520497 0.43861027214730708 0 -0.061122717029777229 0.44289605845780472 0 -0.043672501246984033 0.45964614222818723 0 -0.044558679032520497 0.43861027214730708 0 -0.061405949290646043 0.46065597755655302 0 -0.043672501246984033 0.45964614222818723 0 -0.046756054900386403 0.47982307111409439 0 -0.061122717029777229 0.44289605845780472 0 -0.061405949290646043 0.46065597755655302 0 -0.043672501246984033 0.45964614222818723 0 -0.043672501246984033 0.45964614222818723 0 -0.044558679032520497 0.43861027214730708 0 -0.02661039075134292 0.44040617805346671 0 -0.043672501246984033 0.45964614222818723 0 -0.02661039075134292 0.44040617805346671 0 -0.01913126629509181 0.45660365491560101 0 -0.0081425709555884122 0.4354078604818632 0 -0.02661039075134292 0.44040617805346671 0 -0.01913126629509181 0.45660365491560101 0 -0.01913126629509181 0.45660365491560101 0 -0.0023826318983338418 0.47186636235082491 0 -0.025607710191285219 0.47354769063167212 0 -0.043672501246984033 0.45964614222818723 0 -0.01913126629509181 0.45660365491560101 0 -0.025607710191285219 0.47354769063167212 0 -0.01913126629509181 0.45660365491560101 0 -0.002657138242852936 0.45352434717382473 0 -0.0023826318983338418 0.47186636235082491 0 -0.0081425709555884122 0.4354078604818632 0 -0.01913126629509181 0.45660365491560101 0 -0.002657138242852936 0.45352434717382473 0 -0.0081425709555884122 0.4354078604818632 0 -0.002657138242852936 0.45352434717382473 0 0.0053989850622760578 0.44158620941391241 0 -0.01162249932240529 0.48698489093115532 0 -0.0023826318983338418 0.47186636235082491 0 0.0056913377454463343 0.5 0 -0.01162249932240529 0.48698489093115532 0 -0.022074135404171469 0.5 0 0.0056913377454463343 0.5 0 -0.01162249932240529 0.48698489093115532 0 -0.0023826318983338418 0.47186636235082491 0 -0.025607710191285219 0.47354769063167212 0 -0.01162249932240529 0.48698489093115532 0 -0.025607710191285219 0.47354769063167212 0 -0.031318584182028673 0.48612365312364808 0 -0.01162249932240529 0.48698489093115532 0 -0.022074135404171469 0.5 0 -0.031318584182028673 0.48612365312364808 0 -0.022074135404171469 0.5 0 -0.031318584182028673 0.48612365312364808 0 -0.049839608553789001 0.50000000000000155 0 -0.031318584182028673 0.48612365312364808 0 -0.046756054900386403 0.47982307111409439 0 -0.049839608553789001 0.50000000000000155 0 -0.043672501246984033 0.45964614222818723 0 -0.046756054900386403 0.47982307111409439 0 -0.043672501246984033 0.45964614222818723 0 -0.025607710191285219 0.47354769063167212 0 -0.046756054900386403 0.47982307111409439 0 -0.025607710191285219 0.47354769063167212 0 -0.031318584182028673 0.48612365312364808 0 -0.046756054900386403 0.47982307111409439 0 -0.046756054900386403 0.47982307111409439 0 -0.061362305993123777 0.48791494789097473 0 -0.071915944377593868 0.47497501908104123 0 -0.061405949290646043 0.46065597755655302 0 -0.046756054900386403 0.47982307111409439 0 -0.071915944377593868 0.47497501908104123 0 -0.046756054900386403 0.47982307111409439 0 -0.049839608553789001 0.50000000000000155 0 -0.061362305993123777 0.48791494789097473 0 -0.046756054900386403 0.47982307111409439 0 -0.049839608553789001 0.50000000000000155 0 -0.061362305993123777 0.48791494789097473 0 -0.077418123675492834 0.5 0 -0.071915944377593868 0.47497501908104123 0 -0.049839608553789001 0.50000000000000155 0 -0.061362305993123777 0.48791494789097473 0 -0.077418123675492834 0.5 0 -0.077418123675492834 0.5 0 -0.08910443335190843 0.48396125870102802 0 -0.1049966387971966 0.5 0 -0.077418123675492834 0.5 0 -0.08910443335190843 0.48396125870102802 0 -0.071915944377593868 0.47497501908104123 0 -0.08910443335190843 0.48396125870102802 0 -0.071915944377593868 0.47497501908104123 0 -0.090311375112759606 0.46690110104811899 0 -0.061405949290646043 0.46065597755655302 0 -0.071915944377593868 0.47497501908104123 0 -0.082470349335367649 0.45162703880419902 0 -0.061122717029777229 0.44289605845780472 0 -0.061405949290646043 0.46065597755655302 0 -0.082470349335367649 0.45162703880419902 0 -0.079155930525234314 0.42859204883374857 0 -0.061122717029777229 0.44289605845780472 0 -0.082470349335367649 0.45162703880419902 0 -0.098715704330298193 0.43372304762681457 0 -0.079155930525234314 0.42859204883374857 0 -0.082470349335367649 0.45162703880419902 0 -0.082470349335367649 0.45162703880419902 0 -0.090311375112759606 0.46690110104811899 0 -0.1028850494853268 0.45205594415151362 0 -0.071915944377593868 0.47497501908104123 0 -0.082470349335367649 0.45162703880419902 0 -0.090311375112759606 0.46690110104811899 0 -0.090311375112759606 0.46690110104811899 0 -0.1028850494853268 0.45205594415151362 0 -0.1051810990136013 0.4718862445028133 0 -0.098715704330298193 0.43372304762681457 0 -0.082470349335367649 0.45162703880419902 0 -0.1028850494853268 0.45205594415151362 0 -0.1181616549298001 0.43433742834474792 0 -0.098715704330298193 0.43372304762681457 0 -0.1028850494853268 0.45205594415151362 0 -0.12579200730107051 0.45303246416568882 0 -0.1181616549298001 0.43433742834474792 0 -0.1028850494853268 0.45205594415151362 0 -0.12579200730107051 0.45303246416568882 0 -0.1028850494853268 0.45205594415151362 0 -0.1051810990136013 0.4718862445028133 0 -0.1263230820352379 0.47739936264286009 0 -0.12579200730107051 0.45303246416568882 0 -0.1051810990136013 0.4718862445028133 0 -0.1263230820352379 0.47739936264286009 0 -0.1049966387971966 0.5 0 -0.1051810990136013 0.4718862445028133 0 -0.13257515391890029 0.5 0 -0.1263230820352379 0.47739936264286009 0 -0.1049966387971966 0.5 0 -0.08910443335190843 0.48396125870102802 0 -0.1049966387971966 0.5 0 -0.1051810990136013 0.4718862445028133 0 -0.08910443335190843 0.48396125870102802 0 -0.090311375112759606 0.46690110104811899 0 -0.1051810990136013 0.4718862445028133 0 -0.1614328782305357 0.083965592493335475 0 -0.17493008675914201 0.1018265713763841 0 -0.15381451571524341 0.091960168814852861 0 -0.15898020884973871 0.070035430720262401 0 -0.1743005351471609 0.071462415796947662 0 -0.16880235956105349 0.053775837804812543 0 -0.1614328782305357 0.083965592493335475 0 -0.15898020884973871 0.070035430720262401 0 -0.1743005351471609 0.071462415796947662 0 -0.1743005351471609 0.071462415796947662 0 -0.16880235956105349 0.053775837804812543 0 -0.19126911527613219 0.064328432760374227 0 -0.1743005351471609 0.071462415796947662 0 -0.19016681178972669 0.085837418733349283 0 -0.19126911527613219 0.064328432760374227 0 -0.1614328782305357 0.083965592493335475 0 -0.19016681178972669 0.085837418733349283 0 -0.1614328782305357 0.083965592493335475 0 -0.1743005351471609 0.071462415796947662 0 -0.19016681178972669 0.085837418733349283 0 -0.1614328782305357 0.083965592493335475 0 -0.17493008675914201 0.1018265713763841 0 -0.19016681178972669 0.085837418733349283 0 -0.17493008675914201 0.1018265713763841 0 -0.19604565780304059 0.1116929739379154 0 -0.19141917017330881 0.098963714489810062 0 -0.17493008675914201 0.1018265713763841 0 -0.19604565780304059 0.1116929739379154 0 -0.17493008675914201 0.1018265713763841 0 -0.19016681178972669 0.085837418733349283 0 -0.19141917017330881 0.098963714489810062 0 -0.17493008675914201 0.1018265713763841 0 -0.18094950569511359 0.11955400565695309 0 -0.19604565780304059 0.1116929739379154 0 -0.17493008675914201 0.1018265713763841 0 -0.18094950569511359 0.11955400565695309 0 -0.165646948774546 0.11843447073116969 0 -0.18094950569511359 0.11955400565695309 0 -0.165646948774546 0.11843447073116969 0 -0.17453194704302319 0.12878000077158869 0 -0.165646948774546 0.11843447073116969 0 -0.1580528154120262 0.1054093660809003 0 -0.1474989941098398 0.1130201558428182 0 -0.17493008675914201 0.1018265713763841 0 -0.15381451571524341 0.091960168814852861 0 -0.17493008675914201 0.1018265713763841 0 -0.1580528154120262 0.1054093660809003 0 -0.15381451571524341 0.091960168814852861 0 -0.17493008675914201 0.1018265713763841 0 -0.165646948774546 0.11843447073116969 0 -0.1580528154120262 0.1054093660809003 0 -0.1580528154120262 0.1054093660809003 0 -0.14837353170135961 0.10180546363927639 0 -0.15381451571524341 0.091960168814852861 0 -0.1580528154120262 0.1054093660809003 0 -0.14837353170135961 0.10180546363927639 0 -0.1474989941098398 0.1130201558428182 0 -0.14837353170135961 0.10180546363927639 0 -0.13872644314989879 0.097080320877117099 0 -0.13699777763942109 0.1077754796226524 0 -0.14837353170135961 0.10180546363927639 0 -0.1474989941098398 0.1130201558428182 0 -0.13699777763942109 0.1077754796226524 0 -0.14837353170135961 0.10180546363927639 0 -0.13872644314989879 0.097080320877117099 0 -0.15381451571524341 0.091960168814852861 0 -0.1474989941098398 0.1130201558428182 0 -0.13555127085324509 0.1197277393278956 0 -0.14428185282777281 0.1347700723653617 0 -0.1474989941098398 0.1130201558428182 0 -0.15554477117086929 0.12564914735237839 0 -0.14428185282777281 0.1347700723653617 0 -0.165646948774546 0.11843447073116969 0 -0.1474989941098398 0.1130201558428182 0 -0.15554477117086929 0.12564914735237839 0 -0.13555127085324509 0.1197277393278956 0 -0.12381241668422691 0.13316825426056031 0 -0.1246884739219324 0.1134091289710715 0 -0.1474989941098398 0.1130201558428182 0 -0.13555127085324509 0.1197277393278956 0 -0.13699777763942109 0.1077754796226524 0 -0.13555127085324509 0.1197277393278956 0 -0.13699777763942109 0.1077754796226524 0 -0.1246884739219324 0.1134091289710715 0 -0.13872644314989879 0.097080320877117099 0 -0.13699777763942109 0.1077754796226524 0 -0.12799403536335169 0.1024931251680764 0 -0.13699777763942109 0.1077754796226524 0 -0.12799403536335169 0.1024931251680764 0 -0.1246884739219324 0.1134091289710715 0 -0.13872644314989879 0.097080320877117099 0 -0.12799403536335169 0.1024931251680764 0 -0.12916308144813141 0.093395965774513146 0 -0.12799403536335169 0.1024931251680764 0 -0.12916308144813141 0.093395965774513146 0 -0.1219223393634596 0.096612265698231253 0 -0.1293260228529248 0.087188643500289376 0 -0.12916308144813141 0.093395965774513146 0 -0.12211852262909891 0.088601711304333058 0 -0.1293260228529248 0.087188643500289376 0 -0.12916308144813141 0.093395965774513146 0 -0.13668707387277881 0.090196843396543214 0 -0.1293260228529248 0.087188643500289376 0 -0.12596249164327 0.081654930772735779 0 -0.12211852262909891 0.088601711304333058 0 -0.1293260228529248 0.087188643500289376 0 -0.12596249164327 0.081654930772735779 0 -0.13269894467134469 0.082093766253321626 0 -0.12596249164327 0.081654930772735779 0 -0.13269894467134469 0.082093766253321626 0 -0.1293260228529248 0.087188643500289376 0 -0.13269894467134469 0.082093766253321626 0 -0.13668707387277881 0.090196843396543214 0 -0.13872644314989879 0.097080320877117099 0 -0.12916308144813141 0.093395965774513146 0 -0.13668707387277881 0.090196843396543214 0 -0.1614328782305357 0.083965592493335475 0 -0.13269894467134469 0.082093766253321626 0 -0.14678659575501241 0.074129349231011263 0 -0.13269894467134469 0.082093766253321626 0 -0.15381451571524341 0.091960168814852861 0 -0.13269894467134469 0.082093766253321626 0 -0.13668707387277881 0.090196843396543214 0 -0.15381451571524341 0.091960168814852861 0 -0.1614328782305357 0.083965592493335475 0 -0.13269894467134469 0.082093766253321626 0 -0.15381451571524341 0.091960168814852861 0 -0.1614328782305357 0.083965592493335475 0 -0.13269894467134469 0.082093766253321626 0 -0.13872644314989879 0.097080320877117099 0 -0.13668707387277881 0.090196843396543214 0 -0.15381451571524341 0.091960168814852861 0 -0.15898020884973871 0.070035430720262401 0 -0.14678659575501241 0.074129349231011263 0 -0.1414169425727885 0.06357355906025422 0 -0.1614328782305357 0.083965592493335475 0 -0.15898020884973871 0.070035430720262401 0 -0.14678659575501241 0.074129349231011263 0 -0.14678659575501241 0.074129349231011263 0 -0.1414169425727885 0.06357355906025422 0 -0.1380946373697495 0.073321664428178612 0 -0.1414169425727885 0.06357355906025422 0 -0.1140315255845229 0.073371280315694495 0 -0.1414169425727885 0.06357355906025422 0 -0.1140315255845229 0.073371280315694495 0 -0.123313990261863 0.056145434382516159 0 -0.1414169425727885 0.06357355906025422 0 -0.1380946373697495 0.073321664428178612 0 -0.1140315255845229 0.073371280315694495 0 -0.13269894467134469 0.082093766253321626 0 -0.1380946373697495 0.073321664428178612 0 -0.1140315255845229 0.073371280315694495 0 -0.13269894467134469 0.082093766253321626 0 -0.14678659575501241 0.074129349231011263 0 -0.1380946373697495 0.073321664428178612 0 -0.13059315886047951 0.043011130708000757 0 -0.14354500358849681 0.04812479812360819 0 -0.123313990261863 0.056145434382516159 0 -0.1414169425727885 0.06357355906025422 0 -0.14354500358849681 0.04812479812360819 0 -0.123313990261863 0.056145434382516159 0 -0.13059315886047951 0.043011130708000757 0 -0.13126336880004569 0.02887313403689408 0 -0.118151616595517 0.037271012093908748 0 -0.13059315886047951 0.043011130708000757 0 -0.1412434296289867 0.036512170666794262 0 -0.13126336880004569 0.02887313403689408 0 -0.13059315886047951 0.043011130708000757 0 -0.1412434296289867 0.036512170666794262 0 -0.14354500358849681 0.04812479812360819 0 -0.15590014064581009 0.035730656119271273 0 -0.14354500358849681 0.04812479812360819 0 -0.16880235956105349 0.053775837804812543 0 -0.1412434296289867 0.036512170666794262 0 -0.15590014064581009 0.035730656119271273 0 -0.14354500358849681 0.04812479812360819 0 -0.1412434296289867 0.036512170666794262 0 -0.15590014064581009 0.035730656119271273 0 -0.1459613777652693 0.026249417687352731 0 -0.1414169425727885 0.06357355906025422 0 -0.16880235956105349 0.053775837804812543 0 -0.1414169425727885 0.06357355906025422 0 -0.14354500358849681 0.04812479812360819 0 -0.16880235956105349 0.053775837804812543 0 -0.1238376520846925 -0.003178898693025302 0 -0.1442356625056827 0.013760973414615209 0 -0.1252665686555624 0.011687616998799151 0 -0.13668174443164 0.02014278553441529 0 -0.1442356625056827 0.013760973414615209 0 -0.1238376520846925 -0.003178898693025302 0 -0.1252665686555624 0.011687616998799151 0 -0.1442356625056827 0.013760973414615209 0 -0.1238376520846925 -0.003178898693025302 0 -0.14021991755128291 -0.0037810170104977821 0 -0.1442356625056827 0.013760973414615209 0 -0.1252665686555624 0.011687616998799151 0 -0.13668174443164 0.02014278553441529 0 -0.13126336880004569 0.02887313403689408 0 -0.13668174443164 0.02014278553441529 0 -0.13126336880004569 0.02887313403689408 0 -0.1459613777652693 0.026249417687352731 0 -0.1412434296289867 0.036512170666794262 0 -0.13126336880004569 0.02887313403689408 0 -0.1459613777652693 0.026249417687352731 0 -0.15590014064581009 0.035730656119271273 0 -0.1459613777652693 0.026249417687352731 0 -0.15341540514897159 0.016081979009226571 0 -0.1459613777652693 0.026249417687352731 0 -0.15341540514897159 0.016081979009226571 0 -0.1442356625056827 0.013760973414615209 0 -0.13668174443164 0.02014278553441529 0 -0.1459613777652693 0.026249417687352731 0 -0.1442356625056827 0.013760973414615209 0 -0.14021991755128291 -0.0037810170104977821 0 -0.1442356625056827 0.013760973414615209 0 -0.15191854340496841 0.0056857037463043901 0 -0.15341540514897159 0.016081979009226571 0 -0.1442356625056827 0.013760973414615209 0 -0.15191854340496841 0.0056857037463043901 0 -0.15648956439896139 -0.0050560779717764076 0 -0.15191854340496841 0.0056857037463043901 0 -0.16661461818764309 0.0064834708418648503 0 -0.15341540514897159 0.016081979009226571 0 -0.15191854340496841 0.0056857037463043901 0 -0.16661461818764309 0.0064834708418648503 0 -0.15341540514897159 0.016081979009226571 0 -0.16661461818764309 0.0064834708418648503 0 -0.17252453283333671 0.03031502258584726 0 -0.15341540514897159 0.016081979009226571 0 -0.17252453283333671 0.03031502258584726 0 -0.15590014064581009 0.035730656119271273 0 -0.15341540514897159 0.016081979009226571 0 -0.17252453283333671 0.03031502258584726 0 -0.17252453283333671 0.03031502258584726 0 -0.19163366051770181 0.044548066162467932 0 -0.1904619074194345 0.017727593772665862 0 -0.16661461818764309 0.0064834708418648503 0 -0.17252453283333671 0.03031502258584726 0 -0.1904619074194345 0.017727593772665862 0 -0.18255870539025951 -0.00030130366836361722 0 -0.16661461818764309 0.0064834708418648503 0 -0.1904619074194345 0.017727593772665862 0 -0.15898020884973871 0.070035430720262401 0 -0.1414169425727885 0.06357355906025422 0 -0.16880235956105349 0.053775837804812543 0 -0.15590014064581009 0.035730656119271273 0 -0.17252453283333671 0.03031502258584726 0 -0.16880235956105349 0.053775837804812543 0 -0.17252453283333671 0.03031502258584726 0 -0.16880235956105349 0.053775837804812543 0 -0.19163366051770181 0.044548066162467932 0 -0.17252453283333671 0.03031502258584726 0 -0.19163366051770181 0.044548066162467932 0 -0.16880235956105349 0.053775837804812543 0 -0.19163366051770181 0.044548066162467932 0 -0.19126911527613219 0.064328432760374227 0 -0.19163366051770181 0.044548066162467932 0 -0.21074278820206691 0.058781109739088587 0 -0.19126911527613219 0.064328432760374227 0 -0.19163366051770181 0.044548066162467932 0 -0.21074278820206691 0.058781109739088587 0 -0.19163366051770181 0.044548066162467932 0 -0.21719453115116891 0.043581671778351441 0 -0.21185821881028821 0.028701465373771311 0 -0.21719453115116891 0.043581671778351441 0 -0.21185821881028821 0.028701465373771311 0 -0.22548079713816671 0.037389163685436683 0 -0.21719453115116891 0.043581671778351441 0 -0.21074278820206691 0.058781109739088587 0 -0.22665061596217889 0.048258597157508597 0 -0.19163366051770181 0.044548066162467932 0 -0.21719453115116891 0.043581671778351441 0 -0.21074278820206691 0.058781109739088587 0 -0.20136602200140599 -0.0030079861901145229 0 -0.1904619074194345 0.017727593772665862 0 -0.2091818055715112 0.01229777797110183 0 -0.18255870539025951 -0.00030130366836361722 0 -0.20136602200140599 -0.0030079861901145229 0 -0.1904619074194345 0.017727593772665862 0 -0.19163366051770181 0.044548066162467932 0 -0.1904619074194345 0.017727593772665862 0 -0.21185821881028821 0.028701465373771311 0 -0.1904619074194345 0.017727593772665862 0 -0.21185821881028821 0.028701465373771311 0 -0.2091818055715112 0.01229777797110183 0 -0.21185821881028821 0.028701465373771311 0 -0.2091818055715112 0.01229777797110183 0 -0.222597033205892 0.01535248478154338 0 -0.20136602200140599 -0.0030079861901145229 0 -0.2091818055715112 0.01229777797110183 0 -0.2196258464205352 0.0027153321176431179 0 -0.2091818055715112 0.01229777797110183 0 -0.2196258464205352 0.0027153321176431179 0 -0.222597033205892 0.01535248478154338 0 -0.23345545866485429 -0.001590969249915503 0 -0.2196258464205352 0.0027153321176431179 0 -0.23047164758584701 0.0085782977512884051 0 -0.2196258464205352 0.0027153321176431179 0 -0.222597033205892 0.01535248478154338 0 -0.23047164758584701 0.0085782977512884051 0 -0.222597033205892 0.01535248478154338 0 -0.23047164758584701 0.0085782977512884051 0 -0.23533347493899079 0.017864183478357911 0 -0.22600665924836369 0.027599711361698011 0 -0.23533347493899079 0.017864183478357911 0 -0.2347637721484806 0.038691259489380812 0 -0.222597033205892 0.01535248478154338 0 -0.22600665924836369 0.027599711361698011 0 -0.23533347493899079 0.017864183478357911 0 -0.21185821881028821 0.028701465373771311 0 -0.22600665924836369 0.027599711361698011 0 -0.22548079713816671 0.037389163685436683 0 -0.21185821881028821 0.028701465373771311 0 -0.222597033205892 0.01535248478154338 0 -0.22600665924836369 0.027599711361698011 0 -0.24766078304850581 0.017662533827461479 0 -0.24092742620323879 0.038590434663932791 0 -0.23533347493899079 0.017864183478357911 0 -0.2347637721484806 0.038691259489380812 0 -0.24766078304850581 0.017662533827461479 0 -0.23533347493899079 0.017864183478357911 0 -0.24092742620323879 0.038590434663932791 0 -0.24996056485392651 0.029949614958286779 0 -0.24766078304850581 0.017662533827461479 0 -0.24092742620323879 0.038590434663932791 0 -0.25439413989377241 -0.0032653670090099212 0 -0.24766078304850581 0.017662533827461479 0 -0.2413464246989627 0.0085504576288131275 0 -0.23047164758584701 0.0085782977512884051 0 -0.23533347493899079 0.017864183478357911 0 -0.2413464246989627 0.0085504576288131275 0 -0.24766078304850581 0.017662533827461479 0 -0.23533347493899079 0.017864183478357911 0 -0.2413464246989627 0.0085504576288131275 0 -0.24603610792721031 -0.001494836057043694 0 -0.25439413989377241 -0.0032653670090099212 0 -0.2413464246989627 0.0085504576288131275 0 -0.23345545866485429 -0.001590969249915503 0 -0.24603610792721031 -0.001494836057043694 0 -0.2413464246989627 0.0085504576288131275 0 -0.23345545866485429 -0.001590969249915503 0 -0.23047164758584701 0.0085782977512884051 0 -0.2413464246989627 0.0085504576288131275 0 -0.22665061596217889 0.048258597157508597 0 -0.2341940693579711 0.05951833550040378 0 -0.2347637721484806 0.038691259489380812 0 -0.21074278820206691 0.058781109739088587 0 -0.22665061596217889 0.048258597157508597 0 -0.2341940693579711 0.05951833550040378 0 -0.21719453115116891 0.043581671778351441 0 -0.22665061596217889 0.048258597157508597 0 -0.22548079713816671 0.037389163685436683 0 -0.22600665924836369 0.027599711361698011 0 -0.22548079713816671 0.037389163685436683 0 -0.2347637721484806 0.038691259489380812 0 -0.22665061596217889 0.048258597157508597 0 -0.22548079713816671 0.037389163685436683 0 -0.2347637721484806 0.038691259489380812 0 -0.23533347493899079 0.017864183478357911 0 -0.2347637721484806 0.038691259489380812 0 -0.24092742620323879 0.038590434663932791 0 -0.2341940693579711 0.05951833550040378 0 -0.2347637721484806 0.038691259489380812 0 -0.24092742620323879 0.038590434663932791 0 -0.24996056485392651 0.029949614958286779 0 -0.24092742620323879 0.038590434663932791 0 -0.2480435708098894 0.038562984200042033 0 -0.24092742620323879 0.038590434663932791 0 -0.24735551461620839 0.044536386278428472 0 -0.24386205643828759 0.05408505917860329 0 -0.24092742620323879 0.038590434663932791 0 -0.2480435708098894 0.038562984200042033 0 -0.24735551461620839 0.044536386278428472 0 -0.25393077756618421 0.041175500899520059 0 -0.2480435708098894 0.038562984200042033 0 -0.24735551461620839 0.044536386278428472 0 -0.25332614084858979 0.052582736700977219 0 -0.24735551461620839 0.044536386278428472 0 -0.24386205643828759 0.05408505917860329 0 -0.2341940693579711 0.05951833550040378 0 -0.24092742620323879 0.038590434663932791 0 -0.2341940693579711 0.05951833550040378 0 -0.24092742620323879 0.038590434663932791 0 -0.24386205643828759 0.05408505917860329 0 -0.2341940693579711 0.05951833550040378 0 -0.2347637721484806 0.038691259489380812 0 -0.2341940693579711 0.05951833550040378 0 -0.24386205643828759 0.05408505917860329 0 -0.24214769953090809 0.066231043463179387 0 -0.2519811322907059 0.063581899575077552 0 -0.25332614084858979 0.052582736700977219 0 -0.24386205643828759 0.05408505917860329 0 -0.2519811322907059 0.063581899575077552 0 -0.24386205643828759 0.05408505917860329 0 -0.24214769953090809 0.066231043463179387 0 -0.2341940693579711 0.05951833550040378 0 -0.24214769953090809 0.066231043463179387 0 -0.23374557588639139 0.075914266464114366 0 -0.2519811322907059 0.063581899575077552 0 -0.24512548103058551 0.074285041536547206 0 -0.24214769953090809 0.066231043463179387 0 -0.25618657940925621 0.076991895164204183 0 -0.24512548103058551 0.074285041536547206 0 -0.24744940670915899 0.082982612093996336 0 -0.24512548103058551 0.074285041536547206 0 -0.24214769953090809 0.066231043463179387 0 -0.23374557588639139 0.075914266464114366 0 -0.24512548103058551 0.074285041536547206 0 -0.23924249235709241 0.080008532458711895 0 -0.23374557588639139 0.075914266464114366 0 -0.23924249235709241 0.080008532458711895 0 -0.23374557588639139 0.075914266464114366 0 -0.23924249235709241 0.080008532458711895 0 -0.23327007775465361 0.093297428171842084 0 -0.23374557588639139 0.075914266464114366 0 -0.25345726023504728 0.092538554859935451 0 -0.24323262640566509 0.089995104659520098 0 -0.24744940670915899 0.082982612093996336 0 -0.24512548103058551 0.074285041536547206 0 -0.24744940670915899 0.082982612093996336 0 -0.23924249235709241 0.080008532458711895 0 -0.24323262640566509 0.089995104659520098 0 -0.24744940670915899 0.082982612093996336 0 -0.23924249235709241 0.080008532458711895 0 -0.24323262640566509 0.089995104659520098 0 -0.23924249235709241 0.080008532458711895 0 -0.23327007775465361 0.093297428171842084 0 -0.22471960986565659 0.088965838921184537 0 -0.23374557588639139 0.075914266464114366 0 -0.2298519158864317 0.073014153315709623 0 -0.22471960986565659 0.088965838921184537 0 -0.2298519158864317 0.073014153315709623 0 -0.22471960986565659 0.088965838921184537 0 -0.2298519158864317 0.073014153315709623 0 -0.21983283565227971 0.077638920011625784 0 -0.23327007775465361 0.093297428171842084 0 -0.22471960986565659 0.088965838921184537 0 -0.23374557588639139 0.075914266464114366 0 -0.23327007775465361 0.093297428171842084 0 -0.23374557588639139 0.075914266464114366 0 -0.23327007775465361 0.093297428171842084 0 -0.22471960986565659 0.088965838921184537 0 -0.22603753850502789 0.098635013665264698 0 -0.22471960986565659 0.088965838921184537 0 -0.21890074534891751 0.087709244973363076 0 -0.21983283565227971 0.077638920011625784 0 -0.22471960986565659 0.088965838921184537 0 -0.21890074534891751 0.087709244973363076 0 -0.2202181696606674 0.0957095960360385 0 -0.21074278820206691 0.058781109739088587 0 -0.2298519158864317 0.073014153315709623 0 -0.21983283565227971 0.077638920011625784 0 -0.21074278820206691 0.058781109739088587 0 -0.2341940693579711 0.05951833550040378 0 -0.2298519158864317 0.073014153315709623 0 -0.2341940693579711 0.05951833550040378 0 -0.23374557588639139 0.075914266464114366 0 -0.2298519158864317 0.073014153315709623 0 -0.2341940693579711 0.05951833550040378 0 -0.23374557588639139 0.075914266464114366 0 -0.21074278820206691 0.058781109739088587 0 -0.2298519158864317 0.073014153315709623 0 -0.2341940693579711 0.05951833550040378 0 -0.2298519158864317 0.073014153315709623 0 -0.23374557588639139 0.075914266464114366 0 -0.2298519158864317 0.073014153315709623 0 -0.21074278820206691 0.058781109739088587 0 -0.21983283565227971 0.077638920011625784 0 -0.20706503675424531 0.075198197443377912 0 -0.21890074534891751 0.087709244973363076 0 -0.2045341243413259 0.096497893911591498 0 -0.2202181696606674 0.0957095960360385 0 -0.21890074534891751 0.087709244973363076 0 -0.19016681178972669 0.085837418733349283 0 -0.21890074534891751 0.087709244973363076 0 -0.21983283565227971 0.077638920011625784 0 -0.20706503675424531 0.075198197443377912 0 -0.21890074534891751 0.087709244973363076 0 -0.20706503675424531 0.075198197443377912 0 -0.19016681178972669 0.085837418733349283 0 -0.21890074534891751 0.087709244973363076 0 -0.19016681178972669 0.085837418733349283 0 -0.2045341243413259 0.096497893911591498 0 -0.20706503675424531 0.075198197443377912 0 -0.19016681178972669 0.085837418733349283 0 -0.19126911527613219 0.064328432760374227 0 -0.21074278820206691 0.058781109739088587 0 -0.20706503675424531 0.075198197443377912 0 -0.19126911527613219 0.064328432760374227 0 -0.19604565780304059 0.1116929739379154 0 -0.1963065237715613 0.1245751904510458 0 -0.20586396040563559 0.122898882915307 0 -0.18094950569511359 0.11955400565695309 0 -0.19604565780304059 0.1116929739379154 0 -0.1963065237715613 0.1245751904510458 0 -0.19016681178972669 0.085837418733349283 0 -0.19141917017330881 0.098963714489810062 0 -0.2045341243413259 0.096497893911591498 0 -0.19604565780304059 0.1116929739379154 0 -0.19141917017330881 0.098963714489810062 0 -0.2045341243413259 0.096497893911591498 0 -0.2045341243413259 0.096497893911591498 0 -0.2202181696606674 0.0957095960360385 0 -0.21918525562124549 0.1045216153176886 0 -0.2045341243413259 0.096497893911591498 0 -0.20969807256125031 0.113736402306839 0 -0.21918525562124549 0.1045216153176886 0 -0.19604565780304059 0.1116929739379154 0 -0.2045341243413259 0.096497893911591498 0 -0.20969807256125031 0.113736402306839 0 -0.20969807256125031 0.113736402306839 0 -0.2228279736379907 0.120659988380299 0 -0.21918525562124549 0.1045216153176886 0 -0.19604565780304059 0.1116929739379154 0 -0.20969807256125031 0.113736402306839 0 -0.20586396040563559 0.122898882915307 0 -0.20969807256125031 0.113736402306839 0 -0.20586396040563559 0.122898882915307 0 -0.21378777805813351 0.1272097020712061 0 -0.20969807256125031 0.113736402306839 0 -0.2228279736379907 0.120659988380299 0 -0.21378777805813351 0.1272097020712061 0 -0.2228279736379907 0.120659988380299 0 -0.23279457962291669 0.1106805898795698 0 -0.23832659087067851 0.13148136434106331 0 -0.2228279736379907 0.120659988380299 0 -0.23279457962291669 0.1106805898795698 0 -0.21918525562124549 0.1045216153176886 0 -0.23327007775465361 0.093297428171842084 0 -0.23279457962291669 0.1106805898795698 0 -0.22603753850502789 0.098635013665264698 0 -0.23327007775465361 0.093297428171842084 0 -0.23279457962291669 0.1106805898795698 0 -0.2202181696606674 0.0957095960360385 0 -0.22603753850502789 0.098635013665264698 0 -0.21918525562124549 0.1045216153176886 0 -0.22471960986565659 0.088965838921184537 0 -0.2202181696606674 0.0957095960360385 0 -0.22603753850502789 0.098635013665264698 0 -0.23279457962291669 0.1106805898795698 0 -0.22603753850502789 0.098635013665264698 0 -0.21918525562124549 0.1045216153176886 0 -0.23327007775465361 0.093297428171842084 0 -0.23279457962291669 0.1106805898795698 0 -0.24399133905966969 0.1017712822813191 0 -0.24323262640566509 0.089995104659520098 0 -0.23327007775465361 0.093297428171842084 0 -0.24399133905966969 0.1017712822813191 0 -0.25345726023504728 0.092538554859935451 0 -0.24323262640566509 0.089995104659520098 0 -0.24399133905966969 0.1017712822813191 0 -0.2504401116513022 0.1175669994668319 0 -0.23279457962291669 0.1106805898795698 0 -0.24399133905966969 0.1017712822813191 0 -0.2504401116513022 0.1175669994668319 0 -0.23279457962291669 0.1106805898795698 0 -0.23832659087067851 0.13148136434106331 0 -0.25824117398475482 0.13157462597297609 0 -0.2504401116513022 0.1175669994668319 0 -0.23832659087067851 0.13148136434106331 0 -0.25824117398475482 0.13157462597297609 0 -0.23832659087067851 0.13148136434106331 0 -0.24989252905805309 0.14572425192388661 0 -0.2228279736379907 0.120659988380299 0 -0.23832659087067851 0.13148136434106331 0 -0.22454776914217139 0.13975111298696061 0 -0.2228279736379907 0.120659988380299 0 -0.22454776914217139 0.13975111298696061 0 -0.21378777805813351 0.1272097020712061 0 -0.22454776914217139 0.13975111298696061 0 -0.23875894843204301 0.15785055510680501 0 -0.2213042745853995 0.15643405551625761 0 -0.22454776914217139 0.13975111298696061 0 -0.2213042745853995 0.15643405551625761 0 -0.21191445822013141 0.14255817911696331 0 -0.23832659087067851 0.13148136434106331 0 -0.22454776914217139 0.13975111298696061 0 -0.23875894843204301 0.15785055510680501 0 -0.23832659087067851 0.13148136434106331 0 -0.24989252905805309 0.14572425192388661 0 -0.23875894843204301 0.15785055510680501 0 -0.26040121110203679 0.17067312608516891 0 -0.24989252905805309 0.14572425192388661 0 -0.23875894843204301 0.15785055510680501 0 -0.26040121110203679 0.17067312608516891 0 -0.23875894843204301 0.15785055510680501 0 -0.2342453071008237 0.17883793120322661 0 -0.25157622486723979 0.18960923580231259 0 -0.26040121110203679 0.17067312608516891 0 -0.2342453071008237 0.17883793120322661 0 -0.2342453071008237 0.17883793120322661 0 -0.21055830066841849 0.17398048160499791 0 -0.21697054639500249 0.1961897462828914 0 -0.2342453071008237 0.17883793120322661 0 -0.2213042745853995 0.15643405551625761 0 -0.21055830066841849 0.17398048160499791 0 -0.23875894843204301 0.15785055510680501 0 -0.2342453071008237 0.17883793120322661 0 -0.2213042745853995 0.15643405551625761 0 -0.2213042745853995 0.15643405551625761 0 -0.21055830066841849 0.17398048160499791 0 -0.20158415958868461 0.15538089985180811 0 -0.21055830066841849 0.17398048160499791 0 -0.21697054639500249 0.1961897462828914 0 -0.1970021175558595 0.18878115427070249 0 -0.21055830066841849 0.17398048160499791 0 -0.19224339878474059 0.16825910250510151 0 -0.1970021175558595 0.18878115427070249 0 -0.19224339878474059 0.16825910250510151 0 -0.1970021175558595 0.18878115427070249 0 -0.18601943967026299 0.18470641307242811 0 -0.19224339878474059 0.16825910250510151 0 -0.1970021175558595 0.18878115427070249 0 -0.1970021175558595 0.18878115427070249 0 -0.18601943967026299 0.18470641307242811 0 -0.19224339878474059 0.16825910250510151 0 -0.1874846800136192 0.14773705073950119 0 -0.19224339878474059 0.16825910250510151 0 -0.20158415958868461 0.15538089985180811 0 -0.1874846800136192 0.14773705073950119 0 -0.21055830066841849 0.17398048160499791 0 -0.19224339878474059 0.16825910250510151 0 -0.20158415958868461 0.15538089985180811 0 -0.20158415958868461 0.15538089985180811 0 -0.19569918018128479 0.1409051014336877 0 -0.21191445822013141 0.14255817911696331 0 -0.19569918018128479 0.1409051014336877 0 -0.1874846800136192 0.14773705073950119 0 -0.19569918018128479 0.1409051014336877 0 -0.1882848124020372 0.13821348608798029 0 -0.1874846800136192 0.14773705073950119 0 -0.20158415958868461 0.15538089985180811 0 -0.19569918018128479 0.1409051014336877 0 -0.1874846800136192 0.14773705073950119 0 -0.19569918018128479 0.1409051014336877 0 -0.1882848124020372 0.13821348608798029 0 -0.191820935418584 0.1327497104462681 0 -0.1882848124020372 0.13821348608798029 0 -0.191820935418584 0.1327497104462681 0 -0.18522072511486429 0.1379737085749663 0 -0.18094950569511359 0.11955400565695309 0 -0.1963065237715613 0.1245751904510458 0 -0.191820935418584 0.1327497104462681 0 -0.1963065237715613 0.1245751904510458 0 -0.191820935418584 0.1327497104462681 0 -0.2025654726758884 0.13181612773907961 0 -0.1963065237715613 0.1245751904510458 0 -0.20586396040563559 0.122898882915307 0 -0.2025654726758884 0.13181612773907961 0 -0.19569918018128479 0.1409051014336877 0 -0.191820935418584 0.1327497104462681 0 -0.2025654726758884 0.13181612773907961 0 -0.2025654726758884 0.13181612773907961 0 -0.21378777805813351 0.1272097020712061 0 -0.21191445822013141 0.14255817911696331 0 -0.19569918018128479 0.1409051014336877 0 -0.2025654726758884 0.13181612773907961 0 -0.21191445822013141 0.14255817911696331 0 -0.20586396040563559 0.122898882915307 0 -0.2025654726758884 0.13181612773907961 0 -0.21378777805813351 0.1272097020712061 0 -0.22454776914217139 0.13975111298696061 0 -0.21378777805813351 0.1272097020712061 0 -0.21191445822013141 0.14255817911696331 0 -0.2213042745853995 0.15643405551625761 0 -0.20158415958868461 0.15538089985180811 0 -0.21191445822013141 0.14255817911696331 0 -0.2202465794130691 0.24948915124147089 0 -0.22711593660225909 0.24185474750597341 0 -0.2162329246649371 0.24224406864392251 0 -0.2319164096706777 0.25192477476912239 0 -0.2202465794130691 0.24948915124147089 0 -0.22711593660225909 0.24185474750597341 0 -0.22711593660225909 0.24185474750597341 0 -0.22563838056404431 0.23237991396711591 0 -0.2187096142034031 0.23563507381260451 0 -0.22711593660225909 0.24185474750597341 0 -0.2187096142034031 0.23563507381260451 0 -0.2162329246649371 0.24224406864392251 0 -0.22711593660225909 0.24185474750597341 0 -0.23806129760687211 0.24589395612401979 0 -0.23664074220251671 0.2378668954473119 0 -0.22711593660225909 0.24185474750597341 0 -0.23664074220251671 0.2378668954473119 0 -0.22563838056404431 0.23237991396711591 0 -0.2319164096706777 0.25192477476912239 0 -0.22711593660225909 0.24185474750597341 0 -0.23806129760687211 0.24589395612401979 0 -0.23806129760687211 0.24589395612401979 0 -0.24744121717665701 0.24359974376900731 0 -0.23664074220251671 0.2378668954473119 0 -0.24353882222885451 0.25569364620056573 0 -0.23806129760687211 0.24589395612401979 0 -0.24744121717665701 0.24359974376900731 0 -0.25183482859182199 0.2331833224768842 0 -0.24744121717665701 0.24359974376900731 0 -0.24229357011996211 0.23118447892927579 0 -0.24744121717665701 0.24359974376900731 0 -0.23664074220251671 0.2378668954473119 0 -0.24229357011996211 0.23118447892927579 0 -0.24229357011996211 0.23118447892927579 0 -0.23544623906898471 0.2206465565969184 0 -0.23347767849372389 0.2291196339484052 0 -0.23664074220251671 0.2378668954473119 0 -0.24229357011996211 0.23118447892927579 0 -0.23347767849372389 0.2291196339484052 0 -0.25183482859182199 0.2331833224768842 0 -0.24229357011996211 0.23118447892927579 0 -0.24750538697543659 0.22102034697483891 0 -0.24229357011996211 0.23118447892927579 0 -0.24750538697543659 0.22102034697483891 0 -0.23544623906898471 0.2206465565969184 0 -0.23544623906898471 0.2206465565969184 0 -0.2257981611238071 0.22385218749338121 0 -0.22557219630039521 0.21274530414206849 0 -0.23544623906898471 0.2206465565969184 0 -0.23347767849372389 0.2291196339484052 0 -0.2257981611238071 0.22385218749338121 0 -0.23664074220251671 0.2378668954473119 0 -0.23347767849372389 0.2291196339484052 0 -0.22563838056404431 0.23237991396711591 0 -0.23347767849372389 0.2291196339484052 0 -0.22563838056404431 0.23237991396711591 0 -0.2257981611238071 0.22385218749338121 0 -0.22563838056404431 0.23237991396711591 0 -0.2257981611238071 0.22385218749338121 0 -0.2185710444177609 0.2282982822155174 0 -0.22563838056404431 0.23237991396711591 0 -0.2185710444177609 0.2282982822155174 0 -0.2187096142034031 0.23563507381260451 0 -0.2257981611238071 0.22385218749338121 0 -0.22557219630039521 0.21274530414206849 0 -0.21725685024072461 0.2198266423364397 0 -0.2257981611238071 0.22385218749338121 0 -0.21725685024072461 0.2198266423364397 0 -0.2185710444177609 0.2282982822155174 0 -0.23544623906898471 0.2206465565969184 0 -0.22557219630039521 0.21274530414206849 0 -0.23693897523414609 0.20359833829507901 0 -0.22557219630039521 0.21274530414206849 0 -0.23693897523414609 0.20359833829507901 0 -0.21697054639500249 0.1961897462828914 0 -0.25690740407328971 0.21100693030726669 0 -0.24750538697543659 0.22102034697483891 0 -0.23693897523414609 0.20359833829507901 0 -0.25690740407328971 0.21100693030726669 0 -0.23693897523414609 0.20359833829507901 0 -0.24750538697543659 0.22102034697483891 0 -0.23544623906898471 0.2206465565969184 0 -0.23693897523414609 0.20359833829507901 0 -0.25157622486723979 0.18960923580231259 0 -0.25690740407328971 0.21100693030726669 0 -0.23693897523414609 0.20359833829507901 0 -0.25157622486723979 0.18960923580231259 0 -0.2342453071008237 0.17883793120322661 0 -0.23693897523414609 0.20359833829507901 0 -0.2342453071008237 0.17883793120322661 0 -0.23693897523414609 0.20359833829507901 0 -0.21697054639500249 0.1961897462828914 0 -0.23693897523414609 0.20359833829507901 0 -0.21697054639500249 0.1961897462828914 0 -0.21697054639500249 0.1961897462828914 0 -0.1970021175558595 0.18878115427070249 0 -0.21697054639500249 0.1961897462828914 0 -0.1970021175558595 0.18878115427070249 0 -0.21340948950087699 0.20930041655058149 0 -0.1970021175558595 0.18878115427070249 0 -0.2032996375496626 0.2159393112292648 0 -0.1970021175558595 0.18878115427070249 0 -0.1946595386099633 0.20032286215084619 0 -0.2032996375496626 0.2159393112292648 0 -0.1946595386099633 0.20032286215084619 0 -0.19045153351315119 0.21241261258573901 0 -0.18184877584203399 0.19576039726311811 0 -0.1946595386099633 0.20032286215084619 0 -0.18601943967026299 0.18470641307242811 0 -0.1946595386099633 0.20032286215084619 0 -0.18184877584203399 0.19576039726311811 0 -0.18601943967026299 0.18470641307242811 0 -0.1970021175558595 0.18878115427070249 0 -0.1946595386099633 0.20032286215084619 0 -0.18601943967026299 0.18470641307242811 0 -0.1946595386099633 0.20032286215084619 0 -0.2032996375496626 0.2159393112292648 0 -0.1946595386099633 0.20032286215084619 0 -0.19045153351315119 0.21241261258573901 0 -0.2032996375496626 0.2159393112292648 0 -0.19045153351315119 0.21241261258573901 0 -0.2032996375496626 0.2159393112292648 0 -0.19692743602872609 0.22244846712414329 0 -0.1970021175558595 0.18878115427070249 0 -0.2032996375496626 0.2159393112292648 0 -0.21340948950087699 0.20930041655058149 0 -0.22557219630039521 0.21274530414206849 0 -0.21697054639500249 0.1961897462828914 0 -0.21340948950087699 0.20930041655058149 0 -0.2032996375496626 0.2159393112292648 0 -0.21036615532528261 0.21601341582072539 0 -0.21340948950087699 0.20930041655058149 0 -0.2032996375496626 0.2159393112292648 0 -0.21036615532528261 0.21601341582072539 0 -0.2060497627485996 0.2209099939064201 0 -0.2032996375496626 0.2159393112292648 0 -0.2060497627485996 0.2209099939064201 0 -0.21036615532528261 0.21601341582072539 0 -0.21340948950087699 0.20930041655058149 0 -0.21725685024072461 0.2198266423364397 0 -0.22557219630039521 0.21274530414206849 0 -0.21340948950087699 0.20930041655058149 0 -0.21725685024072461 0.2198266423364397 0 -0.21036615532528261 0.21601341582072539 0 -0.21725685024072461 0.2198266423364397 0 -0.2107378463417221 0.22035448513366579 0 -0.21296503769328229 0.2242866157541589 0 -0.21725685024072461 0.2198266423364397 0 -0.2185710444177609 0.2282982822155174 0 -0.21296503769328229 0.2242866157541589 0 -0.21725685024072461 0.2198266423364397 0 -0.2107378463417221 0.22035448513366579 0 -0.2185710444177609 0.2282982822155174 0 -0.2122096847176051 0.2320436751787513 0 -0.2187096142034031 0.23563507381260451 0 -0.21296503769328229 0.2242866157541589 0 -0.2185710444177609 0.2282982822155174 0 -0.2122096847176051 0.2320436751787513 0 -0.2053825987990579 0.22492211534983489 0 -0.20780637408448249 0.23537468552009061 0 -0.2122096847176051 0.2320436751787513 0 -0.2053825987990579 0.22492211534983489 0 -0.20780637408448249 0.23537468552009061 0 -0.2032996375496626 0.2159393112292648 0 -0.2053825987990579 0.22492211534983489 0 -0.2032996375496626 0.2159393112292648 0 -0.2053825987990579 0.22492211534983489 0 -0.2060497627485996 0.2209099939064201 0 -0.2053825987990579 0.22492211534983489 0 -0.2060497627485996 0.2209099939064201 0 -0.2122096847176051 0.2320436751787513 0 -0.2060497627485996 0.2209099939064201 0 -0.21296503769328229 0.2242866157541589 0 -0.2122096847176051 0.2320436751787513 0 -0.2060497627485996 0.2209099939064201 0 -0.2122096847176051 0.2320436751787513 0 -0.2053825987990579 0.22492211534983489 0 -0.2060497627485996 0.2209099939064201 0 -0.21036615532528261 0.21601341582072539 0 -0.2107378463417221 0.22035448513366579 0 -0.2060497627485996 0.2209099939064201 0 -0.21296503769328229 0.2242866157541589 0 -0.2107378463417221 0.22035448513366579 0 -0.2060497627485996 0.2209099939064201 0 -0.2032996375496626 0.2159393112292648 0 -0.2053825987990579 0.22492211534983489 0 -0.19692743602872609 0.22244846712414329 0 -0.19045153351315119 0.21241261258573901 0 -0.19692743602872609 0.22244846712414329 0 -0.18834110226142409 0.2256462143143815 0 -0.19692743602872609 0.22244846712414329 0 -0.18834110226142409 0.2256462143143815 0 -0.19657851928040271 0.2340547441148336 0 -0.2053825987990579 0.22492211534983489 0 -0.19692743602872609 0.22244846712414329 0 -0.19657851928040271 0.2340547441148336 0 -0.2053825987990579 0.22492211534983489 0 -0.19657851928040271 0.2340547441148336 0 -0.20195325842869671 0.24554512719886959 0 -0.19657851928040271 0.2340547441148336 0 -0.20195325842869671 0.24554512719886959 0 -0.18182304793252041 0.24411572271617801 0 -0.18834110226142409 0.2256462143143815 0 -0.19657851928040271 0.2340547441148336 0 -0.18182304793252041 0.24411572271617801 0 -0.20195325842869671 0.24554512719886959 0 -0.2099325039541349 0.24156384450786991 0 -0.21118024833874621 0.24766558581212031 0 -0.2053825987990579 0.22492211534983489 0 -0.20195325842869671 0.24554512719886959 0 -0.2053825987990579 0.22492211534983489 0 -0.20195325842869671 0.24554512719886959 0 -0.20780637408448249 0.23537468552009061 0 -0.20195325842869671 0.24554512719886959 0 -0.20780637408448249 0.23537468552009061 0 -0.2099325039541349 0.24156384450786991 0 -0.20780637408448249 0.23537468552009061 0 -0.2099325039541349 0.24156384450786991 0 -0.21297822032491251 0.2373722695326477 0 -0.2099325039541349 0.24156384450786991 0 -0.21297822032491251 0.2373722695326477 0 -0.2162329246649371 0.24224406864392251 0 -0.2122096847176051 0.2320436751787513 0 -0.20780637408448249 0.23537468552009061 0 -0.21297822032491251 0.2373722695326477 0 -0.2122096847176051 0.2320436751787513 0 -0.21297822032491251 0.2373722695326477 0 -0.2187096142034031 0.23563507381260451 0 -0.21297822032491251 0.2373722695326477 0 -0.2187096142034031 0.23563507381260451 0 -0.2162329246649371 0.24224406864392251 0 -0.2202465794130691 0.24948915124147089 0 -0.2162329246649371 0.24224406864392251 0 -0.21118024833874621 0.24766558581212031 0 -0.2099325039541349 0.24156384450786991 0 -0.2162329246649371 0.24224406864392251 0 -0.21118024833874621 0.24766558581212031 0 -0.1653765498824955 0.25921933931352698 0 -0.15833413270530139 0.2385391050354419 0 -0.18182304793252041 0.24411572271617801 0 -0.15833413270530139 0.2385391050354419 0 -0.18182304793252041 0.24411572271617801 0 -0.1721999397611107 0.2235470425932265 0 -0.18182304793252041 0.24411572271617801 0 -0.1721999397611107 0.2235470425932265 0 -0.19045153351315119 0.21241261258573901 0 -0.18834110226142409 0.2256462143143815 0 -0.1721999397611107 0.2235470425932265 0 -0.18834110226142409 0.2256462143143815 0 -0.18182304793252041 0.24411572271617801 0 -0.1721999397611107 0.2235470425932265 0 -0.15833413270530139 0.2385391050354419 0 -0.1721999397611107 0.2235470425932265 0 -0.15683775821652579 0.22186482518120329 0 -0.15683775821652579 0.22186482518120329 0 -0.17107553183354829 0.2084666120717687 0 -0.15113647518235721 0.20639620343732051 0 -0.1721999397611107 0.2235470425932265 0 -0.15683775821652579 0.22186482518120329 0 -0.17107553183354829 0.2084666120717687 0 -0.19045153351315119 0.21241261258573901 0 -0.1721999397611107 0.2235470425932265 0 -0.17107553183354829 0.2084666120717687 0 -0.19045153351315119 0.21241261258573901 0 -0.17107553183354829 0.2084666120717687 0 -0.18184877584203399 0.19576039726311811 0 -0.17107553183354829 0.2084666120717687 0 -0.18184877584203399 0.19576039726311811 0 -0.1682547504311209 0.19360973251447941 0 -0.18184877584203399 0.19576039726311811 0 -0.18601943967026299 0.18470641307242811 0 -0.17559680926750121 0.18647987674638289 0 -0.18184877584203399 0.19576039726311811 0 -0.1682547504311209 0.19360973251447941 0 -0.17559680926750121 0.18647987674638289 0 -0.1682547504311209 0.19360973251447941 0 -0.1532662676507828 0.19077325441796941 0 -0.15113647518235721 0.20639620343732051 0 -0.17107553183354829 0.2084666120717687 0 -0.1682547504311209 0.19360973251447941 0 -0.15113647518235721 0.20639620343732051 0 -0.13905206469341119 0.18801815925028259 0 -0.1356789262465378 0.2101977079313708 0 -0.15113647518235721 0.20639620343732051 0 -0.1532662676507828 0.19077325441796941 0 -0.13905206469341119 0.18801815925028259 0 -0.15113647518235721 0.20639620343732051 0 -0.13905206469341119 0.18801815925028259 0 -0.12348234909058051 0.20096739603077021 0 -0.1187019022991877 0.19002215984854731 0 -0.13905206469341119 0.18801815925028259 0 -0.1356789262465378 0.2101977079313708 0 -0.12348234909058051 0.20096739603077021 0 -0.13905206469341119 0.18801815925028259 0 -0.12348234909058051 0.20096739603077021 0 -0.1356789262465378 0.2101977079313708 0 -0.123817973102626 0.2202036132319922 0 -0.12348234909058051 0.20096739603077021 0 -0.1356789262465378 0.2101977079313708 0 -0.15113647518235721 0.20639620343732051 0 -0.1409699130620338 0.22714289491561171 0 -0.15683775821652579 0.22186482518120329 0 -0.15113647518235721 0.20639620343732051 0 -0.1409699130620338 0.22714289491561171 0 -0.15833413270530139 0.2385391050354419 0 -0.15683775821652579 0.22186482518120329 0 -0.1409699130620338 0.22714289491561171 0 -0.1409699130620338 0.22714289491561171 0 -0.12648633267218329 0.2374374328555271 0 -0.123817973102626 0.2202036132319922 0 -0.1356789262465378 0.2101977079313708 0 -0.1409699130620338 0.22714289491561171 0 -0.123817973102626 0.2202036132319922 0 -0.13930694366104451 0.25375427578794052 0 -0.12648633267218329 0.2374374328555271 0 -0.1132373374395927 0.2482892122623577 0 -0.13930694366104451 0.25375427578794052 0 -0.1409699130620338 0.22714289491561171 0 -0.12648633267218329 0.2374374328555271 0 -0.13930694366104451 0.25375427578794052 0 -0.15833413270530139 0.2385391050354419 0 -0.1409699130620338 0.22714289491561171 0 -0.16192678787326381 0.1411604221552181 0 -0.17247304501528171 0.16022213531101329 0 -0.1558852727511397 0.15695132162027881 0 -0.1713361554927704 0.14334077684452559 0 -0.16192678787326381 0.1411604221552181 0 -0.17247304501528171 0.16022213531101329 0 -0.16192678787326381 0.1411604221552181 0 -0.17247304501528171 0.16022213531101329 0 -0.165646948774546 0.11843447073116969 0 -0.1647512889713186 0.13637189047016421 0 -0.15554477117086929 0.12564914735237839 0 -0.165646948774546 0.11843447073116969 0 -0.1647512889713186 0.13637189047016421 0 -0.17453194704302319 0.12878000077158869 0 -0.16192678787326381 0.1411604221552181 0 -0.1647512889713186 0.13637189047016421 0 -0.14428185282777281 0.1347700723653617 0 -0.1713361554927704 0.14334077684452559 0 -0.16192678787326381 0.1411604221552181 0 -0.1647512889713186 0.13637189047016421 0 -0.18094950569511359 0.11955400565695309 0 -0.191820935418584 0.1327497104462681 0 -0.18522072511486429 0.1379737085749663 0 -0.1713361554927704 0.14334077684452559 0 -0.1647512889713186 0.13637189047016421 0 -0.18522072511486429 0.1379737085749663 0 -0.1647512889713186 0.13637189047016421 0 -0.18522072511486429 0.1379737085749663 0 -0.18094950569511359 0.11955400565695309 0 -0.17453194704302319 0.12878000077158869 0 -0.18522072511486429 0.1379737085749663 0 -0.1647512889713186 0.13637189047016421 0 -0.17453194704302319 0.12878000077158869 0 -0.18522072511486429 0.1379737085749663 0 -0.18094950569511359 0.11955400565695309 0 -0.18522072511486429 0.1379737085749663 0 -0.1882848124020372 0.13821348608798029 0 -0.18522072511486429 0.1379737085749663 0 -0.18038686571984519 0.1443811278673085 0 -0.1874846800136192 0.14773705073950119 0 -0.17750590225812751 0.14847297531024131 0 -0.1713361554927704 0.14334077684452559 0 -0.17750590225812751 0.14847297531024131 0 -0.17247304501528171 0.16022213531101329 0 -0.18522072511486429 0.1379737085749663 0 -0.1874846800136192 0.14773705073950119 0 -0.18522072511486429 0.1379737085749663 0 -0.18038686571984519 0.1443811278673085 0 -0.1874846800136192 0.14773705073950119 0 -0.1882848124020372 0.13821348608798029 0 -0.18522072511486429 0.1379737085749663 0 -0.1874846800136192 0.14773705073950119 0 -0.1713361554927704 0.14334077684452559 0 -0.18038686571984519 0.1443811278673085 0 -0.17750590225812751 0.14847297531024131 0 -0.1713361554927704 0.14334077684452559 0 -0.18522072511486429 0.1379737085749663 0 -0.18038686571984519 0.1443811278673085 0 -0.1874846800136192 0.14773705073950119 0 -0.17750590225812751 0.14847297531024131 0 -0.17247304501528171 0.16022213531101329 0 -0.1874846800136192 0.14773705073950119 0 -0.17247304501528171 0.16022213531101329 0 -0.19224339878474059 0.16825910250510151 0 -0.1874846800136192 0.14773705073950119 0 -0.17247304501528171 0.16022213531101329 0 -0.19224339878474059 0.16825910250510151 0 -0.17247304501528171 0.16022213531101329 0 -0.18601943967026299 0.18470641307242811 0 -0.17247304501528171 0.16022213531101329 0 -0.18601943967026299 0.18470641307242811 0 -0.1708777734939933 0.17739850170737681 0 -0.17247304501528171 0.16022213531101329 0 -0.18601943967026299 0.18470641307242811 0 -0.18601943967026299 0.18470641307242811 0 -0.17559680926750121 0.18647987674638289 0 -0.1708777734939933 0.17739850170737681 0 -0.1682547504311209 0.19360973251447941 0 -0.1546217802962401 0.17506892246979289 0 -0.1682547504311209 0.19360973251447941 0 -0.1532662676507828 0.19077325441796941 0 -0.1546217802962401 0.17506892246979289 0 -0.1682547504311209 0.19360973251447941 0 -0.17559680926750121 0.18647987674638289 0 -0.1708777734939933 0.17739850170737681 0 -0.1682547504311209 0.19360973251447941 0 -0.1708777734939933 0.17739850170737681 0 -0.1546217802962401 0.17506892246979289 0 -0.17247304501528171 0.16022213531101329 0 -0.1558852727511397 0.15695132162027881 0 -0.1546217802962401 0.17506892246979289 0 -0.17247304501528171 0.16022213531101329 0 -0.1546217802962401 0.17506892246979289 0 -0.17247304501528171 0.16022213531101329 0 -0.1708777734939933 0.17739850170737681 0 -0.1546217802962401 0.17506892246979289 0 -0.1558852727511397 0.15695132162027881 0 -0.1546217802962401 0.17506892246979289 0 -0.13921709849023309 0.154118588365177 0 -0.1546217802962401 0.17506892246979289 0 -0.1365706083235784 0.1715954172317791 0 -0.13921709849023309 0.154118588365177 0 -0.1546217802962401 0.17506892246979289 0 -0.13921709849023309 0.154118588365177 0 -0.1532662676507828 0.19077325441796941 0 -0.13905206469341119 0.18801815925028259 0 -0.1546217802962401 0.17506892246979289 0 -0.13905206469341119 0.18801815925028259 0 -0.1546217802962401 0.17506892246979289 0 -0.1365706083235784 0.1715954172317791 0 -0.13905206469341119 0.18801815925028259 0 -0.1546217802962401 0.17506892246979289 0 -0.13905206469341119 0.18801815925028259 0 -0.1237352964109938 0.17670131132742839 0 -0.1187019022991877 0.19002215984854731 0 -0.13905206469341119 0.18801815925028259 0 -0.1365706083235784 0.1715954172317791 0 -0.1237352964109938 0.17670131132742839 0 -0.1365706083235784 0.1715954172317791 0 -0.12622680172701389 0.1640701047462145 0 -0.13921709849023309 0.154118588365177 0 -0.12622680172701389 0.1640701047462145 0 -0.13921709849023309 0.154118588365177 0 -0.1164636076616436 0.1521404113521877 0 -0.1365706083235784 0.1715954172317791 0 -0.12622680172701389 0.1640701047462145 0 -0.1237352964109938 0.17670131132742839 0 -0.13921709849023309 0.154118588365177 0 -0.12381241668422691 0.13316825426056031 0 -0.1164636076616436 0.1521404113521877 0 -0.13921709849023309 0.154118588365177 0 -0.12381241668422691 0.13316825426056031 0 -0.13921709849023309 0.154118588365177 0 -0.14428185282777281 0.1347700723653617 0 -0.12381241668422691 0.13316825426056031 0 -0.13921709849023309 0.154118588365177 0 -0.15032775298560239 0.14675010112650891 0 -0.14428185282777281 0.1347700723653617 0 -0.16192678787326381 0.1411604221552181 0 -0.1558852727511397 0.15695132162027881 0 -0.15032775298560239 0.14675010112650891 0 -0.16192678787326381 0.1411604221552181 0 -0.15032775298560239 0.14675010112650891 0 -0.14428185282777281 0.1347700723653617 0 -0.1558852727511397 0.15695132162027881 0 -0.13921709849023309 0.154118588365177 0 -0.15032775298560239 0.14675010112650891 0 -0.1647512889713186 0.13637189047016421 0 -0.14428185282777281 0.1347700723653617 0 -0.1647512889713186 0.13637189047016421 0 -0.15554477117086929 0.12564914735237839 0 -0.14428185282777281 0.1347700723653617 0 -0.14428185282777281 0.1347700723653617 0 -0.12381241668422691 0.13316825426056031 0 -0.13555127085324509 0.1197277393278956 0 -0.14428185282777281 0.1347700723653617 0 -0.12381241668422691 0.13316825426056031 0 -0.12381241668422691 0.13316825426056031 0 -0.111381703213609 0.1268898013591036 0 -0.1122596530848709 0.1174565206274932 0 -0.12381241668422691 0.13316825426056031 0 -0.1123242140592248 0.13226925485347621 0 -0.12381241668422691 0.13316825426056031 0 -0.1122596530848709 0.1174565206274932 0 -0.12381241668422691 0.13316825426056031 0 -0.1110517048636708 0.13946975719249319 0 -0.1123242140592248 0.13226925485347621 0 -0.1110517048636708 0.13946975719249319 0 -0.1123242140592248 0.13226925485347621 0 -0.1107156811544083 0.13233215200647791 0 -0.12381241668422691 0.13316825426056031 0 -0.1123242140592248 0.13226925485347621 0 -0.111381703213609 0.1268898013591036 0 -0.1123242140592248 0.13226925485347621 0 -0.1107156811544083 0.13233215200647791 0 -0.111381703213609 0.1268898013591036 0 -0.1107156811544083 0.13233215200647791 0 -0.089178858724338561 0.13097171985192929 0 -0.098976796174051251 0.12029000037555899 0 -0.1107156811544083 0.13233215200647791 0 -0.099492872937665511 0.13884543507270669 0 -0.089178858724338561 0.13097171985192929 0 -0.1107156811544083 0.13233215200647791 0 -0.089178858724338561 0.13097171985192929 0 -0.1107156811544083 0.13233215200647791 0 -0.111381703213609 0.1268898013591036 0 -0.098976796174051251 0.12029000037555899 0 -0.1110517048636708 0.13946975719249319 0 -0.1107156811544083 0.13233215200647791 0 -0.099492872937665511 0.13884543507270669 0 -0.1032687722125379 0.1478060095741843 0 -0.1020525931816542 0.1577475492334193 0 -0.090840577498372335 0.14985798092432781 0 -0.099492872937665511 0.13884543507270669 0 -0.1032687722125379 0.1478060095741843 0 -0.090840577498372335 0.14985798092432781 0 -0.1110517048636708 0.13946975719249319 0 -0.099492872937665511 0.13884543507270669 0 -0.1032687722125379 0.1478060095741843 0 -0.1032687722125379 0.1478060095741843 0 -0.1164636076616436 0.1521404113521877 0 -0.1020525931816542 0.1577475492334193 0 -0.12381241668422691 0.13316825426056031 0 -0.1110517048636708 0.13946975719249319 0 -0.1164636076616436 0.1521404113521877 0 -0.1110517048636708 0.13946975719249319 0 -0.1032687722125379 0.1478060095741843 0 -0.1164636076616436 0.1521404113521877 0 -0.12622680172701389 0.1640701047462145 0 -0.1164636076616436 0.1521404113521877 0 -0.11297861954559391 0.16587536692405949 0 -0.12622680172701389 0.1640701047462145 0 -0.11297861954559391 0.16587536692405949 0 -0.1237352964109938 0.17670131132742839 0 -0.1164636076616436 0.1521404113521877 0 -0.11297861954559391 0.16587536692405949 0 -0.1020525931816542 0.1577475492334193 0 -0.1237352964109938 0.17670131132742839 0 -0.112211271212838 0.17890338961624111 0 -0.1187019022991877 0.19002215984854731 0 -0.11297861954559391 0.16587536692405949 0 -0.1237352964109938 0.17670131132742839 0 -0.112211271212838 0.17890338961624111 0 -0.112211271212838 0.17890338961624111 0 -0.1187019022991877 0.19002215984854731 0 -0.1045255199248738 0.19205178715918739 0 -0.1011384063619952 0.17018694150711561 0 -0.085713895169174728 0.17496048919485921 0 -0.10055807916991311 0.19119188640206891 0 -0.1011384063619952 0.17018694150711561 0 -0.1045255199248738 0.19205178715918739 0 -0.10055807916991311 0.19119188640206891 0 -0.1011384063619952 0.17018694150711561 0 -0.1045255199248738 0.19205178715918739 0 -0.112211271212838 0.17890338961624111 0 -0.1011384063619952 0.17018694150711561 0 -0.1045255199248738 0.19205178715918739 0 -0.11297861954559391 0.16587536692405949 0 -0.1020525931816542 0.1577475492334193 0 -0.1011384063619952 0.17018694150711561 0 -0.11297861954559391 0.16587536692405949 0 -0.112211271212838 0.17890338961624111 0 -0.1011384063619952 0.17018694150711561 0 -0.1020525931816542 0.1577475492334193 0 -0.1011384063619952 0.17018694150711561 0 -0.087625575809782544 0.1606185851186413 0 -0.087625575809782544 0.1606185851186413 0 -0.085713895169174728 0.17496048919485921 0 -0.070869711168436406 0.15872909198764951 0 -0.085713895169174728 0.17496048919485921 0 -0.070869711168436406 0.15872909198764951 0 -0.087625575809782544 0.1606185851186413 0 -0.070869711168436406 0.15872909198764951 0 -0.080327040634603997 0.15062934870135611 0 -0.1011384063619952 0.17018694150711561 0 -0.087625575809782544 0.1606185851186413 0 -0.085713895169174728 0.17496048919485921 0 -0.085713895169174728 0.17496048919485921 0 -0.10055807916991311 0.19119188640206891 0 -0.085713895169174728 0.17496048919485921 0 -0.10055807916991311 0.19119188640206891 0 -0.08798140175631447 0.18903758726007591 0 -0.085713895169174728 0.17496048919485921 0 -0.079349943840950538 0.185306542726279 0 -0.072828032970530726 0.17572942929580129 0 -0.085713895169174728 0.17496048919485921 0 -0.079349943840950538 0.185306542726279 0 -0.08798140175631447 0.18903758726007591 0 -0.072828032970530726 0.17572942929580129 0 -0.068098521468996642 0.19011124280595501 0 -0.060736419346617332 0.16777498675267749 0 -0.068098521468996642 0.19011124280595501 0 -0.060736419346617332 0.16777498675267749 0 -0.079349943840950538 0.185306542726279 0 -0.072828032970530726 0.17572942929580129 0 -0.068098521468996642 0.19011124280595501 0 -0.072828032970530726 0.17572942929580129 0 -0.070869711168436406 0.15872909198764951 0 -0.060736419346617332 0.16777498675267749 0 -0.085713895169174728 0.17496048919485921 0 -0.072828032970530726 0.17572942929580129 0 -0.070869711168436406 0.15872909198764951 0 -0.070869711168436406 0.15872909198764951 0 -0.070663575033186682 0.1440141477839538 0 -0.056025527167698257 0.14249769478043969 0 -0.070869711168436406 0.15872909198764951 0 -0.056025527167698257 0.14249769478043969 0 -0.070869711168436406 0.15872909198764951 0 -0.070663575033186682 0.1440141477839538 0 -0.080327040634603997 0.15062934870135611 0 -0.070663575033186682 0.1440141477839538 0 -0.081635763663242017 0.1399269376922079 0 -0.080327040634603997 0.15062934870135611 0 -0.070663575033186682 0.1440141477839538 0 -0.067642036294268848 0.12961128769738181 0 -0.056025527167698257 0.14249769478043969 0 -0.067642036294268848 0.12961128769738181 0 -0.067590993058720891 0.1254124308508304 0 -0.070216716689920355 0.1227339065238708 0 -0.067642036294268848 0.12961128769738181 0 -0.067590993058720891 0.1254124308508304 0 -0.064269202538017628 0.122862251816772 0 -0.067642036294268848 0.12961128769738181 0 -0.070216716689920355 0.1227339065238708 0 -0.079987968592669184 0.1227003892801261 0 -0.070663575033186682 0.1440141477839538 0 -0.067642036294268848 0.12961128769738181 0 -0.081635763663242017 0.1399269376922079 0 -0.067642036294268848 0.12961128769738181 0 -0.089178858724338561 0.13097171985192929 0 -0.079987968592669184 0.1227003892801261 0 -0.067642036294268848 0.12961128769738181 0 -0.089178858724338561 0.13097171985192929 0 -0.067642036294268848 0.12961128769738181 0 -0.089178858724338561 0.13097171985192929 0 -0.081635763663242017 0.1399269376922079 0 -0.099492872937665511 0.13884543507270669 0 -0.089178858724338561 0.13097171985192929 0 -0.081635763663242017 0.1399269376922079 0 -0.099492872937665511 0.13884543507270669 0 -0.081635763663242017 0.1399269376922079 0 -0.090840577498372335 0.14985798092432781 0 -0.1020525931816542 0.1577475492334193 0 -0.087625575809782544 0.1606185851186413 0 -0.090840577498372335 0.14985798092432781 0 -0.087625575809782544 0.1606185851186413 0 -0.090840577498372335 0.14985798092432781 0 -0.080327040634603997 0.15062934870135611 0 -0.081635763663242017 0.1399269376922079 0 -0.090840577498372335 0.14985798092432781 0 -0.080327040634603997 0.15062934870135611 0 -0.1139546125557739 0.25291944074870898 0 -0.095899470041642246 0.24465461395185101 0 -0.095899470041642246 0.24465461395185101 0 -0.1024198819976649 0.23699364107716361 0 -0.1132373374395927 0.2482892122623577 0 -0.1139546125557739 0.25291944074870898 0 -0.095899470041642246 0.24465461395185101 0 -0.1132373374395927 0.2482892122623577 0 -0.095899470041642246 0.24465461395185101 0 -0.1132373374395927 0.2482892122623577 0 -0.1024198819976649 0.23699364107716361 0 -0.1132373374395927 0.2482892122623577 0 -0.11057498546367189 0.23110292253680861 0 -0.095899470041642246 0.24465461395185101 0 -0.1024198819976649 0.23699364107716361 0 -0.09216809768224403 0.23602823456452959 0 -0.12648633267218329 0.2374374328555271 0 -0.1132373374395927 0.2482892122623577 0 -0.11057498546367189 0.23110292253680861 0 -0.1132373374395927 0.2482892122623577 0 -0.11057498546367189 0.23110292253680861 0 -0.12648633267218329 0.2374374328555271 0 -0.11057498546367189 0.23110292253680861 0 -0.123817973102626 0.2202036132319922 0 -0.11057498546367189 0.23110292253680861 0 -0.123817973102626 0.2202036132319922 0 -0.10791263348775131 0.21391663281125939 0 -0.11057498546367189 0.23110292253680861 0 -0.095367679600752778 0.22435019386188421 0 -0.10791263348775131 0.21391663281125939 0 -0.095367679600752778 0.22435019386188421 0 -0.10791263348775131 0.21391663281125939 0 -0.11057498546367189 0.23110292253680861 0 -0.10791263348775131 0.21391663281125939 0 -0.1024198819976649 0.23699364107716361 0 -0.11057498546367189 0.23110292253680861 0 -0.095367679600752778 0.22435019386188421 0 -0.1024198819976649 0.23699364107716361 0 -0.095367679600752778 0.22435019386188421 0 -0.09216809768224403 0.23602823456452959 0 -0.096495060594929488 0.2141752400979379 0 -0.097410313711887575 0.2059912706469986 0 -0.10791263348775131 0.21391663281125939 0 -0.095367679600752778 0.22435019386188421 0 -0.096495060594929488 0.2141752400979379 0 -0.10791263348775131 0.21391663281125939 0 -0.096495060594929488 0.2141752400979379 0 -0.097410313711887575 0.2059912706469986 0 -0.088201710689619767 0.20801581780479639 0 -0.097410313711887575 0.2059912706469986 0 -0.10791263348775131 0.21391663281125939 0 -0.1006384190395489 0.19968436738207901 0 -0.123817973102626 0.2202036132319922 0 -0.10791263348775131 0.21391663281125939 0 -0.12348234909058051 0.20096739603077021 0 -0.10791263348775131 0.21391663281125939 0 -0.11318558685695709 0.19967050334917899 0 -0.12348234909058051 0.20096739603077021 0 -0.10791263348775131 0.21391663281125939 0 -0.12348234909058051 0.20096739603077021 0 -0.11318558685695709 0.19967050334917899 0 -0.12348234909058051 0.20096739603077021 0 -0.1187019022991877 0.19002215984854731 0 -0.11318558685695709 0.19967050334917899 0 -0.1187019022991877 0.19002215984854731 0 -0.1045255199248738 0.19205178715918739 0 -0.10791263348775131 0.21391663281125939 0 -0.1045255199248738 0.19205178715918739 0 -0.10791263348775131 0.21391663281125939 0 -0.11318558685695709 0.19967050334917899 0 -0.1045255199248738 0.19205178715918739 0 -0.1045255199248738 0.19205178715918739 0 -0.1006384190395489 0.19968436738207901 0 -0.10055807916991311 0.19119188640206891 0 -0.10791263348775131 0.21391663281125939 0 -0.1045255199248738 0.19205178715918739 0 -0.1006384190395489 0.19968436738207901 0 -0.097410313711887575 0.2059912706469986 0 -0.1006384190395489 0.19968436738207901 0 -0.092780232900995796 0.19861275827006711 0 -0.1006384190395489 0.19968436738207901 0 -0.10055807916991311 0.19119188640206891 0 -0.092780232900995796 0.19861275827006711 0 -0.10055807916991311 0.19119188640206891 0 -0.08798140175631447 0.18903758726007591 0 -0.092780232900995796 0.19861275827006711 0 -0.08798140175631447 0.18903758726007591 0 -0.092780232900995796 0.19861275827006711 0 -0.082127867839736149 0.1966939650747036 0 -0.092780232900995796 0.19861275827006711 0 -0.082127867839736149 0.1966939650747036 0 -0.088201710689619767 0.20801581780479639 0 -0.079349943840950538 0.185306542726279 0 -0.08798140175631447 0.18903758726007591 0 -0.082127867839736149 0.1966939650747036 0 -0.079349943840950538 0.185306542726279 0 -0.082127867839736149 0.1966939650747036 0 -0.068098521468996642 0.19011124280595501 0 -0.068098521468996642 0.19011124280595501 0 -0.075460623591375967 0.2124474988592327 0 -0.082127867839736149 0.1966939650747036 0 -0.068098521468996642 0.19011124280595501 0 -0.075460623591375967 0.2124474988592327 0 -0.068098521468996642 0.19011124280595501 0 -0.075460623591375967 0.2124474988592327 0 -0.058166415853446847 0.20848692501919591 0 -0.075460623591375967 0.2124474988592327 0 -0.064447747308749193 0.23025743926067499 0 -0.058166415853446847 0.20848692501919591 0 -0.075460623591375967 0.2124474988592327 0 -0.088201710689619767 0.20801581780479639 0 -0.087669560038086722 0.21875450110727229 0 -0.082127867839736149 0.1966939650747036 0 -0.075460623591375967 0.2124474988592327 0 -0.088201710689619767 0.20801581780479639 0 -0.097410313711887575 0.2059912706469986 0 -0.092780232900995796 0.19861275827006711 0 -0.088201710689619767 0.20801581780479639 0 -0.096495060594929488 0.2141752400979379 0 -0.088201710689619767 0.20801581780479639 0 -0.087669560038086722 0.21875450110727229 0 -0.075460623591375967 0.2124474988592327 0 -0.08282272571375543 0.2347837549125103 0 -0.075460623591375967 0.2124474988592327 0 -0.087669560038086722 0.21875450110727229 0 -0.08282272571375543 0.2347837549125103 0 -0.095367679600752778 0.22435019386188421 0 -0.087669560038086722 0.21875450110727229 0 -0.08282272571375543 0.2347837549125103 0 -0.095367679600752778 0.22435019386188421 0 -0.096495060594929488 0.2141752400979379 0 -0.087669560038086722 0.21875450110727229 0 -0.095367679600752778 0.22435019386188421 0 -0.08282272571375543 0.2347837549125103 0 -0.09216809768224403 0.23602823456452959 0 -0.095367679600752778 0.22435019386188421 0 -0.08282272571375543 0.2347837549125103 0 -0.074722171638248472 0.2281080878798771 0 -0.079809873865678366 0.23728952527855329 0 -0.08282272571375543 0.2347837549125103 0 -0.075460623591375967 0.2124474988592327 0 -0.074722171638248472 0.2281080878798771 0 -0.08282272571375543 0.2347837549125103 0 -0.075460623591375967 0.2124474988592327 0 -0.064447747308749193 0.23025743926067499 0 -0.074722171638248472 0.2281080878798771 0 -0.064447747308749193 0.23025743926067499 0 -0.079809873865678366 0.23728952527855329 0 -0.064447747308749193 0.23025743926067499 0 -0.074722171638248472 0.2281080878798771 0 -0.079809873865678366 0.23728952527855329 0 -0.075976142101070843 0.24047801642631211 0 -0.066844302080345003 0.23856367658570671 0 -0.069056986348909832 0.24623263574251739 0 -0.075976142101070843 0.24047801642631211 0 -0.066844302080345003 0.23856367658570671 0 -0.079809873865678366 0.23728952527855329 0 -0.064447747308749193 0.23025743926067499 0 -0.066844302080345003 0.23856367658570671 0 -0.079809873865678366 0.23728952527855329 0 -0.075976142101070843 0.24047801642631211 0 -0.066844302080345003 0.23856367658570671 0 -0.075976142101070843 0.24047801642631211 0 -0.079809873865678366 0.23728952527855329 0 -0.064447747308749193 0.23025743926067499 0 -0.066844302080345003 0.23856367658570671 0 -0.066844302080345003 0.23856367658570671 0 -0.069056986348909832 0.24623263574251739 0 -0.053727016073584467 0.24549115984460171 0 -0.066844302080345003 0.23856367658570671 0 -0.069056986348909832 0.24623263574251739 0 -0.075976142101070843 0.24047801642631211 0 -0.069056986348909832 0.24623263574251739 0 -0.080161358985251369 0.24910441659422339 0 -0.075976142101070843 0.24047801642631211 0 -0.069056986348909832 0.24623263574251739 0 -0.075976142101070843 0.24047801642631211 0 -0.080161358985251369 0.24910441659422339 0 -0.085347064928283617 0.24244247603913011 0 -0.087846419425038916 0.25002539475982699 0 -0.080161358985251369 0.24910441659422339 0 -0.085347064928283617 0.24244247603913011 0 -0.075976142101070843 0.24047801642631211 0 -0.079809873865678366 0.23728952527855329 0 -0.084330731057407932 0.2393589690192372 0 -0.075976142101070843 0.24047801642631211 0 -0.085347064928283617 0.24244247603913011 0 -0.075976142101070843 0.24047801642631211 0 -0.085347064928283617 0.24244247603913011 0 -0.084330731057407932 0.2393589690192372 0 -0.079809873865678366 0.23728952527855329 0 -0.08282272571375543 0.2347837549125103 0 -0.079809873865678366 0.23728952527855329 0 -0.08282272571375543 0.2347837549125103 0 -0.084330731057407932 0.2393589690192372 0 -0.08282272571375543 0.2347837549125103 0 -0.084330731057407932 0.2393589690192372 0 -0.079809873865678366 0.23728952527855329 0 -0.084330731057407932 0.2393589690192372 0 -0.085347064928283617 0.24244247603913011 0 -0.084330731057407932 0.2393589690192372 0 -0.095899470041642246 0.24465461395185101 0 -0.084330731057407932 0.2393589690192372 0 -0.08282272571375543 0.2347837549125103 0 -0.084330731057407932 0.2393589690192372 0 -0.09216809768224403 0.23602823456452959 0 -0.095899470041642246 0.24465461395185101 0 -0.085347064928283617 0.24244247603913011 0 -0.084330731057407932 0.2393589690192372 0 -0.095899470041642246 0.24465461395185101 0 -0.084330731057407932 0.2393589690192372 0 -0.09216809768224403 0.23602823456452959 0 -0.087846419425038916 0.25002539475982699 0 -0.095899470041642246 0.24465461395185101 0 -0.085347064928283617 0.24244247603913011 0 -0.095899470041642246 0.24465461395185101 0 -0.085347064928283617 0.24244247603913011 0 -0.087846419425038916 0.25002539475982699 0 -0.091944161823561771 0.25465332983941341 0 -0.095899470041642246 0.24465461395185101 0 -0.087846419425038916 0.25002539475982699 0 -0.085347064928283617 0.24244247603913011 0 -0.037505058957649627 0.2424167145473391 0 -0.044496305465871473 0.2338787872118353 0 -0.028420522582991801 0.23895545322445819 0 -0.037505058957649627 0.2424167145473391 0 -0.053727016073584467 0.24549115984460171 0 -0.044496305465871473 0.2338787872118353 0 -0.040614352755267667 0.25721351647262058 0 -0.037505058957649627 0.2424167145473391 0 -0.053727016073584467 0.24549115984460171 0 -0.066844302080345003 0.23856367658570671 0 -0.044496305465871473 0.2338787872118353 0 -0.066844302080345003 0.23856367658570671 0 -0.053727016073584467 0.24549115984460171 0 -0.044496305465871473 0.2338787872118353 0 -0.064447747308749193 0.23025743926067499 0 -0.04027081764832921 0.2191903354720148 0 -0.064447747308749193 0.23025743926067499 0 -0.066844302080345003 0.23856367658570671 0 -0.044496305465871473 0.2338787872118353 0 -0.064447747308749193 0.23025743926067499 0 -0.058166415853446847 0.20848692501919591 0 -0.064447747308749193 0.23025743926067499 0 -0.04027081764832921 0.2191903354720148 0 -0.044496305465871473 0.2338787872118353 0 -0.064447747308749193 0.23025743926067499 0 -0.04027081764832921 0.2191903354720148 0 -0.058166415853446847 0.20848692501919591 0 -0.044496305465871473 0.2338787872118353 0 -0.0221483088513964 0.2291938978379712 0 -0.04027081764832921 0.2191903354720148 0 -0.044496305465871473 0.2338787872118353 0 -0.0221483088513964 0.2291938978379712 0 -0.044496305465871473 0.2338787872118353 0 -0.0221483088513964 0.2291938978379712 0 -0.028420522582991801 0.23895545322445819 0 -0.04027081764832921 0.2191903354720148 0 -0.058166415853446847 0.20848692501919591 0 -0.0414262441511839 0.20013582025559251 0 -0.04027081764832921 0.2191903354720148 0 -0.031813010903851517 0.20561420870843031 0 -0.0414262441511839 0.20013582025559251 0 -0.058166415853446847 0.20848692501919591 0 -0.0414262441511839 0.20013582025559251 0 -0.051885084398137729 0.18671641077771869 0 -0.068098521468996642 0.19011124280595501 0 -0.058166415853446847 0.20848692501919591 0 -0.051885084398137729 0.18671641077771869 0 -0.058166415853446847 0.20848692501919591 0 -0.051885084398137729 0.18671641077771869 0 -0.0414262441511839 0.20013582025559251 0 -0.051885084398137729 0.18671641077771869 0 -0.03329204465070152 0.1847192225785694 0 -0.031813010903851517 0.20561420870843031 0 -0.0414262441511839 0.20013582025559251 0 -0.030987248196313492 0.1964696124683554 0 -0.0414262441511839 0.20013582025559251 0 -0.030987248196313492 0.1964696124683554 0 -0.03329204465070152 0.1847192225785694 0 -0.023795941354249731 0.19113744292540721 0 -0.01532344449188673 0.18764926318830591 0 -0.03329204465070152 0.1847192225785694 0 -0.023795941354249731 0.19113744292540721 0 -0.030987248196313492 0.1964696124683554 0 -0.03329204465070152 0.1847192225785694 0 -0.031813010903851517 0.20561420870843031 0 -0.030987248196313492 0.1964696124683554 0 -0.023873526266925429 0.20029957049177499 0 -0.023795941354249731 0.19113744292540721 0 -0.030987248196313492 0.1964696124683554 0 -0.023873526266925429 0.20029957049177499 0 -0.023873526266925429 0.20029957049177499 0 -0.016542707726507861 0.19724888188488371 0 -0.016093887987911792 0.20812323168334859 0 -0.023795941354249731 0.19113744292540721 0 -0.023873526266925429 0.20029957049177499 0 -0.016542707726507861 0.19724888188488371 0 -0.023795941354249731 0.19113744292540721 0 -0.016542707726507861 0.19724888188488371 0 -0.017603783108736091 0.19202442234777159 0 -0.016542707726507861 0.19724888188488371 0 -0.017603783108736091 0.19202442234777159 0 -0.01475303886230005 0.19206210139248939 0 -0.023795941354249731 0.19113744292540721 0 -0.017603783108736091 0.19202442234777159 0 -0.01532344449188673 0.18764926318830591 0 -0.017603783108736091 0.19202442234777159 0 -0.01532344449188673 0.18764926318830591 0 -0.01475303886230005 0.19206210139248939 0 -0.01475303886230005 0.19206210139248939 0 -0.01136205739571867 0.18819944689317331 0 -0.001589346560153329 0.20148370931046791 0 -0.01532344449188673 0.18764926318830591 0 -0.01475303886230005 0.19206210139248939 0 -0.01136205739571867 0.18819944689317331 0 -0.0066629366953797724 0.18999833803222901 0 -0.001589346560153329 0.20148370931046791 0 0.0017311615861355901 0.19160618149517469 0 -0.01136205739571867 0.18819944689317331 0 -0.001589346560153329 0.20148370931046791 0 -0.01136205739571867 0.18819944689317331 0 -0.0066629366953797724 0.18999833803222901 0 -0.001589346560153329 0.20148370931046791 0 -0.016542707726507861 0.19724888188488371 0 -0.001589346560153329 0.20148370931046791 0 -0.016093887987911792 0.20812323168334859 0 -0.016542707726507861 0.19724888188488371 0 -0.01475303886230005 0.19206210139248939 0 -0.001589346560153329 0.20148370931046791 0 -0.016093887987911792 0.20812323168334859 0 0.00019968776307876379 0.22450900846410751 0 -0.001589346560153329 0.20148370931046791 0 -0.016093887987911792 0.20812323168334859 0 0.00019968776307876379 0.22450900846410751 0 -0.001589346560153329 0.20148370931046791 0 -0.016093887987911792 0.20812323168334859 0 -0.04027081764832921 0.2191903354720148 0 -0.016093887987911792 0.20812323168334859 0 -0.031813010903851517 0.20561420870843031 0 -0.023873526266925429 0.20029957049177499 0 -0.016093887987911792 0.20812323168334859 0 -0.04027081764832921 0.2191903354720148 0 -0.031813010903851517 0.20561420870843031 0 -0.016093887987911792 0.20812323168334859 0 -0.023873526266925429 0.20029957049177499 0 -0.016093887987911792 0.20812323168334859 0 -0.04027081764832921 0.2191903354720148 0 -0.016093887987911792 0.20812323168334859 0 -0.0221483088513964 0.2291938978379712 0 -0.0221483088513964 0.2291938978379712 0 -0.015366227920990421 0.23960540924605911 0 0.00019968776307876379 0.22450900846410751 0 -0.0221483088513964 0.2291938978379712 0 0.00019968776307876379 0.22450900846410751 0 -0.016093887987911792 0.20812323168334859 0 -0.0221483088513964 0.2291938978379712 0 0.00019968776307876379 0.22450900846410751 0 -0.0056995695430253424 0.24881063984595411 0 -0.015366227920990421 0.23960540924605911 0 0.00019968776307876379 0.22450900846410751 0 -0.0056995695430253424 0.24881063984595411 0 -0.015366227920990421 0.23960540924605911 0 -0.02258671171905104 0.24968245727908639 0 -0.015366227920990421 0.23960540924605911 0 -0.02258671171905104 0.24968245727908639 0 -0.028420522582991801 0.23895545322445819 0 -0.0221483088513964 0.2291938978379712 0 -0.015366227920990421 0.23960540924605911 0 -0.028420522582991801 0.23895545322445819 0 -0.037505058957649627 0.2424167145473391 0 -0.02258671171905104 0.24968245727908639 0 -0.028420522582991801 0.23895545322445819 0 -0.037794951491563283 0.15097297922838671 0 -0.053374317224237133 0.14543873069940019 0 -0.034348880858061218 0.16654399694385241 0 -0.053374317224237133 0.14543873069940019 0 -0.034348880858061218 0.16654399694385241 0 -0.042517926161546288 0.14385908400083369 0 -0.037794951491563283 0.15097297922838671 0 -0.053374317224237133 0.14543873069940019 0 -0.042517926161546288 0.14385908400083369 0 -0.04388784808544488 0.1372274983754932 0 -0.048032944448651117 0.14099981993615601 0 -0.037794951491563283 0.15097297922838671 0 -0.0340459037102714 0.14609610363630979 0 -0.024687729503699438 0.1529269808615375 0 -0.042517926161546288 0.14385908400083369 0 -0.0340459037102714 0.14609610363630979 0 -0.03611223596052808 0.1376963078325561 0 -0.042517926161546288 0.14385908400083369 0 -0.037794951491563283 0.15097297922838671 0 -0.0340459037102714 0.14609610363630979 0 -0.0340459037102714 0.14609610363630979 0 -0.03611223596052808 0.1376963078325561 0 -0.028181735552292149 0.14066712910211501 0 -0.041393994417723429 0.1279532585113777 0 -0.040195452045668698 0.1328877825938366 0 -0.025129262899167271 0.1269258523647766 0 -0.041393994417723429 0.1279532585113777 0 -0.025129262899167271 0.1269258523647766 0 -0.03611223596052808 0.1376963078325561 0 -0.040195452045668698 0.1328877825938366 0 -0.025129262899167271 0.1269258523647766 0 -0.041393994417723429 0.1279532585113777 0 -0.044713442163284621 0.13104473062847549 0 -0.040195452045668698 0.1328877825938366 0 -0.041393994417723429 0.1279532585113777 0 -0.044713442163284621 0.13104473062847549 0 -0.047743242292869907 0.12835432607807981 0 -0.041393994417723429 0.1279532585113777 0 -0.044713442163284621 0.13104473062847549 0 -0.041393994417723429 0.1279532585113777 0 -0.047743242292869907 0.12835432607807981 0 -0.042517926161546288 0.14385908400083369 0 -0.03611223596052808 0.1376963078325561 0 -0.04388784808544488 0.1372274983754932 0 -0.03611223596052808 0.1376963078325561 0 -0.040195452045668698 0.1328877825938366 0 -0.04388784808544488 0.1372274983754932 0 -0.044713442163284621 0.13104473062847549 0 -0.040195452045668698 0.1328877825938366 0 -0.04388784808544488 0.1372274983754932 0 -0.044713442163284621 0.13104473062847549 0 -0.04388784808544488 0.1372274983754932 0 -0.050364779434270403 0.13630794093836229 0 -0.04388784808544488 0.1372274983754932 0 -0.050364779434270403 0.13630794093836229 0 -0.048032944448651117 0.14099981993615601 0 -0.067642036294268848 0.12961128769738181 0 -0.050364779434270403 0.13630794093836229 0 -0.056025527167698257 0.14249769478043969 0 -0.067642036294268848 0.12961128769738181 0 -0.050364779434270403 0.13630794093836229 0 -0.047743242292869907 0.12835432607807981 0 -0.067642036294268848 0.12961128769738181 0 -0.047743242292869907 0.12835432607807981 0 -0.067642036294268848 0.12961128769738181 0 -0.047743242292869907 0.12835432607807981 0 -0.064269202538017628 0.122862251816772 0 -0.044713442163284621 0.13104473062847549 0 -0.050364779434270403 0.13630794093836229 0 -0.050364779434270403 0.13630794093836229 0 -0.056025527167698257 0.14249769478043969 0 -0.044713442163284621 0.13104473062847549 0 -0.050364779434270403 0.13630794093836229 0 -0.047743242292869907 0.12835432607807981 0 -0.050364779434270403 0.13630794093836229 0 -0.047743242292869907 0.12835432607807981 0 -0.067642036294268848 0.12961128769738181 0 -0.056025527167698257 0.14249769478043969 0 -0.070869711168436406 0.15872909198764951 0 -0.056025527167698257 0.14249769478043969 0 -0.053374317224237133 0.14543873069940019 0 -0.056025527167698257 0.14249769478043969 0 -0.053374317224237133 0.14543873069940019 0 -0.050364779434270403 0.13630794093836229 0 -0.053374317224237133 0.14543873069940019 0 -0.042517926161546288 0.14385908400083369 0 -0.053374317224237133 0.14543873069940019 0 -0.048032944448651117 0.14099981993615601 0 -0.050364779434270403 0.13630794093836229 0 -0.053374317224237133 0.14543873069940019 0 -0.048032944448651117 0.14099981993615601 0 -0.050364779434270403 0.13630794093836229 0 -0.056025527167698257 0.14249769478043969 0 -0.053374317224237133 0.14543873069940019 0 -0.053374317224237133 0.14543873069940019 0 -0.060736419346617332 0.16777498675267749 0 -0.053374317224237133 0.14543873069940019 0 -0.060736419346617332 0.16777498675267749 0 -0.049150589312562797 0.16329662447370219 0 -0.070869711168436406 0.15872909198764951 0 -0.053374317224237133 0.14543873069940019 0 -0.060736419346617332 0.16777498675267749 0 -0.060736419346617332 0.16777498675267749 0 -0.049150589312562797 0.16329662447370219 0 -0.047937253390629923 0.17418849014703389 0 -0.068098521468996642 0.19011124280595501 0 -0.057164319651095398 0.17969778262084629 0 -0.051885084398137729 0.18671641077771869 0 -0.068098521468996642 0.19011124280595501 0 -0.060736419346617332 0.16777498675267749 0 -0.057164319651095398 0.17969778262084629 0 -0.060736419346617332 0.16777498675267749 0 -0.057164319651095398 0.17969778262084629 0 -0.047937253390629923 0.17418849014703389 0 -0.057164319651095398 0.17969778262084629 0 -0.047937253390629923 0.17418849014703389 0 -0.051885084398137729 0.18671641077771869 0 -0.047937253390629923 0.17418849014703389 0 -0.03329204465070152 0.1847192225785694 0 -0.034348880858061218 0.16654399694385241 0 -0.047937253390629923 0.17418849014703389 0 -0.051885084398137729 0.18671641077771869 0 -0.03329204465070152 0.1847192225785694 0 -0.053374317224237133 0.14543873069940019 0 -0.049150589312562797 0.16329662447370219 0 -0.034348880858061218 0.16654399694385241 0 -0.049150589312562797 0.16329662447370219 0 -0.047937253390629923 0.17418849014703389 0 -0.034348880858061218 0.16654399694385241 0 -0.037794951491563283 0.15097297922838671 0 -0.034348880858061218 0.16654399694385241 0 -0.024687729503699438 0.1529269808615375 0 -0.034348880858061218 0.16654399694385241 0 -0.018841043436444271 0.1629092472088933 0 -0.024687729503699438 0.1529269808615375 0 -0.034348880858061218 0.16654399694385241 0 -0.018841043436444271 0.1629092472088933 0 -0.021574988280812779 0.1763973923547027 0 -0.018841043436444271 0.1629092472088933 0 -0.021574988280812779 0.1763973923547027 0 -0.0090614930587861481 0.17120137051503201 0 -0.01532344449188673 0.18764926318830591 0 -0.034348880858061218 0.16654399694385241 0 -0.021574988280812779 0.1763973923547027 0 -0.01532344449188673 0.18764926318830591 0 -0.034348880858061218 0.16654399694385241 0 -0.01532344449188673 0.18764926318830591 0 -0.03329204465070152 0.1847192225785694 0 -0.034348880858061218 0.16654399694385241 0 -0.01532344449188673 0.18764926318830591 0 -0.01136205739571867 0.18819944689317331 0 -0.021574988280812779 0.1763973923547027 0 -0.01136205739571867 0.18819944689317331 0 -0.021574988280812779 0.1763973923547027 0 -0.01136205739571867 0.18819944689317331 0 -0.0066629366953797724 0.18999833803222901 0 0.01344576801394029 0.18333649714282829 0 -0.01136205739571867 0.18819944689317331 0 -0.021574988280812779 0.1763973923547027 0 -0.0087171138724231531 0.1796617750013334 0 -0.021574988280812779 0.1763973923547027 0 -0.0087171138724231531 0.1796617750013334 0 -0.0090614930587861481 0.17120137051503201 0 -0.0087171138724231531 0.1796617750013334 0 -0.001324430570601732 0.1741405339803169 0 -0.0090614930587861481 0.17120137051503201 0 -0.0087171138724231531 0.1796617750013334 0 -0.001324430570601732 0.1741405339803169 0 -0.00051260274126067287 0.18121067213763981 0 -0.01136205739571867 0.18819944689317331 0 -0.0087171138724231531 0.1796617750013334 0 -0.00051260274126067287 0.18121067213763981 0 -0.018841043436444271 0.1629092472088933 0 -0.0081316537854729861 0.15837712695760689 0 -0.014758050703267149 0.1509602879690698 0 -0.018841043436444271 0.1629092472088933 0 -0.0081316537854729861 0.15837712695760689 0 -0.0090614930587861481 0.17120137051503201 0 -0.0081316537854729861 0.15837712695760689 0 -0.0090614930587861481 0.17120137051503201 0 -0.00070541203608843984 0.1630392700939233 0 -0.001324430570601732 0.1741405339803169 0 -0.0090614930587861481 0.17120137051503201 0 -0.00070541203608843984 0.1630392700939233 0 -0.0081316537854729861 0.15837712695760689 0 -0.00070541203608843984 0.1630392700939233 0 0.0011711219489800449 0.15271394953975989 0 -0.0081316537854729861 0.15837712695760689 0 -0.0065950454272319589 0.14943863641896299 0 0.0011711219489800449 0.15271394953975989 0 -0.0065950454272319589 0.14943863641896299 0 -0.00097805911919941865 0.1419087685033614 0 -0.01043528733087414 0.14159549761637719 0 -0.0065950454272319589 0.14943863641896299 0 -0.00097805911919941865 0.1419087685033614 0 0.0011711219489800449 0.15271394953975989 0 -0.01043528733087414 0.14159549761637719 0 -0.014758050703267149 0.1509602879690698 0 -0.019903241487262961 0.1407520500796989 0 -0.0065950454272319589 0.14943863641896299 0 -0.01043528733087414 0.14159549761637719 0 -0.014758050703267149 0.1509602879690698 0 -0.0081316537854729861 0.15837712695760689 0 -0.0065950454272319589 0.14943863641896299 0 -0.014758050703267149 0.1509602879690698 0 -0.018841043436444271 0.1629092472088933 0 -0.014758050703267149 0.1509602879690698 0 -0.024687729503699438 0.1529269808615375 0 -0.014758050703267149 0.1509602879690698 0 -0.019903241487262961 0.1407520500796989 0 -0.024687729503699438 0.1529269808615375 0 -0.0340459037102714 0.14609610363630979 0 -0.028181735552292149 0.14066712910211501 0 -0.024687729503699438 0.1529269808615375 0 -0.019903241487262961 0.1407520500796989 0 -0.028181735552292149 0.14066712910211501 0 -0.024687729503699438 0.1529269808615375 0 -0.019903241487262961 0.1407520500796989 0 -0.028181735552292149 0.14066712910211501 0 -0.025129262899167271 0.1269258523647766 0 -0.03611223596052808 0.1376963078325561 0 -0.028181735552292149 0.14066712910211501 0 -0.025129262899167271 0.1269258523647766 0 -0.019903241487262961 0.1407520500796989 0 -0.025129262899167271 0.1269258523647766 0 -0.013740091926029039 0.1313373952414193 0 -0.025129262899167271 0.1269258523647766 0 -0.013740091926029039 0.1313373952414193 0 -0.01278459587341294 0.1205260062236844 0 -0.013740091926029039 0.1313373952414193 0 -0.0054084845452745988 0.1249371053928276 0 -0.01278459587341294 0.1205260062236844 0 -0.013740091926029039 0.1313373952414193 0 -0.0052693219901578346 0.1337219935135508 0 -0.0054084845452745988 0.1249371053928276 0 -0.01043528733087414 0.14159549761637719 0 -0.019903241487262961 0.1407520500796989 0 -0.013740091926029039 0.1313373952414193 0 -0.01043528733087414 0.14159549761637719 0 -0.013740091926029039 0.1313373952414193 0 -0.0052693219901578346 0.1337219935135508 0 -0.00097805911919941865 0.1419087685033614 0 -0.0052693219901578346 0.1337219935135508 0 0.0059239200155680044 0.1300880145081178 0 -0.00097805911919941865 0.1419087685033614 0 -0.01043528733087414 0.14159549761637719 0 -0.0052693219901578346 0.1337219935135508 0 -0.0052693219901578346 0.1337219935135508 0 -0.0054084845452745988 0.1249371053928276 0 0.0059239200155680044 0.1300880145081178 0 -0.0054084845452745988 0.1249371053928276 0 -0.0069681455254653928 0.11595865654167439 0 0.00161899537904374 0.1187473658997415 0 -0.0054084845452745988 0.1249371053928276 0 -0.01278459587341294 0.1205260062236844 0 -0.0069681455254653928 0.11595865654167439 0 -0.01278459587341294 0.1205260062236844 0 -0.014010532302401549 0.11486886439061519 0 -0.01870450414101154 0.1183349840377 0 -0.014010532302401549 0.11486886439061519 0 -0.0089300856766541259 0.1082137598020091 0 -0.022284838306129331 0.11179708564181461 0 -0.01278459587341294 0.1205260062236844 0 -0.014010532302401549 0.11486886439061519 0 -0.0069681455254653928 0.11595865654167439 0 -0.014010532302401549 0.11486886439061519 0 -0.0069681455254653928 0.11595865654167439 0 -0.0089300856766541259 0.1082137598020091 0 -0.0069681455254653928 0.11595865654167439 0 -0.001333648451441927 0.1109504403439602 0 -0.0089300856766541259 0.1082137598020091 0 -0.0069681455254653928 0.11595865654167439 0 -0.001333648451441927 0.1109504403439602 0 0.00161899537904374 0.1187473658997415 0 -0.001069719932619818 0.1036219918733553 0 -0.003175682194534461 0.095640912772252423 0 -0.0089300856766541259 0.1082137598020091 0 -0.003175682194534461 0.095640912772252423 0 -0.0089300856766541259 0.1082137598020091 0 -0.022284838306129331 0.11179708564181461 0 -0.003175682194534461 0.095640912772252423 0 -0.01340288624808232 0.095891898547238869 0 -0.022284838306129331 0.11179708564181461 0 -0.001333648451441927 0.1109504403439602 0 -0.001069719932619818 0.1036219918733553 0 -0.0089300856766541259 0.1082137598020091 0 -0.003175682194534461 0.095640912772252423 0 -0.022284838306129331 0.11179708564181461 0 -0.01340288624808232 0.095891898547238869 0 -0.027214195584354312 0.097159476144461646 0 -0.028104283197050071 0.1119671650197972 0 -0.01340288624808232 0.095891898547238869 0 -0.028104283197050071 0.1119671650197972 0 -0.022284838306129331 0.11179708564181461 0 -0.01340288624808232 0.095891898547238869 0 -0.028104283197050071 0.1119671650197972 0 -0.027214195584354312 0.097159476144461646 0 -0.028104283197050071 0.1119671650197972 0 -0.036175706912119548 0.10309692989847651 0 -0.041393994417723429 0.1279532585113777 0 -0.028104283197050071 0.1119671650197972 0 -0.022284838306129331 0.11179708564181461 0 -0.041393994417723429 0.1279532585113777 0 -0.025129262899167271 0.1269258523647766 0 -0.022284838306129331 0.11179708564181461 0 -0.025129262899167271 0.1269258523647766 0 -0.01278459587341294 0.1205260062236844 0 -0.01870450414101154 0.1183349840377 0 -0.025129262899167271 0.1269258523647766 0 -0.01870450414101154 0.1183349840377 0 -0.022284838306129331 0.11179708564181461 0 -0.014010532302401549 0.11486886439061519 0 -0.01870450414101154 0.1183349840377 0 -0.022284838306129331 0.11179708564181461 0 -0.0084906221752836016 0.068652433082301886 0 0.0013024964620959271 0.05535878318175054 0 0.002422932715842983 0.073009312654500419 0 -0.0084906221752836016 0.068652433082301886 0 -0.020886055839210899 0.070354965983526516 0 -0.017293068300753781 0.056308738345618607 0 -0.0084906221752836016 0.068652433082301886 0 -0.0094793422212290229 0.082693964760066657 0 0.002422932715842983 0.073009312654500419 0 -0.0084906221752836016 0.068652433082301886 0 -0.0094793422212290229 0.082693964760066657 0 -0.020886055839210899 0.070354965983526516 0 -0.003175682194534461 0.095640912772252423 0 -0.0094793422212290229 0.082693964760066657 0 0.002422932715842983 0.073009312654500419 0 -0.003175682194534461 0.095640912772252423 0 -0.01340288624808232 0.095891898547238869 0 -0.0094793422212290229 0.082693964760066657 0 -0.01340288624808232 0.095891898547238869 0 -0.0094793422212290229 0.082693964760066657 0 -0.022854735124356821 0.084119036234683392 0 -0.022854735124356821 0.084119036234683392 0 -0.034605505356763412 0.071674595143966333 0 -0.036064331380908497 0.089815178965562376 0 -0.01340288624808232 0.095891898547238869 0 -0.027214195584354312 0.097159476144461646 0 -0.022854735124356821 0.084119036234683392 0 -0.027214195584354312 0.097159476144461646 0 -0.022854735124356821 0.084119036234683392 0 -0.036064331380908497 0.089815178965562376 0 -0.0094793422212290229 0.082693964760066657 0 -0.022854735124356821 0.084119036234683392 0 -0.020886055839210899 0.070354965983526516 0 -0.020886055839210899 0.070354965983526516 0 -0.034605505356763412 0.071674595143966333 0 -0.032229321421617052 0.055769315791265518 0 -0.022854735124356821 0.084119036234683392 0 -0.020886055839210899 0.070354965983526516 0 -0.034605505356763412 0.071674595143966333 0 -0.034605505356763412 0.071674595143966333 0 -0.048704330146127087 0.069508965888233645 0 -0.047615075088516458 0.055299853822334662 0 -0.034605505356763412 0.071674595143966333 0 -0.049365040877556728 0.08274696069506976 0 -0.048704330146127087 0.069508965888233645 0 -0.036064331380908497 0.089815178965562376 0 -0.049365040877556728 0.08274696069506976 0 -0.048920333972823977 0.099577509077144688 0 -0.034605505356763412 0.071674595143966333 0 -0.036064331380908497 0.089815178965562376 0 -0.049365040877556728 0.08274696069506976 0 -0.049365040877556728 0.08274696069506976 0 -0.061754685100226817 0.068939430796485318 0 -0.065169831796626276 0.090852600976531805 0 -0.049365040877556728 0.08274696069506976 0 -0.048920333972823977 0.099577509077144688 0 -0.065169831796626276 0.090852600976531805 0 -0.049365040877556728 0.08274696069506976 0 -0.061754685100226817 0.068939430796485318 0 -0.048704330146127087 0.069508965888233645 0 -0.061754685100226817 0.068939430796485318 0 -0.048704330146127087 0.069508965888233645 0 -0.047615075088516458 0.055299853822334662 0 -0.041393994417723429 0.1279532585113777 0 -0.028104283197050071 0.1119671650197972 0 -0.041393994417723429 0.1279532585113777 0 -0.022284838306129331 0.11179708564181461 0 -0.041393994417723429 0.1279532585113777 0 -0.028104283197050071 0.1119671650197972 0 -0.042644914423829547 0.11288624986377351 0 -0.047743242292869907 0.12835432607807981 0 -0.042644914423829547 0.11288624986377351 0 -0.041393994417723429 0.1279532585113777 0 -0.047743242292869907 0.12835432607807981 0 -0.042644914423829547 0.11288624986377351 0 -0.028104283197050071 0.1119671650197972 0 -0.042644914423829547 0.11288624986377351 0 -0.036175706912119548 0.10309692989847651 0 -0.027214195584354312 0.097159476144461646 0 -0.036064331380908497 0.089815178965562376 0 -0.036175706912119548 0.10309692989847651 0 -0.036064331380908497 0.089815178965562376 0 -0.036175706912119548 0.10309692989847651 0 -0.048920333972823977 0.099577509077144688 0 -0.042644914423829547 0.11288624986377351 0 -0.036175706912119548 0.10309692989847651 0 -0.048920333972823977 0.099577509077144688 0 -0.048920333972823977 0.099577509077144688 0 -0.060240794730620377 0.1050158766286587 0 -0.051672679898570432 0.1125654803136682 0 -0.042644914423829547 0.11288624986377351 0 -0.048920333972823977 0.099577509077144688 0 -0.051672679898570432 0.1125654803136682 0 -0.048920333972823977 0.099577509077144688 0 -0.060240794730620377 0.1050158766286587 0 -0.065169831796626276 0.090852600976531805 0 -0.047743242292869907 0.12835432607807981 0 -0.058814114072708479 0.11699343992068149 0 -0.064269202538017628 0.122862251816772 0 -0.047743242292869907 0.12835432607807981 0 -0.058814114072708479 0.11699343992068149 0 -0.051672679898570432 0.1125654803136682 0 -0.047743242292869907 0.12835432607807981 0 -0.042644914423829547 0.11288624986377351 0 -0.051672679898570432 0.1125654803136682 0 -0.060240794730620377 0.1050158766286587 0 -0.058814114072708479 0.11699343992068149 0 -0.051672679898570432 0.1125654803136682 0 -0.060240794730620377 0.1050158766286587 0 -0.058814114072708479 0.11699343992068149 0 -0.068194560810947241 0.1163855611927631 0 -0.058814114072708479 0.11699343992068149 0 -0.064269202538017628 0.122862251816772 0 -0.068194560810947241 0.1163855611927631 0 -0.064269202538017628 0.122862251816772 0 -0.070216716689920355 0.1227339065238708 0 -0.068194560810947241 0.1163855611927631 0 -0.067590993058720891 0.1254124308508304 0 -0.064269202538017628 0.122862251816772 0 -0.070216716689920355 0.1227339065238708 0 -0.060240794730620377 0.1050158766286587 0 -0.068194560810947241 0.1163855611927631 0 -0.075310697451589734 0.1081165718388296 0 -0.068194560810947241 0.1163855611927631 0 -0.079987968592669184 0.1227003892801261 0 -0.075310697451589734 0.1081165718388296 0 -0.070216716689920355 0.1227339065238708 0 -0.068194560810947241 0.1163855611927631 0 -0.079987968592669184 0.1227003892801261 0 -0.089178858724338561 0.13097171985192929 0 -0.079987968592669184 0.1227003892801261 0 -0.098976796174051251 0.12029000037555899 0 -0.079987968592669184 0.1227003892801261 0 -0.088182749841696537 0.1099994347884132 0 -0.098976796174051251 0.12029000037555899 0 -0.079987968592669184 0.1227003892801261 0 -0.088182749841696537 0.1099994347884132 0 -0.075310697451589734 0.1081165718388296 0 -0.088182749841696537 0.1099994347884132 0 -0.085931397504657045 0.097145425453126016 0 -0.1007068894855155 0.1017447869944255 0 -0.088182749841696537 0.1099994347884132 0 -0.085931397504657045 0.097145425453126016 0 -0.075310697451589734 0.1081165718388296 0 -0.085931397504657045 0.097145425453126016 0 -0.075310697451589734 0.1081165718388296 0 -0.065169831796626276 0.090852600976531805 0 -0.060240794730620377 0.1050158766286587 0 -0.075310697451589734 0.1081165718388296 0 -0.065169831796626276 0.090852600976531805 0 -0.065169831796626276 0.090852600976531805 0 -0.078912471350390756 0.066960706823331939 0 -0.089600678690574836 0.082111940646113865 0 -0.065169831796626276 0.090852600976531805 0 -0.089600678690574836 0.082111940646113865 0 -0.061754685100226817 0.068939430796485318 0 -0.078912471350390756 0.066960706823331939 0 -0.065601339100510775 0.053066254535491297 0 -0.061754685100226817 0.068939430796485318 0 -0.065169831796626276 0.090852600976531805 0 -0.078912471350390756 0.066960706823331939 0 -0.078912471350390756 0.066960706823331939 0 -0.089600678690574836 0.082111940646113865 0 -0.097404414649247512 0.065602143048147404 0 -0.085931397504657045 0.097145425453126016 0 -0.089600678690574836 0.082111940646113865 0 -0.1033178696139883 0.088797977194866276 0 -0.085931397504657045 0.097145425453126016 0 -0.065169831796626276 0.090852600976531805 0 -0.089600678690574836 0.082111940646113865 0 -0.089600678690574836 0.082111940646113865 0 -0.1033178696139883 0.088797977194866276 0 -0.1140315255845229 0.073371280315694495 0 -0.097404414649247512 0.065602143048147404 0 -0.1140315255845229 0.073371280315694495 0 -0.097404414649247512 0.065602143048147404 0 -0.1140315255845229 0.073371280315694495 0 -0.1098252037927008 0.061048042868125103 0 -0.089600678690574836 0.082111940646113865 0 -0.1140315255845229 0.073371280315694495 0 -0.089600678690574836 0.082111940646113865 0 -0.097404414649247512 0.065602143048147404 0 -0.1140315255845229 0.073371280315694495 0 -0.1140315255845229 0.073371280315694495 0 -0.123313990261863 0.056145434382516159 0 -0.1098252037927008 0.061048042868125103 0 -0.13269894467134469 0.082093766253321626 0 -0.1140315255845229 0.073371280315694495 0 -0.12596249164327 0.081654930772735779 0 -0.13269894467134469 0.082093766253321626 0 -0.1140315255845229 0.073371280315694495 0 -0.1033178696139883 0.088797977194866276 0 -0.1139469278747775 0.093650468344117735 0 -0.1156897985438821 0.084763961415720041 0 -0.1033178696139883 0.088797977194866276 0 -0.1140315255845229 0.073371280315694495 0 -0.1156897985438821 0.084763961415720041 0 -0.12596249164327 0.081654930772735779 0 -0.1140315255845229 0.073371280315694495 0 -0.1156897985438821 0.084763961415720041 0 -0.12596249164327 0.081654930772735779 0 -0.1156897985438821 0.084763961415720041 0 -0.12211852262909891 0.088601711304333058 0 -0.12916308144813141 0.093395965774513146 0 -0.12211852262909891 0.088601711304333058 0 -0.1219223393634596 0.096612265698231253 0 -0.1139469278747775 0.093650468344117735 0 -0.12211852262909891 0.088601711304333058 0 -0.1219223393634596 0.096612265698231253 0 -0.1139469278747775 0.093650468344117735 0 -0.1156897985438821 0.084763961415720041 0 -0.12211852262909891 0.088601711304333058 0 -0.1163891295019383 0.1049200579001159 0 -0.1122596530848709 0.1174565206274932 0 -0.1007068894855155 0.1017447869944255 0 -0.1139469278747775 0.093650468344117735 0 -0.1219223393634596 0.096612265698231253 0 -0.1163891295019383 0.1049200579001159 0 -0.1139469278747775 0.093650468344117735 0 -0.1163891295019383 0.1049200579001159 0 -0.1007068894855155 0.1017447869944255 0 -0.12799403536335169 0.1024931251680764 0 -0.1219223393634596 0.096612265698231253 0 -0.1163891295019383 0.1049200579001159 0 -0.12799403536335169 0.1024931251680764 0 -0.1163891295019383 0.1049200579001159 0 -0.1246884739219324 0.1134091289710715 0 -0.12381241668422691 0.13316825426056031 0 -0.1246884739219324 0.1134091289710715 0 -0.1122596530848709 0.1174565206274932 0 -0.1163891295019383 0.1049200579001159 0 -0.1246884739219324 0.1134091289710715 0 -0.1122596530848709 0.1174565206274932 0 -0.1122596530848709 0.1174565206274932 0 -0.1007068894855155 0.1017447869944255 0 -0.088182749841696537 0.1099994347884132 0 -0.098976796174051251 0.12029000037555899 0 -0.1007068894855155 0.1017447869944255 0 -0.1122596530848709 0.1174565206274932 0 -0.098976796174051251 0.12029000037555899 0 -0.1007068894855155 0.1017447869944255 0 -0.111381703213609 0.1268898013591036 0 -0.1122596530848709 0.1174565206274932 0 -0.098976796174051251 0.12029000037555899 0 -0.085931397504657045 0.097145425453126016 0 -0.1033178696139883 0.088797977194866276 0 -0.1007068894855155 0.1017447869944255 0 -0.1033178696139883 0.088797977194866276 0 -0.1139469278747775 0.093650468344117735 0 -0.1007068894855155 0.1017447869944255 0 -0.10345299808598191 0.030022223051307199 0 -0.1096078295466902 0.01546877663148389 0 -0.093168168815275315 0.0099037328048501554 0 -0.1066168776230814 -0.0002609920833909378 0 -0.1096078295466902 0.01546877663148389 0 -0.093168168815275315 0.0099037328048501554 0 -0.1066168776230814 -0.0002609920833909378 0 -0.1252665686555624 0.011687616998799151 0 -0.1096078295466902 0.01546877663148389 0 -0.1238376520846925 -0.003178898693025302 0 -0.1066168776230814 -0.0002609920833909378 0 -0.1252665686555624 0.011687616998799151 0 -0.1252665686555624 0.011687616998799151 0 -0.1096078295466902 0.01546877663148389 0 -0.1180203002965771 0.024875042507404341 0 -0.1252665686555624 0.011687616998799151 0 -0.13126336880004569 0.02887313403689408 0 -0.1180203002965771 0.024875042507404341 0 -0.10345299808598191 0.030022223051307199 0 -0.1180203002965771 0.024875042507404341 0 -0.118151616595517 0.037271012093908748 0 -0.10345299808598191 0.030022223051307199 0 -0.1096078295466902 0.01546877663148389 0 -0.1180203002965771 0.024875042507404341 0 -0.13126336880004569 0.02887313403689408 0 -0.1180203002965771 0.024875042507404341 0 -0.118151616595517 0.037271012093908748 0 -0.13059315886047951 0.043011130708000757 0 -0.118151616595517 0.037271012093908748 0 -0.123313990261863 0.056145434382516159 0 -0.118151616595517 0.037271012093908748 0 -0.123313990261863 0.056145434382516159 0 -0.10455088467516981 0.04907331372614239 0 -0.123313990261863 0.056145434382516159 0 -0.1098252037927008 0.061048042868125103 0 -0.10455088467516981 0.04907331372614239 0 -0.097404414649247512 0.065602143048147404 0 -0.1098252037927008 0.061048042868125103 0 -0.10455088467516981 0.04907331372614239 0 -0.097404414649247512 0.065602143048147404 0 -0.10455088467516981 0.04907331372614239 0 -0.083866625661689925 0.051564110824933847 0 -0.10345299808598191 0.030022223051307199 0 -0.10455088467516981 0.04907331372614239 0 -0.090022374103297234 0.038433924027932907 0 -0.10345299808598191 0.030022223051307199 0 -0.118151616595517 0.037271012093908748 0 -0.10455088467516981 0.04907331372614239 0 -0.090022374103297234 0.038433924027932907 0 -0.083866625661689925 0.051564110824933847 0 -0.071919992990043799 0.036119924562171501 0 -0.090022374103297234 0.038433924027932907 0 -0.071919992990043799 0.036119924562171501 0 -0.082286096391358671 0.02323492279720429 0 -0.10455088467516981 0.04907331372614239 0 -0.090022374103297234 0.038433924027932907 0 -0.083866625661689925 0.051564110824933847 0 -0.078912471350390756 0.066960706823331939 0 -0.097404414649247512 0.065602143048147404 0 -0.083866625661689925 0.051564110824933847 0 -0.078912471350390756 0.066960706823331939 0 -0.083866625661689925 0.051564110824933847 0 -0.065601339100510775 0.053066254535491297 0 -0.083866625661689925 0.051564110824933847 0 -0.065601339100510775 0.053066254535491297 0 -0.071919992990043799 0.036119924562171501 0 -0.071919992990043799 0.036119924562171501 0 -0.082286096391358671 0.02323492279720429 0 -0.060427749827186433 0.02027595457117411 0 -0.082286096391358671 0.02323492279720429 0 -0.073521406826148411 0.0051031726183403594 0 -0.060427749827186433 0.02027595457117411 0 -0.10345299808598191 0.030022223051307199 0 -0.082286096391358671 0.02323492279720429 0 -0.093168168815275315 0.0099037328048501554 0 -0.10345299808598191 0.030022223051307199 0 -0.090022374103297234 0.038433924027932907 0 -0.082286096391358671 0.02323492279720429 0 -0.086642348690371879 -0.010471720479631821 0 -0.093168168815275315 0.0099037328048501554 0 -0.073521406826148411 0.0051031726183403594 0 -0.082286096391358671 0.02323492279720429 0 -0.093168168815275315 0.0099037328048501554 0 -0.073521406826148411 0.0051031726183403594 0 -0.053589612230985843 -0.00040132381324650641 0 -0.073521406826148411 0.0051031726183403594 0 -0.060427749827186433 0.02027595457117411 0 -0.053589612230985843 -0.00040132381324650641 0 -0.060427749827186433 0.02027595457117411 0 -0.042959027172531861 0.013213834152179121 0 -0.060427749827186433 0.02027595457117411 0 -0.046664519700551597 0.02523069858554108 0 -0.042959027172531861 0.013213834152179121 0 -0.060427749827186433 0.02027595457117411 0 -0.046664519700551597 0.02523069858554108 0 -0.049108060905650473 0.040477384212012232 0 -0.034163240896837643 0.026955621406798878 0 -0.042959027172531861 0.013213834152179121 0 -0.022994580573299121 0.01284147743840266 0 -0.046664519700551597 0.02523069858554108 0 -0.034163240896837643 0.026955621406798878 0 -0.042959027172531861 0.013213834152179121 0 -0.046664519700551597 0.02523069858554108 0 -0.034163240896837643 0.026955621406798878 0 -0.049108060905650473 0.040477384212012232 0 -0.053589612230985843 -0.00040132381324650641 0 -0.033062794546480478 -0.0035548247123766822 0 -0.042959027172531861 0.013213834152179121 0 -0.033062794546480478 -0.0035548247123766822 0 -0.042959027172531861 0.013213834152179121 0 -0.022994580573299121 0.01284147743840266 0 -0.061754685100226817 0.068939430796485318 0 -0.065601339100510775 0.053066254535491297 0 -0.047615075088516458 0.055299853822334662 0 -0.065601339100510775 0.053066254535491297 0 -0.047615075088516458 0.055299853822334662 0 -0.049108060905650473 0.040477384212012232 0 -0.065601339100510775 0.053066254535491297 0 -0.071919992990043799 0.036119924562171501 0 -0.049108060905650473 0.040477384212012232 0 -0.071919992990043799 0.036119924562171501 0 -0.060427749827186433 0.02027595457117411 0 -0.049108060905650473 0.040477384212012232 0 -0.034163240896837643 0.026955621406798878 0 -0.049108060905650473 0.040477384212012232 0 -0.02535081940303878 0.0404597147503378 0 -0.049108060905650473 0.040477384212012232 0 -0.032229321421617052 0.055769315791265518 0 -0.02535081940303878 0.0404597147503378 0 -0.047615075088516458 0.055299853822334662 0 -0.049108060905650473 0.040477384212012232 0 -0.032229321421617052 0.055769315791265518 0 -0.034605505356763412 0.071674595143966333 0 -0.047615075088516458 0.055299853822334662 0 -0.032229321421617052 0.055769315791265518 0 -0.032229321421617052 0.055769315791265518 0 -0.017293068300753781 0.056308738345618607 0 -0.02535081940303878 0.0404597147503378 0 -0.020886055839210899 0.070354965983526516 0 -0.032229321421617052 0.055769315791265518 0 -0.017293068300753781 0.056308738345618607 0 -0.017293068300753781 0.056308738345618607 0 -0.02535081940303878 0.0404597147503378 0 -0.01054705764037376 0.042473115639127229 0 -0.034163240896837643 0.026955621406798878 0 -0.02535081940303878 0.0404597147503378 0 -0.01634738646120415 0.028616087529426751 0 -0.02535081940303878 0.0404597147503378 0 -0.01054705764037376 0.042473115639127229 0 -0.01634738646120415 0.028616087529426751 0 -0.01054705764037376 0.042473115639127229 0 -0.01634738646120415 0.028616087529426751 0 0.0012619046770115359 0.031979740052392437 0 -0.01054705764037376 0.042473115639127229 0 0.0013024964620959271 0.05535878318175054 0 0.0012619046770115359 0.031979740052392437 0 -0.017293068300753781 0.056308738345618607 0 -0.01054705764037376 0.042473115639127229 0 0.0013024964620959271 0.05535878318175054 0 -0.0084906221752836016 0.068652433082301886 0 -0.017293068300753781 0.056308738345618607 0 0.0013024964620959271 0.05535878318175054 0 -0.033062794546480478 -0.0035548247123766822 0 -0.01129150054699473 -0.0013760759300521341 0 -0.022994580573299121 0.01284147743840266 0 -0.034163240896837643 0.026955621406798878 0 -0.022994580573299121 0.01284147743840266 0 -0.01634738646120415 0.028616087529426751 0 -0.01634738646120415 0.028616087529426751 0 -0.0062905249306871372 0.01698685588950152 0 0.0012619046770115359 0.031979740052392437 0 -0.022994580573299121 0.01284147743840266 0 -0.01634738646120415 0.028616087529426751 0 -0.0062905249306871372 0.01698685588950152 0 -0.01129150054699473 -0.0013760759300521341 0 -0.022994580573299121 0.01284147743840266 0 -0.0062905249306871372 0.01698685588950152 0 -0.01129150054699473 -0.0013760759300521341 0 -0.0062905249306871372 0.01698685588950152 0 0.0034452991329774578 0.0051537710705144932 0 0.0034452991329774578 0.0051537710705144932 0 0.01568870949054121 0.018531695866404949 0 0.013560617637746009 -0.010546814510073379 0 -0.0062905249306871372 0.01698685588950152 0 0.0034452991329774578 0.0051537710705144932 0 0.01296304569164157 0.018340118929763709 0 0.01568870949054121 0.018531695866404949 0 0.013560617637746009 -0.010546814510073379 0 0.0034452991329774578 0.0051537710705144932 0 0.01296304569164157 0.018340118929763709 0 0.01568870949054121 0.018531695866404949 0 0.01296304569164157 0.018340118929763709 0 0.01568870949054121 0.018531695866404949 0 0.017067990998746459 0.037378369047172719 0 -0.0062905249306871372 0.01698685588950152 0 0.01296304569164157 0.018340118929763709 0 -0.0062905249306871372 0.01698685588950152 0 0.01296304569164157 0.018340118929763709 0 0.0012619046770115359 0.031979740052392437 0 0.01296304569164157 0.018340118929763709 0 0.0012619046770115359 0.031979740052392437 0 0.017067990998746459 0.037378369047172719 0 0.01296304569164157 0.018340118929763709 0 0.01568870949054121 0.018531695866404949 0 0.01568870949054121 0.018531695866404949 0 0.017067990998746459 0.037378369047172719 0 0.01568870949054121 0.018531695866404949 0 0.024929592646765641 0.027329215348151411 0 0.017067990998746459 0.037378369047172719 0 0.01568870949054121 0.018531695866404949 0 0.035489491002934442 0.017534121702129781 0 0.01568870949054121 0.018531695866404949 0 0.024929592646765641 0.027329215348151411 0 0.036042033936569122 0.021059931567737371 0 0.01568870949054121 0.018531695866404949 0 0.036042033936569122 0.021059931567737371 0 0.01568870949054121 0.018531695866404949 0 0.035489491002934442 0.017534121702129781 0 0.036042033936569122 0.021059931567737371 0 0.01568870949054121 0.018531695866404949 0 0.02842268352822833 0.0042313109911599374 0 0.013560617637746009 -0.010546814510073379 0 0.01568870949054121 0.018531695866404949 0 0.02842268352822833 0.0042313109911599374 0 0.035489491002934442 0.017534121702129781 0 0.0013024964620959271 0.05535878318175054 0 0.017067990998746459 0.037378369047172719 0 0.018447272506948699 0.056225042227940773 0 0.0013024964620959271 0.05535878318175054 0 0.018447272506948699 0.056225042227940773 0 0.002422932715842983 0.073009312654500419 0 0.0013024964620959271 0.05535878318175054 0 0.0012619046770115359 0.031979740052392437 0 0.017067990998746459 0.037378369047172719 0 0.017067990998746459 0.037378369047172719 0 0.018447272506948699 0.056225042227940773 0 0.017067990998746459 0.037378369047172719 0 0.018447272506948699 0.056225042227940773 0 0.032840017784796241 0.044702035075982458 0 0.017067990998746459 0.037378369047172719 0 0.032840017784796241 0.044702035075982458 0 0.034048314061970522 0.032683752434498399 0 0.024929592646765641 0.027329215348151411 0 0.017067990998746459 0.037378369047172719 0 0.034048314061970522 0.032683752434498399 0 0.018447272506948699 0.056225042227940773 0 0.032840017784796241 0.044702035075982458 0 0.035042630028655118 0.063328567033128239 0 0.0506440657463125 0.05666028196803731 0 0.052085824950024617 0.064524747396888391 0 0.035042630028655118 0.063328567033128239 0 0.05415178614024993 0.047172394163566132 0 0.0506440657463125 0.05666028196803731 0 0.035042630028655118 0.063328567033128239 0 0.043425006748642372 0.045981025802147787 0 0.05415178614024993 0.047172394163566132 0 0.035042630028655118 0.063328567033128239 0 0.043425006748642372 0.045981025802147787 0 0.032840017784796241 0.044702035075982458 0 0.035042630028655118 0.063328567033128239 0 0.05415178614024993 0.047172394163566132 0 0.035042630028655118 0.063328567033128239 0 0.043425006748642372 0.045981025802147787 0 0.043818020606875008 0.034435172417375273 0 0.051817238748936949 0.040558435786144979 0 0.043425006748642372 0.045981025802147787 0 0.032840017784796241 0.044702035075982458 0 0.043818020606875008 0.034435172417375273 0 0.032840017784796241 0.044702035075982458 0 0.034048314061970522 0.032683752434498399 0 0.043818020606875008 0.034435172417375273 0 0.061296021866320341 0.051615419278566492 0 0.056395358382597148 0.02358816726906883 0 0.043818020606875008 0.034435172417375273 0 0.051817238748936949 0.040558435786144979 0 0.056395358382597148 0.02358816726906883 0 0.051817238748936949 0.040558435786144979 0 0.061296021866320341 0.051615419278566492 0 0.056395358382597148 0.02358816726906883 0 0.061296021866320341 0.051615419278566492 0 0.056395358382597148 0.02358816726906883 0 0.066287575339930502 0.036300553497861071 0 0.051817238748936949 0.040558435786144979 0 0.05415178614024993 0.047172394163566132 0 0.061296021866320341 0.051615419278566492 0 0.043425006748642372 0.045981025802147787 0 0.051817238748936949 0.040558435786144979 0 0.05415178614024993 0.047172394163566132 0 0.05415178614024993 0.047172394163566132 0 0.061296021866320341 0.051615419278566492 0 0.0506440657463125 0.05666028196803731 0 0.061296021866320341 0.051615419278566492 0 0.0506440657463125 0.05666028196803731 0 0.052085824950024617 0.064524747396888391 0 0.044516681068846077 0.0085253256890689064 0 0.035489491002934442 0.017534121702129781 0 0.055382349086266977 0.01779469319549102 0 0.02842268352822833 0.0042313109911599374 0 0.044516681068846077 0.0085253256890689064 0 0.036730620827910967 -0.0085450903031558736 0 0.02842268352822833 0.0042313109911599374 0 0.044516681068846077 0.0085253256890689064 0 0.035489491002934442 0.017534121702129781 0 0.035489491002934442 0.017534121702129781 0 0.036042033936569122 0.021059931567737371 0 0.055382349086266977 0.01779469319549102 0 0.036042033936569122 0.021059931567737371 0 0.056395358382597148 0.02358816726906883 0 0.035489491002934442 0.017534121702129781 0 0.055382349086266977 0.01779469319549102 0 0.043818020606875008 0.034435172417375273 0 0.036042033936569122 0.021059931567737371 0 0.056395358382597148 0.02358816726906883 0 0.024929592646765641 0.027329215348151411 0 0.034048314061970522 0.032683752434498399 0 0.036042033936569122 0.021059931567737371 0 0.034048314061970522 0.032683752434498399 0 0.043818020606875008 0.034435172417375273 0 0.036042033936569122 0.021059931567737371 0 0.056395358382597148 0.02358816726906883 0 0.055382349086266977 0.01779469319549102 0 0.071941344334193719 0.018011595266688302 0 0.036042033936569122 0.021059931567737371 0 0.056395358382597148 0.02358816726906883 0 0.055382349086266977 0.01779469319549102 0 0.056395358382597148 0.02358816726906883 0 0.055382349086266977 0.01779469319549102 0 0.055382349086266977 0.01779469319549102 0 0.051971399160469382 -0.001712778288651375 0 0.044516681068846077 0.0085253256890689064 0 0.055382349086266977 0.01779469319549102 0 0.051971399160469382 -0.001712778288651375 0 0.055382349086266977 0.01779469319549102 0 0.065069697678856273 0.0043599765667019456 0 0.051971399160469382 -0.001712778288651375 0 0.055382349086266977 0.01779469319549102 0 0.065069697678856273 0.0043599765667019456 0 0.071941344334193719 0.018011595266688302 0 0.065069697678856273 0.0043599765667019456 0 0.076857487901468832 0.0075331794604891443 0 0.071941344334193719 0.018011595266688302 0 0.076857487901468832 0.0075331794604891443 0 0.083620991358063529 0.0153464140439408 0 0.071941344334193719 0.018011595266688302 0 0.065069697678856273 0.0043599765667019456 0 0.076857487901468832 0.0075331794604891443 0 0.076769895714656561 -0.0062810663660294828 0 0.076857487901468832 0.0075331794604891443 0 0.092790705774556365 0.007637089620086213 0 0.076769895714656561 -0.0062810663660294828 0 0.076857487901468832 0.0075331794604891443 0 0.092790705774556365 0.007637089620086213 0 0.083620991358063529 0.0153464140439408 0 0.092790705774556365 0.007637089620086213 0 0.083620991358063529 0.0153464140439408 0 0.1015833724969744 0.029201301912464089 0 0.078989365439785783 0.02639473459076665 0 0.1015833724969744 0.029201301912464089 0 0.083620991358063529 0.0153464140439408 0 0.078989365439785783 0.02639473459076665 0 0.1015833724969744 0.029201301912464089 0 0.078989365439785783 0.02639473459076665 0 0.090755302193531687 0.038029808675473432 0 0.1015833724969744 0.029201301912464089 0 0.083620991358063529 0.0153464140439408 0 0.078989365439785783 0.02639473459076665 0 0.071941344334193719 0.018011595266688302 0 0.055382349086266977 0.01779469319549102 0 0.071941344334193719 0.018011595266688302 0 0.056395358382597148 0.02358816726906883 0 0.078989365439785783 0.02639473459076665 0 0.069641392102315652 0.030963284548296239 0 0.056395358382597148 0.02358816726906883 0 0.078989365439785783 0.02639473459076665 0 0.056395358382597148 0.02358816726906883 0 0.078989365439785783 0.02639473459076665 0 0.071941344334193719 0.018011595266688302 0 0.056395358382597148 0.02358816726906883 0 0.069641392102315652 0.030963284548296239 0 0.066287575339930502 0.036300553497861071 0 0.061296021866320341 0.051615419278566492 0 0.066287575339930502 0.036300553497861071 0 0.069596739864833917 0.043366316013373978 0 0.066287575339930502 0.036300553497861071 0 0.069596739864833917 0.043366316013373978 0 0.076893269246949197 0.037569682835488019 0 0.069596739864833917 0.043366316013373978 0 0.076893269246949197 0.037569682835488019 0 0.073910093006135658 0.04797960844158039 0 0.078989365439785783 0.02639473459076665 0 0.069641392102315652 0.030963284548296239 0 0.076893269246949197 0.037569682835488019 0 0.069641392102315652 0.030963284548296239 0 0.066287575339930502 0.036300553497861071 0 0.076893269246949197 0.037569682835488019 0 0.061296021866320341 0.051615419278566492 0 0.073910093006135658 0.04797960844158039 0 0.076611754050950276 0.064727483615732051 0 0.061296021866320341 0.051615419278566492 0 0.069596739864833917 0.043366316013373978 0 0.073910093006135658 0.04797960844158039 0 0.073910093006135658 0.04797960844158039 0 0.08739116500974993 0.051105586243152687 0 0.076611754050950276 0.064727483615732051 0 0.08739116500974993 0.051105586243152687 0 0.097863971243321524 0.070076688843868681 0 0.076611754050950276 0.064727483615732051 0 0.078989365439785783 0.02639473459076665 0 0.076893269246949197 0.037569682835488019 0 0.090755302193531687 0.038029808675473432 0 0.076893269246949197 0.037569682835488019 0 0.073910093006135658 0.04797960844158039 0 0.08739116500974993 0.051105586243152687 0 0.076893269246949197 0.037569682835488019 0 0.08739116500974993 0.051105586243152687 0 0.090755302193531687 0.038029808675473432 0 0.08739116500974993 0.051105586243152687 0 0.090755302193531687 0.038029808675473432 0 0.1085601432141982 0.049827524651164037 0 0.090755302193531687 0.038029808675473432 0 0.1085601432141982 0.049827524651164037 0 0.1015833724969744 0.029201301912464089 0 0.08739116500974993 0.051105586243152687 0 0.1085601432141982 0.049827524651164037 0 0.097863971243321524 0.070076688843868681 0 0.1085601432141982 0.049827524651164037 0 0.13128349153670479 0.051381496601359523 0 0.12510808010429661 0.076418478020843436 0 0.1085601432141982 0.049827524651164037 0 0.12417737955416309 0.032007869234161539 0 0.13128349153670479 0.051381496601359523 0 0.1085601432141982 0.049827524651164037 0 0.12417737955416309 0.032007869234161539 0 0.1015833724969744 0.029201301912464089 0 0.12417737955416309 0.032007869234161539 0 0.1015833724969744 0.029201301912464089 0 0.12417737955416309 0.032007869234161539 0 0.1118443090855482 0.01244278967355154 0 0.13528482264666189 0.01493099364781119 0 0.12417737955416309 0.032007869234161539 0 0.1118443090855482 0.01244278967355154 0 0.1015833724969744 0.029201301912464089 0 0.1118443090855482 0.01244278967355154 0 0.13528482264666189 0.01493099364781119 0 0.1253528781060689 -0.0035925746653820922 0 0.092790705774556365 0.007637089620086213 0 0.1118443090855482 0.01244278967355154 0 0.1014456400804002 -0.009727969571319571 0 0.092790705774556365 0.007637089620086213 0 0.1118443090855482 0.01244278967355154 0 0.1015833724969744 0.029201301912464089 0 0.1029298566107561 0.1126861338735807 0 0.1188617035112491 0.10017210572911719 0 0.099371192290717877 0.091524607572078462 0 0.1029298566107561 0.1126861338735807 0 0.099371192290717877 0.091524607572078462 0 0.089506569897118402 0.10785346109669761 0 0.1029298566107561 0.1126861338735807 0 0.082090926209860471 0.1205723658178179 0 0.10118583527366309 0.1314961729504136 0 0.1029298566107561 0.1126861338735807 0 0.1215951808840359 0.121275415706405 0 0.10118583527366309 0.1314961729504136 0 0.1029298566107561 0.1126861338735807 0 0.1215951808840359 0.121275415706405 0 0.1188617035112491 0.10017210572911719 0 0.1188617035112491 0.10017210572911719 0 0.099371192290717877 0.091524607572078462 0 0.12510808010429661 0.076418478020843436 0 0.099371192290717877 0.091524607572078462 0 0.12510808010429661 0.076418478020843436 0 0.1085601432141982 0.049827524651164037 0 0.097863971243321524 0.070076688843868681 0 0.12510808010429661 0.076418478020843436 0 0.097863971243321524 0.070076688843868681 0 0.099371192290717877 0.091524607572078462 0 0.12510808010429661 0.076418478020843436 0 0.097863971243321524 0.070076688843868681 0 0.099371192290717877 0.091524607572078462 0 0.081979411193420171 0.08619814724229416 0 0.097863971243321524 0.070076688843868681 0 0.081979411193420171 0.08619814724229416 0 0.076611754050950276 0.064727483615732051 0 0.081979411193420171 0.08619814724229416 0 0.076611754050950276 0.064727483615732051 0 0.066196685350042223 0.079642671288064321 0 0.061296021866320341 0.051615419278566492 0 0.076611754050950276 0.064727483615732051 0 0.066196685350042223 0.079642671288064321 0 0.061296021866320341 0.051615419278566492 0 0.066196685350042223 0.079642671288064321 0 0.066196685350042223 0.079642671288064321 0 0.071097348833764118 0.10766992329756229 0 0.081979411193420171 0.08619814724229416 0 0.066196685350042223 0.079642671288064321 0 0.073634304477139131 0.1066307371233135 0 0.066196685350042223 0.079642671288064321 0 0.071097348833764118 0.10766992329756229 0 0.073634304477139131 0.1066307371233135 0 0.066196685350042223 0.079642671288064321 0 0.071097348833764118 0.10766992329756229 0 0.056746110627890117 0.096904363599102164 0 0.099371192290717877 0.091524607572078462 0 0.073634304477139131 0.1066307371233135 0 0.099371192290717877 0.091524607572078462 0 0.073634304477139131 0.1066307371233135 0 0.089506569897118402 0.10785346109669761 0 0.099371192290717877 0.091524607572078462 0 0.081979411193420171 0.08619814724229416 0 0.073634304477139131 0.1066307371233135 0 0.1029298566107561 0.1126861338735807 0 0.089506569897118402 0.10785346109669761 0 0.082090926209860471 0.1205723658178179 0 0.073634304477139131 0.1066307371233135 0 0.089506569897118402 0.10785346109669761 0 0.082090926209860471 0.1205723658178179 0 0.071097348833764118 0.10766992329756229 0 0.082090926209860471 0.1205723658178179 0 0.075998012317486013 0.13569717530706021 0 0.071097348833764118 0.10766992329756229 0 0.064204244060129534 0.1206251093654561 0 0.075998012317486013 0.13569717530706021 0 0.071097348833764118 0.10766992329756229 0 0.075998012317486013 0.13569717530706021 0 0.071097348833764118 0.10766992329756229 0 0.073634304477139131 0.1066307371233135 0 0.082090926209860471 0.1205723658178179 0 0.071097348833764118 0.10766992329756229 0 0.064204244060129534 0.1206251093654561 0 0.05884635994209142 0.1095440014792614 0 0.064204244060129534 0.1206251093654561 0 0.053559097572028549 0.1177276241394728 0 0.05850255178466373 0.13195961314861809 0 0.053559097572028549 0.1177276241394728 0 0.05884635994209142 0.1095440014792614 0 0.048123529931072467 0.10724637853194049 0 0.053559097572028549 0.1177276241394728 0 0.048123529931072467 0.10724637853194049 0 0.04041231452871568 0.11808681884184651 0 0.064204244060129534 0.1206251093654561 0 0.053559097572028549 0.1177276241394728 0 0.05884635994209142 0.1095440014792614 0 0.071097348833764118 0.10766992329756229 0 0.05884635994209142 0.1095440014792614 0 0.056746110627890117 0.096904363599102164 0 0.056746110627890117 0.096904363599102164 0 0.048123529931072467 0.10724637853194049 0 0.042321316854179912 0.095199458229510509 0 0.05884635994209142 0.1095440014792614 0 0.056746110627890117 0.096904363599102164 0 0.048123529931072467 0.10724637853194049 0 0.048123529931072467 0.10724637853194049 0 0.042321316854179912 0.095199458229510509 0 0.037222072830894092 0.1058946167287883 0 0.042321316854179912 0.095199458229510509 0 0.037222072830894092 0.1058946167287883 0 0.02917902696908433 0.094282004538688138 0 0.037222072830894092 0.1058946167287883 0 0.032291340752243193 0.112421042691285 0 0.025611805019273869 0.10700620566496551 0 0.032291340752243193 0.112421042691285 0 0.04041231452871568 0.11808681884184651 0 0.025919170630089111 0.11869652952953989 0 0.037222072830894092 0.1058946167287883 0 0.032291340752243193 0.112421042691285 0 0.04041231452871568 0.11808681884184651 0 0.04041231452871568 0.11808681884184651 0 0.025919170630089111 0.11869652952953989 0 0.029556306321531479 0.12785875760749399 0 0.053559097572028549 0.1177276241394728 0 0.04041231452871568 0.11808681884184651 0 0.043381788998227852 0.1305035565938257 0 0.048123529931072467 0.10724637853194049 0 0.037222072830894092 0.1058946167287883 0 0.04041231452871568 0.11808681884184651 0 0.066196685350042223 0.079642671288064321 0 0.052085824950024617 0.064524747396888391 0 0.046738671806650429 0.074156722795786306 0 0.061296021866320341 0.051615419278566492 0 0.066196685350042223 0.079642671288064321 0 0.052085824950024617 0.064524747396888391 0 0.066196685350042223 0.079642671288064321 0 0.049550508610833238 0.085514770673055573 0 0.046738671806650429 0.074156722795786306 0 0.066196685350042223 0.079642671288064321 0 0.056746110627890117 0.096904363599102164 0 0.049550508610833238 0.085514770673055573 0 0.056746110627890117 0.096904363599102164 0 0.042321316854179912 0.095199458229510509 0 0.049550508610833238 0.085514770673055573 0 0.042321316854179912 0.095199458229510509 0 0.049550508610833238 0.085514770673055573 0 0.035749758415403482 0.081670637452814582 0 0.042321316854179912 0.095199458229510509 0 0.035749758415403482 0.081670637452814582 0 0.02917902696908433 0.094282004538688138 0 0.049550508610833238 0.085514770673055573 0 0.035749758415403482 0.081670637452814582 0 0.046738671806650429 0.074156722795786306 0 0.035749758415403482 0.081670637452814582 0 0.035042630028655118 0.063328567033128239 0 0.046738671806650429 0.074156722795786306 0 0.052085824950024617 0.064524747396888391 0 0.035042630028655118 0.063328567033128239 0 0.046738671806650429 0.074156722795786306 0 0.018447272506948699 0.056225042227940773 0 0.035042630028655118 0.063328567033128239 0 0.015933473917060351 0.07948473990269031 0 0.035042630028655118 0.063328567033128239 0 0.015933473917060351 0.07948473990269031 0 0.035749758415403482 0.081670637452814582 0 0.035042630028655118 0.063328567033128239 0 0.015933473917060351 0.07948473990269031 0 0.035749758415403482 0.081670637452814582 0 0.015933473917060351 0.07948473990269031 0 0.02917902696908433 0.094282004538688138 0 0.015933473917060351 0.07948473990269031 0 0.02917902696908433 0.094282004538688138 0 0.018529013501309581 0.097005033551151837 0 0.015933473917060351 0.07948473990269031 0 0.018529013501309581 0.097005033551151837 0 0.0076941449860111963 0.097775914174429282 0 -0.003175682194534461 0.095640912772252423 0 0.015933473917060351 0.07948473990269031 0 0.0076941449860111963 0.097775914174429282 0 -0.003175682194534461 0.095640912772252423 0 0.015933473917060351 0.07948473990269031 0 0.002422932715842983 0.073009312654500419 0 -0.003175682194534461 0.095640912772252423 0 0.015933473917060351 0.07948473990269031 0 0.018447272506948699 0.056225042227940773 0 0.015933473917060351 0.07948473990269031 0 0.002422932715842983 0.073009312654500419 0 0.01946023825147512 0.11299045083931621 0 0.01881411499718031 0.1245869922793531 0 0.025919170630089111 0.11869652952953989 0 0.01946023825147512 0.11299045083931621 0 0.01881411499718031 0.1245869922793531 0 0.01203654450331286 0.1174865900417701 0 0.01881411499718031 0.1245869922793531 0 0.025919170630089111 0.11869652952953989 0 0.029556306321531479 0.12785875760749399 0 0.032291340752243193 0.112421042691285 0 0.025919170630089111 0.11869652952953989 0 0.025611805019273869 0.10700620566496551 0 0.01946023825147512 0.11299045083931621 0 0.025919170630089111 0.11869652952953989 0 0.025611805019273869 0.10700620566496551 0 0.037222072830894092 0.1058946167287883 0 0.025611805019273869 0.10700620566496551 0 0.02917902696908433 0.094282004538688138 0 0.025611805019273869 0.10700620566496551 0 0.02917902696908433 0.094282004538688138 0 0.018529013501309581 0.097005033551151837 0 0.025611805019273869 0.10700620566496551 0 0.018529013501309581 0.097005033551151837 0 0.01422661661511816 0.10647630347498591 0 0.01946023825147512 0.11299045083931621 0 0.025611805019273869 0.10700620566496551 0 0.01422661661511816 0.10647630347498591 0 0.01422661661511816 0.10647630347498591 0 0.0046445543349532799 0.10630099679393409 0 0.0061502077012441717 0.11297700723249229 0 0.01422661661511816 0.10647630347498591 0 0.0076941449860111963 0.097775914174429282 0 0.0046445543349532799 0.10630099679393409 0 0.018529013501309581 0.097005033551151837 0 0.01422661661511816 0.10647630347498591 0 0.0076941449860111963 0.097775914174429282 0 -0.001069719932619818 0.1036219918733553 0 -0.003175682194534461 0.095640912772252423 0 0.0076941449860111963 0.097775914174429282 0 -0.001069719932619818 0.1036219918733553 0 0.0076941449860111963 0.097775914174429282 0 0.0046445543349532799 0.10630099679393409 0 -0.001333648451441927 0.1109504403439602 0 -0.001069719932619818 0.1036219918733553 0 0.0046445543349532799 0.10630099679393409 0 0.0061502077012441717 0.11297700723249229 0 0.01203654450331286 0.1174865900417701 0 0.00161899537904374 0.1187473658997415 0 -0.001333648451441927 0.1109504403439602 0 0.0046445543349532799 0.10630099679393409 0 0.0061502077012441717 0.11297700723249229 0 -0.001333648451441927 0.1109504403439602 0 0.0061502077012441717 0.11297700723249229 0 0.00161899537904374 0.1187473658997415 0 0.01422661661511816 0.10647630347498591 0 0.0061502077012441717 0.11297700723249229 0 0.01203654450331286 0.1174865900417701 0 0.01946023825147512 0.11299045083931621 0 0.01422661661511816 0.10647630347498591 0 0.01203654450331286 0.1174865900417701 0 0.01881411499718031 0.1245869922793531 0 0.01203654450331286 0.1174865900417701 0 0.0059239200155680044 0.1300880145081178 0 -0.0054084845452745988 0.1249371053928276 0 0.00161899537904374 0.1187473658997415 0 0.0059239200155680044 0.1300880145081178 0 0.01203654450331286 0.1174865900417701 0 0.00161899537904374 0.1187473658997415 0 0.0059239200155680044 0.1300880145081178 0 -0.00097805911919941865 0.1419087685033614 0 0.0059239200155680044 0.1300880145081178 0 0.0093362580685193708 0.1438945194233997 0 0.0059239200155680044 0.1300880145081178 0 0.01828837609734478 0.13487689713516079 0 0.0093362580685193708 0.1438945194233997 0 0.01881411499718031 0.1245869922793531 0 0.0059239200155680044 0.1300880145081178 0 0.01828837609734478 0.13487689713516079 0 0.01881411499718031 0.1245869922793531 0 0.01828837609734478 0.13487689713516079 0 0.029556306321531479 0.12785875760749399 0 0.01828837609734478 0.13487689713516079 0 0.030522072677631139 0.1404017512652381 0 0.029556306321531479 0.12785875760749399 0 0.02054966872930989 0.14870051516913821 0 0.022154673091015119 0.1611381566176823 0 0.031928509114905343 0.15451844293024181 0 0.030522072677631139 0.1404017512652381 0 0.02054966872930989 0.14870051516913821 0 0.031928509114905343 0.15451844293024181 0 0.01828837609734478 0.13487689713516079 0 0.030522072677631139 0.1404017512652381 0 0.02054966872930989 0.14870051516913821 0 0.01828837609734478 0.13487689713516079 0 0.02054966872930989 0.14870051516913821 0 0.0093362580685193708 0.1438945194233997 0 0.02054966872930989 0.14870051516913821 0 0.0110681233264436 0.1573733236431068 0 0.022154673091015119 0.1611381566176823 0 0.02054966872930989 0.14870051516913821 0 0.0093362580685193708 0.1438945194233997 0 0.0110681233264436 0.1573733236431068 0 -0.00097805911919941865 0.1419087685033614 0 0.0093362580685193708 0.1438945194233997 0 0.0011711219489800449 0.15271394953975989 0 0.0093362580685193708 0.1438945194233997 0 0.0011711219489800449 0.15271394953975989 0 0.0110681233264436 0.1573733236431068 0 -0.00070541203608843984 0.1630392700939233 0 0.0060539330553351046 0.16767533557541309 0 0.0110681233264436 0.1573733236431068 0 -0.00070541203608843984 0.1630392700939233 0 0.0011711219489800449 0.15271394953975989 0 0.0110681233264436 0.1573733236431068 0 -0.001324430570601732 0.1741405339803169 0 -0.00070541203608843984 0.1630392700939233 0 0.0060539330553351046 0.16767533557541309 0 0.0060539330553351046 0.16767533557541309 0 0.014560329739494849 0.16825179924619421 0 0.0110681233264436 0.1573733236431068 0 0.0060539330553351046 0.16767533557541309 0 0.014560329739494849 0.16825179924619421 0 0.005341848656587489 0.17584079851530041 0 0.014560329739494849 0.16825179924619421 0 0.005341848656587489 0.17584079851530041 0 0.021797721040093369 0.1771571729538918 0 0.005341848656587489 0.17584079851530041 0 0.021797721040093369 0.1771571729538918 0 -0.01136205739571867 0.18819944689317331 0 -0.00051260274126067287 0.18121067213763981 0 0.01344576801394029 0.18333649714282829 0 -0.01136205739571867 0.18819944689317331 0 0.01344576801394029 0.18333649714282829 0 0.005341848656587489 0.17584079851530041 0 0.01344576801394029 0.18333649714282829 0 0.021797721040093369 0.1771571729538918 0 -0.00051260274126067287 0.18121067213763981 0 0.005341848656587489 0.17584079851530041 0 0.01344576801394029 0.18333649714282829 0 -0.001324430570601732 0.1741405339803169 0 0.0060539330553351046 0.16767533557541309 0 0.005341848656587489 0.17584079851530041 0 -0.001324430570601732 0.1741405339803169 0 -0.00051260274126067287 0.18121067213763981 0 0.005341848656587489 0.17584079851530041 0 0.021797721040093369 0.1771571729538918 0 0.038253593423599221 0.17847354739248331 0 0.01344576801394029 0.18333649714282829 0 0.038253593423599221 0.17847354739248331 0 0.022769015454990969 0.190333554004154 0 0.021797721040093369 0.1771571729538918 0 0.030847531496448768 0.16754118770592261 0 0.038253593423599221 0.17847354739248331 0 0.01344576801394029 0.18333649714282829 0 0.038253593423599221 0.17847354739248331 0 0.01344576801394029 0.18333649714282829 0 0.021797721040093369 0.1771571729538918 0 0.038253593423599221 0.17847354739248331 0 0.014560329739494849 0.16825179924619421 0 0.0110681233264436 0.1573733236431068 0 0.022154673091015119 0.1611381566176823 0 0.014560329739494849 0.16825179924619421 0 0.021797721040093369 0.1771571729538918 0 0.022340063841763031 0.16852207913092271 0 0.014560329739494849 0.16825179924619421 0 0.022154673091015119 0.1611381566176823 0 0.022340063841763031 0.16852207913092271 0 0.022154673091015119 0.1611381566176823 0 0.022340063841763031 0.16852207913092271 0 0.030847531496448768 0.16754118770592261 0 0.021797721040093369 0.1771571729538918 0 0.022340063841763031 0.16852207913092271 0 0.030847531496448768 0.16754118770592261 0 0.022154673091015119 0.1611381566176823 0 0.030847531496448768 0.16754118770592261 0 0.031928509114905343 0.15451844293024181 0 0.030847531496448768 0.16754118770592261 0 0.043173319141048813 0.1624415124190309 0 0.031928509114905343 0.15451844293024181 0 0.030847531496448768 0.16754118770592261 0 0.043173319141048813 0.1624415124190309 0 0.038253593423599221 0.17847354739248331 0 0.047127377470138218 0.17918339869784669 0 0.022769015454990969 0.190333554004154 0 0.043173319141048813 0.1624415124190309 0 0.038253593423599221 0.17847354739248331 0 0.056485625629878911 0.17489961638475801 0 0.038253593423599221 0.17847354739248331 0 0.047127377470138218 0.17918339869784669 0 0.022769015454990969 0.190333554004154 0 0.038253593423599221 0.17847354739248331 0 0.047127377470138218 0.17918339869784669 0 0.038253593423599221 0.17847354739248331 0 0.056485625629878911 0.17489961638475801 0 0.047127377470138218 0.17918339869784669 0 0.065623261246508441 0.18066296222720979 0 0.047127377470138218 0.17918339869784669 0 0.056485625629878911 0.17489961638475801 0 0.065623261246508441 0.18066296222720979 0 0.047127377470138218 0.17918339869784669 0 0.055093819004974121 0.1959430952038777 0 0.065623261246508441 0.18066296222720979 0 0.038253593423599221 0.17847354739248331 0 0.047127377470138218 0.17918339869784669 0 0.056485625629878911 0.17489961638475801 0 0.047127377470138218 0.17918339869784669 0 0.056485625629878911 0.17489961638475801 0 0.043173319141048813 0.1624415124190309 0 0.056485625629878911 0.17489961638475801 0 0.058794076833276102 0.1524899975488046 0 0.058794076833276102 0.1524899975488046 0 0.05850255178466373 0.13195961314861809 0 0.04391139364111854 0.1457688038131546 0 0.043173319141048813 0.1624415124190309 0 0.058794076833276102 0.1524899975488046 0 0.04391139364111854 0.1457688038131546 0 0.053559097572028549 0.1177276241394728 0 0.05850255178466373 0.13195961314861809 0 0.043381788998227852 0.1305035565938257 0 0.05850255178466373 0.13195961314861809 0 0.043381788998227852 0.1305035565938257 0 0.04391139364111854 0.1457688038131546 0 0.030522072677631139 0.1404017512652381 0 0.043381788998227852 0.1305035565938257 0 0.04391139364111854 0.1457688038131546 0 0.04041231452871568 0.11808681884184651 0 0.029556306321531479 0.12785875760749399 0 0.043381788998227852 0.1305035565938257 0 0.030522072677631139 0.1404017512652381 0 0.029556306321531479 0.12785875760749399 0 0.043381788998227852 0.1305035565938257 0 0.030522072677631139 0.1404017512652381 0 0.031928509114905343 0.15451844293024181 0 0.04391139364111854 0.1457688038131546 0 0.043173319141048813 0.1624415124190309 0 0.031928509114905343 0.15451844293024181 0 0.04391139364111854 0.1457688038131546 0 0.016413041927559369 0.24081410970564679 0 0.02600312488796469 0.23611824814666049 0 0.032250197965227448 0.244401837527949 0 0.016413041927559369 0.24081410970564679 0 0.032250197965227448 0.244401837527949 0 0.032626396092040141 0.25711921094718598 0 0.016413041927559369 0.24081410970564679 0 0.032626396092040141 0.25711921094718598 0 -0.0056995695430253424 0.24881063984595411 0 0.016413041927559369 0.24081410970564679 0 0.01026063558519786 0.25922996976751439 0 -0.0056995695430253424 0.24881063984595411 0 0.016413041927559369 0.24081410970564679 0 0.00019968776307876379 0.22450900846410751 0 0.016413041927559369 0.24081410970564679 0 0.00019968776307876379 0.22450900846410751 0 0.014385212286278631 0.22153524691187931 0 0.016413041927559369 0.24081410970564679 0 0.00019968776307876379 0.22450900846410751 0 0.00019968776307876379 0.22450900846410751 0 0.014385212286278631 0.22153524691187931 0 0.014385212286278631 0.22153524691187931 0 0.040416278779897202 0.21607826260540691 0 0.016413041927559369 0.24081410970564679 0 0.02600312488796469 0.23611824814666049 0 0.014385212286278631 0.22153524691187931 0 0.02600312488796469 0.23611824814666049 0 0.014385212286278631 0.22153524691187931 0 0.034226317999815632 0.22844232981072279 0 0.014385212286278631 0.22153524691187931 0 0.040416278779897202 0.21607826260540691 0 0.034226317999815632 0.22844232981072279 0 0.02600312488796469 0.23611824814666049 0 0.014385212286278631 0.22153524691187931 0 0.014385212286278631 0.22153524691187931 0 0.022769015454990969 0.190333554004154 0 0.040416278779897202 0.21607826260540691 0 -0.001589346560153329 0.20148370931046791 0 0.014385212286278631 0.22153524691187931 0 -0.001589346560153329 0.20148370931046791 0 0.014385212286278631 0.22153524691187931 0 0.022769015454990969 0.190333554004154 0 -0.001589346560153329 0.20148370931046791 0 0.00019968776307876379 0.22450900846410751 0 0.014385212286278631 0.22153524691187931 0 -0.001589346560153329 0.20148370931046791 0 0.01344576801394029 0.18333649714282829 0 0.022769015454990969 0.190333554004154 0 -0.0066629366953797724 0.18999833803222901 0 0.01344576801394029 0.18333649714282829 0 0.0017311615861355901 0.19160618149517469 0 -0.001589346560153329 0.20148370931046791 0 0.01344576801394029 0.18333649714282829 0 0.0017311615861355901 0.19160618149517469 0 -0.001589346560153329 0.20148370931046791 0 0.022769015454990969 0.190333554004154 0 0.040648565953369603 0.19480945965854901 0 0.055093819004974121 0.1959430952038777 0 0.040416278779897202 0.21607826260540691 0 0.022769015454990969 0.190333554004154 0 0.040648565953369603 0.19480945965854901 0 0.040416278779897202 0.21607826260540691 0 0.047127377470138218 0.17918339869784669 0 0.022769015454990969 0.190333554004154 0 0.040648565953369603 0.19480945965854901 0 0.047127377470138218 0.17918339869784669 0 0.040648565953369603 0.19480945965854901 0 0.055093819004974121 0.1959430952038777 0 0.040416278779897202 0.21607826260540691 0 0.056684753887975781 0.22232233426345119 0 0.06644734527351584 0.2106212782989339 0 0.055093819004974121 0.1959430952038777 0 0.040416278779897202 0.21607826260540691 0 0.06644734527351584 0.2106212782989339 0 0.040416278779897202 0.21607826260540691 0 0.06644734527351584 0.2106212782989339 0 0.02600312488796469 0.23611824814666049 0 0.034226317999815632 0.22844232981072279 0 0.040607710297638891 0.2378299330458655 0 0.034226317999815632 0.22844232981072279 0 0.048765022939919432 0.22922448086969791 0 0.040607710297638891 0.2378299330458655 0 0.040416278779897202 0.21607826260540691 0 0.034226317999815632 0.22844232981072279 0 0.048765022939919432 0.22922448086969791 0 0.040416278779897202 0.21607826260540691 0 0.056684753887975781 0.22232233426345119 0 0.048765022939919432 0.22922448086969791 0 0.062126650548652733 0.2285351296456625 0 0.048765022939919432 0.22922448086969791 0 0.055429071105777911 0.23892038012566641 0 0.056684753887975781 0.22232233426345119 0 0.062126650548652733 0.2285351296456625 0 0.048765022939919432 0.22922448086969791 0 0.048765022939919432 0.22922448086969791 0 0.055429071105777911 0.23892038012566641 0 0.040607710297638891 0.2378299330458655 0 0.055429071105777911 0.23892038012566641 0 0.055297548381604437 0.249518344159599 0 0.064262919428539261 0.24528358325525779 0 0.055429071105777911 0.23892038012566641 0 0.040607710297638891 0.2378299330458655 0 0.045600716620934179 0.25012768579438599 0 0.055429071105777911 0.23892038012566641 0 0.055297548381604437 0.249518344159599 0 0.045600716620934179 0.25012768579438599 0 0.040607710297638891 0.2378299330458655 0 0.032250197965227448 0.244401837527949 0 0.045600716620934179 0.25012768579438599 0 0.02600312488796469 0.23611824814666049 0 0.040607710297638891 0.2378299330458655 0 0.032250197965227448 0.244401837527949 0 0.086381384202169925 0.24861796181918919 0 0.070022411318448094 0.2334406816392128 0 0.09361020234983114 0.22458362897478981 0 0.064262919428539261 0.24528358325525779 0 0.070022411318448094 0.2334406816392128 0 0.063964088952372614 0.25799115617148111 0 0.086381384202169925 0.24861796181918919 0 0.070022411318448094 0.2334406816392128 0 0.063964088952372614 0.25799115617148111 0 0.070022411318448094 0.2334406816392128 0 0.063964088952372614 0.25799115617148111 0 0.055429071105777911 0.23892038012566641 0 0.070022411318448094 0.2334406816392128 0 0.055429071105777911 0.23892038012566641 0 0.064262919428539261 0.24528358325525779 0 0.070022411318448094 0.2334406816392128 0 0.071585252678507294 0.22710749322669849 0 0.070022411318448094 0.2334406816392128 0 0.077645421223554084 0.2237962945533217 0 0.071585252678507294 0.22710749322669849 0 0.070022411318448094 0.2334406816392128 0 0.062126650548652733 0.2285351296456625 0 0.055429071105777911 0.23892038012566641 0 0.070022411318448094 0.2334406816392128 0 0.062126650548652733 0.2285351296456625 0 0.071585252678507294 0.22710749322669849 0 0.070022411318448094 0.2334406816392128 0 0.056684753887975781 0.22232233426345119 0 0.062126650548652733 0.2285351296456625 0 0.070273391361287726 0.22019540774924809 0 0.062126650548652733 0.2285351296456625 0 0.071585252678507294 0.22710749322669849 0 0.070273391361287726 0.22019540774924809 0 0.070273391361287726 0.22019540774924809 0 0.077645421223554084 0.2237962945533217 0 0.080895548687430485 0.21542131408849011 0 0.071585252678507294 0.22710749322669849 0 0.070273391361287726 0.22019540774924809 0 0.077645421223554084 0.2237962945533217 0 0.070022411318448094 0.2334406816392128 0 0.09361020234983114 0.22458362897478981 0 0.070022411318448094 0.2334406816392128 0 0.077645421223554084 0.2237962945533217 0 0.09361020234983114 0.22458362897478981 0 0.077645421223554084 0.2237962945533217 0 0.09361020234983114 0.22458362897478981 0 0.080895548687430485 0.21542131408849011 0 0.09247841176713445 0.20516429399246081 0 0.06644734527351584 0.2106212782989339 0 0.086251184782981091 0.1943358166954767 0 0.09361020234983114 0.22458362897478981 0 0.09247841176713445 0.20516429399246081 0 0.080895548687430485 0.21542131408849011 0 0.09247841176713445 0.20516429399246081 0 0.080895548687430485 0.21542131408849011 0 0.06644734527351584 0.2106212782989339 0 0.09247841176713445 0.20516429399246081 0 0.06644734527351584 0.2106212782989339 0 0.070273391361287726 0.22019540774924809 0 0.080895548687430485 0.21542131408849011 0 0.06644734527351584 0.2106212782989339 0 0.056684753887975781 0.22232233426345119 0 0.070273391361287726 0.22019540774924809 0 0.06644734527351584 0.2106212782989339 0 0.055093819004974121 0.1959430952038777 0 0.071506951066171401 0.19274113563641379 0 0.065623261246508441 0.18066296222720979 0 0.06644734527351584 0.2106212782989339 0 0.071506951066171401 0.19274113563641379 0 0.086251184782981091 0.1943358166954767 0 0.055093819004974121 0.1959430952038777 0 0.06644734527351584 0.2106212782989339 0 0.071506951066171401 0.19274113563641379 0 0.086251184782981091 0.1943358166954767 0 0.084119145022878816 0.18214252575657089 0 0.071506951066171401 0.19274113563641379 0 0.086251184782981091 0.1943358166954767 0 0.084119145022878816 0.18214252575657089 0 0.09247841176713445 0.20516429399246081 0 0.086251184782981091 0.1943358166954767 0 0.09898042539168489 0.1911011018320935 0 0.086251184782981091 0.1943358166954767 0 0.09898042539168489 0.1911011018320935 0 0.090966731829053238 0.1826902930233269 0 0.09247841176713445 0.20516429399246081 0 0.09898042539168489 0.1911011018320935 0 0.1185094782607532 0.19970730968598771 0 0.09247841176713445 0.20516429399246081 0 0.1185094782607532 0.19970730968598771 0 0.09898042539168489 0.1911011018320935 0 0.1228441540104533 0.19033184824574251 0 0.10850584336214859 0.18415170571076639 0 0.09898042539168489 0.1911011018320935 0 0.1228441540104533 0.19033184824574251 0 0.1185094782607532 0.19970730968598771 0 0.09898042539168489 0.1911011018320935 0 0.1228441540104533 0.19033184824574251 0 0.12340497517282351 0.20714093835431591 0 0.1171979933812142 0.21572657631036701 0 0.1331838075224718 0.20972401347841649 0 0.1127789313825087 0.2094136692185509 0 0.12340497517282351 0.20714093835431591 0 0.1171979933812142 0.21572657631036701 0 0.1185094782607532 0.19970730968598771 0 0.1127789313825087 0.2094136692185509 0 0.12340497517282351 0.20714093835431591 0 0.1127789313825087 0.2094136692185509 0 0.1157743272304349 0.21626115311992211 0 0.10583062116142811 0.21125094444485201 0 0.1171979933812142 0.21572657631036701 0 0.1157743272304349 0.21626115311992211 0 0.1127789313825087 0.2094136692185509 0 0.1171979933812142 0.21572657631036701 0 0.1157743272304349 0.21626115311992211 0 0.09361020234983114 0.22458362897478981 0 0.09247841176713445 0.20516429399246081 0 0.10235342746977261 0.214331410730766 0 0.1157743272304349 0.21626115311992211 0 0.10583062116142811 0.21125094444485201 0 0.10235342746977261 0.214331410730766 0 0.09247841176713445 0.20516429399246081 0 0.1185094782607532 0.19970730968598771 0 0.1127789313825087 0.2094136692185509 0 0.09247841176713445 0.20516429399246081 0 0.1127789313825087 0.2094136692185509 0 0.10583062116142811 0.21125094444485201 0 0.09361020234983114 0.22458362897478981 0 0.1157743272304349 0.21626115311992211 0 0.10235342746977261 0.214331410730766 0 0.09247841176713445 0.20516429399246081 0 0.10583062116142811 0.21125094444485201 0 0.10235342746977261 0.214331410730766 0 0.09361020234983114 0.22458362897478981 0 0.1157743272304349 0.21626115311992211 0 0.11127490779096991 0.22877442463444109 0 0.09361020234983114 0.22458362897478981 0 0.1157743272304349 0.21626115311992211 0 0.09361020234983114 0.22458362897478981 0 0.11127490779096991 0.22877442463444109 0 0.10937537131814699 0.24297727822045739 0 0.11127490779096991 0.22877442463444109 0 0.10937537131814699 0.24297727822045739 0 0.12519039915036981 0.229640952798669 0 0.1171979933812142 0.21572657631036701 0 0.1157743272304349 0.21626115311992211 0 0.11127490779096991 0.22877442463444109 0 0.1171979933812142 0.21572657631036701 0 0.11127490779096991 0.22877442463444109 0 0.12519039915036981 0.229640952798669 0 0.10937537131814699 0.24297727822045739 0 0.12811207241051631 0.2456379328732762 0 0.12519039915036981 0.229640952798669 0 0.086381384202169925 0.24861796181918919 0 0.09361020234983114 0.22458362897478981 0 0.10937537131814699 0.24297727822045739 0 0.075998012317486013 0.13569717530706021 0 0.080898675801190589 0.16372442731656131 0 0.075998012317486013 0.13569717530706021 0 0.080898675801190589 0.16372442731656131 0 0.1017999038070096 0.15415679143805841 0 0.082090926209860471 0.1205723658178179 0 0.075998012317486013 0.13569717530706021 0 0.10118583527366309 0.1314961729504136 0 0.075998012317486013 0.13569717530706021 0 0.1017999038070096 0.15415679143805841 0 0.10118583527366309 0.1314961729504136 0 0.058794076833276102 0.1524899975488046 0 0.05850255178466373 0.13195961314861809 0 0.075998012317486013 0.13569717530706021 0 0.064204244060129534 0.1206251093654561 0 0.05850255178466373 0.13195961314861809 0 0.075998012317486013 0.13569717530706021 0 0.058794076833276102 0.1524899975488046 0 0.075998012317486013 0.13569717530706021 0 0.080898675801190589 0.16372442731656131 0 0.056485625629878911 0.17489961638475801 0 0.080898675801190589 0.16372442731656131 0 0.056485625629878911 0.17489961638475801 0 0.069476900785133189 0.17235300388528829 0 0.080898675801190589 0.16372442731656131 0 0.056485625629878911 0.17489961638475801 0 0.058794076833276102 0.1524899975488046 0 0.080898675801190589 0.16372442731656131 0 0.069476900785133189 0.17235300388528829 0 0.082756593862614428 0.17434999626104641 0 0.080898675801190589 0.16372442731656131 0 0.071506951066171401 0.19274113563641379 0 0.065623261246508441 0.18066296222720979 0 0.084119145022878816 0.18214252575657089 0 0.065623261246508441 0.18066296222720979 0 0.084119145022878816 0.18214252575657089 0 0.065623261246508441 0.18066296222720979 0 0.069476900785133189 0.17235300388528829 0 0.082756593862614428 0.17434999626104641 0 0.065623261246508441 0.18066296222720979 0 0.084119145022878816 0.18214252575657089 0 0.082756593862614428 0.17434999626104641 0 0.056485625629878911 0.17489961638475801 0 0.065623261246508441 0.18066296222720979 0 0.069476900785133189 0.17235300388528829 0 0.056485625629878911 0.17489961638475801 0 0.069476900785133189 0.17235300388528829 0 0.084119145022878816 0.18214252575657089 0 0.082756593862614428 0.17434999626104641 0 0.082756593862614428 0.17434999626104641 0 0.090966731829053238 0.1826902930233269 0 0.096370582305789487 0.17499806648632499 0 0.084119145022878816 0.18214252575657089 0 0.082756593862614428 0.17434999626104641 0 0.090966731829053238 0.1826902930233269 0 0.086251184782981091 0.1943358166954767 0 0.084119145022878816 0.18214252575657089 0 0.090966731829053238 0.1826902930233269 0 0.084119145022878816 0.18214252575657089 0 0.090966731829053238 0.1826902930233269 0 0.082756593862614428 0.17434999626104641 0 0.080898675801190589 0.16372442731656131 0 0.10272886283772389 0.15946957591030539 0 0.082756593862614428 0.17434999626104641 0 0.10272886283772389 0.15946957591030539 0 0.080898675801190589 0.16372442731656131 0 0.1017999038070096 0.15415679143805841 0 0.082756593862614428 0.17434999626104641 0 0.080898675801190589 0.16372442731656131 0 0.080898675801190589 0.16372442731656131 0 0.10272886283772389 0.15946957591030539 0 0.1017999038070096 0.15415679143805841 0 0.10272886283772389 0.15946957591030539 0 0.096370582305789487 0.17499806648632499 0 0.1058241150463097 0.17632620238595731 0 0.082756593862614428 0.17434999626104641 0 0.10272886283772389 0.15946957591030539 0 0.096370582305789487 0.17499806648632499 0 0.10272886283772389 0.15946957591030539 0 0.1058241150463097 0.17632620238595731 0 0.1171649848546237 0.17137722049827561 0 0.090966731829053238 0.1826902930233269 0 0.099576607953246743 0.18215426485098929 0 0.096370582305789487 0.17499806648632499 0 0.09898042539168489 0.1911011018320935 0 0.090966731829053238 0.1826902930233269 0 0.099576607953246743 0.18215426485098929 0 0.099576607953246743 0.18215426485098929 0 0.096370582305789487 0.17499806648632499 0 0.1058241150463097 0.17632620238595731 0 0.09898042539168489 0.1911011018320935 0 0.099576607953246743 0.18215426485098929 0 0.10850584336214859 0.18415170571076639 0 0.099576607953246743 0.18215426485098929 0 0.1058241150463097 0.17632620238595731 0 0.10850584336214859 0.18415170571076639 0 0.1228441540104533 0.19033184824574251 0 0.10850584336214859 0.18415170571076639 0 0.11530391440904821 0.18084511123904959 0 0.1058241150463097 0.17632620238595731 0 0.10850584336214859 0.18415170571076639 0 0.11530391440904821 0.18084511123904959 0 0.1058241150463097 0.17632620238595731 0 0.11530391440904821 0.18084511123904959 0 0.1171649848546237 0.17137722049827561 0 0.11530391440904821 0.18084511123904959 0 0.1236644051517084 0.17810696910116591 0 0.1171649848546237 0.17137722049827561 0 0.1236644051517084 0.17810696910116591 0 0.1171649848546237 0.17137722049827561 0 0.1289489498503453 0.17010647560358971 0 0.1228441540104533 0.19033184824574251 0 0.11530391440904821 0.18084511123904959 0 0.1236644051517084 0.17810696910116591 0 0.10272886283772389 0.15946957591030539 0 0.1171649848546237 0.17137722049827561 0 0.1249149733312704 0.15998231572783361 0 0.1171649848546237 0.17137722049827561 0 0.1249149733312704 0.15998231572783361 0 0.1289489498503453 0.17010647560358971 0 0.10272886283772389 0.15946957591030539 0 0.1249149733312704 0.15998231572783361 0 0.1227011318128314 0.14458915555956151 0 0.1227011318128314 0.14458915555956151 0 0.1017999038070096 0.15415679143805841 0 0.10272886283772389 0.15946957591030539 0 0.1227011318128314 0.14458915555956151 0 0.10272886283772389 0.15946957591030539 0 0.1227011318128314 0.14458915555956151 0 0.1017999038070096 0.15415679143805841 0 0.1227011318128314 0.14458915555956151 0 0.1017999038070096 0.15415679143805841 0 0.10118583527366309 0.1314961729504136 0 0.1215951808840359 0.121275415706405 0 0.1227011318128314 0.14458915555956151 0 0.10118583527366309 0.1314961729504136 0 0.1227011318128314 0.14458915555956151 0 0.14475045543133369 0.13449597348957429 0 0.1227011318128314 0.14458915555956151 0 0.1436180987418452 0.12900488415033171 0 0.1227011318128314 0.14458915555956151 0 0.1436180987418452 0.12900488415033171 0 0.14475045543133369 0.13449597348957429 0 0.1215951808840359 0.121275415706405 0 0.1227011318128314 0.14458915555956151 0 0.1436180987418452 0.12900488415033171 0 0.1436180987418452 0.12900488415033171 0 0.14475045543133369 0.13449597348957429 0 0.16679977904983581 0.1244027914195862 0 0.14475045543133369 0.13449597348957429 0 0.16679977904983581 0.1244027914195862 0 0.14475045543133369 0.13449597348957429 0 0.16154787050135219 0.13183135707003091 0 0.15669917128805669 0.14215531907669249 0 0.14792703428647411 0.14674124334546271 0 0.15130586701713919 0.1566083572378858 0 0.15669917128805669 0.14215531907669249 0 0.14475045543133369 0.13449597348957429 0 0.14792703428647411 0.14674124334546271 0 0.15669917128805669 0.14215531907669249 0 0.14475045543133369 0.13449597348957429 0 0.14792703428647411 0.14674124334546271 0 0.13805075287944071 0.14895061636925061 0 0.14792703428647411 0.14674124334546271 0 0.13805075287944071 0.14895061636925061 0 0.15130586701713919 0.1566083572378858 0 0.1227011318128314 0.14458915555956151 0 0.14475045543133369 0.13449597348957429 0 0.13805075287944071 0.14895061636925061 0 0.1249149733312704 0.15998231572783361 0 0.1227011318128314 0.14458915555956151 0 0.13805075287944071 0.14895061636925061 0 0.1249149733312704 0.15998231572783361 0 0.13805075287944071 0.14895061636925061 0 0.13989515775265859 0.16540085042602071 0 0.1249149733312704 0.15998231572783361 0 0.1289489498503453 0.17010647560358971 0 0.13989515775265859 0.16540085042602071 0 0.1289489498503453 0.17010647560358971 0 0.13989515775265859 0.16540085042602071 0 0.13395112079943139 0.1778463957510249 0 0.1228441540104533 0.19033184824574251 0 0.13395112079943139 0.1778463957510249 0 0.1392702107163914 0.18391856976926521 0 0.1228441540104533 0.19033184824574251 0 0.1236644051517084 0.17810696910116591 0 0.13395112079943139 0.1778463957510249 0 0.1236644051517084 0.17810696910116591 0 0.1289489498503453 0.17010647560358971 0 0.13395112079943139 0.1778463957510249 0 0.13989515775265859 0.16540085042602071 0 0.13395112079943139 0.1778463957510249 0 0.1463373865220223 0.17743701004328941 0 0.13395112079943139 0.1778463957510249 0 0.1392702107163914 0.18391856976926521 0 0.1463373865220223 0.17743701004328941 0 0.1392702107163914 0.18391856976926521 0 0.14650133494728829 0.18370584295188941 0 0.14670788262922169 0.18956259465939149 0 0.1392702107163914 0.18391856976926521 0 0.14650133494728829 0.18370584295188941 0 0.1463373865220223 0.17743701004328941 0 0.1463373865220223 0.17743701004328941 0 0.15384068324999081 0.16875033747909579 0 0.1583219095875254 0.17931804075545821 0 0.1463373865220223 0.17743701004328941 0 0.1536898599215176 0.1839051973356117 0 0.1583219095875254 0.17931804075545821 0 0.14650133494728829 0.18370584295188941 0 0.1463373865220223 0.17743701004328941 0 0.1536898599215176 0.1839051973356117 0 0.14650133494728829 0.18370584295188941 0 0.1536898599215176 0.1839051973356117 0 0.14670788262922169 0.18956259465939149 0 0.13805075287944071 0.14895061636925061 0 0.13989515775265859 0.16540085042602071 0 0.15130586701713919 0.1566083572378858 0 0.13989515775265859 0.16540085042602071 0 0.15384068324999081 0.16875033747909579 0 0.15130586701713919 0.1566083572378858 0 0.13989515775265859 0.16540085042602071 0 0.1463373865220223 0.17743701004328941 0 0.15384068324999081 0.16875033747909579 0 0.15384068324999081 0.16875033747909579 0 0.15130586701713919 0.1566083572378858 0 0.1647683098784371 0.16523683234963829 0 0.15384068324999081 0.16875033747909579 0 0.1647683098784371 0.16523683234963829 0 0.16406799248655221 0.1780833794559632 0 0.1647683098784371 0.16523683234963829 0 0.17303165469957299 0.1759533865728411 0 0.1748365875767727 0.16337534665222181 0 0.1647683098784371 0.16523683234963829 0 0.1748365875767727 0.16337534665222181 0 0.16657324275563681 0.1526587924290185 0 0.1647683098784371 0.16523683234963829 0 0.16406799248655221 0.1780833794559632 0 0.17297640346832069 0.18871582196152781 0 0.1647683098784371 0.16523683234963829 0 0.17297640346832069 0.18871582196152781 0 0.1536898599215176 0.1839051973356117 0 0.1583219095875254 0.17931804075545821 0 0.1705716112479902 0.18879334107304099 0 0.1536898599215176 0.1839051973356117 0 0.14670788262922169 0.18956259465939149 0 0.1705716112479902 0.18879334107304099 0 0.1647683098784371 0.16523683234963829 0 0.17303165469957299 0.1759533865728411 0 0.17297640346832069 0.18871582196152781 0 0.15384068324999081 0.16875033747909579 0 0.1583219095875254 0.17931804075545821 0 0.16406799248655221 0.1780833794559632 0 0.1583219095875254 0.17931804075545821 0 0.16406799248655221 0.1780833794559632 0 0.1705716112479902 0.18879334107304099 0 0.16406799248655221 0.1780833794559632 0 0.1705716112479902 0.18879334107304099 0 0.17297640346832069 0.18871582196152781 0 0.17968427287426489 0.18688302166692189 0 0.17303165469957299 0.1759533865728411 0 0.1748365875767727 0.16337534665222181 0 0.17968427287426489 0.18688302166692189 0 0.1748365875767727 0.16337534665222181 0 0.17968427287426489 0.18688302166692189 0 0.1800154359802057 0.18848891689188291 0 0.19594718793240021 0.18347376940783641 0 0.18539188775458659 0.17342455803002879 0 0.17968427287426489 0.18688302166692189 0 0.1748365875767727 0.16337534665222181 0 0.18539188775458659 0.17342455803002879 0 0.17968427287426489 0.18688302166692189 0 0.19594718793240021 0.18347376940783641 0 0.17968427287426489 0.18688302166692189 0 0.17303165469957299 0.1759533865728411 0 0.17297640346832069 0.18871582196152781 0 0.18539188775458659 0.17342455803002879 0 0.1748365875767727 0.16337534665222181 0 0.19109950263490849 0.15996609439313539 0 0.16998890227928101 0.1398676716375214 0 0.19109950263490849 0.15996609439313539 0 0.1748365875767727 0.16337534665222181 0 0.16998890227928101 0.1398676716375214 0 0.19109950263490849 0.15996609439313539 0 0.1748365875767727 0.16337534665222181 0 0.16998890227928101 0.1398676716375214 0 0.16998890227928101 0.1398676716375214 0 0.19356516006555999 0.1381525739661425 0 0.19109950263490849 0.15996609439313539 0 0.18047224869311551 0.1296445599867028 0 0.16998890227928101 0.1398676716375214 0 0.19356516006555999 0.1381525739661425 0 0.18047224869311551 0.1296445599867028 0 0.16998890227928101 0.1398676716375214 0 0.16679977904983581 0.1244027914195862 0 0.16998890227928101 0.1398676716375214 0 0.16154787050135219 0.13183135707003091 0 0.14475045543133369 0.13449597348957429 0 0.16154787050135219 0.13183135707003091 0 0.16679977904983581 0.1244027914195862 0 0.16998890227928101 0.1398676716375214 0 0.16154787050135219 0.13183135707003091 0 0.16679977904983581 0.1244027914195862 0 0.16998890227928101 0.1398676716375214 0 0.16679977904983581 0.1244027914195862 0 0.16998890227928101 0.1398676716375214 0 0.16154787050135219 0.13183135707003091 0 0.15669917128805669 0.14215531907669249 0 0.1748365875767727 0.16337534665222181 0 0.16998890227928101 0.1398676716375214 0 0.16657324275563681 0.1526587924290185 0 0.1647683098784371 0.16523683234963829 0 0.15669917128805669 0.14215531907669249 0 0.16657324275563681 0.1526587924290185 0 0.15130586701713919 0.1566083572378858 0 0.1647683098784371 0.16523683234963829 0 0.15669917128805669 0.14215531907669249 0 0.1647683098784371 0.16523683234963829 0 0.15669917128805669 0.14215531907669249 0 0.16998890227928101 0.1398676716375214 0 0.15669917128805669 0.14215531907669249 0 0.16657324275563681 0.1526587924290185 0 0.14134015425902 0.2343946335940853 0 0.156309635178044 0.24192708784607339 0 0.14640669834802569 0.25564940172523481 0 0.14134015425902 0.2343946335940853 0 0.12811207241051631 0.2456379328732762 0 0.12519039915036981 0.229640952798669 0 0.14134015425902 0.2343946335940853 0 0.12811207241051631 0.2456379328732762 0 0.14640669834802569 0.25564940172523481 0 0.14134015425902 0.2343946335940853 0 0.12519039915036981 0.229640952798669 0 0.1372072283596022 0.21077464893535749 0 0.14134015425902 0.2343946335940853 0 0.15442575292642319 0.22276357140898509 0 0.156309635178044 0.24192708784607339 0 0.14134015425902 0.2343946335940853 0 0.15442575292642319 0.22276357140898509 0 0.1372072283596022 0.21077464893535749 0 0.1372072283596022 0.21077464893535749 0 0.15721646333799011 0.20582272156034789 0 0.14916962166372949 0.2037214506464661 0 0.1331838075224718 0.20972401347841649 0 0.14916962166372949 0.2037214506464661 0 0.1372072283596022 0.21077464893535749 0 0.15721646333799011 0.20582272156034789 0 0.15442575292642319 0.22276357140898509 0 0.1372072283596022 0.21077464893535749 0 0.15721646333799011 0.20582272156034789 0 0.14916962166372949 0.2037214506464661 0 0.1331838075224718 0.20972401347841649 0 0.1337773626497325 0.20311618704407389 0 0.14916962166372949 0.2037214506464661 0 0.1372072283596022 0.21077464893535749 0 0.1331838075224718 0.20972401347841649 0 0.1171979933812142 0.21572657631036701 0 0.1331838075224718 0.20972401347841649 0 0.1171979933812142 0.21572657631036701 0 0.1372072283596022 0.21077464893535749 0 0.1331838075224718 0.20972401347841649 0 0.1171979933812142 0.21572657631036701 0 0.1372072283596022 0.21077464893535749 0 0.1171979933812142 0.21572657631036701 0 0.12519039915036981 0.229640952798669 0 0.1372072283596022 0.21077464893535749 0 0.1185094782607532 0.19970730968598771 0 0.12340497517282351 0.20714093835431591 0 0.1337773626497325 0.20311618704407389 0 0.12340497517282351 0.20714093835431591 0 0.1331838075224718 0.20972401347841649 0 0.1337773626497325 0.20311618704407389 0 0.1185094782607532 0.19970730968598771 0 0.1445405447543717 0.1942503253795147 0 0.1228441540104533 0.19033184824574251 0 0.1185094782607532 0.19970730968598771 0 0.1445405447543717 0.1942503253795147 0 0.1228441540104533 0.19033184824574251 0 0.1392702107163914 0.18391856976926521 0 0.14670788262922169 0.18956259465939149 0 0.1228441540104533 0.19033184824574251 0 0.1445405447543717 0.1942503253795147 0 0.14670788262922169 0.18956259465939149 0 0.1185094782607532 0.19970730968598771 0 0.1337773626497325 0.20311618704407389 0 0.1445405447543717 0.1942503253795147 0 0.1228441540104533 0.19033184824574251 0 0.14670788262922169 0.18956259465939149 0 0.1445405447543717 0.1942503253795147 0 0.14670788262922169 0.18956259465939149 0 0.1705716112479902 0.18879334107304099 0 0.14916962166372949 0.2037214506464661 0 0.1337773626497325 0.20311618704407389 0 0.1445405447543717 0.1942503253795147 0 0.14916962166372949 0.2037214506464661 0 0.1445405447543717 0.1942503253795147 0 0.15721646333799011 0.20582272156034789 0 0.1705716112479902 0.18879334107304099 0 0.17722569831637791 0.20087079418533829 0 0.15721646333799011 0.20582272156034789 0 0.14670788262922169 0.18956259465939149 0 0.1705716112479902 0.18879334107304099 0 0.1445405447543717 0.1942503253795147 0 0.1705716112479902 0.18879334107304099 0 0.15721646333799011 0.20582272156034789 0 0.1445405447543717 0.1942503253795147 0 0.1705716112479902 0.18879334107304099 0 0.1705716112479902 0.18879334107304099 0 0.17297640346832069 0.18871582196152781 0 0.17297640346832069 0.18871582196152781 0 0.1800154359802057 0.18848891689188291 0 0.1814411832879948 0.195402732931445 0 0.17297640346832069 0.18871582196152781 0 0.1814411832879948 0.195402732931445 0 0.17722569831637791 0.20087079418533829 0 0.1705716112479902 0.18879334107304099 0 0.17297640346832069 0.18871582196152781 0 0.17722569831637791 0.20087079418533829 0 0.1814411832879948 0.195402732931445 0 0.17722569831637791 0.20087079418533829 0 0.20129168053662461 0.19491489450743199 0 0.17297640346832069 0.18871582196152781 0 0.17722569831637791 0.20087079418533829 0 0.17968427287426489 0.18688302166692189 0 0.17297640346832069 0.18871582196152781 0 0.1800154359802057 0.18848891689188291 0 0.17968427287426489 0.18688302166692189 0 0.17297640346832069 0.18871582196152781 0 0.17297640346832069 0.18871582196152781 0 0.1800154359802057 0.18848891689188291 0 0.17968427287426489 0.18688302166692189 0 0.1800154359802057 0.18848891689188291 0 0.1800154359802057 0.18848891689188291 0 0.1814411832879948 0.195402732931445 0 0.17722569831637791 0.20087079418533829 0 0.18311555161741411 0.21771853147734599 0 0.17722569831637791 0.20087079418533829 0 0.18311555161741411 0.21771853147734599 0 0.16877109213005309 0.21735861057854569 0 0.17722569831637791 0.20087079418533829 0 0.1850657203291616 0.2133181242482087 0 0.18311555161741411 0.21771853147734599 0 0.17722569831637791 0.20087079418533829 0 0.1850657203291616 0.2133181242482087 0 0.19078824061891431 0.20200060724102131 0 0.18484137478683041 0.21574459013134689 0 0.18433607412081471 0.22120979712443489 0 0.18484137478683041 0.21574459013134689 0 0.1850657203291616 0.2133181242482087 0 0.18311555161741411 0.21771853147734599 0 0.18484137478683041 0.21574459013134689 0 0.18311555161741411 0.21771853147734599 0 0.18433607412081471 0.22120979712443489 0 0.18484137478683041 0.21574459013134689 0 0.18311555161741411 0.21771853147734599 0 0.18484137478683041 0.21574459013134689 0 0.1850657203291616 0.2133181242482087 0 0.17722569831637791 0.20087079418533829 0 0.16877109213005309 0.21735861057854569 0 0.15721646333799011 0.20582272156034789 0 0.15442575292642319 0.22276357140898509 0 0.16877109213005309 0.21735861057854569 0 0.15721646333799011 0.20582272156034789 0 0.17722569831637791 0.20087079418533829 0 0.15721646333799011 0.20582272156034789 0 0.15442575292642319 0.22276357140898509 0 0.16532180442800001 0.2303426772256697 0 0.156309635178044 0.24192708784607339 0 0.15442575292642319 0.22276357140898509 0 0.16877109213005309 0.21735861057854569 0 0.16532180442800001 0.2303426772256697 0 0.16532180442800001 0.2303426772256697 0 0.17532128215411441 0.22663336761358721 0 0.16932084640681469 0.2402298505246982 0 0.16877109213005309 0.21735861057854569 0 0.16532180442800001 0.2303426772256697 0 0.17532128215411441 0.22663336761358721 0 0.18433607412081471 0.22120979712443489 0 0.17532128215411441 0.22663336761358721 0 0.18183655241779509 0.24824400548678319 0 0.18433607412081471 0.22120979712443489 0 0.18999081994053149 0.23738501697361711 0 0.18311555161741411 0.21771853147734599 0 0.17532128215411441 0.22663336761358721 0 0.18311555161741411 0.21771853147734599 0 0.16877109213005309 0.21735861057854569 0 0.17532128215411441 0.22663336761358721 0 0.18311555161741411 0.21771853147734599 0 0.18433607412081471 0.22120979712443489 0 0.17532128215411441 0.22663336761358721 0 0.18484137478683041 0.21574459013134689 0 0.18433607412081471 0.22120979712443489 0 0.19138760349667189 0.2205683167856996 0 0.18311555161741411 0.21771853147734599 0 0.18433607412081471 0.22120979712443489 0 0.17532128215411441 0.22663336761358721 0 0.18183655241779509 0.24824400548678319 0 0.16932084640681469 0.2402298505246982 0 0.18433607412081471 0.22120979712443489 0 0.18183655241779509 0.24824400548678319 0 0.18999081994053149 0.23738501697361711 0 0.18433607412081471 0.22120979712443489 0 0.18183655241779509 0.24824400548678319 0 0.18183655241779509 0.24824400548678319 0 0.16932084640681469 0.2402298505246982 0 0.16511150178394041 0.25596916607527909 0 0.16932084640681469 0.2402298505246982 0 0.156309635178044 0.24192708784607339 0 0.16511150178394041 0.25596916607527909 0 0.16532180442800001 0.2303426772256697 0 0.16932084640681469 0.2402298505246982 0 0.156309635178044 0.24192708784607339 0 0.21162878896817741 0.2407576271053469 0 0.22287539685364899 0.23970440102010229 0 0.21960299125344371 0.25061575866082519 0 0.21162878896817741 0.2407576271053469 0 0.20553805290600821 0.25503567047266268 0 0.21960299125344371 0.25061575866082519 0 0.21162878896817741 0.2407576271053469 0 0.21853834457928539 0.22732436878248261 0 0.22287539685364899 0.23970440102010229 0 0.21162878896817741 0.2407576271053469 0 0.19696661788618969 0.24550446176998431 0 0.2034155507006693 0.23264404174952541 0 0.21162878896817741 0.2407576271053469 0 0.19696661788618969 0.24550446176998431 0 0.20553805290600821 0.25503567047266268 0 0.18183655241779509 0.24824400548678319 0 0.19696661788618969 0.24550446176998431 0 0.18999081994053149 0.23738501697361711 0 0.19696661788618969 0.24550446176998431 0 0.18999081994053149 0.23738501697361711 0 0.2034155507006693 0.23264404174952541 0 0.18999081994053149 0.23738501697361711 0 0.19535308201266541 0.22643436687948121 0 0.2034155507006693 0.23264404174952541 0 0.18433607412081471 0.22120979712443489 0 0.18999081994053149 0.23738501697361711 0 0.19535308201266541 0.22643436687948121 0 0.18433607412081471 0.22120979712443489 0 0.19138760349667189 0.2205683167856996 0 0.19535308201266541 0.22643436687948121 0 0.19138760349667189 0.2205683167856996 0 0.19535308201266541 0.22643436687948121 0 0.19701922101568689 0.21527825279129309 0 0.19535308201266541 0.22643436687948121 0 0.205755528087291 0.22016110896033891 0 0.2034155507006693 0.23264404174952541 0 0.19535308201266541 0.22643436687948121 0 0.205755528087291 0.22016110896033891 0 0.19701922101568689 0.21527825279129309 0 0.205755528087291 0.22016110896033891 0 0.2034155507006693 0.23264404174952541 0 0.21853834457928539 0.22732436878248261 0 0.21162878896817741 0.2407576271053469 0 0.2034155507006693 0.23264404174952541 0 0.21853834457928539 0.22732436878248261 0 0.205755528087291 0.22016110896033891 0 0.21853834457928539 0.22732436878248261 0 0.21659742092864159 0.21181981117794851 0 0.21659742092864159 0.21181981117794851 0 0.20590735939927321 0.20928950082499739 0 0.21348949990154881 0.1975021110127517 0 0.21659742092864159 0.21181981117794851 0 0.21348949990154881 0.1975021110127517 0 0.2215546002178313 0.20088814835308999 0 0.205755528087291 0.22016110896033891 0 0.21659742092864159 0.21181981117794851 0 0.20590735939927321 0.20928950082499739 0 0.205755528087291 0.22016110896033891 0 0.20590735939927321 0.20928950082499739 0 0.19701922101568689 0.21527825279129309 0 0.18484137478683041 0.21574459013134689 0 0.1850657203291616 0.2133181242482087 0 0.19956986329349241 0.1988986160231066 0 0.18484137478683041 0.21574459013134689 0 0.19956986329349241 0.1988986160231066 0 0.18484137478683041 0.21574459013134689 0 0.19701922101568689 0.21527825279129309 0 0.19956986329349241 0.1988986160231066 0 0.20590735939927321 0.20928950082499739 0 0.19701922101568689 0.21527825279129309 0 0.19956986329349241 0.1988986160231066 0 0.18484137478683041 0.21574459013134689 0 0.19138760349667189 0.2205683167856996 0 0.19701922101568689 0.21527825279129309 0 0.1850657203291616 0.2133181242482087 0 0.19956986329349241 0.1988986160231066 0 0.19078824061891431 0.20200060724102131 0 0.17722569831637791 0.20087079418533829 0 0.19078824061891431 0.20200060724102131 0 0.20129168053662461 0.19491489450743199 0 0.17722569831637791 0.20087079418533829 0 0.20129168053662461 0.19491489450743199 0 0.1800154359802057 0.18848891689188291 0 0.1814411832879948 0.195402732931445 0 0.20129168053662461 0.19491489450743199 0 0.1800154359802057 0.18848891689188291 0 0.2060217246406981 0.187650597317463 0 0.19956986329349241 0.1988986160231066 0 0.19078824061891431 0.20200060724102131 0 0.20129168053662461 0.19491489450743199 0 0.1800154359802057 0.18848891689188291 0 0.20129168053662461 0.19491489450743199 0 0.2060217246406981 0.187650597317463 0 0.20129168053662461 0.19491489450743199 0 0.2060217246406981 0.187650597317463 0 0.2142983518001525 0.1820526419148647 0 0.19956986329349241 0.1988986160231066 0 0.20129168053662461 0.19491489450743199 0 0.2142983518001525 0.1820526419148647 0 0.19956986329349241 0.1988986160231066 0 0.21348949990154881 0.1975021110127517 0 0.2142983518001525 0.1820526419148647 0 0.19956986329349241 0.1988986160231066 0 0.2142983518001525 0.1820526419148647 0 0.20590735939927321 0.20928950082499739 0 0.19956986329349241 0.1988986160231066 0 0.21348949990154881 0.1975021110127517 0 0.21348949990154881 0.1975021110127517 0 0.21888716763897789 0.19435889754265809 0 0.2215546002178313 0.20088814835308999 0 0.21348949990154881 0.1975021110127517 0 0.2142983518001525 0.1820526419148647 0 0.21761173603247069 0.18520716125259501 0 0.21348949990154881 0.1975021110127517 0 0.21888716763897789 0.19435889754265809 0 0.21761173603247069 0.18520716125259501 0 0.22578757063435551 0.19105056539264739 0 0.21888716763897789 0.19435889754265809 0 0.21761173603247069 0.18520716125259501 0 0.22578757063435551 0.19105056539264739 0 0.21888716763897789 0.19435889754265809 0 0.2215546002178313 0.20088814835308999 0 0.2215546002178313 0.20088814835308999 0 0.22977296314496479 0.20011326267498691 0 0.22701107985995519 0.20778285359561649 0 0.22578757063435551 0.19105056539264739 0 0.2215546002178313 0.20088814835308999 0 0.22977296314496479 0.20011326267498691 0 0.22578757063435551 0.19105056539264739 0 0.22977296314496479 0.20011326267498691 0 0.23858071410545889 0.195749067707712 0 0.22578757063435551 0.19105056539264739 0 0.23858071410545889 0.195749067707712 0 0.23573315388871169 0.18554051908952951 0 0.23858071410545889 0.195749067707712 0 0.23573315388871169 0.18554051908952951 0 0.25317992106129272 0.18846692460435269 0 0.23858071410545889 0.195749067707712 0 0.24819076086490249 0.2034194395802591 0 0.25317992106129272 0.18846692460435269 0 0.23858071410545889 0.195749067707712 0 0.23649145881566361 0.20899374188662881 0 0.24819076086490249 0.2034194395802591 0 0.22977296314496479 0.20011326267498691 0 0.23858071410545889 0.195749067707712 0 0.23649145881566361 0.20899374188662881 0 0.23649145881566361 0.20899374188662881 0 0.24819076086490249 0.2034194395802591 0 0.2496020388829098 0.2174496008327092 0 0.23649145881566361 0.20899374188662881 0 0.2496020388829098 0.2174496008327092 0 0.23563906704522031 0.22360512569537691 0 0.23649145881566361 0.20899374188662881 0 0.2271157141489247 0.21634326353949171 0 0.23563906704522031 0.22360512569537691 0 0.23649145881566361 0.20899374188662881 0 0.2271157141489247 0.21634326353949171 0 0.22701107985995519 0.20778285359561649 0 0.22977296314496479 0.20011326267498691 0 0.23649145881566361 0.20899374188662881 0 0.22701107985995519 0.20778285359561649 0 0.21659742092864159 0.21181981117794851 0 0.2215546002178313 0.20088814835308999 0 0.22701107985995519 0.20778285359561649 0 0.21853834457928539 0.22732436878248261 0 0.21659742092864159 0.21181981117794851 0 0.2271157141489247 0.21634326353949171 0 0.21659742092864159 0.21181981117794851 0 0.2271157141489247 0.21634326353949171 0 0.22701107985995519 0.20778285359561649 0 0.21853834457928539 0.22732436878248261 0 0.2271157141489247 0.21634326353949171 0 0.23563906704522031 0.22360512569537691 0 0.21853834457928539 0.22732436878248261 0 0.23563906704522031 0.22360512569537691 0 0.23298685109501749 0.23496936769828641 0 0.21853834457928539 0.22732436878248261 0 0.23298685109501749 0.23496936769828641 0 0.22287539685364899 0.23970440102010229 0 0.2496020388829098 0.2174496008327092 0 0.24442332300999661 0.23079137593239779 0 0.25429160712161381 0.22670675697131451 0 0.2496020388829098 0.2174496008327092 0 0.23563906704522031 0.22360512569537691 0 0.24442332300999661 0.23079137593239779 0 0.23563906704522031 0.22360512569537691 0 0.24442332300999661 0.23079137593239779 0 0.23298685109501749 0.23496936769828641 0 0.24442332300999661 0.23079137593239779 0 0.242133551746054 0.24582125946899899 0 0.23298685109501749 0.23496936769828641 0 0.24442332300999661 0.23079137593239779 0 0.242133551746054 0.24582125946899899 0 0.25303131550129021 0.23735654553870739 0 0.242133551746054 0.24582125946899899 0 0.25421322039033012 0.25011983010618499 0 0.25303131550129021 0.23735654553870739 0 0.242133551746054 0.24582125946899899 0 0.23076984391265709 0.24584645890712861 0 0.23298685109501749 0.23496936769828641 0 0.23076984391265709 0.24584645890712861 0 0.23298685109501749 0.23496936769828641 0 0.22287539685364899 0.23970440102010229 0 0.23076984391265709 0.24584645890712861 0 0.22287539685364899 0.23970440102010229 0 0.21960299125344371 0.25061575866082519 0 0.21493159510114199 0.1283202641525775 0 0.19356516006555999 0.1381525739661425 0 0.21207222559391431 0.1586279103322738 0 0.18047224869311551 0.1296445599867028 0 0.19356516006555999 0.1381525739661425 0 0.1928264860909987 0.11248894329464421 0 0.21493159510114199 0.1283202641525775 0 0.19356516006555999 0.1381525739661425 0 0.1928264860909987 0.11248894329464421 0 0.19356516006555999 0.1381525739661425 0 0.19109950263490849 0.15996609439313539 0 0.21207222559391431 0.1586279103322738 0 0.19109950263490849 0.15996609439313539 0 0.21221010299053519 0.1800645171487503 0 0.19109950263490849 0.15996609439313539 0 0.19594718793240021 0.18347376940783641 0 0.21221010299053519 0.1800645171487503 0 0.18539188775458659 0.17342455803002879 0 0.19109950263490849 0.15996609439313539 0 0.19594718793240021 0.18347376940783641 0 0.17968427287426489 0.18688302166692189 0 0.19594718793240021 0.18347376940783641 0 0.1800154359802057 0.18848891689188291 0 0.2060217246406981 0.187650597317463 0 0.19594718793240021 0.18347376940783641 0 0.21689529234480059 0.1790823443751037 0 0.21221010299053519 0.1800645171487503 0 0.21207222559391431 0.1586279103322738 0 0.2060217246406981 0.187650597317463 0 0.19594718793240021 0.18347376940783641 0 0.21221010299053519 0.1800645171487503 0 0.19594718793240021 0.18347376940783641 0 0.21221010299053519 0.1800645171487503 0 0.2060217246406981 0.187650597317463 0 0.21221010299053519 0.1800645171487503 0 0.2142983518001525 0.1820526419148647 0 0.21689529234480059 0.1790823443751037 0 0.21221010299053519 0.1800645171487503 0 0.21689529234480059 0.1790823443751037 0 0.21221010299053519 0.1800645171487503 0 0.2142983518001525 0.1820526419148647 0 0.21221010299053519 0.1800645171487503 0 0.2142983518001525 0.1820526419148647 0 0.21689529234480059 0.1790823443751037 0 0.2142983518001525 0.1820526419148647 0 0.21689529234480059 0.1790823443751037 0 0.2142983518001525 0.1820526419148647 0 0.21761173603247069 0.18520716125259501 0 0.2142983518001525 0.1820526419148647 0 0.21761173603247069 0.18520716125259501 0 0.19109950263490849 0.15996609439313539 0 0.21221010299053519 0.1800645171487503 0 0.21207222559391431 0.1586279103322738 0 0.21689529234480059 0.1790823443751037 0 0.2329875012160649 0.16067659052825961 0 0.21689529234480059 0.1790823443751037 0 0.2329875012160649 0.16067659052825961 0 0.2442222712976507 0.1733536933678313 0 0.21689529234480059 0.1790823443751037 0 0.21207222559391431 0.1586279103322738 0 0.2329875012160649 0.16067659052825961 0 0.21689529234480059 0.1790823443751037 0 0.2442222712976507 0.1733536933678313 0 0.23573315388871169 0.18554051908952951 0 0.21689529234480059 0.1790823443751037 0 0.2442222712976507 0.1733536933678313 0 0.22578757063435551 0.19105056539264739 0 0.21689529234480059 0.1790823443751037 0 0.23573315388871169 0.18554051908952951 0 0.22578757063435551 0.19105056539264739 0 0.21689529234480059 0.1790823443751037 0 0.21761173603247069 0.18520716125259501 0 0.2442222712976507 0.1733536933678313 0 0.23573315388871169 0.18554051908952951 0 0.25317992106129272 0.18846692460435269 0 0.2329875012160649 0.16067659052825961 0 0.2442222712976507 0.1733536933678313 0 0.2529989822304976 0.1585621632079868 0 0.2329875012160649 0.16067659052825961 0 0.2490797100873286 0.14227083668141521 0 0.2304781917628739 0.14219759910685351 0 0.2329875012160649 0.16067659052825961 0 0.2490797100873286 0.14227083668141521 0 0.2529989822304976 0.1585621632079868 0 0.2329875012160649 0.16067659052825961 0 0.2490797100873286 0.14227083668141521 0 0.21493159510114199 0.1283202641525775 0 0.21207222559391431 0.1586279103322738 0 0.2304781917628739 0.14219759910685351 0 0.21207222559391431 0.1586279103322738 0 0.2329875012160649 0.16067659052825961 0 0.2304781917628739 0.14219759910685351 0 0.21493159510114199 0.1283202641525775 0 0.2304781917628739 0.14219759910685351 0 0.2403526613891277 0.1184031388598471 0 0.2490797100873286 0.14227083668141521 0 0.2304781917628739 0.14219759910685351 0 0.2403526613891277 0.1184031388598471 0 0.2403526613891277 0.1184031388598471 0 0.21885319313216009 0.1005750951696993 0 0.24487990017332159 0.088661247044754365 0 0.21885319313216009 0.1005750951696993 0 0.24487990017332159 0.088661247044754365 0 0.21493159510114199 0.1283202641525775 0 0.2403526613891277 0.1184031388598471 0 0.21885319313216009 0.1005750951696993 0 0.21493159510114199 0.1283202641525775 0 0.21885319313216009 0.1005750951696993 0 0.1928264860909987 0.11248894329464421 0 0.21885319313216009 0.1005750951696993 0 0.1928264860909987 0.11248894329464421 0 0.21885319313216009 0.1005750951696993 0 0.19705209975204871 0.099121628747612781 0 0.20154910178172791 0.085843154371511174 0 0.21885319313216009 0.1005750951696993 0 0.19705209975204871 0.099121628747612781 0 0.1928264860909987 0.11248894329464421 0 0.19705209975204871 0.099121628747612781 0 0.20154910178172791 0.085843154371511174 0 0.1830420837262928 0.099631883556305534 0 0.19705209975204871 0.099121628747612781 0 0.1928264860909987 0.11248894329464421 0 0.1830420837262928 0.099631883556305534 0 0.20154910178172791 0.085843154371511174 0 0.20117368126069241 0.05800732803441639 0 0.17909559612213261 0.072824162091998698 0 0.20154910178172791 0.085843154371511174 0 0.1830420837262928 0.099631883556305534 0 0.20154910178172791 0.085843154371511174 0 0.1830420837262928 0.099631883556305534 0 0.17909559612213261 0.072824162091998698 0 0.20154910178172791 0.085843154371511174 0 0.220056119837163 0.072054425186716786 0 0.20154910178172791 0.085843154371511174 0 0.220056119837163 0.072054425186716786 0 0.22802986650602181 0.084941978696387005 0 0.21885319313216009 0.1005750951696993 0 0.20154910178172791 0.085843154371511174 0 0.22802986650602181 0.084941978696387005 0 0.20154910178172791 0.085843154371511174 0 0.220056119837163 0.072054425186716786 0 0.20117368126069241 0.05800732803441639 0 0.220056119837163 0.072054425186716786 0 0.23856313789259739 0.058265696001921392 0 0.220056119837163 0.072054425186716786 0 0.22802986650602181 0.084941978696387005 0 0.23749650840714859 0.074331647851353641 0 0.220056119837163 0.072054425186716786 0 0.23749650840714859 0.074331647851353641 0 0.23856313789259739 0.058265696001921392 0 0.21885319313216009 0.1005750951696993 0 0.22802986650602181 0.084941978696387005 0 0.24487990017332159 0.088661247044754365 0 0.22802986650602181 0.084941978696387005 0 0.24487990017332159 0.088661247044754365 0 0.23749650840714859 0.074331647851353641 0 0.23856313789259739 0.058265696001921392 0 0.25473487255354033 0.067506547460864375 0 0.23749650840714859 0.074331647851353641 0 0.23856313789259739 0.058265696001921392 0 0.25473487255354033 0.067506547460864375 0 0.24487990017332159 0.088661247044754365 0 0.23749650840714859 0.074331647851353641 0 0.25473487255354033 0.067506547460864375 0 0.23856313789259739 0.058265696001921392 0 0.24429996058699779 0.053991452886291709 0 0.22349129187036729 0.049653342829946538 0 0.23856313789259739 0.058265696001921392 0 0.24429996058699779 0.053991452886291709 0 0.25473487255354033 0.067506547460864375 0 0.23856313789259739 0.058265696001921392 0 0.24429996058699779 0.053991452886291709 0 0.24429996058699779 0.053991452886291709 0 0.24555631408787959 0.033076231293803958 0 0.22316814878328289 0.033935038687030752 0 0.24429996058699779 0.053991452886291709 0 0.22316814878328289 0.033935038687030752 0 0.22349129187036729 0.049653342829946538 0 0.24429996058699779 0.053991452886291709 0 0.22316814878328289 0.033935038687030752 0 0.220056119837163 0.072054425186716786 0 0.23856313789259739 0.058265696001921392 0 0.22349129187036729 0.049653342829946538 0 0.23856313789259739 0.058265696001921392 0 0.22349129187036729 0.049653342829946538 0 0.24063459591653041 0.0074870902855560884 0 0.23723079603227201 0.02173474138951954 0 0.25762412804278623 0.01749275415485519 0 0.24063459591653041 0.0074870902855560884 0 0.23723079603227201 0.02173474138951954 0 0.22527954636644021 0.01444874710527551 0 0.24555631408787959 0.033076231293803958 0 0.23723079603227201 0.02173474138951954 0 0.25762412804278623 0.01749275415485519 0 0.24555631408787959 0.033076231293803958 0 0.22316814878328289 0.033935038687030752 0 0.23723079603227201 0.02173474138951954 0 0.22316814878328289 0.033935038687030752 0 0.23723079603227201 0.02173474138951954 0 0.22527954636644021 0.01444874710527551 0 0.24063459591653041 0.0074870902855560884 0 0.22527954636644021 0.01444874710527551 0 0.22332785412054751 -0.0047917593234988306 0 0.20203633697956791 0.013878624487770009 0 0.20327883938983121 -0.0069456637936660091 0 0.22332785412054751 -0.0047917593234988306 0 0.22527954636644021 0.01444874710527551 0 0.20203633697956791 0.013878624487770009 0 0.22332785412054751 -0.0047917593234988306 0 0.22316814878328289 0.033935038687030752 0 0.20203633697956791 0.013878624487770009 0 0.22316814878328289 0.033935038687030752 0 0.22527954636644021 0.01444874710527551 0 0.20203633697956791 0.013878624487770009 0 0.22316814878328289 0.033935038687030752 0 0.20203633697956791 0.013878624487770009 0 0.20881399712914719 0.038588546785267942 0 0.20203633697956791 0.013878624487770009 0 0.19420052675182531 0.037468399887176013 0 0.1780174576146801 0.022259657006414441 0 0.20203633697956791 0.013878624487770009 0 0.20881399712914719 0.038588546785267942 0 0.19420052675182531 0.037468399887176013 0 0.20203633697956791 0.013878624487770009 0 0.1809045251758529 -0.0061777897114907443 0 0.20203633697956791 0.013878624487770009 0 0.1809045251758529 -0.0061777897114907443 0 0.20327883938983121 -0.0069456637936660091 0 0.22349129187036729 0.049653342829946538 0 0.20881399712914719 0.038588546785267942 0 0.20117368126069241 0.05800732803441639 0 0.220056119837163 0.072054425186716786 0 0.22349129187036729 0.049653342829946538 0 0.20117368126069241 0.05800732803441639 0 0.22316814878328289 0.033935038687030752 0 0.22349129187036729 0.049653342829946538 0 0.20881399712914719 0.038588546785267942 0 0.20881399712914719 0.038588546785267942 0 0.19420052675182531 0.037468399887176013 0 0.20117368126069241 0.05800732803441639 0 0.19420052675182531 0.037468399887176013 0 0.20117368126069241 0.05800732803441639 0 0.1765818557314541 0.04620621891837344 0 0.20117368126069241 0.05800732803441639 0 0.1765818557314541 0.04620621891837344 0 0.17909559612213261 0.072824162091998698 0 0.19420052675182531 0.037468399887176013 0 0.1765818557314541 0.04620621891837344 0 0.1780174576146801 0.022259657006414441 0 0.1765818557314541 0.04620621891837344 0 0.1780174576146801 0.022259657006414441 0 0.1477268868929906 0.037341262631020167 0 0.1765818557314541 0.04620621891837344 0 0.15084496791787541 0.061312348469608431 0 0.1477268868929906 0.037341262631020167 0 0.1765818557314541 0.04620621891837344 0 0.15084496791787541 0.061312348469608431 0 0.17909559612213261 0.072824162091998698 0 0.1765818557314541 0.04620621891837344 0 0.15084496791787541 0.061312348469608431 0 0.1555972868758565 0.01502877810208756 0 0.14911197860261319 -0.0064425923122114707 0 0.1809045251758529 -0.0061777897114907443 0 0.20203633697956791 0.013878624487770009 0 0.1780174576146801 0.022259657006414441 0 0.1809045251758529 -0.0061777897114907443 0 0.1780174576146801 0.022259657006414441 0 0.1555972868758565 0.01502877810208756 0 0.1477268868929906 0.037341262631020167 0 0.1780174576146801 0.022259657006414441 0 0.1555972868758565 0.01502877810208756 0 0.1809045251758529 -0.0061777897114907443 0 0.1555972868758565 0.01502877810208756 0 0.13528482264666189 0.01493099364781119 0 0.14911197860261319 -0.0064425923122114707 0 0.1555972868758565 0.01502877810208756 0 0.13528482264666189 0.01493099364781119 0 0.1477268868929906 0.037341262631020167 0 0.12417737955416309 0.032007869234161539 0 0.13528482264666189 0.01493099364781119 0 0.1477268868929906 0.037341262631020167 0 0.13528482264666189 0.01493099364781119 0 0.14911197860261319 -0.0064425923122114707 0 0.1253528781060689 -0.0035925746653820922 0 0.15084496791787541 0.061312348469608431 0 0.1477268868929906 0.037341262631020167 0 0.13128349153670479 0.051381496601359523 0 0.12417737955416309 0.032007869234161539 0 0.1477268868929906 0.037341262631020167 0 0.13128349153670479 0.051381496601359523 0 0.15084496791787541 0.061312348469608431 0 0.12510808010429661 0.076418478020843436 0 0.15844591288291929 0.083892742000861886 0 0.15084496791787541 0.061312348469608431 0 0.13128349153670479 0.051381496601359523 0 0.12510808010429661 0.076418478020843436 0 0.15084496791787541 0.061312348469608431 0 0.12510808010429661 0.076418478020843436 0 0.12510808010429661 0.076418478020843436 0 0.14049664497838329 0.1029859677104155 0 0.15844591288291929 0.083892742000861886 0 0.1188617035112491 0.10017210572911719 0 0.12510808010429661 0.076418478020843436 0 0.14049664497838329 0.1029859677104155 0 0.1215951808840359 0.121275415706405 0 0.1188617035112491 0.10017210572911719 0 0.14049664497838329 0.1029859677104155 0 0.1215951808840359 0.121275415706405 0 0.1436180987418452 0.12900488415033171 0 0.14049664497838329 0.1029859677104155 0 0.1436180987418452 0.12900488415033171 0 0.14049664497838329 0.1029859677104155 0 0.1645350656708576 0.1134206127410998 0 0.1436180987418452 0.12900488415033171 0 0.1645350656708576 0.1134206127410998 0 0.14049664497838329 0.1029859677104155 0 0.1645350656708576 0.1134206127410998 0 0.15844591288291929 0.083892742000861886 0 0.1645350656708576 0.1134206127410998 0 0.15844591288291929 0.083892742000861886 0 0.1645350656708576 0.1134206127410998 0 0.1830420837262928 0.099631883556305534 0 0.15844591288291929 0.083892742000861886 0 0.1436180987418452 0.12900488415033171 0 0.1645350656708576 0.1134206127410998 0 0.16679977904983581 0.1244027914195862 0 0.1645350656708576 0.1134206127410998 0 0.16679977904983581 0.1244027914195862 0 0.1928264860909987 0.11248894329464421 0 0.1645350656708576 0.1134206127410998 0 0.16679977904983581 0.1244027914195862 0 0.18047224869311551 0.1296445599867028 0 0.1928264860909987 0.11248894329464421 0 0.16679977904983581 0.1244027914195862 0 0.1928264860909987 0.11248894329464421 0 0.16679977904983581 0.1244027914195862 0 0.1645350656708576 0.1134206127410998 0 0.1830420837262928 0.099631883556305534 0 0.1928264860909987 0.11248894329464421 0 0.1645350656708576 0.1134206127410998 0 0.1830420837262928 0.099631883556305534 0 0.1830420837262928 0.099631883556305534 0 0.17909559612213261 0.072824162091998698 0 0.15844591288291929 0.083892742000861886 0 0.15084496791787541 0.061312348469608431 0 0.17909559612213261 0.072824162091998698 0 0.15844591288291929 0.083892742000861886 0 0.097409164501878032 0.48043616448826182 0 0.10389178133274631 0.46420599485328051 0 0.083507325080051459 0.46175286235977908 0 0.097409164501878032 0.48043616448826182 0 0.117087238109316 0.47555329320773032 0 0.10389178133274631 0.46420599485328051 0 0.097409164501878032 0.48043616448826182 0 0.11675323034391789 0.5 0 0.088987757194300021 0.5 0 0.097409164501878032 0.48043616448826182 0 0.11675323034391789 0.5 0 0.117087238109316 0.47555329320773032 0 0.11675323034391789 0.5 0 0.117087238109316 0.47555329320773032 0 0.1340822501540728 0.48388572070748981 0 0.117087238109316 0.47555329320773032 0 0.1178521261576949 0.45882390178641819 0 0.10389178133274631 0.46420599485328051 0 0.117087238109316 0.47555329320773032 0 0.1178521261576949 0.45882390178641819 0 0.1374291981924019 0.46244480650865188 0 0.1061982999677642 0.44582192889127381 0 0.12888927485547691 0.4298909954227686 0 0.1246541131862461 0.44609348547115463 0 0.1061982999677642 0.44582192889127381 0 0.12888927485547691 0.4298909954227686 0 0.1178521261576949 0.45882390178641819 0 0.1246541131862461 0.44609348547115463 0 0.1061982999677642 0.44582192889127381 0 0.1061982999677642 0.44582192889127381 0 0.091050528969125466 0.44423069517446079 0 0.1014110555407066 0.43342950467554592 0 0.1061982999677642 0.44582192889127381 0 0.083507325080051459 0.46175286235977908 0 0.1178521261576949 0.45882390178641819 0 0.1061982999677642 0.44582192889127381 0 0.10389178133274631 0.46420599485328051 0 0.1061982999677642 0.44582192889127381 0 0.10389178133274631 0.46420599485328051 0 0.083507325080051459 0.46175286235977908 0 0.1061982999677642 0.44582192889127381 0 0.083507325080051459 0.46175286235977908 0 0.091050528969125466 0.44423069517446079 0 0.083507325080051459 0.46175286235977908 0 0.091050528969125466 0.44423069517446079 0 0.078879145568010678 0.44828784970425312 0 0.091050528969125466 0.44423069517446079 0 0.078879145568010678 0.44828784970425312 0 0.086363537594471518 0.4321424589314159 0 0.078879145568010678 0.44828784970425312 0 0.071098015104609391 0.45931029116798089 0 0.062449176664651107 0.44522919647801518 0 0.062449176664651107 0.44522919647801518 0 0.086363537594471518 0.4321424589314159 0 0.078879145568010678 0.44828784970425312 0 0.062449176664651107 0.44522919647801518 0 0.086363537594471518 0.4321424589314159 0 0.071098015104609391 0.45931029116798089 0 0.060284859221188002 0.46966778627162492 0 0.062449176664651107 0.44522919647801518 0 0.083507325080051459 0.46175286235977908 0 0.071098015104609391 0.45931029116798089 0 0.077047846465125608 0.47953342346259298 0 0.083507325080051459 0.46175286235977908 0 0.078879145568010678 0.44828784970425312 0 0.071098015104609391 0.45931029116798089 0 0.071098015104609391 0.45931029116798089 0 0.077047846465125608 0.47953342346259298 0 0.060284859221188002 0.46966778627162492 0 0.077047846465125608 0.47953342346259298 0 0.061222284044682107 0.5 0 0.060284859221188002 0.46966778627162492 0 0.097409164501878032 0.48043616448826182 0 0.083507325080051459 0.46175286235977908 0 0.077047846465125608 0.47953342346259298 0 0.097409164501878032 0.48043616448826182 0 0.077047846465125608 0.47953342346259298 0 0.088987757194300021 0.5 0 0.077047846465125608 0.47953342346259298 0 0.088987757194300021 0.5 0 0.061222284044682107 0.5 0 0.061222284044682107 0.5 0 0.060284859221188002 0.46966778627162492 0 0.041165592997406512 0.47978775601282259 0 0.060284859221188002 0.46966778627162492 0 0.041165592997406512 0.47978775601282259 0 0.038534815734830627 0.45831593402461462 0 0.041165592997406512 0.47978775601282259 0 0.031007157199161139 0.46911529227912191 0 0.038534815734830627 0.45831593402461462 0 0.061222284044682107 0.5 0 0.041165592997406512 0.47978775601282259 0 0.033456810895064248 0.5 0 0.041165592997406512 0.47978775601282259 0 0.033456810895064248 0.5 0 0.02044349072536298 0.47771329294284298 0 0.033456810895064248 0.5 0 0.02044349072536298 0.47771329294284298 0 0.0056913377454463343 0.5 0 0.02044349072536298 0.47771329294284298 0 0.031007157199161139 0.46911529227912191 0 0.02388472933904447 0.46064418613620739 0 0.041165592997406512 0.47978775601282259 0 0.02044349072536298 0.47771329294284298 0 0.031007157199161139 0.46911529227912191 0 -0.0023826318983338418 0.47186636235082491 0 0.02044349072536298 0.47771329294284298 0 0.0096850223273389317 0.46061410315644602 0 -0.0023826318983338418 0.47186636235082491 0 0.02044349072536298 0.47771329294284298 0 0.0056913377454463343 0.5 0 0.0053989850622760578 0.44158620941391241 0 0.0096850223273389317 0.46061410315644602 0 0.01929117586931926 0.44820115950453832 0 -0.002657138242852936 0.45352434717382473 0 0.0053989850622760578 0.44158620941391241 0 0.0096850223273389317 0.46061410315644602 0 0.0053989850622760578 0.44158620941391241 0 0.01929117586931926 0.44820115950453832 0 0.020599379566329179 0.43326004449536237 0 -0.002657138242852936 0.45352434717382473 0 -0.0023826318983338418 0.47186636235082491 0 0.0096850223273389317 0.46061410315644602 0 0.0096850223273389317 0.46061410315644602 0 0.02388472933904447 0.46064418613620739 0 0.01929117586931926 0.44820115950453832 0 0.02044349072536298 0.47771329294284298 0 0.0096850223273389317 0.46061410315644602 0 0.02388472933904447 0.46064418613620739 0 0.031007157199161139 0.46911529227912191 0 0.02388472933904447 0.46064418613620739 0 0.038534815734830627 0.45831593402461462 0 0.02388472933904447 0.46064418613620739 0 0.01929117586931926 0.44820115950453832 0 0.031878256288527293 0.44506291206705528 0 0.01929117586931926 0.44820115950453832 0 0.031878256288527293 0.44506291206705528 0 0.020599379566329179 0.43326004449536237 0 0.031878256288527293 0.44506291206705528 0 0.038534815734830627 0.45831593402461462 0 0.047536754680009258 0.44767944637431639 0 0.031878256288527293 0.44506291206705528 0 0.047536754680009258 0.44767944637431639 0 0.037398254612687677 0.42320846990486738 0 0.02388472933904447 0.46064418613620739 0 0.031878256288527293 0.44506291206705528 0 0.038534815734830627 0.45831593402461462 0 0.060284859221188002 0.46966778627162492 0 0.038534815734830627 0.45831593402461462 0 0.062449176664651107 0.44522919647801518 0 0.038534815734830627 0.45831593402461462 0 0.062449176664651107 0.44522919647801518 0 0.038534815734830627 0.45831593402461462 0 0.047536754680009258 0.44767944637431639 0 0.062449176664651107 0.44522919647801518 0 0.047536754680009258 0.44767944637431639 0 0.062449176664651107 0.44522919647801518 0 0.053696483327620372 0.43264281519750902 0 0.062449176664651107 0.44522919647801518 0 0.053696483327620372 0.43264281519750902 0 0.064254907820636739 0.42923200299231151 0 0.053696483327620372 0.43264281519750902 0 0.056843322860117097 0.41786496023803482 0 0.037398254612687677 0.42320846990486738 0 0.053696483327620372 0.43264281519750902 0 0.056843322860117097 0.41786496023803482 0 0.064254907820636739 0.42923200299231151 0 0.056843322860117097 0.41786496023803482 0 0.037398254612687677 0.42320846990486738 0 0.050003493982855703 0.40026753698620748 0 0.056843322860117097 0.41786496023803482 0 0.050003493982855703 0.40026753698620748 0 0.065858952722723574 0.40160861150136501 0 0.037398254612687677 0.42320846990486738 0 0.027259754545366121 0.39873749343541842 0 0.037398254612687677 0.42320846990486738 0 0.027259754545366121 0.39873749343541842 0 0.050003493982855703 0.40026753698620748 0 0.047536754680009258 0.44767944637431639 0 0.053696483327620372 0.43264281519750902 0 0.037398254612687677 0.42320846990486738 0 0.047536754680009258 0.44767944637431639 0 0.037398254612687677 0.42320846990486738 0 0.037398254612687677 0.42320846990486738 0 0.020599379566329179 0.43326004449536237 0 0.017074158823456521 0.41538997541778161 0 0.031878256288527293 0.44506291206705528 0 0.037398254612687677 0.42320846990486738 0 0.020599379566329179 0.43326004449536237 0 0.037398254612687677 0.42320846990486738 0 0.017074158823456521 0.41538997541778161 0 0.027259754545366121 0.39873749343541842 0 -0.0012406144994851411 0.41540870768952831 0 0.017074158823456521 0.41538997541778161 0 0.0080554846440630493 0.42635277819034512 0 -0.00042721496257028051 0.39595132885435019 0 -0.0012406144994851411 0.41540870768952831 0 0.017074158823456521 0.41538997541778161 0 0.020599379566329179 0.43326004449536237 0 0.017074158823456521 0.41538997541778161 0 0.0080554846440630493 0.42635277819034512 0 -0.0081425709555884122 0.4354078604818632 0 0.0053989850622760578 0.44158620941391241 0 0.0080554846440630493 0.42635277819034512 0 0.0053989850622760578 0.44158620941391241 0 0.020599379566329179 0.43326004449536237 0 0.0080554846440630493 0.42635277819034512 0 -0.00042721496257028051 0.39595132885435019 0 -0.010583799764655641 0.38308260013621809 0 0.017121254478044499 0.3742665169659693 0 -0.00042721496257028051 0.39595132885435019 0 0.027259754545366121 0.39873749343541842 0 0.017121254478044499 0.3742665169659693 0 -0.003230469334243001 0.36843033323843127 0 -0.010583799764655641 0.38308260013621809 0 0.017121254478044499 0.3742665169659693 0 -0.00042721496257028051 0.39595132885435019 0 0.017074158823456521 0.41538997541778161 0 0.027259754545366121 0.39873749343541842 0 0.027259754545366121 0.39873749343541842 0 0.031696040175547453 0.3688725360656957 0 0.017121254478044499 0.3742665169659693 0 0.027259754545366121 0.39873749343541842 0 0.017121254478044499 0.3742665169659693 0 0.027259754545366121 0.39873749343541842 0 0.049295379851565992 0.37535547876331232 0 0.031696040175547453 0.3688725360656957 0 0.027259754545366121 0.39873749343541842 0 0.050003493982855703 0.40026753698620748 0 0.049295379851565992 0.37535547876331232 0 0.050003493982855703 0.40026753698620748 0 0.065366826877546247 0.38504897890159928 0 0.065858952722723574 0.40160861150136501 0 0.050003493982855703 0.40026753698620748 0 0.049295379851565992 0.37535547876331232 0 0.065366826877546247 0.38504897890159928 0 0.065366826877546247 0.38504897890159928 0 0.07999429794521809 0.37821679985710088 0 0.078528444873600584 0.39375672042539389 0 0.07999429794521809 0.37821679985710088 0 0.09001954531533099 0.38386919499703198 0 0.090364273968923076 0.36819470124864617 0 0.07999429794521809 0.37821679985710088 0 0.09001954531533099 0.38386919499703198 0 0.078528444873600584 0.39375672042539389 0 0.09001954531533099 0.38386919499703198 0 0.078528444873600584 0.39375672042539389 0 0.09539405267560358 0.4011031556982329 0 0.078528444873600584 0.39375672042539389 0 0.074148118260168094 0.41476243963653431 0 0.09539405267560358 0.4011031556982329 0 0.065366826877546247 0.38504897890159928 0 0.078528444873600584 0.39375672042539389 0 0.065858952722723574 0.40160861150136501 0 0.078528444873600584 0.39375672042539389 0 0.065858952722723574 0.40160861150136501 0 0.074148118260168094 0.41476243963653431 0 0.056843322860117097 0.41786496023803482 0 0.074148118260168094 0.41476243963653431 0 0.064254907820636739 0.42923200299231151 0 0.056843322860117097 0.41786496023803482 0 0.065858952722723574 0.40160861150136501 0 0.074148118260168094 0.41476243963653431 0 0.062449176664651107 0.44522919647801518 0 0.064254907820636739 0.42923200299231151 0 0.074437437715565019 0.42909956233579138 0 0.062449176664651107 0.44522919647801518 0 0.074437437715565019 0.42909956233579138 0 0.086363537594471518 0.4321424589314159 0 0.074148118260168094 0.41476243963653431 0 0.064254907820636739 0.42923200299231151 0 0.074437437715565019 0.42909956233579138 0 0.074148118260168094 0.41476243963653431 0 0.074437437715565019 0.42909956233579138 0 0.084971448237897595 0.42413171364067959 0 0.084971448237897595 0.42413171364067959 0 0.086363537594471518 0.4321424589314159 0 0.096387478882012392 0.41542566218337668 0 0.074437437715565019 0.42909956233579138 0 0.084971448237897595 0.42413171364067959 0 0.086363537594471518 0.4321424589314159 0 0.091050528969125466 0.44423069517446079 0 0.086363537594471518 0.4321424589314159 0 0.1014110555407066 0.43342950467554592 0 0.084971448237897595 0.42413171364067959 0 0.09539405267560358 0.4011031556982329 0 0.084971448237897595 0.42413171364067959 0 0.096387478882012392 0.41542566218337668 0 0.09539405267560358 0.4011031556982329 0 0.074148118260168094 0.41476243963653431 0 0.084971448237897595 0.42413171364067959 0 0.09539405267560358 0.4011031556982329 0 0.096387478882012392 0.41542566218337668 0 0.11027789852429171 0.41905572138481673 0 0.11193350067825671 0.40029374163945958 0 0.086363537594471518 0.4321424589314159 0 0.11027789852429171 0.41905572138481673 0 0.086363537594471518 0.4321424589314159 0 0.1014110555407066 0.43342950467554592 0 0.11027789852429171 0.41905572138481673 0 0.086363537594471518 0.4321424589314159 0 0.096387478882012392 0.41542566218337668 0 0.11027789852429171 0.41905572138481673 0 0.1061982999677642 0.44582192889127381 0 0.1014110555407066 0.43342950467554592 0 0.12888927485547691 0.4298909954227686 0 0.1014110555407066 0.43342950467554592 0 0.11027789852429171 0.41905572138481673 0 0.12888927485547691 0.4298909954227686 0 0.11027789852429171 0.41905572138481673 0 0.11193350067825671 0.40029374163945958 0 0.13419225945411201 0.40596898383821739 0 0.11027789852429171 0.41905572138481673 0 0.13419225945411201 0.40596898383821739 0 0.12888927485547691 0.4298909954227686 0 0.11027789852429171 0.41905572138481673 0 0.13419225945411201 0.40596898383821739 0 0.11193350067825671 0.40029374163945958 0 0.1232016095315123 0.38640416029862562 0 0.13419225945411201 0.40596898383821739 0 0.1232016095315123 0.38640416029862562 0 0.10581665711330961 0.37807459775578611 0 0.1245294276094052 0.36705946116809979 0 0.11193350067825671 0.40029374163945958 0 0.1232016095315123 0.38640416029862562 0 0.10581665711330961 0.37807459775578611 0 0.10581665711330961 0.37807459775578611 0 0.09539405267560358 0.4011031556982329 0 0.09001954531533099 0.38386919499703198 0 0.10581665711330961 0.37807459775578611 0 0.090364273968923076 0.36819470124864617 0 0.09001954531533099 0.38386919499703198 0 0.10581665711330961 0.37807459775578611 0 0.09539405267560358 0.4011031556982329 0 0.096387478882012392 0.41542566218337668 0 0.11193350067825671 0.40029374163945958 0 0.09539405267560358 0.4011031556982329 0 0.11193350067825671 0.40029374163945958 0 0.10581665711330961 0.37807459775578611 0 0.09539405267560358 0.4011031556982329 0 0.1060524444385426 0.35726314118829428 0 0.10519868622170039 0.36511036867406771 0 0.1168304669342336 0.35465885027811339 0 0.1025578626589866 0.35240292303708909 0 0.1060524444385426 0.35726314118829428 0 0.097485063106936623 0.35862480256678358 0 0.1025578626589866 0.35240292303708909 0 0.1060524444385426 0.35726314118829428 0 0.10956049030116891 0.35288630270244931 0 0.1025578626589866 0.35240292303708909 0 0.1058255153731419 0.34730653984775428 0 0.10956049030116891 0.35288630270244931 0 0.1058255153731419 0.34730653984775428 0 0.1128522034956536 0.34396239114303451 0 0.10339918850027249 0.34048197572013228 0 0.1058255153731419 0.34730653984775428 0 0.100757831909628 0.34679910663606628 0 0.10339918850027249 0.34048197572013228 0 0.1025578626589866 0.35240292303708909 0 0.1058255153731419 0.34730653984775428 0 0.100757831909628 0.34679910663606628 0 0.1025578626589866 0.35240292303708909 0 0.100757831909628 0.34679910663606628 0 0.096095628588907106 0.35138768377251067 0 0.100757831909628 0.34679910663606628 0 0.094666415020572464 0.3449942924984577 0 0.10339918850027249 0.34048197572013228 0 0.100757831909628 0.34679910663606628 0 0.094666415020572464 0.3449942924984577 0 0.096095628588907106 0.35138768377251067 0 0.096095628588907106 0.35138768377251067 0 0.097485063106936623 0.35862480256678358 0 0.088643057337276468 0.35314112002613002 0 0.1025578626589866 0.35240292303708909 0 0.096095628588907106 0.35138768377251067 0 0.097485063106936623 0.35862480256678358 0 0.097485063106936623 0.35862480256678358 0 0.10519868622170039 0.36511036867406771 0 0.090364273968923076 0.36819470124864617 0 0.10581665711330961 0.37807459775578611 0 0.10519868622170039 0.36511036867406771 0 0.1168304669342336 0.35465885027811339 0 0.10581665711330961 0.37807459775578611 0 0.10519868622170039 0.36511036867406771 0 0.090364273968923076 0.36819470124864617 0 0.1060524444385426 0.35726314118829428 0 0.097485063106936623 0.35862480256678358 0 0.10519868622170039 0.36511036867406771 0 0.10581665711330961 0.37807459775578611 0 0.1168304669342336 0.35465885027811339 0 0.10581665711330961 0.37807459775578611 0 0.1245294276094052 0.36705946116809979 0 0.1168304669342336 0.35465885027811339 0 0.1060524444385426 0.35726314118829428 0 0.1168304669342336 0.35465885027811339 0 0.10956049030116891 0.35288630270244931 0 0.1168304669342336 0.35465885027811339 0 0.10956049030116891 0.35288630270244931 0 0.1128522034956536 0.34396239114303451 0 0.1058255153731419 0.34730653984775428 0 0.10956049030116891 0.35288630270244931 0 0.1128522034956536 0.34396239114303451 0 0.1168304669342336 0.35465885027811339 0 0.12666186598872181 0.33201748187089242 0 0.1168304669342336 0.35465885027811339 0 0.1128522034956536 0.34396239114303451 0 0.12666186598872181 0.33201748187089242 0 0.1128522034956536 0.34396239114303451 0 0.1117057125083228 0.3301361986086746 0 0.12666186598872181 0.33201748187089242 0 0.1117057125083228 0.3301361986086746 0 0.1189171160094491 0.31877074561265029 0 0.12666186598872181 0.33201748187089242 0 0.1117057125083228 0.3301361986086746 0 0.1189171160094491 0.31877074561265029 0 0.10614094417406381 0.31842632169262569 0 0.1189171160094491 0.31877074561265029 0 0.10614094417406381 0.31842632169262569 0 0.1163659570049219 0.30567201985701697 0 0.10614094417406381 0.31842632169262569 0 0.10016785218955181 0.32995021759527032 0 0.087177622783574715 0.32551809144541621 0 0.10614094417406381 0.31842632169262569 0 0.087177622783574715 0.32551809144541621 0 0.10082243932588859 0.29889137192136961 0 0.1117057125083228 0.3301361986086746 0 0.10614094417406381 0.31842632169262569 0 0.10016785218955181 0.32995021759527032 0 0.1128522034956536 0.34396239114303451 0 0.1117057125083228 0.3301361986086746 0 0.10339918850027249 0.34048197572013228 0 0.1117057125083228 0.3301361986086746 0 0.10339918850027249 0.34048197572013228 0 0.10016785218955181 0.32995021759527032 0 0.10339918850027249 0.34048197572013228 0 0.10016785218955181 0.32995021759527032 0 0.092415792981525302 0.33518850050950277 0 0.094666415020572464 0.3449942924984577 0 0.10339918850027249 0.34048197572013228 0 0.092415792981525302 0.33518850050950277 0 0.092415792981525302 0.33518850050950277 0 0.082757552410402488 0.3333026978698494 0 0.085392237355570749 0.34344029037740831 0 0.094666415020572464 0.3449942924984577 0 0.092415792981525302 0.33518850050950277 0 0.085392237355570749 0.34344029037740831 0 0.092415792981525302 0.33518850050950277 0 0.082757552410402488 0.3333026978698494 0 0.087177622783574715 0.32551809144541621 0 0.10016785218955181 0.32995021759527032 0 0.092415792981525302 0.33518850050950277 0 0.087177622783574715 0.32551809144541621 0 0.082757552410402488 0.3333026978698494 0 0.085392237355570749 0.34344029037740831 0 0.075356970955925417 0.3394650481646056 0 0.087177622783574715 0.32551809144541621 0 0.073327376438198394 0.32240419854617042 0 0.085343374731514599 0.29592855843759941 0 0.082757552410402488 0.3333026978698494 0 0.087177622783574715 0.32551809144541621 0 0.073327376438198394 0.32240419854617042 0 0.073327376438198394 0.32240419854617042 0 0.07011738318675638 0.32947698800581893 0 0.073327376438198394 0.32240419854617042 0 0.064124334000396827 0.32250131223398237 0 0.07011738318675638 0.32947698800581893 0 0.073327376438198394 0.32240419854617042 0 0.064124334000396827 0.32250131223398237 0 0.066123338095549225 0.31628795133472121 0 0.073327376438198394 0.32240419854617042 0 0.066123338095549225 0.31628795133472121 0 0.071156784390679226 0.30777516547429268 0 0.064124334000396827 0.32250131223398237 0 0.066123338095549225 0.31628795133472121 0 0.060275245027915828 0.31827012669833471 0 0.075356970955925417 0.3394650481646056 0 0.07011738318675638 0.32947698800581893 0 0.061311378144882203 0.34887983865474143 0 0.082757552410402488 0.3333026978698494 0 0.073327376438198394 0.32240419854617042 0 0.075356970955925417 0.3394650481646056 0 0.073327376438198394 0.32240419854617042 0 0.075356970955925417 0.3394650481646056 0 0.07011738318675638 0.32947698800581893 0 0.07011738318675638 0.32947698800581893 0 0.061311378144882203 0.34887983865474143 0 0.07011738318675638 0.32947698800581893 0 0.061311378144882203 0.34887983865474143 0 0.056755704313026838 0.33539158760094639 0 0.075356970955925417 0.3394650481646056 0 0.077460041582030084 0.35081893461984748 0 0.061311378144882203 0.34887983865474143 0 0.077460041582030084 0.35081893461984748 0 0.073324058064207567 0.36161377586186028 0 0.061311378144882203 0.34887983865474143 0 0.085392237355570749 0.34344029037740831 0 0.075356970955925417 0.3394650481646056 0 0.077460041582030084 0.35081893461984748 0 0.085392237355570749 0.34344029037740831 0 0.077460041582030084 0.35081893461984748 0 0.088643057337276468 0.35314112002613002 0 0.077460041582030084 0.35081893461984748 0 0.088643057337276468 0.35314112002613002 0 0.073324058064207567 0.36161377586186028 0 0.094666415020572464 0.3449942924984577 0 0.096095628588907106 0.35138768377251067 0 0.088643057337276468 0.35314112002613002 0 0.094666415020572464 0.3449942924984577 0 0.085392237355570749 0.34344029037740831 0 0.088643057337276468 0.35314112002613002 0 0.07999429794521809 0.37821679985710088 0 0.090364273968923076 0.36819470124864617 0 0.073324058064207567 0.36161377586186028 0 0.088643057337276468 0.35314112002613002 0 0.090364273968923076 0.36819470124864617 0 0.073324058064207567 0.36161377586186028 0 0.097485063106936623 0.35862480256678358 0 0.088643057337276468 0.35314112002613002 0 0.090364273968923076 0.36819470124864617 0 0.065366826877546247 0.38504897890159928 0 0.07999429794521809 0.37821679985710088 0 0.073324058064207567 0.36161377586186028 0 0.049295379851565992 0.37535547876331232 0 0.065366826877546247 0.38504897890159928 0 0.073324058064207567 0.36161377586186028 0 0.049295379851565992 0.37535547876331232 0 0.073324058064207567 0.36161377586186028 0 0.061311378144882203 0.34887983865474143 0 0.049295379851565992 0.37535547876331232 0 0.061311378144882203 0.34887983865474143 0 0.043041420609277702 0.356759595079293 0 0.049295379851565992 0.37535547876331232 0 0.061311378144882203 0.34887983865474143 0 0.061311378144882203 0.34887983865474143 0 0.043041420609277702 0.356759595079293 0 0.044419765420738652 0.3421811494479331 0 0.043041420609277702 0.356759595079293 0 0.028484539453654211 0.34850897246478257 0 0.044419765420738652 0.3421811494479331 0 0.043041420609277702 0.356759595079293 0 0.031696040175547453 0.3688725360656957 0 0.028484539453654211 0.34850897246478257 0 0.049295379851565992 0.37535547876331232 0 0.043041420609277702 0.356759595079293 0 0.031696040175547453 0.3688725360656957 0 0.031696040175547453 0.3688725360656957 0 0.017121254478044499 0.3742665169659693 0 0.019866960075309258 0.35879323688059361 0 0.031696040175547453 0.3688725360656957 0 0.028484539453654211 0.34850897246478257 0 0.019866960075309258 0.35879323688059361 0 0.028484539453654211 0.34850897246478257 0 0.019866960075309258 0.35879323688059361 0 0.006982754410723358 0.34979554049652001 0 -0.003230469334243001 0.36843033323843127 0 0.006982754410723358 0.34979554049652001 0 0.017121254478044499 0.3742665169659693 0 0.019866960075309258 0.35879323688059361 0 0.006982754410723358 0.34979554049652001 0 -0.003230469334243001 0.36843033323843127 0 0.017121254478044499 0.3742665169659693 0 0.006982754410723358 0.34979554049652001 0 0.017121254478044499 0.3742665169659693 0 0.006982754410723358 0.34979554049652001 0 -0.003266460577282769 0.32505733492997929 0 0.019814923635143419 0.32638228529940227 0 -0.003266460577282769 0.32505733492997929 0 0.0040085258537659778 0.31432247436608168 0 0.019814923635143419 0.32638228529940227 0 0.0040085258537659778 0.31432247436608168 0 0.019814923635143419 0.32638228529940227 0 0.01397060526970679 0.3094985661918247 0 -0.003266460577282769 0.32505733492997929 0 0.006982754410723358 0.34979554049652001 0 0.006982754410723358 0.34979554049652001 0 0.019814923635143419 0.32638228529940227 0 -0.003266460577282769 0.32505733492997929 0 0.006982754410723358 0.34979554049652001 0 0.019814923635143419 0.32638228529940227 0 0.028484539453654211 0.34850897246478257 0 0.006982754410723358 0.34979554049652001 0 0.019814923635143419 0.32638228529940227 0 0.028484539453654211 0.34850897246478257 0 0.019814923635143419 0.32638228529940227 0 0.033056961415635952 0.33449402502511222 0 0.019814923635143419 0.32638228529940227 0 0.029489865842269512 0.30872962759584321 0 0.019814923635143419 0.32638228529940227 0 0.038784411032714163 0.31848703711348297 0 0.029489865842269512 0.30872962759584321 0 0.019814923635143419 0.32638228529940227 0 0.029489865842269512 0.30872962759584321 0 0.01397060526970679 0.3094985661918247 0 0.038784411032714163 0.31848703711348297 0 0.047306340872555079 0.32549426929212061 0 0.052606053729426047 0.30401794999793502 0 0.019814923635143419 0.32638228529940227 0 0.044704871084176923 0.32781105338211358 0 0.019814923635143419 0.32638228529940227 0 0.038784411032714163 0.31848703711348297 0 0.044704871084176923 0.32781105338211358 0 0.038784411032714163 0.31848703711348297 0 0.044704871084176923 0.32781105338211358 0 0.047306340872555079 0.32549426929212061 0 0.028484539453654211 0.34850897246478257 0 0.033056961415635952 0.33449402502511222 0 0.044419765420738652 0.3421811494479331 0 0.019814923635143419 0.32638228529940227 0 0.044704871084176923 0.32781105338211358 0 0.033056961415635952 0.33449402502511222 0 0.044704871084176923 0.32781105338211358 0 0.033056961415635952 0.33449402502511222 0 0.042677864928085181 0.33489639556028211 0 0.044704871084176923 0.32781105338211358 0 0.042677864928085181 0.33489639556028211 0 0.048529861791789232 0.33509935438596938 0 0.033056961415635952 0.33449402502511222 0 0.042677864928085181 0.33489639556028211 0 0.044419765420738652 0.3421811494479331 0 0.042677864928085181 0.33489639556028211 0 0.044419765420738652 0.3421811494479331 0 0.048529861791789232 0.33509935438596938 0 0.061311378144882203 0.34887983865474143 0 0.044419765420738652 0.3421811494479331 0 0.056755704313026838 0.33539158760094639 0 0.07011738318675638 0.32947698800581893 0 0.044704871084176923 0.32781105338211358 0 0.07011738318675638 0.32947698800581893 0 0.044704871084176923 0.32781105338211358 0 0.056755704313026838 0.33539158760094639 0 0.044419765420738652 0.3421811494479331 0 0.048529861791789232 0.33509935438596938 0 0.056755704313026838 0.33539158760094639 0 0.044704871084176923 0.32781105338211358 0 0.048529861791789232 0.33509935438596938 0 0.056755704313026838 0.33539158760094639 0 0.064124334000396827 0.32250131223398237 0 0.07011738318675638 0.32947698800581893 0 0.047306340872555079 0.32549426929212061 0 0.064124334000396827 0.32250131223398237 0 0.047306340872555079 0.32549426929212061 0 0.060275245027915828 0.31827012669833471 0 0.047306340872555079 0.32549426929212061 0 0.059735675103278318 0.31008385680395589 0 0.052606053729426047 0.30401794999793502 0 0.047306340872555079 0.32549426929212061 0 0.052606053729426047 0.30401794999793502 0 0.07011738318675638 0.32947698800581893 0 0.044704871084176923 0.32781105338211358 0 0.047306340872555079 0.32549426929212061 0 0.047306340872555079 0.32549426929212061 0 0.060275245027915828 0.31827012669833471 0 0.059735675103278318 0.31008385680395589 0 0.066123338095549225 0.31628795133472121 0 0.060275245027915828 0.31827012669833471 0 0.059735675103278318 0.31008385680395589 0 0.059735675103278318 0.31008385680395589 0 0.052606053729426047 0.30401794999793502 0 0.068196345986301518 0.29798862426303752 0 0.052606053729426047 0.30401794999793502 0 0.057905766586297681 0.28254163070374949 0 0.039164808049395733 0.29107696989228432 0 0.052606053729426047 0.30401794999793502 0 0.063673236048262832 0.28834173674786678 0 0.068196345986301518 0.29798862426303752 0 0.052606053729426047 0.30401794999793502 0 0.057905766586297681 0.28254163070374949 0 0.063673236048262832 0.28834173674786678 0 0.057905766586297681 0.28254163070374949 0 0.039164808049395733 0.29107696989228432 0 0.048839750256521083 0.27342431218872498 0 0.052606053729426047 0.30401794999793502 0 0.057905766586297681 0.28254163070374949 0 0.057905766586297681 0.28254163070374949 0 0.063673236048262832 0.28834173674786678 0 0.039164808049395733 0.29107696989228432 0 0.048839750256521083 0.27342431218872498 0 0.052606053729426047 0.30401794999793502 0 0.039164808049395733 0.29107696989228432 0 0.029489865842269512 0.30872962759584321 0 0.038784411032714163 0.31848703711348297 0 0.052606053729426047 0.30401794999793502 0 0.029489865842269512 0.30872962759584321 0 0.039164808049395733 0.29107696989228432 0 0.029489865842269512 0.30872962759584321 0 0.029489865842269512 0.30872962759584321 0 0.017110246233864802 0.29306289703364308 0 0.01397060526970679 0.3094985661918247 0 0.039164808049395733 0.29107696989228432 0 0.029489865842269512 0.30872962759584321 0 0.017110246233864802 0.29306289703364308 0 0.039164808049395733 0.29107696989228432 0 0.017110246233864802 0.29306289703364308 0 0.025849953128844701 0.27477930341567941 0 0.017110246233864802 0.29306289703364308 0 0.0083028186825339686 0.27684628714416698 0 0.025849953128844701 0.27477930341567941 0 -0.001418554502264915 0.28717865170253037 0 0.017110246233864802 0.29306289703364308 0 0.00040933639570822628 0.30400734945188329 0 -0.001418554502264915 0.28717865170253037 0 0.017110246233864802 0.29306289703364308 0 0.0083028186825339686 0.27684628714416698 0 0.017110246233864802 0.29306289703364308 0 0.00040933639570822628 0.30400734945188329 0 0.01397060526970679 0.3094985661918247 0 0.0040085258537659778 0.31432247436608168 0 0.00040933639570822628 0.30400734945188329 0 0.01397060526970679 0.3094985661918247 0 0.01026063558519786 0.25922996976751439 0 0.0083028186825339686 0.27684628714416698 0 0.025849953128844701 0.27477930341567941 0 -0.0089883946882110457 0.26901310806805018 0 0.01026063558519786 0.25922996976751439 0 0.0083028186825339686 0.27684628714416698 0 0.016413041927559369 0.24081410970564679 0 0.01026063558519786 0.25922996976751439 0 0.032626396092040141 0.25711921094718598 0 0.01026063558519786 0.25922996976751439 0 0.025849953128844701 0.27477930341567941 0 0.032626396092040141 0.25711921094718598 0 0.032626396092040141 0.25711921094718598 0 0.045600716620934179 0.25012768579438599 0 0.048839750256521083 0.27342431218872498 0 0.032250197965227448 0.244401837527949 0 0.032626396092040141 0.25711921094718598 0 0.045600716620934179 0.25012768579438599 0 0.032626396092040141 0.25711921094718598 0 0.048839750256521083 0.27342431218872498 0 0.025849953128844701 0.27477930341567941 0 0.032626396092040141 0.25711921094718598 0 0.048839750256521083 0.27342431218872498 0 0.039164808049395733 0.29107696989228432 0 0.025849953128844701 0.27477930341567941 0 0.048839750256521083 0.27342431218872498 0 0.057905766586297681 0.28254163070374949 0 0.048839750256521083 0.27342431218872498 0 0.056551334842530603 0.25935394772199172 0 0.057905766586297681 0.28254163070374949 0 0.056551334842530603 0.25935394772199172 0 0.063964088952372614 0.25799115617148111 0 0.057905766586297681 0.28254163070374949 0 0.063964088952372614 0.25799115617148111 0 0.057905766586297681 0.28254163070374949 0 0.048839750256521083 0.27342431218872498 0 0.048839750256521083 0.27342431218872498 0 0.056551334842530603 0.25935394772199172 0 0.045600716620934179 0.25012768579438599 0 0.048839750256521083 0.27342431218872498 0 0.056551334842530603 0.25935394772199172 0 0.055297548381604437 0.249518344159599 0 0.045600716620934179 0.25012768579438599 0 0.056551334842530603 0.25935394772199172 0 0.064262919428539261 0.24528358325525779 0 0.056551334842530603 0.25935394772199172 0 0.063964088952372614 0.25799115617148111 0 0.064262919428539261 0.24528358325525779 0 0.056551334842530603 0.25935394772199172 0 0.055297548381604437 0.249518344159599 0 0.064262919428539261 0.24528358325525779 0 0.056551334842530603 0.25935394772199172 0 0.086381384202169925 0.24861796181918919 0 0.063964088952372614 0.25799115617148111 0 0.08395685824938999 0.26326210758016588 0 0.063964088952372614 0.25799115617148111 0 0.08395685824938999 0.26326210758016588 0 0.073496300794921518 0.26780239632633579 0 0.086381384202169925 0.24861796181918919 0 0.08395685824938999 0.26326210758016588 0 0.097359373024830789 0.2694529183290284 0 0.08395685824938999 0.26326210758016588 0 0.080694219823202976 0.2771915139074097 0 0.097359373024830789 0.2694529183290284 0 0.080694219823202976 0.2771915139074097 0 0.085343374731514599 0.29592855843759941 0 0.097359373024830789 0.2694529183290284 0 0.08395685824938999 0.26326210758016588 0 0.080694219823202976 0.2771915139074097 0 0.073496300794921518 0.26780239632633579 0 0.080694219823202976 0.2771915139074097 0 0.069238246996636721 0.27710192616118873 0 0.07367784373237328 0.28688539545827851 0 0.057905766586297681 0.28254163070374949 0 0.063964088952372614 0.25799115617148111 0 0.069238246996636721 0.27710192616118873 0 0.080694219823202976 0.2771915139074097 0 0.073496300794921518 0.26780239632633579 0 0.069238246996636721 0.27710192616118873 0 0.063964088952372614 0.25799115617148111 0 0.073496300794921518 0.26780239632633579 0 0.069238246996636721 0.27710192616118873 0 0.069238246996636721 0.27710192616118873 0 0.063673236048262832 0.28834173674786678 0 0.07367784373237328 0.28688539545827851 0 0.07367784373237328 0.28688539545827851 0 0.068196345986301518 0.29798862426303752 0 0.085343374731514599 0.29592855843759941 0 0.057905766586297681 0.28254163070374949 0 0.069238246996636721 0.27710192616118873 0 0.063673236048262832 0.28834173674786678 0 0.063673236048262832 0.28834173674786678 0 0.07367784373237328 0.28688539545827851 0 0.068196345986301518 0.29798862426303752 0 0.073327376438198394 0.32240419854617042 0 0.071156784390679226 0.30777516547429268 0 0.085343374731514599 0.29592855843759941 0 0.068196345986301518 0.29798862426303752 0 0.071156784390679226 0.30777516547429268 0 0.085343374731514599 0.29592855843759941 0 0.059735675103278318 0.31008385680395589 0 0.068196345986301518 0.29798862426303752 0 0.071156784390679226 0.30777516547429268 0 0.066123338095549225 0.31628795133472121 0 0.059735675103278318 0.31008385680395589 0 0.071156784390679226 0.30777516547429268 0 0.087177622783574715 0.32551809144541621 0 0.085343374731514599 0.29592855843759941 0 0.10082243932588859 0.29889137192136961 0 0.073327376438198394 0.32240419854617042 0 0.085343374731514599 0.29592855843759941 0 0.085343374731514599 0.29592855843759941 0 0.097359373024830789 0.2694529183290284 0 0.080694219823202976 0.2771915139074097 0 0.07367784373237328 0.28688539545827851 0 0.085343374731514599 0.29592855843759941 0 0.085343374731514599 0.29592855843759941 0 0.10082243932588859 0.29889137192136961 0 0.097359373024830789 0.2694529183290284 0 0.10082243932588859 0.29889137192136961 0 0.1144672558682024 0.27226465239732289 0 0.087177622783574715 0.32551809144541621 0 0.10082243932588859 0.29889137192136961 0 0.10614094417406381 0.31842632169262569 0 0.10082243932588859 0.29889137192136961 0 0.1163659570049219 0.30567201985701697 0 0.1189171160094491 0.31877074561265029 0 0.1163659570049219 0.30567201985701697 0 0.13300561023586699 0.31216712834374499 0 0.10082243932588859 0.29889137192136961 0 0.1163659570049219 0.30567201985701697 0 0.1177252918172132 0.29041668176670549 0 0.1163659570049219 0.30567201985701697 0 0.1177252918172132 0.29041668176670549 0 0.12704776086179481 0.29600887388519143 0 0.10082243932588859 0.29889137192136961 0 0.1177252918172132 0.29041668176670549 0 0.1144672558682024 0.27226465239732289 0 0.1177252918172132 0.29041668176670549 0 0.1144672558682024 0.27226465239732289 0 0.12942229048753739 0.28174586079079922 0 0.1177252918172132 0.29041668176670549 0 0.12942229048753739 0.28174586079079922 0 0.12704776086179481 0.29600887388519143 0 0.10937537131814699 0.24297727822045739 0 0.12811207241051631 0.2456379328732762 0 0.1144672558682024 0.27226465239732289 0 0.12811207241051631 0.2456379328732762 0 0.1144672558682024 0.27226465239732289 0 0.086381384202169925 0.24861796181918919 0 0.10937537131814699 0.24297727822045739 0 0.097359373024830789 0.2694529183290284 0 0.10937537131814699 0.24297727822045739 0 0.1144672558682024 0.27226465239732289 0 0.097359373024830789 0.2694529183290284 0 0.10937537131814699 0.24297727822045739 0 0.097359373024830789 0.2694529183290284 0 0.10082243932588859 0.29889137192136961 0 0.1144672558682024 0.27226465239732289 0 0.097359373024830789 0.2694529183290284 0 0.14477905750391939 0.27560806843851471 0 0.14640669834802569 0.25564940172523481 0 0.16174409602920031 0.27253674725515592 0 0.14477905750391939 0.27560806843851471 0 0.14640669834802569 0.25564940172523481 0 0.1326374749236402 0.26618118324502948 0 0.156309635178044 0.24192708784607339 0 0.14640669834802569 0.25564940172523481 0 0.16511150178394041 0.25596916607527909 0 0.12811207241051631 0.2456379328732762 0 0.14640669834802569 0.25564940172523481 0 0.1326374749236402 0.26618118324502948 0 0.12811207241051631 0.2456379328732762 0 0.1144672558682024 0.27226465239732289 0 0.1326374749236402 0.26618118324502948 0 0.1144672558682024 0.27226465239732289 0 0.1326374749236402 0.26618118324502948 0 0.12942229048753739 0.28174586079079922 0 0.14477905750391939 0.27560806843851471 0 0.1326374749236402 0.26618118324502948 0 0.12942229048753739 0.28174586079079922 0 0.14477905750391939 0.27560806843851471 0 0.12942229048753739 0.28174586079079922 0 0.14331488463736361 0.29294038249357091 0 0.12942229048753739 0.28174586079079922 0 0.12704776086179481 0.29600887388519143 0 0.14331488463736361 0.29294038249357091 0 0.1163659570049219 0.30567201985701697 0 0.12704776086179481 0.29600887388519143 0 0.13300561023586699 0.31216712834374499 0 0.12704776086179481 0.29600887388519143 0 0.13300561023586699 0.31216712834374499 0 0.14331488463736361 0.29294038249357091 0 0.13300561023586699 0.31216712834374499 0 0.15428507327449351 0.30669440440283158 0 0.14331488463736361 0.29294038249357091 0 0.15428507327449351 0.30669440440283158 0 0.14331488463736361 0.29294038249357091 0 0.1623719761379511 0.28808919285641271 0 0.14477905750391939 0.27560806843851471 0 0.14331488463736361 0.29294038249357091 0 0.1623719761379511 0.28808919285641271 0 0.15428507327449351 0.30669440440283158 0 0.17683750901175649 0.30231242221147991 0 0.17440664607958989 0.32510958067335388 0 0.15428507327449351 0.30669440440283158 0 0.1623719761379511 0.28808919285641271 0 0.17683750901175649 0.30231242221147991 0 0.17683750901175649 0.30231242221147991 0 0.1793370307147758 0.27527821384913159 0 0.19392191954091059 0.28602238640267419 0 0.1623719761379511 0.28808919285641271 0 0.17683750901175649 0.30231242221147991 0 0.1793370307147758 0.27527821384913159 0 0.17683750901175649 0.30231242221147991 0 0.1793370307147758 0.27527821384913159 0 0.1623719761379511 0.28808919285641271 0 0.1793370307147758 0.27527821384913159 0 0.16174409602920031 0.27253674725515592 0 0.1793370307147758 0.27527821384913159 0 0.16174409602920031 0.27253674725515592 0 0.16511150178394041 0.25596916607527909 0 0.14477905750391939 0.27560806843851471 0 0.1623719761379511 0.28808919285641271 0 0.16174409602920031 0.27253674725515592 0 0.14640669834802569 0.25564940172523481 0 0.16174409602920031 0.27253674725515592 0 0.16511150178394041 0.25596916607527909 0 0.18183655241779509 0.24824400548678319 0 0.1793370307147758 0.27527821384913159 0 0.19236331366387169 0.258977408696138 0 0.18183655241779509 0.24824400548678319 0 0.1793370307147758 0.27527821384913159 0 0.16511150178394041 0.25596916607527909 0 0.18183655241779509 0.24824400548678319 0 0.1793370307147758 0.27527821384913159 0 0.18183655241779509 0.24824400548678319 0 0.19696661788618969 0.24550446176998431 0 0.19236331366387169 0.258977408696138 0 0.19236331366387169 0.258977408696138 0 0.1981383143945894 0.27082469190212838 0 0.20553805290600821 0.25503567047266268 0 0.19696661788618969 0.24550446176998431 0 0.19236331366387169 0.258977408696138 0 0.20553805290600821 0.25503567047266268 0 0.1793370307147758 0.27527821384913159 0 0.1981383143945894 0.27082469190212838 0 0.19392191954091059 0.28602238640267419 0 0.1793370307147758 0.27527821384913159 0 0.19236331366387169 0.258977408696138 0 0.1981383143945894 0.27082469190212838 0 0.1981383143945894 0.27082469190212838 0 0.20798105107015921 0.28243622060112022 0 0.19392191954091059 0.28602238640267419 0 0.1981383143945894 0.27082469190212838 0 0.21930556369080659 0.26908345291036229 0 0.20798105107015921 0.28243622060112022 0 0.20553805290600821 0.25503567047266268 0 0.21960299125344371 0.25061575866082519 0 0.21930556369080659 0.26908345291036229 0 0.1981383143945894 0.27082469190212838 0 0.20553805290600821 0.25503567047266268 0 0.21930556369080659 0.26908345291036229 0 0.21960299125344371 0.25061575866082519 0 0.21930556369080659 0.26908345291036229 0 0.2345500996957938 0.26010465979454561 0 0.23076984391265709 0.24584645890712861 0 0.21960299125344371 0.25061575866082519 0 0.2345500996957938 0.26010465979454561 0 0.21930556369080659 0.26908345291036229 0 0.2358224435773868 0.27975293748984509 0 0.2345500996957938 0.26010465979454561 0 0.21930556369080659 0.26908345291036229 0 0.2358224435773868 0.27975293748984509 0 0.22242461069790581 0.29228018386676591 0 0.2358224435773868 0.27975293748984509 0 0.24784470446055051 0.270369817975116 0 0.25168040627867022 0.28489417946397078 0 0.2358224435773868 0.27975293748984509 0 0.24784470446055051 0.270369817975116 0 0.2345500996957938 0.26010465979454561 0 0.24784470446055051 0.270369817975116 0 0.2462911328595512 0.25813819144323402 0 0.2345500996957938 0.26010465979454561 0 0.242133551746054 0.24582125946899899 0 0.2462911328595512 0.25813819144323402 0 0.25421322039033012 0.25011983010618499 0 0.242133551746054 0.24582125946899899 0 0.23076984391265709 0.24584645890712861 0 0.2345500996957938 0.26010465979454561 0 0.242133551746054 0.24582125946899899 0 0.2462911328595512 0.25813819144323402 0 0.2345500996957938 0.26010465979454561 0 0.24961685989573831 0.30873847525730141 0 0.24090865690401669 0.29671589577026741 0 0.25800559541785328 0.29777215638650789 0 0.23729751152030409 0.31122260483591457 0 0.24090865690401669 0.29671589577026741 0 0.2262378009434739 0.30630766447377572 0 0.23729751152030409 0.31122260483591457 0 0.24961685989573831 0.30873847525730141 0 0.24090865690401669 0.29671589577026741 0 0.2358224435773868 0.27975293748984509 0 0.24090865690401669 0.29671589577026741 0 0.25168040627867022 0.28489417946397078 0 0.2358224435773868 0.27975293748984509 0 0.24090865690401669 0.29671589577026741 0 0.22242461069790581 0.29228018386676591 0 0.22242461069790581 0.29228018386676591 0 0.2262378009434739 0.30630766447377572 0 0.21271269160480971 0.30885588949641068 0 0.24090865690401669 0.29671589577026741 0 0.22242461069790581 0.29228018386676591 0 0.2262378009434739 0.30630766447377572 0 0.22242461069790581 0.29228018386676591 0 0.21271269160480971 0.30885588949641068 0 0.20892001544164029 0.29525995835880647 0 0.21271269160480971 0.30885588949641068 0 0.20892001544164029 0.29525995835880647 0 0.19721771597375601 0.3012977015229219 0 0.21930556369080659 0.26908345291036229 0 0.22242461069790581 0.29228018386676591 0 0.20798105107015921 0.28243622060112022 0 0.22242461069790581 0.29228018386676591 0 0.20892001544164029 0.29525995835880647 0 0.20798105107015921 0.28243622060112022 0 0.20892001544164029 0.29525995835880647 0 0.20798105107015921 0.28243622060112022 0 0.19392191954091059 0.28602238640267419 0 0.17683750901175649 0.30231242221147991 0 0.19392191954091059 0.28602238640267419 0 0.19721771597375601 0.3012977015229219 0 0.20892001544164029 0.29525995835880647 0 0.19392191954091059 0.28602238640267419 0 0.19721771597375601 0.3012977015229219 0 0.17683750901175649 0.30231242221147991 0 0.19721771597375601 0.3012977015229219 0 0.19461830934828739 0.31916301696644112 0 0.21271269160480971 0.30885588949641068 0 0.19721771597375601 0.3012977015229219 0 0.19461830934828739 0.31916301696644112 0 0.19461830934828739 0.31916301696644112 0 0.19452821888468619 0.34352475694387608 0 0.2106423257490288 0.3294121885668897 0 0.19461830934828739 0.31916301696644112 0 0.19452821888468619 0.34352475694387608 0 0.17440664607958989 0.32510958067335388 0 0.2106423257490288 0.3294121885668897 0 0.2211230327580633 0.33762019206653893 0 0.21609789587607131 0.3473731304249153 0 0.19452821888468619 0.34352475694387608 0 0.2106423257490288 0.3294121885668897 0 0.21609789587607131 0.3473731304249153 0 0.21271269160480971 0.30885588949641068 0 0.2106423257490288 0.3294121885668897 0 0.2251425556639767 0.32273908572330151 0 0.21271269160480971 0.30885588949641068 0 0.19461830934828739 0.31916301696644112 0 0.2106423257490288 0.3294121885668897 0 0.23729751152030409 0.31122260483591457 0 0.2262378009434739 0.30630766447377572 0 0.2251425556639767 0.32273908572330151 0 0.2262378009434739 0.30630766447377572 0 0.21271269160480971 0.30885588949641068 0 0.2251425556639767 0.32273908572330151 0 0.2106423257490288 0.3294121885668897 0 0.2251425556639767 0.32273908572330151 0 0.2211230327580633 0.33762019206653893 0 0.2251425556639767 0.32273908572330151 0 0.2211230327580633 0.33762019206653893 0 0.23109669343611239 0.34006355674996791 0 0.2251425556639767 0.32273908572330151 0 0.23109669343611239 0.34006355674996791 0 0.24298945884259771 0.32260938587607951 0 0.2211230327580633 0.33762019206653893 0 0.23109669343611239 0.34006355674996791 0 0.22413902150533099 0.34758949390151211 0 0.23109669343611239 0.34006355674996791 0 0.24846533802493659 0.3372087639246224 0 0.24298945884259771 0.32260938587607951 0 0.23729751152030409 0.31122260483591457 0 0.2251425556639767 0.32273908572330151 0 0.24298945884259771 0.32260938587607951 0 0.23729751152030409 0.31122260483591457 0 0.24961685989573831 0.30873847525730141 0 0.24298945884259771 0.32260938587607951 0 0.23317816381475659 0.35842220373624412 0 0.25624437599770439 0.37334353110294588 0 0.2409752559851096 0.37474981790331319 0 0.23317816381475659 0.35842220373624412 0 0.23212430694485739 0.36913247167210661 0 0.23317816381475659 0.35842220373624412 0 0.25248066312555761 0.35471214092788489 0 0.25624437599770439 0.37334353110294588 0 0.2409752559851096 0.37474981790331319 0 0.23317816381475659 0.35842220373624412 0 0.25624437599770439 0.37334353110294588 0 0.24846533802493659 0.3372087639246224 0 0.23317816381475659 0.35842220373624412 0 0.23109669343611239 0.34006355674996791 0 0.24846533802493659 0.3372087639246224 0 0.23317816381475659 0.35842220373624412 0 0.24846533802493659 0.3372087639246224 0 0.23317816381475659 0.35842220373624412 0 0.25248066312555761 0.35471214092788489 0 0.23317816381475659 0.35842220373624412 0 0.2276330009173429 0.35483508721110141 0 0.22324222071266811 0.36222650163369619 0 0.23109669343611239 0.34006355674996791 0 0.23317816381475659 0.35842220373624412 0 0.2276330009173429 0.35483508721110141 0 0.23317816381475659 0.35842220373624412 0 0.2276330009173429 0.35483508721110141 0 0.23109669343611239 0.34006355674996791 0 0.2276330009173429 0.35483508721110141 0 0.22413902150533099 0.34758949390151211 0 0.2276330009173429 0.35483508721110141 0 0.21609789587607131 0.3473731304249153 0 0.2276330009173429 0.35483508721110141 0 0.22413902150533099 0.34758949390151211 0 0.21609789587607131 0.3473731304249153 0 0.2211230327580633 0.33762019206653893 0 0.22413902150533099 0.34758949390151211 0 0.21609789587607131 0.3473731304249153 0 0.2276330009173429 0.35483508721110141 0 0.21464979168978021 0.36193993321440099 0 0.21609789587607131 0.3473731304249153 0 0.2276330009173429 0.35483508721110141 0 0.21464979168978021 0.36193993321440099 0 0.22428711926925601 0.3707599736690832 0 0.21464979168978021 0.36193993321440099 0 0.22324222071266811 0.36222650163369619 0 0.22428711926925601 0.3707599736690832 0 0.21464979168978021 0.36193993321440099 0 0.2276330009173429 0.35483508721110141 0 0.22324222071266811 0.36222650163369619 0 0.21464979168978021 0.36193993321440099 0 0.23317816381475659 0.35842220373624412 0 0.23212430694485739 0.36913247167210661 0 0.22428711926925601 0.3707599736690832 0 0.23317816381475659 0.35842220373624412 0 0.22324222071266811 0.36222650163369619 0 0.22428711926925601 0.3707599736690832 0 0.23317816381475659 0.35842220373624412 0 0.22428711926925601 0.3707599736690832 0 0.23212430694485739 0.36913247167210661 0 0.22428711926925601 0.3707599736690832 0 0.22961052220879549 0.3756319289799393 0 0.2409752559851096 0.37474981790331319 0 0.23212430694485739 0.36913247167210661 0 0.22961052220879549 0.3756319289799393 0 0.22428711926925601 0.3707599736690832 0 0.22961052220879549 0.3756319289799393 0 0.22428711926925601 0.3707599736690832 0 0.21664133519966161 0.3712762318130064 0 0.21809635562736021 0.37935066480007518 0 0.21464979168978021 0.36193993321440099 0 0.19722817621294 0.3589054345061724 0 0.1983353865017666 0.37086772097971038 0 0.21664133519966161 0.3712762318130064 0 0.21464979168978021 0.36193993321440099 0 0.20953207421224981 0.37305435556846528 0 0.21664133519966161 0.3712762318130064 0 0.20953207421224981 0.37305435556846528 0 0.21809635562736021 0.37935066480007518 0 0.22428711926925601 0.3707599736690832 0 0.21664133519966161 0.3712762318130064 0 0.21464979168978021 0.36193993321440099 0 0.21464979168978021 0.36193993321440099 0 0.20953207421224981 0.37305435556846528 0 0.1983353865017666 0.37086772097971038 0 0.21464979168978021 0.36193993321440099 0 0.1983353865017666 0.37086772097971038 0 0.20953207421224981 0.37305435556846528 0 0.1983353865017666 0.37086772097971038 0 0.20309883690160921 0.3775634712125584 0 0.19452821888468619 0.34352475694387608 0 0.21464979168978021 0.36193993321440099 0 0.19452821888468619 0.34352475694387608 0 0.21464979168978021 0.36193993321440099 0 0.21609789587607131 0.3473731304249153 0 0.19452821888468619 0.34352475694387608 0 0.21464979168978021 0.36193993321440099 0 0.19722817621294 0.3589054345061724 0 0.19452821888468619 0.34352475694387608 0 0.19722817621294 0.3589054345061724 0 0.1813993077755266 0.35928932688670118 0 0.19722817621294 0.3589054345061724 0 0.1983353865017666 0.37086772097971038 0 0.1813993077755266 0.35928932688670118 0 0.1983353865017666 0.37086772097971038 0 0.1813993077755266 0.35928932688670118 0 0.18202098131375161 0.379795508745017 0 0.160290809853913 0.37141662258938041 0 0.1813993077755266 0.35928932688670118 0 0.18202098131375161 0.379795508745017 0 0.160290809853913 0.37141662258938041 0 0.1588158540135296 0.34807725987244492 0 0.1813993077755266 0.35928932688670118 0 0.19452821888468619 0.34352475694387608 0 0.1772875066883331 0.344000231094094 0 0.1813993077755266 0.35928932688670118 0 0.1588158540135296 0.34807725987244492 0 0.1772875066883331 0.344000231094094 0 0.1813993077755266 0.35928932688670118 0 0.19452821888468619 0.34352475694387608 0 0.1772875066883331 0.344000231094094 0 0.17440664607958989 0.32510958067335388 0 0.19452821888468619 0.34352475694387608 0 0.17440664607958989 0.32510958067335388 0 0.17683750901175649 0.30231242221147991 0 0.19461830934828739 0.31916301696644112 0 0.17440664607958989 0.32510958067335388 0 0.15428507327449351 0.30669440440283158 0 0.17440664607958989 0.32510958067335388 0 0.15428507327449351 0.30669440440283158 0 0.17440664607958989 0.32510958067335388 0 0.146963178336973 0.32866414843544062 0 0.1588158540135296 0.34807725987244492 0 0.1772875066883331 0.344000231094094 0 0.17440664607958989 0.32510958067335388 0 0.1588158540135296 0.34807725987244492 0 0.17440664607958989 0.32510958067335388 0 0.146963178336973 0.32866414843544062 0 0.1588158540135296 0.34807725987244492 0 0.146963178336973 0.32866414843544062 0 0.136111928340716 0.34584163282190988 0 0.13300561023586699 0.31216712834374499 0 0.15428507327449351 0.30669440440283158 0 0.146963178336973 0.32866414843544062 0 0.13300561023586699 0.31216712834374499 0 0.146963178336973 0.32866414843544062 0 0.12666186598872181 0.33201748187089242 0 0.1189171160094491 0.31877074561265029 0 0.13300561023586699 0.31216712834374499 0 0.12666186598872181 0.33201748187089242 0 0.146963178336973 0.32866414843544062 0 0.12666186598872181 0.33201748187089242 0 0.136111928340716 0.34584163282190988 0 0.1168304669342336 0.35465885027811339 0 0.13856063839407329 0.36303773643374693 0 0.1168304669342336 0.35465885027811339 0 0.12666186598872181 0.33201748187089242 0 0.136111928340716 0.34584163282190988 0 0.1168304669342336 0.35465885027811339 0 0.136111928340716 0.34584163282190988 0 0.13856063839407329 0.36303773643374693 0 0.1245294276094052 0.36705946116809979 0 0.1168304669342336 0.35465885027811339 0 0.13856063839407329 0.36303773643374693 0 0.1245294276094052 0.36705946116809979 0 0.13856063839407329 0.36303773643374693 0 0.139536202802478 0.38062401709156501 0 0.160290809853913 0.37141662258938041 0 0.1588158540135296 0.34807725987244492 0 0.13856063839407329 0.36303773643374693 0 0.160290809853913 0.37141662258938041 0 0.13856063839407329 0.36303773643374693 0 0.160290809853913 0.37141662258938041 0 0.13856063839407329 0.36303773643374693 0 0.139536202802478 0.38062401709156501 0 0.1588158540135296 0.34807725987244492 0 0.136111928340716 0.34584163282190988 0 0.13856063839407329 0.36303773643374693 0 0.13419225945411201 0.40596898383821739 0 0.15158024974318959 0.41396006195426333 0 0.15810662038393231 0.39288224629161811 0 0.13419225945411201 0.40596898383821739 0 0.15810662038393231 0.39288224629161811 0 0.139536202802478 0.38062401709156501 0 0.13419225945411201 0.40596898383821739 0 0.15810662038393231 0.39288224629161811 0 0.160290809853913 0.37141662258938041 0 0.139536202802478 0.38062401709156501 0 0.15810662038393231 0.39288224629161811 0 0.1232016095315123 0.38640416029862562 0 0.1245294276094052 0.36705946116809979 0 0.139536202802478 0.38062401709156501 0 0.1232016095315123 0.38640416029862562 0 0.139536202802478 0.38062401709156501 0 0.13419225945411201 0.40596898383821739 0 0.13419225945411201 0.40596898383821739 0 0.12888927485547691 0.4298909954227686 0 0.15158024974318959 0.41396006195426333 0 0.12888927485547691 0.4298909954227686 0 0.15158024974318959 0.41396006195426333 0 0.12888927485547691 0.4298909954227686 0 0.15423395529618869 0.42881070169982838 0 0.1494062871843066 0.44175303163277552 0 0.12888927485547691 0.4298909954227686 0 0.15423395529618869 0.42881070169982838 0 0.15158024974318959 0.41396006195426333 0 0.15423395529618869 0.42881070169982838 0 0.15158024974318959 0.41396006195426333 0 0.1677302297263048 0.42240647881821097 0 0.15158024974318959 0.41396006195426333 0 0.175005441445579 0.4120727193990415 0 0.1742712246309025 0.39802912848575789 0 0.15158024974318959 0.41396006195426333 0 0.1677302297263048 0.42240647881821097 0 0.175005441445579 0.4120727193990415 0 0.15423395529618869 0.42881070169982838 0 0.17415846118236719 0.4374125777943963 0 0.1494062871843066 0.44175303163277552 0 0.15423395529618869 0.42881070169982838 0 0.1677302297263048 0.42240647881821097 0 0.17415846118236719 0.4374125777943963 0 0.17415846118236719 0.4374125777943963 0 0.1874863015182878 0.42809589674614601 0 0.1989106351804279 0.43307212395601707 0 0.17415846118236719 0.4374125777943963 0 0.1989106351804279 0.43307212395601707 0 0.1677302297263048 0.42240647881821097 0 0.17415846118236719 0.4374125777943963 0 0.1825309990488663 0.42192368556513898 0 0.17415846118236719 0.4374125777943963 0 0.1825309990488663 0.42192368556513898 0 0.1874863015182878 0.42809589674614601 0 0.1677302297263048 0.42240647881821097 0 0.1825309990488663 0.42192368556513898 0 0.175005441445579 0.4120727193990415 0 0.1825309990488663 0.42192368556513898 0 0.175005441445579 0.4120727193990415 0 0.18918669153476519 0.41224556987005773 0 0.175005441445579 0.4120727193990415 0 0.18473325398944579 0.40387139170082009 0 0.18918669153476519 0.41224556987005773 0 0.18473325398944579 0.40387139170082009 0 0.1742712246309025 0.39802912848575789 0 0.18849683576098419 0.3977185366222975 0 0.1742712246309025 0.39802912848575789 0 0.1933737175977939 0.39018641157316941 0 0.18849683576098419 0.3977185366222975 0 0.175005441445579 0.4120727193990415 0 0.18473325398944579 0.40387139170082009 0 0.1742712246309025 0.39802912848575789 0 0.15158024974318959 0.41396006195426333 0 0.1742712246309025 0.39802912848575789 0 0.15158024974318959 0.41396006195426333 0 0.1742712246309025 0.39802912848575789 0 0.15810662038393231 0.39288224629161811 0 0.1742712246309025 0.39802912848575789 0 0.15810662038393231 0.39288224629161811 0 0.18202098131375161 0.379795508745017 0 0.160290809853913 0.37141662258938041 0 0.18202098131375161 0.379795508745017 0 0.15810662038393231 0.39288224629161811 0 0.18202098131375161 0.379795508745017 0 0.160290809853913 0.37141662258938041 0 0.15810662038393231 0.39288224629161811 0 0.18202098131375161 0.379795508745017 0 0.1742712246309025 0.39802912848575789 0 0.18202098131375161 0.379795508745017 0 0.19142069318331759 0.38341992173210881 0 0.1742712246309025 0.39802912848575789 0 0.19696219951861529 0.38209819501725262 0 0.18202098131375161 0.379795508745017 0 0.19142069318331759 0.38341992173210881 0 0.1983353865017666 0.37086772097971038 0 0.18202098131375161 0.379795508745017 0 0.19142069318331759 0.38341992173210881 0 0.1983353865017666 0.37086772097971038 0 0.18202098131375161 0.379795508745017 0 0.1742712246309025 0.39802912848575789 0 0.1933737175977939 0.39018641157316941 0 0.19696219951861529 0.38209819501725262 0 0.1742712246309025 0.39802912848575789 0 0.19142069318331759 0.38341992173210881 0 0.19696219951861529 0.38209819501725262 0 0.1933737175977939 0.39018641157316941 0 0.20168427865737559 0.3886540233570841 0 0.19696219951861529 0.38209819501725262 0 0.20168427865737559 0.3886540233570841 0 0.2023754329344076 0.38317765307415103 0 0.19696219951861529 0.38209819501725262 0 0.2023754329344076 0.38317765307415103 0 0.20309883690160921 0.3775634712125584 0 0.19696219951861529 0.38209819501725262 0 0.1983353865017666 0.37086772097971038 0 0.19142069318331759 0.38341992173210881 0 0.19696219951861529 0.38209819501725262 0 0.1983353865017666 0.37086772097971038 0 0.20309883690160921 0.3775634712125584 0 0.19696219951861529 0.38209819501725262 0 0.18473325398944579 0.40387139170082009 0 0.19357552273473291 0.40162958460705322 0 0.18849683576098419 0.3977185366222975 0 0.18473325398944579 0.40387139170082009 0 0.19357552273473291 0.40162958460705322 0 0.18918669153476519 0.41224556987005773 0 0.19357552273473291 0.40162958460705322 0 0.18849683576098419 0.3977185366222975 0 0.1965304598520459 0.39487616674468679 0 0.1933737175977939 0.39018641157316941 0 0.18849683576098419 0.3977185366222975 0 0.1965304598520459 0.39487616674468679 0 0.1933737175977939 0.39018641157316941 0 0.20168427865737559 0.3886540233570841 0 0.1965304598520459 0.39487616674468679 0 0.20168427865737559 0.3886540233570841 0 0.20243316154236091 0.39466525830955612 0 0.1965304598520459 0.39487616674468679 0 0.20243316154236091 0.39466525830955612 0 0.1965304598520459 0.39487616674468679 0 0.2026435948617496 0.40134620019165917 0 0.19357552273473291 0.40162958460705322 0 0.1965304598520459 0.39487616674468679 0 0.2026435948617496 0.40134620019165917 0 0.19357552273473291 0.40162958460705322 0 0.2026435948617496 0.40134620019165917 0 0.19791602415876949 0.40888700458843052 0 0.2026435948617496 0.40134620019165917 0 0.20887431279827279 0.39378464294479448 0 0.21183898270192411 0.40308444471360261 0 0.20243316154236091 0.39466525830955612 0 0.2026435948617496 0.40134620019165917 0 0.20887431279827279 0.39378464294479448 0 0.20168427865737559 0.3886540233570841 0 0.20243316154236091 0.39466525830955612 0 0.20887431279827279 0.39378464294479448 0 0.20887431279827279 0.39378464294479448 0 0.21183898270192411 0.40308444471360261 0 0.21951643735107301 0.39778453482026732 0 0.20887431279827279 0.39378464294479448 0 0.21566117238851079 0.38801845824856318 0 0.21951643735107301 0.39778453482026732 0 0.21183898270192411 0.40308444471360261 0 0.21951643735107301 0.39778453482026732 0 0.21813374103170469 0.41126607557772488 0 0.20953207421224981 0.37305435556846528 0 0.20309883690160921 0.3775634712125584 0 0.20788712246099059 0.38347699280260311 0 0.2023754329344076 0.38317765307415103 0 0.20309883690160921 0.3775634712125584 0 0.20788712246099059 0.38347699280260311 0 0.20168427865737559 0.3886540233570841 0 0.20887431279827279 0.39378464294479448 0 0.20788712246099059 0.38347699280260311 0 0.20887431279827279 0.39378464294479448 0 0.20788712246099059 0.38347699280260311 0 0.21566117238851079 0.38801845824856318 0 0.20168427865737559 0.3886540233570841 0 0.2023754329344076 0.38317765307415103 0 0.20788712246099059 0.38347699280260311 0 0.20788712246099059 0.38347699280260311 0 0.21566117238851079 0.38801845824856318 0 0.21809635562736021 0.37935066480007518 0 0.20953207421224981 0.37305435556846528 0 0.20788712246099059 0.38347699280260311 0 0.21809635562736021 0.37935066480007518 0 0.22428711926925601 0.3707599736690832 0 0.21809635562736021 0.37935066480007518 0 0.22961052220879549 0.3756319289799393 0 0.21809635562736021 0.37935066480007518 0 0.22961052220879549 0.3756319289799393 0 0.22498365572601001 0.38627974617820432 0 0.22428711926925601 0.3707599736690832 0 0.21809635562736021 0.37935066480007518 0 0.22961052220879549 0.3756319289799393 0 0.23428414428822111 0.38323172651241499 0 0.22498365572601001 0.38627974617820432 0 0.23428414428822111 0.38323172651241499 0 0.22498365572601001 0.38627974617820432 0 0.23195462893669949 0.39372912298726309 0 0.21566117238851079 0.38801845824856318 0 0.21809635562736021 0.37935066480007518 0 0.22498365572601001 0.38627974617820432 0 0.21566117238851079 0.38801845824856318 0 0.22498365572601001 0.38627974617820432 0 0.21951643735107301 0.39778453482026732 0 0.22498365572601001 0.38627974617820432 0 0.21951643735107301 0.39778453482026732 0 0.23195462893669949 0.39372912298726309 0 0.21951643735107301 0.39778453482026732 0 0.22873204222269231 0.40380684372272901 0 0.21813374103170469 0.41126607557772488 0 0.22873204222269231 0.40380684372272901 0 0.23195462893669949 0.39372912298726309 0 0.24017709759903141 0.4023816849863755 0 0.21951643735107301 0.39778453482026732 0 0.22873204222269231 0.40380684372272901 0 0.23195462893669949 0.39372912298726309 0 0.23195462893669949 0.39372912298726309 0 0.24017709759903141 0.4023816849863755 0 0.24389665858449111 0.38576801651335552 0 0.24017709759903141 0.4023816849863755 0 0.24389665858449111 0.38576801651335552 0 0.252914075246371 0.40133046553089918 0 0.24017709759903141 0.4023816849863755 0 0.25217688592437781 0.41268766619691122 0 0.252914075246371 0.40133046553089918 0 0.2409752559851096 0.37474981790331319 0 0.24389665858449111 0.38576801651335552 0 0.25624437599770439 0.37334353110294588 0 0.2409752559851096 0.37474981790331319 0 0.22961052220879549 0.3756319289799393 0 0.23428414428822111 0.38323172651241499 0 0.2409752559851096 0.37474981790331319 0 0.23428414428822111 0.38323172651241499 0 0.24389665858449111 0.38576801651335552 0 0.23428414428822111 0.38323172651241499 0 0.23195462893669949 0.39372912298726309 0 0.24389665858449111 0.38576801651335552 0 0.24841498317654909 0.4243912162792588 0 0.22366280917848849 0.42873167011763791 0 0.24131399117488819 0.44691908366269367 0 0.24841498317654909 0.4243912162792588 0 0.22366280917848849 0.42873167011763791 0 0.24841498317654909 0.4243912162792588 0 0.23387830619495281 0.41387280024201412 0 0.22366280917848849 0.42873167011763791 0 0.24017709759903141 0.4023816849863755 0 0.23387830619495281 0.41387280024201412 0 0.25217688592437781 0.41268766619691122 0 0.24841498317654909 0.4243912162792588 0 0.23387830619495281 0.41387280024201412 0 0.25217688592437781 0.41268766619691122 0 0.22873204222269231 0.40380684372272901 0 0.23387830619495281 0.41387280024201412 0 0.21813374103170469 0.41126607557772488 0 0.23387830619495281 0.41387280024201412 0 0.22366280917848849 0.42873167011763791 0 0.21813374103170469 0.41126607557772488 0 0.22873204222269231 0.40380684372272901 0 0.24017709759903141 0.4023816849863755 0 0.23387830619495281 0.41387280024201412 0 0.22366280917848849 0.42873167011763791 0 0.20583956745197171 0.41468942771927708 0 0.1989106351804279 0.43307212395601707 0 0.22366280917848849 0.42873167011763791 0 0.1989106351804279 0.43307212395601707 0 0.2126139079318064 0.44512303036569761 0 0.22366280917848849 0.42873167011763791 0 0.1989106351804279 0.43307212395601707 0 0.22366280917848849 0.42873167011763791 0 0.21813374103170469 0.41126607557772488 0 0.20583956745197171 0.41468942771927708 0 0.21183898270192411 0.40308444471360261 0 0.21813374103170469 0.41126607557772488 0 0.20583956745197171 0.41468942771927708 0 0.2026435948617496 0.40134620019165917 0 0.21183898270192411 0.40308444471360261 0 0.20583956745197171 0.41468942771927708 0 0.2026435948617496 0.40134620019165917 0 0.20583956745197171 0.41468942771927708 0 0.19791602415876949 0.40888700458843052 0 0.20583956745197171 0.41468942771927708 0 0.19791602415876949 0.40888700458843052 0 0.19434511066148991 0.41997519966903157 0 0.1825309990488663 0.42192368556513898 0 0.19434511066148991 0.41997519966903157 0 0.18918669153476519 0.41224556987005773 0 0.19791602415876949 0.40888700458843052 0 0.19434511066148991 0.41997519966903157 0 0.18918669153476519 0.41224556987005773 0 0.19357552273473291 0.40162958460705322 0 0.19791602415876949 0.40888700458843052 0 0.18918669153476519 0.41224556987005773 0 0.17415846118236719 0.4374125777943963 0 0.1989106351804279 0.43307212395601707 0 0.19082963298514041 0.44109571049281882 0 0.20583956745197171 0.41468942771927708 0 0.19434511066148991 0.41997519966903157 0 0.1989106351804279 0.43307212395601707 0 0.1825309990488663 0.42192368556513898 0 0.1874863015182878 0.42809589674614601 0 0.19434511066148991 0.41997519966903157 0 0.1874863015182878 0.42809589674614601 0 0.19434511066148991 0.41997519966903157 0 0.1989106351804279 0.43307212395601707 0 0.19082963298514041 0.44109571049281882 0 0.2031581296375565 0.46073047366187941 0 0.19082963298514041 0.44109571049281882 0 0.20158536549211259 0.4438472018866767 0 0.2031581296375565 0.46073047366187941 0 0.19082963298514041 0.44109571049281882 0 0.2031581296375565 0.46073047366187941 0 0.18127665267385701 0.4507845026386158 0 0.1989106351804279 0.43307212395601707 0 0.19082963298514041 0.44109571049281882 0 0.20158536549211259 0.4438472018866767 0 0.2031581296375565 0.46073047366187941 0 0.17994883962947561 0.46434845147982418 0 0.18127665267385701 0.4507845026386158 0 0.2031581296375565 0.46073047366187941 0 0.1885846670273158 0.4808732272746038 0 0.17994883962947561 0.46434845147982418 0 0.2031581296375565 0.46073047366187941 0 0.2126139079318064 0.44512303036569761 0 0.2264173523317515 0.45873046469017242 0 0.2031581296375565 0.46073047366187941 0 0.2264173523317515 0.45873046469017242 0 0.2154866262899727 0.48036523683094001 0 0.20158536549211259 0.4438472018866767 0 0.2031581296375565 0.46073047366187941 0 0.2126139079318064 0.44512303036569761 0 0.1989106351804279 0.43307212395601707 0 0.20158536549211259 0.4438472018866767 0 0.2126139079318064 0.44512303036569761 0 0.22366280917848849 0.42873167011763791 0 0.2260020151542336 0.4448760622090504 0 0.24131399117488819 0.44691908366269367 0 0.22366280917848849 0.42873167011763791 0 0.2126139079318064 0.44512303036569761 0 0.2260020151542336 0.4448760622090504 0 0.2260020151542336 0.4448760622090504 0 0.2264173523317515 0.45873046469017242 0 0.24131399117488819 0.44691908366269367 0 0.2126139079318064 0.44512303036569761 0 0.2260020151542336 0.4448760622090504 0 0.2264173523317515 0.45873046469017242 0 0.2264173523317515 0.45873046469017242 0 0.24502420890889409 0.46004077709308971 0 0.2403030807883772 0.47283356816402922 0 0.2264173523317515 0.45873046469017242 0 0.24502420890889409 0.46004077709308971 0 0.24131399117488819 0.44691908366269367 0 0.24502420890889409 0.46004077709308971 0 0.24131399117488819 0.44691908366269367 0 0.26012747631980893 0.45482884786359967 0 0.24502420890889409 0.46004077709308971 0 0.2403030807883772 0.47283356816402922 0 0.25555056379770258 0.46864771481894579 0 0.24855223252474409 0.5 0 0.23737790452612559 0.48794238258448841 0 0.25172960110999948 0.48246953972966722 0 0.24855223252474409 0.5 0 0.23737790452612559 0.48794238258448841 0 0.2278151229423889 0.50000000000000044 0 0.23737790452612559 0.48794238258448841 0 0.2403030807883772 0.47283356816402922 0 0.25172960110999948 0.48246953972966722 0 0.2403030807883772 0.47283356816402922 0 0.25172960110999948 0.48246953972966722 0 0.25555056379770258 0.46864771481894579 0 0.2264173523317515 0.45873046469017242 0 0.2403030807883772 0.47283356816402922 0 0.2154866262899727 0.48036523683094001 0 0.23737790452612559 0.48794238258448841 0 0.2403030807883772 0.47283356816402922 0 0.2154866262899727 0.48036523683094001 0 0.23737790452612559 0.48794238258448841 0 0.2278151229423889 0.50000000000000044 0 0.2154866262899727 0.48036523683094001 0 0.2278151229423889 0.50000000000000044 0 0.2154866262899727 0.48036523683094001 0 0.2278151229423889 0.50000000000000044 0 0.2154866262899727 0.48036523683094001 0 0.20004964979277109 0.5 0 0.2031581296375565 0.46073047366187941 0 0.2154866262899727 0.48036523683094001 0 0.2031581296375565 0.46073047366187941 0 0.2154866262899727 0.48036523683094001 0 0.1885846670273158 0.4808732272746038 0 0.2154866262899727 0.48036523683094001 0 0.1885846670273158 0.4808732272746038 0 0.20004964979277109 0.5 0 0.1885846670273158 0.4808732272746038 0 0.20004964979277109 0.5 0 0.1722841766431534 0.5 0 0.1885846670273158 0.4808732272746038 0 0.1722841766431534 0.5 0 0.16058058017096591 0.47979520167497958 0 0.1722841766431534 0.5 0 0.16058058017096591 0.47979520167497958 0 0.1445187034935356 0.5 0 0.1885846670273158 0.4808732272746038 0 0.16058058017096591 0.47979520167497958 0 0.17994883962947561 0.46434845147982418 0 0.17994883962947561 0.46434845147982418 0 0.18127665267385701 0.4507845026386158 0 0.1636989190733881 0.45474044298754551 0 0.17415846118236719 0.4374125777943963 0 0.19082963298514041 0.44109571049281882 0 0.18127665267385701 0.4507845026386158 0 0.17415846118236719 0.4374125777943963 0 0.18127665267385701 0.4507845026386158 0 0.1636989190733881 0.45474044298754551 0 0.17415846118236719 0.4374125777943963 0 0.1636989190733881 0.45474044298754551 0 0.1494062871843066 0.44175303163277552 0 0.17415846118236719 0.4374125777943963 0 0.1494062871843066 0.44175303163277552 0 0.16058058017096591 0.47979520167497958 0 0.17994883962947561 0.46434845147982418 0 0.1636989190733881 0.45474044298754551 0 0.16058058017096591 0.47979520167497958 0 0.1636989190733881 0.45474044298754551 0 0.1374291981924019 0.46244480650865188 0 0.1636989190733881 0.45474044298754551 0 0.1494062871843066 0.44175303163277552 0 0.1374291981924019 0.46244480650865188 0 0.1246541131862461 0.44609348547115463 0 0.1494062871843066 0.44175303163277552 0 0.1374291981924019 0.46244480650865188 0 0.1246541131862461 0.44609348547115463 0 0.12888927485547691 0.4298909954227686 0 0.1494062871843066 0.44175303163277552 0 0.1246541131862461 0.44609348547115463 0 0.1494062871843066 0.44175303163277552 0 0.1178521261576949 0.45882390178641819 0 0.1246541131862461 0.44609348547115463 0 0.1374291981924019 0.46244480650865188 0 0.117087238109316 0.47555329320773032 0 0.1374291981924019 0.46244480650865188 0 0.1340822501540728 0.48388572070748981 0 0.11675323034391789 0.5 0 0.1340822501540728 0.48388572070748981 0 0.1445187034935356 0.5 0 0.16058058017096591 0.47979520167497958 0 0.1340822501540728 0.48388572070748981 0 0.1445187034935356 0.5 0 0.16058058017096591 0.47979520167497958 0 0.1374291981924019 0.46244480650865188 0 0.1340822501540728 0.48388572070748981 0 0.35388620159590101 0.48167910254806839 0 0.34357795286927678 0.46514536108458682 0 0.33848141111147589 0.47874965692944033 0 0.35388620159590101 0.48167910254806839 0 0.35847543437996793 0.46812875354486239 0 0.34357795286927678 0.46514536108458682 0 0.35388620159590101 0.48167910254806839 0 0.34387074105433718 0.5 0 0.33848141111147589 0.47874965692944033 0 0.35388620159590101 0.48167910254806839 0 0.34387074105433718 0.5 0 0.36873120737008308 0.5 0 0.35388620159590101 0.48167910254806839 0 0.36873120737008308 0.5 0 0.37018046279026501 0.47805084372952139 0 0.36873120737008308 0.5 0 0.37018046279026501 0.47805084372952139 0 0.38494279661275388 0.48573787428206489 0 0.35388620159590101 0.48167910254806839 0 0.37018046279026501 0.47805084372952139 0 0.35847543437996793 0.46812875354486239 0 0.35856995309503858 0.45231737873352462 0 0.35847543437996793 0.46812875354486239 0 0.37512177367696298 0.45895591305414518 0 0.37018046279026501 0.47805084372952139 0 0.35847543437996793 0.46812875354486239 0 0.37512177367696298 0.45895591305414518 0 0.35856995309503858 0.45231737873352462 0 0.35671319946618091 0.4318912509952535 0 0.37690062581237332 0.43627968954933488 0 0.35856995309503858 0.45231737873352462 0 0.37690062581237332 0.43627968954933488 0 0.37512177367696298 0.45895591305414518 0 0.35856995309503858 0.45231737873352462 0 0.3424906606602317 0.44684205033447821 0 0.35671319946618091 0.4318912509952535 0 0.35856995309503858 0.45231737873352462 0 0.34357795286927678 0.46514536108458682 0 0.3424906606602317 0.44684205033447821 0 0.35856995309503858 0.45231737873352462 0 0.35847543437996793 0.46812875354486239 0 0.34357795286927678 0.46514536108458682 0 0.34357795286927678 0.46514536108458682 0 0.33081744323986911 0.4558060151747555 0 0.3424906606602317 0.44684205033447821 0 0.34357795286927678 0.46514536108458682 0 0.33081744323986911 0.4558060151747555 0 0.32111711556193662 0.46808644746929151 0 0.34357795286927678 0.46514536108458682 0 0.32111711556193662 0.46808644746929151 0 0.3424906606602317 0.44684205033447821 0 0.32847368315517489 0.44250138865551453 0 0.33754975553801558 0.43354991765073408 0 0.33081744323986911 0.4558060151747555 0 0.3424906606602317 0.44684205033447821 0 0.32847368315517489 0.44250138865551453 0 0.32847368315517489 0.44250138865551453 0 0.31743597682768998 0.45244458976709778 0 0.31567806248071628 0.43943026677449221 0 0.33081744323986911 0.4558060151747555 0 0.32847368315517489 0.44250138865551453 0 0.31743597682768998 0.45244458976709778 0 0.33081744323986911 0.4558060151747555 0 0.31743597682768998 0.45244458976709778 0 0.32111711556193662 0.46808644746929151 0 0.31743597682768998 0.45244458976709778 0 0.32111711556193662 0.46808644746929151 0 0.30689213545377181 0.45890868430395798 0 0.32111711556193662 0.46808644746929151 0 0.32427753481710259 0.48179949324266241 0 0.33848141111147589 0.47874965692944033 0 0.32111711556193662 0.46808644746929151 0 0.32427753481710259 0.48179949324266241 0 0.29865627825459651 0.47102753385399682 0 0.34357795286927678 0.46514536108458682 0 0.32111711556193662 0.46808644746929151 0 0.33848141111147589 0.47874965692944033 0 0.34387074105433718 0.5 0 0.32427753481710259 0.48179949324266241 0 0.31901027473859128 0.5 0 0.34387074105433718 0.5 0 0.32427753481710259 0.48179949324266241 0 0.33848141111147589 0.47874965692944033 0 0.32427753481710259 0.48179949324266241 0 0.31901027473859128 0.5 0 0.30458508487733132 0.48793925830823959 0 0.31901027473859128 0.5 0 0.30458508487733132 0.48793925830823959 0 0.29414980842284533 0.5 0 0.32111711556193662 0.46808644746929151 0 0.29865627825459651 0.47102753385399682 0 0.32427753481710259 0.48179949324266241 0 0.29865627825459651 0.47102753385399682 0 0.32427753481710259 0.48179949324266241 0 0.30458508487733132 0.48793925830823959 0 0.29865627825459651 0.47102753385399682 0 0.29865627825459651 0.47102753385399682 0 0.27602637792525392 0.47399075783514849 0 0.27894096146472969 0.46273861206450562 0 0.29865627825459651 0.47102753385399682 0 0.28420565509458329 0.48834000783944181 0 0.27602637792525392 0.47399075783514849 0 0.29865627825459651 0.47102753385399682 0 0.27602637792525392 0.47399075783514849 0 0.30458508487733132 0.48793925830823959 0 0.29865627825459651 0.47102753385399682 0 0.28420565509458329 0.48834000783944181 0 0.30458508487733132 0.48793925830823959 0 0.29414980842284533 0.5 0 0.28420565509458329 0.48834000783944181 0 0.29414980842284533 0.5 0 0.28420565509458329 0.48834000783944181 0 0.26928934210709943 0.49999999999999928 0 0.26928934210709943 0.49999999999999928 0 0.27602637792525392 0.47399075783514849 0 0.26928934210709943 0.49999999999999928 0 0.27602637792525392 0.47399075783514849 0 0.26295744012280131 0.48683712860240042 0 0.28420565509458329 0.48834000783944181 0 0.26928934210709943 0.49999999999999928 0 0.27602637792525392 0.47399075783514849 0 0.27602637792525392 0.47399075783514849 0 0.2661208873989509 0.47528781114273821 0 0.27602637792525392 0.47399075783514849 0 0.2661208873989509 0.47528781114273821 0 0.26735325338128918 0.46709874874498758 0 0.27602637792525392 0.47399075783514849 0 0.2661208873989509 0.47528781114273821 0 0.26295744012280131 0.48683712860240042 0 0.2661208873989509 0.47528781114273821 0 0.25172960110999948 0.48246953972966722 0 0.26295744012280131 0.48683712860240042 0 0.2661208873989509 0.47528781114273821 0 0.25555056379770258 0.46864771481894579 0 0.26735325338128918 0.46709874874498758 0 0.2661208873989509 0.47528781114273821 0 0.25172960110999948 0.48246953972966722 0 0.25555056379770258 0.46864771481894579 0 0.24855223252474409 0.5 0 0.26928934210709943 0.49999999999999928 0 0.26295744012280131 0.48683712860240042 0 0.24855223252474409 0.5 0 0.25172960110999948 0.48246953972966722 0 0.26295744012280131 0.48683712860240042 0 0.24131399117488819 0.44691908366269367 0 0.26012747631980893 0.45482884786359967 0 0.24131399117488819 0.44691908366269367 0 0.26012747631980893 0.45482884786359967 0 0.26030715934879761 0.43325051146766608 0 0.26012747631980893 0.45482884786359967 0 0.27057363101015708 0.44953002785008789 0 0.26030715934879761 0.43325051146766608 0 0.24502420890889409 0.46004077709308971 0 0.25555056379770258 0.46864771481894579 0 0.26012747631980893 0.45482884786359967 0 0.25555056379770258 0.46864771481894579 0 0.26012747631980893 0.45482884786359967 0 0.26735325338128918 0.46709874874498758 0 0.26012747631980893 0.45482884786359967 0 0.27894096146472969 0.46273861206450562 0 0.27057363101015708 0.44953002785008789 0 0.26012747631980893 0.45482884786359967 0 0.26735325338128918 0.46709874874498758 0 0.27894096146472969 0.46273861206450562 0 0.26012747631980893 0.45482884786359967 0 0.27894096146472969 0.46273861206450562 0 0.27602637792525392 0.47399075783514849 0 0.27894096146472969 0.46273861206450562 0 0.27602637792525392 0.47399075783514849 0 0.26735325338128918 0.46709874874498758 0 0.27894096146472969 0.46273861206450562 0 0.27894096146472969 0.46273861206450562 0 0.28228283691204642 0.44983684782573102 0 0.27894096146472969 0.46273861206450562 0 0.27057363101015708 0.44953002785008789 0 0.28228283691204642 0.44983684782573102 0 0.27057363101015708 0.44953002785008789 0 0.27391577041644222 0.43939054185118892 0 0.26030715934879761 0.43325051146766608 0 0.27057363101015708 0.44953002785008789 0 0.27391577041644222 0.43939054185118892 0 0.28228283691204642 0.44983684782573102 0 0.27391577041644222 0.43939054185118892 0 0.28282295801992552 0.43967096664509409 0 0.28228283691204642 0.44983684782573102 0 0.28282295801992552 0.43967096664509409 0 0.29320239630487149 0.44245569565205228 0 0.28723710123470181 0.4332609660991214 0 0.28282295801992552 0.43967096664509409 0 0.28228283691204642 0.44983684782573102 0 0.29320239630487149 0.44245569565205228 0 0.29320239630487149 0.44245569565205228 0 0.29354405265997119 0.45577290489706412 0 0.30370725396466502 0.44721194553233962 0 0.28228283691204642 0.44983684782573102 0 0.29320239630487149 0.44245569565205228 0 0.29354405265997119 0.45577290489706412 0 0.29865627825459651 0.47102753385399682 0 0.27894096146472969 0.46273861206450562 0 0.29865627825459651 0.47102753385399682 0 0.27894096146472969 0.46273861206450562 0 0.29354405265997119 0.45577290489706412 0 0.27894096146472969 0.46273861206450562 0 0.28228283691204642 0.44983684782573102 0 0.29354405265997119 0.45577290489706412 0 0.32111711556193662 0.46808644746929151 0 0.29865627825459651 0.47102753385399682 0 0.30689213545377181 0.45890868430395798 0 0.29865627825459651 0.47102753385399682 0 0.29354405265997119 0.45577290489706412 0 0.30689213545377181 0.45890868430395798 0 0.29354405265997119 0.45577290489706412 0 0.30689213545377181 0.45890868430395798 0 0.30370725396466502 0.44721194553233962 0 0.29320239630487149 0.44245569565205228 0 0.30370725396466502 0.44721194553233962 0 0.30409509973607302 0.43724530516892912 0 0.31743597682768998 0.45244458976709778 0 0.31567806248071628 0.43943026677449221 0 0.30370725396466502 0.44721194553233962 0 0.31743597682768998 0.45244458976709778 0 0.30689213545377181 0.45890868430395798 0 0.30370725396466502 0.44721194553233962 0 0.31567806248071628 0.43943026677449221 0 0.30370725396466502 0.44721194553233962 0 0.30409509973607302 0.43724530516892912 0 0.31567806248071628 0.43943026677449221 0 0.30968444992324379 0.42647143236204588 0 0.30409509973607302 0.43724530516892912 0 0.30968444992324379 0.42647143236204588 0 0.29820333600686788 0.43065718552371562 0 0.30176951038703859 0.41931096634927523 0 0.29820333600686788 0.43065718552371562 0 0.30176951038703859 0.41931096634927523 0 0.29292151356026269 0.42516424129976182 0 0.30968444992324379 0.42647143236204588 0 0.30409509973607302 0.43724530516892912 0 0.29820333600686788 0.43065718552371562 0 0.29320239630487149 0.44245569565205228 0 0.30409509973607302 0.43724530516892912 0 0.29820333600686788 0.43065718552371562 0 0.30176951038703859 0.41931096634927523 0 0.32094986060876879 0.4115970740661653 0 0.30176951038703859 0.41931096634927523 0 0.30864839517743969 0.40587570506854681 0 0.32094986060876879 0.4115970740661653 0 0.30968444992324379 0.42647143236204588 0 0.30176951038703859 0.41931096634927523 0 0.32094986060876879 0.4115970740661653 0 0.30176951038703859 0.41931096634927523 0 0.29760074735645009 0.41016270555695872 0 0.29225363880175881 0.41670382441247839 0 0.30176951038703859 0.41931096634927523 0 0.29760074735645009 0.41016270555695872 0 0.30864839517743969 0.40587570506854681 0 0.29225363880175881 0.41670382441247839 0 0.27316715717461021 0.42005076244088219 0 0.29225363880175881 0.41670382441247839 0 0.28010002506970322 0.42360651535067562 0 0.27316715717461021 0.42005076244088219 0 0.29225363880175881 0.41670382441247839 0 0.28238216608887218 0.41225465647531551 0 0.27316715717461021 0.42005076244088219 0 0.29760074735645009 0.41016270555695872 0 0.28935021997006249 0.41002796005105319 0 0.29147798928276553 0.40427096512258021 0 0.29760074735645009 0.41016270555695872 0 0.28935021997006249 0.41002796005105319 0 0.29225363880175881 0.41670382441247839 0 0.30176951038703859 0.41931096634927523 0 0.29225363880175881 0.41670382441247839 0 0.29292151356026269 0.42516424129976182 0 0.28935021997006249 0.41002796005105319 0 0.29225363880175881 0.41670382441247839 0 0.28238216608887218 0.41225465647531551 0 0.28935021997006249 0.41002796005105319 0 0.28238216608887218 0.41225465647531551 0 0.2846820396136871 0.40599856891494018 0 0.28935021997006249 0.41002796005105319 0 0.2846820396136871 0.40599856891494018 0 0.29147798928276553 0.40427096512258021 0 0.29320239630487149 0.44245569565205228 0 0.29820333600686788 0.43065718552371562 0 0.28723710123470181 0.4332609660991214 0 0.29820333600686788 0.43065718552371562 0 0.29292151356026269 0.42516424129976182 0 0.28723710123470181 0.4332609660991214 0 0.29225363880175881 0.41670382441247839 0 0.29292151356026269 0.42516424129976182 0 0.28514398137094621 0.42588826411421848 0 0.29225363880175881 0.41670382441247839 0 0.28514398137094621 0.42588826411421848 0 0.28010002506970322 0.42360651535067562 0 0.29292151356026269 0.42516424129976182 0 0.28514398137094621 0.42588826411421848 0 0.28723710123470181 0.4332609660991214 0 0.28282295801992552 0.43967096664509409 0 0.28723710123470181 0.4332609660991214 0 0.27763390738234589 0.43085977520387231 0 0.28514398137094621 0.42588826411421848 0 0.28723710123470181 0.4332609660991214 0 0.27763390738234589 0.43085977520387231 0 0.27391577041644222 0.43939054185118892 0 0.27763390738234589 0.43085977520387231 0 0.27103956944161001 0.43200769477616341 0 0.27391577041644222 0.43939054185118892 0 0.28282295801992552 0.43967096664509409 0 0.27763390738234589 0.43085977520387231 0 0.27391577041644222 0.43939054185118892 0 0.27103956944161001 0.43200769477616341 0 0.26030715934879761 0.43325051146766608 0 0.27103956944161001 0.43200769477616341 0 0.27230144061885447 0.4245299505819265 0 0.26030715934879761 0.43325051146766608 0 0.27230144061885447 0.4245299505819265 0 0.27316715717461021 0.42005076244088219 0 0.27230144061885447 0.4245299505819265 0 0.28010002506970322 0.42360651535067562 0 0.27316715717461021 0.42005076244088219 0 0.27763390738234589 0.43085977520387231 0 0.27103956944161001 0.43200769477616341 0 0.27230144061885447 0.4245299505819265 0 0.27763390738234589 0.43085977520387231 0 0.27230144061885447 0.4245299505819265 0 0.28010002506970322 0.42360651535067562 0 0.28514398137094621 0.42588826411421848 0 0.27763390738234589 0.43085977520387231 0 0.28010002506970322 0.42360651535067562 0 0.28238216608887218 0.41225465647531551 0 0.27316715717461021 0.42005076244088219 0 0.27623887267763242 0.40415781045526428 0 0.27316715717461021 0.42005076244088219 0 0.27623887267763242 0.40415781045526428 0 0.27316715717461021 0.42005076244088219 0 0.26346455022531717 0.4089955876167124 0 0.27623887267763242 0.40415781045526428 0 0.28238216608887218 0.41225465647531551 0 0.27623887267763242 0.40415781045526428 0 0.2846820396136871 0.40599856891494018 0 0.24841498317654909 0.4243912162792588 0 0.27316715717461021 0.42005076244088219 0 0.25217688592437781 0.41268766619691122 0 0.27316715717461021 0.42005076244088219 0 0.26346455022531717 0.4089955876167124 0 0.25217688592437781 0.41268766619691122 0 0.26346455022531717 0.4089955876167124 0 0.25217688592437781 0.41268766619691122 0 0.252914075246371 0.40133046553089918 0 0.24841498317654909 0.4243912162792588 0 0.27230144061885447 0.4245299505819265 0 0.27316715717461021 0.42005076244088219 0 0.24841498317654909 0.4243912162792588 0 0.27316715717461021 0.42005076244088219 0 0.24841498317654909 0.4243912162792588 0 0.24131399117488819 0.44691908366269367 0 0.26030715934879761 0.43325051146766608 0 0.24841498317654909 0.4243912162792588 0 0.27230144061885447 0.4245299505819265 0 0.26030715934879761 0.43325051146766608 0 0.25475526109715069 0.38986989456895249 0 0.26564059006039131 0.39262797214920803 0 0.25624437599770439 0.37334353110294588 0 0.24389665858449111 0.38576801651335552 0 0.25475526109715069 0.38986989456895249 0 0.25624437599770439 0.37334353110294588 0 0.24389665858449111 0.38576801651335552 0 0.25475526109715069 0.38986989456895249 0 0.252914075246371 0.40133046553089918 0 0.25475526109715069 0.38986989456895249 0 0.252914075246371 0.40133046553089918 0 0.26196372350248398 0.40076502077825932 0 0.26346455022531717 0.4089955876167124 0 0.252914075246371 0.40133046553089918 0 0.26196372350248398 0.40076502077825932 0 0.25475526109715069 0.38986989456895249 0 0.26196372350248398 0.40076502077825932 0 0.26564059006039131 0.39262797214920803 0 0.26564059006039131 0.39262797214920803 0 0.27623887267763242 0.40415781045526428 0 0.27931058818065341 0.38826485846964609 0 0.27623887267763242 0.40415781045526428 0 0.27931058818065341 0.38826485846964609 0 0.27623887267763242 0.40415781045526428 0 0.27931058818065341 0.38826485846964609 0 0.28396095004910288 0.39928145247048757 0 0.26346455022531717 0.4089955876167124 0 0.26196372350248398 0.40076502077825932 0 0.27623887267763242 0.40415781045526428 0 0.26196372350248398 0.40076502077825932 0 0.26564059006039131 0.39262797214920803 0 0.27623887267763242 0.40415781045526428 0 0.27931058818065341 0.38826485846964609 0 0.28307201503430313 0.36880336331370939 0 0.27931058818065341 0.38826485846964609 0 0.25624437599770439 0.37334353110294588 0 0.26564059006039131 0.39262797214920803 0 0.27931058818065341 0.38826485846964609 0 0.25624437599770439 0.37334353110294588 0 0.27931058818065341 0.38826485846964609 0 0.28307201503430313 0.36880336331370939 0 0.25624437599770439 0.37334353110294588 0 0.27931058818065341 0.38826485846964609 0 0.28872785321564493 0.3807260693936394 0 0.28307201503430313 0.36880336331370939 0 0.28872785321564493 0.3807260693936394 0 0.29234401962166601 0.38928478103511222 0 0.28571255026176312 0.39240623076102249 0 0.27931058818065341 0.38826485846964609 0 0.28872785321564493 0.3807260693936394 0 0.28571255026176312 0.39240623076102249 0 0.27931058818065341 0.38826485846964609 0 0.28571255026176312 0.39240623076102249 0 0.28872785321564493 0.3807260693936394 0 0.29234401962166601 0.38928478103511222 0 0.29900111175616839 0.38624492909515601 0 0.28872785321564493 0.3807260693936394 0 0.29764887155040448 0.3750812277780986 0 0.29900111175616839 0.38624492909515601 0 0.27623887267763242 0.40415781045526428 0 0.2846820396136871 0.40599856891494018 0 0.28396095004910288 0.39928145247048757 0 0.2846820396136871 0.40599856891494018 0 0.28396095004910288 0.39928145247048757 0 0.29147798928276553 0.40427096512258021 0 0.28396095004910288 0.39928145247048757 0 0.28571255026176312 0.39240623076102249 0 0.29384702845329241 0.39645839927939858 0 0.27931058818065341 0.38826485846964609 0 0.28396095004910288 0.39928145247048757 0 0.28571255026176312 0.39240623076102249 0 0.29234401962166601 0.38928478103511222 0 0.29384702845329241 0.39645839927939858 0 0.29900111175616839 0.38624492909515601 0 0.29234401962166601 0.38928478103511222 0 0.28571255026176312 0.39240623076102249 0 0.29384702845329241 0.39645839927939858 0 0.29384702845329241 0.39645839927939858 0 0.29147798928276553 0.40427096512258021 0 0.30163003012880107 0.40115038074449427 0 0.28396095004910288 0.39928145247048757 0 0.29384702845329241 0.39645839927939858 0 0.29147798928276553 0.40427096512258021 0 0.29760074735645009 0.41016270555695872 0 0.30163003012880107 0.40115038074449427 0 0.30864839517743969 0.40587570506854681 0 0.29760074735645009 0.41016270555695872 0 0.29147798928276553 0.40427096512258021 0 0.30163003012880107 0.40115038074449427 0 0.29384702845329241 0.39645839927939858 0 0.30163003012880107 0.40115038074449427 0 0.30646991506860932 0.39326297982554143 0 0.29384702845329241 0.39645839927939858 0 0.30646991506860932 0.39326297982554143 0 0.29900111175616839 0.38624492909515601 0 0.30646991506860932 0.39326297982554143 0 0.30864839517743969 0.40587570506854681 0 0.31853432070716209 0.3942910694072842 0 0.30163003012880107 0.40115038074449427 0 0.30646991506860932 0.39326297982554143 0 0.30864839517743969 0.40587570506854681 0 0.29764887155040448 0.3750812277780986 0 0.29900111175616839 0.38624492909515601 0 0.31017375759590632 0.37875340230612708 0 0.30646991506860932 0.39326297982554143 0 0.31017375759590632 0.37875340230612708 0 0.31853432070716209 0.3942910694072842 0 0.30646991506860932 0.39326297982554143 0 0.29900111175616839 0.38624492909515601 0 0.31017375759590632 0.37875340230612708 0 0.32576897673280131 0.38314150879315922 0 0.33643098048573372 0.3911564767102847 0 0.31853432070716209 0.3942910694072842 0 0.31017375759590632 0.37875340230612708 0 0.32576897673280131 0.38314150879315922 0 0.31827681764070348 0.36508481895332839 0 0.31017375759590632 0.37875340230612708 0 0.32576897673280131 0.38314150879315922 0 0.31853432070716209 0.3942910694072842 0 0.33643098048573372 0.3911564767102847 0 0.35191210036269871 0.37071587935440392 0 0.3323763896313004 0.37172078504650868 0 0.32576897673280131 0.38314150879315922 0 0.33643098048573372 0.3911564767102847 0 0.3323763896313004 0.37172078504650868 0 0.33643098048573372 0.3911564767102847 0 0.32094986060876879 0.4115970740661653 0 0.32094986060876879 0.4115970740661653 0 0.347906316137923 0.40075581246861858 0 0.33643098048573372 0.3911564767102847 0 0.32094986060876879 0.4115970740661653 0 0.347906316137923 0.40075581246861858 0 0.30864839517743969 0.40587570506854681 0 0.31853432070716209 0.3942910694072842 0 0.32094986060876879 0.4115970740661653 0 0.33643098048573372 0.3911564767102847 0 0.31853432070716209 0.3942910694072842 0 0.32094986060876879 0.4115970740661653 0 0.30968444992324379 0.42647143236204588 0 0.32094986060876879 0.4115970740661653 0 0.31567806248071628 0.43943026677449221 0 0.30968444992324379 0.42647143236204588 0 0.32573586144523842 0.4277070912722038 0 0.30968444992324379 0.42647143236204588 0 0.32094986060876879 0.4115970740661653 0 0.32573586144523842 0.4277070912722038 0 0.32847368315517489 0.44250138865551453 0 0.31567806248071628 0.43943026677449221 0 0.32573586144523842 0.4277070912722038 0 0.32847368315517489 0.44250138865551453 0 0.32573586144523842 0.4277070912722038 0 0.33754975553801558 0.43354991765073408 0 0.32573586144523842 0.4277070912722038 0 0.33754975553801558 0.43354991765073408 0 0.34094533703013352 0.42019437670321319 0 0.32094986060876879 0.4115970740661653 0 0.32573586144523842 0.4277070912722038 0 0.34094533703013352 0.42019437670321319 0 0.32094986060876879 0.4115970740661653 0 0.34094533703013352 0.42019437670321319 0 0.347906316137923 0.40075581246861858 0 0.34094533703013352 0.42019437670321319 0 0.35757505238683979 0.41582412405380359 0 0.347906316137923 0.40075581246861858 0 0.33754975553801558 0.43354991765073408 0 0.34094533703013352 0.42019437670321319 0 0.35671319946618091 0.4318912509952535 0 0.3424906606602317 0.44684205033447821 0 0.33754975553801558 0.43354991765073408 0 0.35671319946618091 0.4318912509952535 0 0.34094533703013352 0.42019437670321319 0 0.35757505238683979 0.41582412405380359 0 0.35671319946618091 0.4318912509952535 0 0.35671319946618091 0.4318912509952535 0 0.37545881922518831 0.41498188991123097 0 0.37690062581237332 0.43627968954933488 0 0.35757505238683979 0.41582412405380359 0 0.35671319946618091 0.4318912509952535 0 0.37545881922518831 0.41498188991123097 0 0.35757505238683979 0.41582412405380359 0 0.37486277166707721 0.38991455087107191 0 0.37545881922518831 0.41498188991123097 0 0.37486277166707721 0.38991455087107191 0 0.347906316137923 0.40075581246861858 0 0.37486277166707721 0.38991455087107191 0 0.35805751750718762 0.38592163227501691 0 0.347906316137923 0.40075581246861858 0 0.35757505238683979 0.41582412405380359 0 0.37486277166707721 0.38991455087107191 0 0.347906316137923 0.40075581246861858 0 0.37486277166707721 0.38991455087107191 0 0.35805751750718762 0.38592163227501691 0 0.38006561938374028 0.36932935093942532 0 0.35805751750718762 0.38592163227501691 0 0.35191210036269871 0.37071587935440392 0 0.38006561938374028 0.36932935093942532 0 0.33643098048573372 0.3911564767102847 0 0.35805751750718762 0.38592163227501691 0 0.35191210036269871 0.37071587935440392 0 0.33643098048573372 0.3911564767102847 0 0.35191210036269871 0.37071587935440392 0 0.33643098048573372 0.3911564767102847 0 0.35805751750718762 0.38592163227501691 0 0.347906316137923 0.40075581246861858 0 0.35191210036269871 0.37071587935440392 0 0.36739322023966348 0.35027528199852309 0 0.33814576092890808 0.35342808749453092 0 0.36739322023966348 0.35027528199852309 0 0.35345304673213768 0.33674925574513143 0 0.33814576092890808 0.35342808749453092 0 0.35191210036269871 0.37071587935440392 0 0.36739322023966348 0.35027528199852309 0 0.35191210036269871 0.37071587935440392 0 0.36739322023966348 0.35027528199852309 0 0.38006561938374028 0.36932935093942532 0 0.35995093166792158 0.31805278867931502 0 0.35345304673213768 0.33674925574513143 0 0.38211123268095859 0.33254797782701312 0 0.36739322023966348 0.35027528199852309 0 0.35345304673213768 0.33674925574513143 0 0.38211123268095859 0.33254797782701312 0 0.35995093166792158 0.31805278867931502 0 0.37544467820731142 0.29764030856417822 0 0.38211123268095859 0.33254797782701312 0 0.35995093166792158 0.31805278867931502 0 0.35345304673213768 0.33674925574513143 0 0.34078205744641399 0.31682997470122332 0 0.35345304673213768 0.33674925574513143 0 0.32911663614135678 0.33257390104929252 0 0.33814576092890808 0.35342808749453092 0 0.35345304673213768 0.33674925574513143 0 0.32911663614135678 0.33257390104929252 0 0.34078205744641399 0.31682997470122332 0 0.32911663614135678 0.33257390104929252 0 0.34078205744641399 0.31682997470122332 0 0.31586041334298948 0.31249104036651809 0 0.32911663614135678 0.33257390104929252 0 0.31174866196680551 0.33074679314013727 0 0.31586041334298948 0.31249104036651809 0 0.32911663614135678 0.33257390104929252 0 0.31657859499390428 0.34648821095997628 0 0.31174866196680551 0.33074679314013727 0 0.31657859499390428 0.34648821095997628 0 0.33814576092890808 0.35342808749453092 0 0.31827681764070348 0.36508481895332839 0 0.32911663614135678 0.33257390104929252 0 0.31657859499390428 0.34648821095997628 0 0.33814576092890808 0.35342808749453092 0 0.35191210036269871 0.37071587935440392 0 0.33814576092890808 0.35342808749453092 0 0.3323763896313004 0.37172078504650868 0 0.33814576092890808 0.35342808749453092 0 0.3323763896313004 0.37172078504650868 0 0.31827681764070348 0.36508481895332839 0 0.32576897673280131 0.38314150879315922 0 0.3323763896313004 0.37172078504650868 0 0.31827681764070348 0.36508481895332839 0 0.31017375759590632 0.37875340230612708 0 0.31827681764070348 0.36508481895332839 0 0.30029525651356159 0.3626229100238299 0 0.29764887155040448 0.3750812277780986 0 0.31017375759590632 0.37875340230612708 0 0.30029525651356159 0.3626229100238299 0 0.31657859499390428 0.34648821095997628 0 0.31827681764070348 0.36508481895332839 0 0.30029525651356159 0.3626229100238299 0 0.31657859499390428 0.34648821095997628 0 0.30029525651356159 0.3626229100238299 0 0.30021300937299628 0.34052627403723751 0 0.30029525651356159 0.3626229100238299 0 0.28683344188795251 0.34934186815777291 0 0.30021300937299628 0.34052627403723751 0 0.28683344188795251 0.34934186815777291 0 0.28307201503430313 0.36880336331370939 0 0.30029525651356159 0.3626229100238299 0 0.28683344188795251 0.34934186815777291 0 0.28307201503430313 0.36880336331370939 0 0.29764887155040448 0.3750812277780986 0 0.30029525651356159 0.3626229100238299 0 0.28307201503430313 0.36880336331370939 0 0.28872785321564493 0.3807260693936394 0 0.29764887155040448 0.3750812277780986 0 0.28307201503430313 0.36880336331370939 0 0.28307201503430313 0.36880336331370939 0 0.26978669012341228 0.35614139470622252 0 0.25624437599770439 0.37334353110294588 0 0.28683344188795251 0.34934186815777291 0 0.26978669012341228 0.35614139470622252 0 0.26942769623318702 0.33765183843685248 0 0.28683344188795251 0.34934186815777291 0 0.28307201503430313 0.36880336331370939 0 0.26978669012341228 0.35614139470622252 0 0.26978669012341228 0.35614139470622252 0 0.25248066312555761 0.35471214092788489 0 0.26942769623318702 0.33765183843685248 0 0.26978669012341228 0.35614139470622252 0 0.25248066312555761 0.35471214092788489 0 0.25624437599770439 0.37334353110294588 0 0.24961685989573831 0.30873847525730141 0 0.24298945884259771 0.32260938587607951 0 0.26375251223511648 0.31599532411300091 0 0.24846533802493659 0.3372087639246224 0 0.24298945884259771 0.32260938587607951 0 0.26375251223511648 0.31599532411300091 0 0.24846533802493659 0.3372087639246224 0 0.26375251223511648 0.31599532411300091 0 0.24846533802493659 0.3372087639246224 0 0.25248066312555761 0.35471214092788489 0 0.26942769623318702 0.33765183843685248 0 0.24846533802493659 0.3372087639246224 0 0.26375251223511648 0.31599532411300091 0 0.26942769623318702 0.33765183843685248 0 0.28683344188795251 0.34934186815777291 0 0.26942769623318702 0.33765183843685248 0 0.28678554172278781 0.33388395786122688 0 0.26942769623318702 0.33765183843685248 0 0.28047890513702278 0.32024526938660991 0 0.28678554172278781 0.33388395786122688 0 0.26375251223511648 0.31599532411300091 0 0.26942769623318702 0.33765183843685248 0 0.28047890513702278 0.32024526938660991 0 0.26375251223511648 0.31599532411300091 0 0.28047890513702278 0.32024526938660991 0 0.27881887445363851 0.30250515613377671 0 0.28047890513702278 0.32024526938660991 0 0.29697465598278061 0.32165453928766202 0 0.28657127442342978 0.3113756714475624 0 0.28047890513702278 0.32024526938660991 0 0.28678554172278781 0.33388395786122688 0 0.29697465598278061 0.32165453928766202 0 0.29697465598278061 0.32165453928766202 0 0.29556463482070122 0.30632280031717207 0 0.28657127442342978 0.3113756714475624 0 0.28678554172278781 0.33388395786122688 0 0.30021300937299628 0.34052627403723751 0 0.29697465598278061 0.32165453928766202 0 0.28683344188795251 0.34934186815777291 0 0.28678554172278781 0.33388395786122688 0 0.30021300937299628 0.34052627403723751 0 0.31657859499390428 0.34648821095997628 0 0.31174866196680551 0.33074679314013727 0 0.30021300937299628 0.34052627403723751 0 0.31174866196680551 0.33074679314013727 0 0.30021300937299628 0.34052627403723751 0 0.29697465598278061 0.32165453928766202 0 0.31174866196680551 0.33074679314013727 0 0.29697465598278061 0.32165453928766202 0 0.31586041334298948 0.31249104036651809 0 0.29697465598278061 0.32165453928766202 0 0.29556463482070122 0.30632280031717207 0 0.31586041334298948 0.31249104036651809 0 0.29957824376423009 0.28962292484965663 0 0.29556463482070122 0.30632280031717207 0 0.31677959847507198 0.29483145986327269 0 0.29556463482070122 0.30632280031717207 0 0.31677959847507198 0.29483145986327269 0 0.31586041334298948 0.31249104036651809 0 0.29957824376423009 0.28962292484965663 0 0.32033761307482178 0.27674069356553649 0 0.29957824376423009 0.28962292484965663 0 0.32033761307482178 0.27674069356553649 0 0.31677959847507198 0.29483145986327269 0 0.29957824376423009 0.28962292484965663 0 0.27881887445363851 0.30250515613377671 0 0.29957824376423009 0.28962292484965663 0 0.27881887445363851 0.30250515613377671 0 0.27903968644529648 0.2947818843013793 0 0.29957824376423009 0.28962292484965663 0 0.28673117159567379 0.28424552549616661 0 0.2960033628715289 0.27147249874854801 0 0.29957824376423009 0.28962292484965663 0 0.28673117159567379 0.28424552549616661 0 0.27903968644529648 0.2947818843013793 0 0.28673117159567379 0.28424552549616661 0 0.27903968644529648 0.2947818843013793 0 0.27847855102508129 0.28581155346209031 0 0.29957824376423009 0.28962292484965663 0 0.29556463482070122 0.30632280031717207 0 0.27881887445363851 0.30250515613377671 0 0.28047890513702278 0.32024526938660991 0 0.28657127442342978 0.3113756714475624 0 0.27881887445363851 0.30250515613377671 0 0.29556463482070122 0.30632280031717207 0 0.28657127442342978 0.3113756714475624 0 0.27881887445363851 0.30250515613377671 0 0.26375251223511648 0.31599532411300091 0 0.27881887445363851 0.30250515613377671 0 0.27903968644529648 0.2947818843013793 0 0.26375251223511648 0.31599532411300091 0 0.26719585520845668 0.29897726422267218 0 0.27903968644529648 0.2947818843013793 0 0.26375251223511648 0.31599532411300091 0 0.27903968644529648 0.2947818843013793 0 0.27903968644529648 0.2947818843013793 0 0.27847855102508129 0.28581155346209031 0 0.26798562673556048 0.28735969208980061 0 0.28673117159567379 0.28424552549616661 0 0.27847855102508129 0.28581155346209031 0 0.27839904758165701 0.27611331742459738 0 0.27847855102508129 0.28581155346209031 0 0.26798562673556048 0.28735969208980061 0 0.27839904758165701 0.27611331742459738 0 0.26719585520845668 0.29897726422267218 0 0.27903968644529648 0.2947818843013793 0 0.26798562673556048 0.28735969208980061 0 0.26798562673556048 0.28735969208980061 0 0.25168040627867022 0.28489417946397078 0 0.25800559541785328 0.29777215638650789 0 0.24090865690401669 0.29671589577026741 0 0.25168040627867022 0.28489417946397078 0 0.25800559541785328 0.29777215638650789 0 0.26798562673556048 0.28735969208980061 0 0.25168040627867022 0.28489417946397078 0 0.26135740901130278 0.27597681519671369 0 0.26719585520845668 0.29897726422267218 0 0.26798562673556048 0.28735969208980061 0 0.25800559541785328 0.29777215638650789 0 0.24961685989573831 0.30873847525730141 0 0.26375251223511648 0.31599532411300091 0 0.25800559541785328 0.29777215638650789 0 0.26375251223511648 0.31599532411300091 0 0.26719585520845668 0.29897726422267218 0 0.25800559541785328 0.29777215638650789 0 0.257474772974012 0.26326896932235011 0 0.26980408210870821 0.26636148040734819 0 0.26622002360442448 0.25243984376066608 0 0.25421322039033012 0.25011983010618499 0 0.257474772974012 0.26326896932235011 0 0.26622002360442448 0.25243984376066608 0 0.2462911328595512 0.25813819144323402 0 0.25421322039033012 0.25011983010618499 0 0.257474772974012 0.26326896932235011 0 0.24784470446055051 0.270369817975116 0 0.2462911328595512 0.25813819144323402 0 0.257474772974012 0.26326896932235011 0 0.24784470446055051 0.270369817975116 0 0.257474772974012 0.26326896932235011 0 0.26135740901130278 0.27597681519671369 0 0.24784470446055051 0.270369817975116 0 0.25168040627867022 0.28489417946397078 0 0.26135740901130278 0.27597681519671369 0 0.257474772974012 0.26326896932235011 0 0.26135740901130278 0.27597681519671369 0 0.26980408210870821 0.26636148040734819 0 0.26980408210870821 0.26636148040734819 0 0.27839904758165701 0.27611331742459738 0 0.2809419486960506 0.25963357256390279 0 0.26798562673556048 0.28735969208980061 0 0.26135740901130278 0.27597681519671369 0 0.27839904758165701 0.27611331742459738 0 0.26135740901130278 0.27597681519671369 0 0.26980408210870821 0.26636148040734819 0 0.27839904758165701 0.27611331742459738 0 0.2809419486960506 0.25963357256390279 0 0.26622002360442448 0.25243984376066608 0 0.28059146717311512 0.24366402070067791 0 0.26980408210870821 0.26636148040734819 0 0.2809419486960506 0.25963357256390279 0 0.26622002360442448 0.25243984376066608 0 0.2809419486960506 0.25963357256390279 0 0.2965666488762293 0.25172381677544559 0 0.28059146717311512 0.24366402070067791 0 0.2809419486960506 0.25963357256390279 0 0.2965666488762293 0.25172381677544559 0 0.2960033628715289 0.27147249874854801 0 0.28673117159567379 0.28424552549616661 0 0.27839904758165701 0.27611331742459738 0 0.2960033628715289 0.27147249874854801 0 0.27839904758165701 0.27611331742459738 0 0.2809419486960506 0.25963357256390279 0 0.2960033628715289 0.27147249874854801 0 0.29957824376423009 0.28962292484965663 0 0.2960033628715289 0.27147249874854801 0 0.32033761307482178 0.27674069356553649 0 0.2960033628715289 0.27147249874854801 0 0.31449953507627998 0.25881948986149311 0 0.32033761307482178 0.27674069356553649 0 0.2965666488762293 0.25172381677544559 0 0.2960033628715289 0.27147249874854801 0 0.31449953507627998 0.25881948986149311 0 0.2965666488762293 0.25172381677544559 0 0.31449953507627998 0.25881948986149311 0 0.309780111023994 0.24361163266558519 0 0.31449953507627998 0.25881948986149311 0 0.34109698238541353 0.26385846228141641 0 0.3275727375344048 0.24525602491545151 0 0.34109698238541353 0.26385846228141641 0 0.3275727375344048 0.24525602491545151 0 0.34451217634681058 0.24619425716160009 0 0.34109698238541353 0.26385846228141641 0 0.32033761307482178 0.27674069356553649 0 0.33659447921593111 0.28372898205062469 0 0.34109698238541353 0.26385846228141641 0 0.32033761307482178 0.27674069356553649 0 0.31449953507627998 0.25881948986149311 0 0.34109698238541353 0.26385846228141641 0 0.32033761307482178 0.27674069356553649 0 0.32033761307482178 0.27674069356553649 0 0.31677959847507198 0.29483145986327269 0 0.33659447921593111 0.28372898205062469 0 0.31677959847507198 0.29483145986327269 0 0.31586041334298948 0.31249104036651809 0 0.33267603961491049 0.30093316250444219 0 0.34078205744641399 0.31682997470122332 0 0.31586041334298948 0.31249104036651809 0 0.33267603961491049 0.30093316250444219 0 0.34078205744641399 0.31682997470122332 0 0.33267603961491049 0.30093316250444219 0 0.35363527717916832 0.30017969986264059 0 0.33267603961491049 0.30093316250444219 0 0.33659447921593111 0.28372898205062469 0 0.35363527717916832 0.30017969986264059 0 0.31677959847507198 0.29483145986327269 0 0.33267603961491049 0.30093316250444219 0 0.33659447921593111 0.28372898205062469 0 0.33659447921593111 0.28372898205062469 0 0.35363527717916832 0.30017969986264059 0 0.35391324339575331 0.28033697217569398 0 0.35995093166792158 0.31805278867931502 0 0.34078205744641399 0.31682997470122332 0 0.35363527717916832 0.30017969986264059 0 0.35995093166792158 0.31805278867931502 0 0.35363527717916832 0.30017969986264059 0 0.37544467820731142 0.29764030856417822 0 0.35391324339575331 0.28033697217569398 0 0.37544467820731142 0.29764030856417822 0 0.35363527717916832 0.30017969986264059 0 0.35391324339575331 0.28033697217569398 0 0.37544467820731142 0.29764030856417822 0 0.3726814211069297 0.26994360278422452 0 0.35391324339575331 0.28033697217569398 0 0.37544467820731142 0.29764030856417822 0 0.3726814211069297 0.26994360278422452 0 0.36185635169600527 0.25097623099729632 0 0.35391324339575331 0.28033697217569398 0 0.3726814211069297 0.26994360278422452 0 0.36185635169600527 0.25097623099729632 0 0.37636476700360411 0.25356382796969262 0 0.34109698238541353 0.26385846228141641 0 0.36185635169600527 0.25097623099729632 0 0.35391324339575331 0.28033697217569398 0 0.34109698238541353 0.26385846228141641 0 0.36185635169600527 0.25097623099729632 0 0.34109698238541353 0.26385846228141641 0 0.36185635169600527 0.25097623099729632 0 0.34451217634681058 0.24619425716160009 0 0.34109698238541353 0.26385846228141641 0 0.33659447921593111 0.28372898205062469 0 0.35391324339575331 0.28033697217569398 0 0.39399542740317473 0.27238895705497213 0 0.40455138821377679 0.25667138028689518 0 0.41881727607077079 0.27373006479502821 0 0.40455138821377679 0.25667138028689518 0 0.38830557420488471 0.25524147838407418 0 0.39332254021852348 0.24487070095830471 0 0.39399542740317473 0.27238895705497213 0 0.40455138821377679 0.25667138028689518 0 0.38830557420488471 0.25524147838407418 0 0.39399542740317473 0.27238895705497213 0 0.38830557420488471 0.25524147838407418 0 0.3726814211069297 0.26994360278422452 0 0.38830557420488471 0.25524147838407418 0 0.37636476700360411 0.25356382796969262 0 0.3726814211069297 0.26994360278422452 0 0.39399542740317473 0.27238895705497213 0 0.39240459973521929 0.29066003767948301 0 0.3726814211069297 0.26994360278422452 0 0.39399542740317473 0.27238895705497213 0 0.38830557420488471 0.25524147838407418 0 0.3726814211069297 0.26994360278422452 0 0.37544467820731142 0.29764030856417822 0 0.39240459973521929 0.29066003767948301 0 0.37544467820731142 0.29764030856417822 0 0.39697611301886959 0.31494364495266242 0 0.37544467820731142 0.29764030856417822 0 0.39240459973521929 0.29066003767948301 0 0.39697611301886959 0.31494364495266242 0 0.39240459973521929 0.29066003767948301 0 0.41064140960931023 0.29260474471982473 0 0.39697611301886959 0.31494364495266242 0 0.39399542740317473 0.27238895705497213 0 0.39240459973521929 0.29066003767948301 0 0.41064140960931023 0.29260474471982473 0 0.41064140960931023 0.29260474471982473 0 0.42840914400227742 0.30750800989669008 0 0.39697611301886959 0.31494364495266242 0 0.41064140960931023 0.29260474471982473 0 0.43582395223715509 0.2854209893429922 0 0.41881727607077079 0.27373006479502821 0 0.41064140960931023 0.29260474471982473 0 0.42840914400227742 0.30750800989669008 0 0.43582395223715509 0.2854209893429922 0 0.43582395223715509 0.2854209893429922 0 0.41881727607077079 0.27373006479502821 0 0.44408400125468322 0.26570174749936037 0 0.39399542740317473 0.27238895705497213 0 0.41064140960931023 0.29260474471982473 0 0.41881727607077079 0.27373006479502821 0 0.40455138821377679 0.25667138028689518 0 0.4228684862923151 0.25332179165355478 0 0.4099990250929918 0.2404752888754374 0 0.40455138821377679 0.25667138028689518 0 0.41881727607077079 0.27373006479502821 0 0.4228684862923151 0.25332179165355478 0 0.41881727607077079 0.27373006479502821 0 0.4228684862923151 0.25332179165355478 0 0.44408400125468322 0.26570174749936037 0 0.44408400125468322 0.26570174749936037 0 0.46230728882809141 0.25281003656542128 0 0.44570869596409107 0.24482962705539521 0 0.4228684862923151 0.25332179165355478 0 0.44408400125468322 0.26570174749936037 0 0.44570869596409107 0.24482962705539521 0 0.43582395223715509 0.2854209893429922 0 0.44408400125468322 0.26570174749936037 0 0.4572159681581035 0.28140180809377591 0 0.44408400125468322 0.26570174749936037 0 0.46584634123225549 0.26839791498935578 0 0.4572159681581035 0.28140180809377591 0 0.47860798407905192 0.2773826268445595 0 0.4572159681581035 0.28140180809377591 0 0.46584634123225549 0.26839791498935578 0 0.47860798407905192 0.2773826268445595 0 0.4572159681581035 0.28140180809377591 0 0.44408400125468322 0.26570174749936037 0 0.46584634123225549 0.26839791498935578 0 0.46230728882809141 0.25281003656542128 0 0.46584634123225549 0.26839791498935578 0 0.46230728882809141 0.25281003656542128 0 0.48016303729476689 0.26059860211145652 0 0.46230728882809141 0.25281003656542128 0 0.48016303729476689 0.26059860211145652 0 0.47718607119399858 0.24514461198193049 0 0.46584634123225549 0.26839791498935578 0 0.48016303729476689 0.26059860211145652 0 0.47860798407905192 0.2773826268445595 0 0.48016303729476689 0.26059860211145652 0 0.47860798407905192 0.2773826268445595 0 0.50000000000000022 0.27336344559534309 0 0.47860798407905192 0.2773826268445595 0 0.50000000000000022 0.27336344559534309 0 0.49180834173809912 0.2897149424172728 0 0.47860798407905192 0.2773826268445595 0 0.50000000000000022 0.27336344559534309 0 0.48016303729476689 0.26059860211145652 0 0.5 0.24672959946047651 0 0.47718607119399858 0.24514461198193049 0 0.48016303729476689 0.26059860211145652 0 0.50000000000000022 0.27336344559534309 0 0.5 0.24672959946047651 0 0.5 0.29823813088997669 0 0.49180834173809912 0.2897149424172728 0 0.4817290336432466 0.31542784631755327 0 0.5 0.29823813088997669 0 0.4817290336432466 0.31542784631755327 0 0.5 0.32311281618461052 0 0.49180834173809912 0.2897149424172728 0 0.4817290336432466 0.31542784631755327 0 0.50000000000000022 0.27336344559534309 0 0.5 0.29823813088997669 0 0.49180834173809912 0.2897149424172728 0 0.47860798407905192 0.2773826268445595 0 0.49180834173809912 0.2897149424172728 0 0.47185583179478358 0.29622575279040481 0 0.47860798407905192 0.2773826268445595 0 0.47185583179478358 0.29622575279040481 0 0.4572159681581035 0.28140180809377591 0 0.47185583179478358 0.29622575279040481 0 0.46344507121189882 0.31696975787821441 0 0.4817290336432466 0.31542784631755327 0 0.49180834173809912 0.2897149424172728 0 0.47185583179478358 0.29622575279040481 0 0.4817290336432466 0.31542784631755327 0 0.47185583179478358 0.29622575279040481 0 0.45115497127109649 0.29986799004409981 0 0.46344507121189882 0.31696975787821441 0 0.45115497127109649 0.29986799004409981 0 0.44819580218861288 0.31661096714785392 0 0.46344507121189882 0.31696975787821441 0 0.47185583179478358 0.29622575279040481 0 0.4572159681581035 0.28140180809377591 0 0.45115497127109649 0.29986799004409981 0 0.43582395223715509 0.2854209893429922 0 0.4572159681581035 0.28140180809377591 0 0.43582395223715509 0.2854209893429922 0 0.4572159681581035 0.28140180809377591 0 0.45115497127109649 0.29986799004409981 0 0.42840914400227742 0.30750800989669008 0 0.45115497127109649 0.29986799004409981 0 0.44819580218861288 0.31661096714785392 0 0.42840914400227742 0.30750800989669008 0 0.43582395223715509 0.2854209893429922 0 0.45115497127109649 0.29986799004409981 0 0.42840914400227742 0.30750800989669008 0 0.44819580218861288 0.31661096714785392 0 0.43796617464597509 0.33062812729089441 0 0.44819580218861288 0.31661096714785392 0 0.43796617464597509 0.33062812729089441 0 0.45394194978671909 0.33383853368715521 0 0.43796617464597509 0.33062812729089441 0 0.45394194978671909 0.33383853368715521 0 0.44003898264198582 0.34955031772963069 0 0.45394194978671909 0.33383853368715521 0 0.47164972554839413 0.34114075021783391 0 0.45716056756061302 0.35029305183444059 0 0.45394194978671909 0.33383853368715521 0 0.46344507121189882 0.31696975787821441 0 0.47164972554839413 0.34114075021783391 0 0.44819580218861288 0.31661096714785392 0 0.45394194978671909 0.33383853368715521 0 0.46344507121189882 0.31696975787821441 0 0.46344507121189882 0.31696975787821441 0 0.4817290336432466 0.31542784631755327 0 0.47164972554839413 0.34114075021783391 0 0.4817290336432466 0.31542784631755327 0 0.47164972554839413 0.34114075021783391 0 0.4817290336432466 0.31542784631755327 0 0.47164972554839413 0.34114075021783391 0 0.48756147037476538 0.331877606317248 0 0.47164972554839413 0.34114075021783391 0 0.48756147037476538 0.331877606317248 0 0.5 0.34798750147924418 0 0.48756147037476538 0.331877606317248 0 0.5 0.32311281618461052 0 0.5 0.34798750147924418 0 0.4817290336432466 0.31542784631755327 0 0.48756147037476538 0.331877606317248 0 0.5 0.32311281618461052 0 0.5 0.37286218677387789 0 0.5 0.34798750147924418 0 0.48280107034574099 0.36222787113647731 0 0.5 0.37286218677387789 0 0.48280107034574099 0.36222787113647731 0 0.48078520872676722 0.38229526309331502 0 0.47164972554839413 0.34114075021783391 0 0.5 0.34798750147924418 0 0.48280107034574099 0.36222787113647731 0 0.47164972554839413 0.34114075021783391 0 0.48280107034574099 0.36222787113647731 0 0.46157041745354349 0.36685365411811538 0 0.46157041745354349 0.36685365411811538 0 0.48078520872676722 0.38229526309331502 0 0.48280107034574099 0.36222787113647731 0 0.46157041745354349 0.36685365411811538 0 0.48078520872676722 0.38229526309331502 0 0.46157041745354349 0.36685365411811538 0 0.45852427624057618 0.37462453834335829 0 0.46443318435729158 0.3808837337843114 0 0.46157041745354349 0.36685365411811538 0 0.45852427624057618 0.37462453834335829 0 0.4460147790086183 0.36592032468252078 0 0.46157041745354349 0.36685365411811538 0 0.45852427624057618 0.37462453834335829 0 0.47164972554839413 0.34114075021783391 0 0.46157041745354349 0.36685365411811538 0 0.47164972554839413 0.34114075021783391 0 0.46157041745354349 0.36685365411811538 0 0.45716056756061302 0.35029305183444059 0 0.46157041745354349 0.36685365411811538 0 0.45716056756061302 0.35029305183444059 0 0.44003898264198582 0.34955031772963069 0 0.46157041745354349 0.36685365411811538 0 0.44003898264198582 0.34955031772963069 0 0.45394194978671909 0.33383853368715521 0 0.45716056756061302 0.35029305183444059 0 0.44003898264198582 0.34955031772963069 0 0.46157041745354349 0.36685365411811538 0 0.44003898264198582 0.34955031772963069 0 0.4460147790086183 0.36592032468252078 0 0.44003898264198582 0.34955031772963069 0 0.4460147790086183 0.36592032468252078 0 0.4325893461585873 0.37495847541418159 0 0.45852427624057618 0.37462453834335829 0 0.4460147790086183 0.36592032468252078 0 0.44669421545054511 0.37696579432920713 0 0.4460147790086183 0.36592032468252078 0 0.4325893461585873 0.37495847541418159 0 0.44669421545054511 0.37696579432920713 0 0.44003898264198582 0.34955031772963069 0 0.4325893461585873 0.37495847541418159 0 0.41376904018032251 0.36195998601339319 0 0.4325893461585873 0.37495847541418159 0 0.41376904018032251 0.36195998601339319 0 0.41777724232460223 0.38227970146018719 0 0.41376904018032251 0.36195998601339319 0 0.40181922719623131 0.37907328927352529 0 0.41777724232460223 0.38227970146018719 0 0.41376904018032251 0.36195998601339319 0 0.41850754783042782 0.33224698134114661 0 0.39628440422177791 0.35071383624014202 0 0.44003898264198582 0.34955031772963069 0 0.41376904018032251 0.36195998601339319 0 0.41850754783042782 0.33224698134114661 0 0.44003898264198582 0.34955031772963069 0 0.41850754783042782 0.33224698134114661 0 0.42840914400227742 0.30750800989669008 0 0.41850754783042782 0.33224698134114661 0 0.39697611301886959 0.31494364495266242 0 0.43796617464597509 0.33062812729089441 0 0.44003898264198582 0.34955031772963069 0 0.41850754783042782 0.33224698134114661 0 0.42840914400227742 0.30750800989669008 0 0.43796617464597509 0.33062812729089441 0 0.41850754783042782 0.33224698134114661 0 0.41850754783042782 0.33224698134114661 0 0.39697611301886959 0.31494364495266242 0 0.41850754783042782 0.33224698134114661 0 0.39697611301886959 0.31494364495266242 0 0.38211123268095859 0.33254797782701312 0 0.37544467820731142 0.29764030856417822 0 0.39697611301886959 0.31494364495266242 0 0.38211123268095859 0.33254797782701312 0 0.41850754783042782 0.33224698134114661 0 0.38211123268095859 0.33254797782701312 0 0.39628440422177791 0.35071383624014202 0 0.36739322023966348 0.35027528199852309 0 0.38006561938374028 0.36932935093942532 0 0.39628440422177791 0.35071383624014202 0 0.36739322023966348 0.35027528199852309 0 0.38211123268095859 0.33254797782701312 0 0.39628440422177791 0.35071383624014202 0 0.38006561938374028 0.36932935093942532 0 0.39798457274551802 0.36526911561662151 0 0.39628440422177791 0.35071383624014202 0 0.41376904018032251 0.36195998601339319 0 0.39798457274551802 0.36526911561662151 0 0.40181922719623131 0.37907328927352529 0 0.38006561938374028 0.36932935093942532 0 0.39798457274551802 0.36526911561662151 0 0.40181922719623131 0.37907328927352529 0 0.41376904018032251 0.36195998601339319 0 0.39798457274551802 0.36526911561662151 0 0.39628440422177791 0.35071383624014202 0 0.39084818431165702 0.39943120979303171 0 0.40369339433449852 0.41375558206365343 0 0.40790578140853151 0.3920056730625931 0 0.39084818431165702 0.39943120979303171 0 0.40181922719623131 0.37907328927352529 0 0.40790578140853151 0.3920056730625931 0 0.37486277166707721 0.38991455087107191 0 0.40181922719623131 0.37907328927352529 0 0.37486277166707721 0.38991455087107191 0 0.38006561938374028 0.36932935093942532 0 0.40181922719623131 0.37907328927352529 0 0.37486277166707721 0.38991455087107191 0 0.39084818431165702 0.39943120979303171 0 0.40181922719623131 0.37907328927352529 0 0.37486277166707721 0.38991455087107191 0 0.39084818431165702 0.39943120979303171 0 0.37545881922518831 0.41498188991123097 0 0.39084818431165702 0.39943120979303171 0 0.38934884263320407 0.41832297749605529 0 0.37545881922518831 0.41498188991123097 0 0.38934884263320407 0.41832297749605529 0 0.37690062581237332 0.43627968954933488 0 0.393647816504889 0.43135973835123143 0 0.38934884263320407 0.41832297749605529 0 0.37545881922518831 0.41498188991123097 0 0.37690062581237332 0.43627968954933488 0 0.393647816504889 0.43135973835123143 0 0.40755164177553921 0.43291664354494291 0 0.39114757398071942 0.44553250574781172 0 0.393647816504889 0.43135973835123143 0 0.40369339433449852 0.41375558206365343 0 0.40755164177553921 0.43291664354494291 0 0.39084818431165702 0.39943120979303171 0 0.38934884263320407 0.41832297749605529 0 0.40369339433449852 0.41375558206365343 0 0.38934884263320407 0.41832297749605529 0 0.393647816504889 0.43135973835123143 0 0.40369339433449852 0.41375558206365343 0 0.40369339433449852 0.41375558206365343 0 0.41914786652969432 0.41116581089150978 0 0.41982119966431852 0.4259328421359283 0 0.40755164177553921 0.43291664354494291 0 0.41982119966431852 0.4259328421359283 0 0.41784987452244088 0.44372132348948301 0 0.40369339433449852 0.41375558206365343 0 0.40755164177553921 0.43291664354494291 0 0.41982119966431852 0.4259328421359283 0 0.41982119966431852 0.4259328421359283 0 0.43307070335747738 0.4357302959902738 0 0.41784987452244088 0.44372132348948301 0 0.41982119966431852 0.4259328421359283 0 0.43307070335747738 0.4357302959902738 0 0.43515770700081918 0.42058641901900362 0 0.41914786652969432 0.41116581089150978 0 0.43515770700081918 0.42058641901900362 0 0.43280281667933868 0.40340108353724302 0 0.41914786652969432 0.41116581089150978 0 0.41982119966431852 0.4259328421359283 0 0.43515770700081918 0.42058641901900362 0 0.41914786652969432 0.41116581089150978 0 0.43280281667933868 0.40340108353724302 0 0.40790578140853151 0.3920056730625931 0 0.40369339433449852 0.41375558206365343 0 0.41914786652969432 0.41116581089150978 0 0.40790578140853151 0.3920056730625931 0 0.43280281667933868 0.40340108353724302 0 0.40790578140853151 0.3920056730625931 0 0.43280281667933868 0.40340108353724302 0 0.40790578140853151 0.3920056730625931 0 0.41777724232460223 0.38227970146018719 0 0.40181922719623131 0.37907328927352529 0 0.40790578140853151 0.3920056730625931 0 0.41777724232460223 0.38227970146018719 0 0.4325893461585873 0.37495847541418159 0 0.43280281667933868 0.40340108353724302 0 0.41777724232460223 0.38227970146018719 0 0.4325893461585873 0.37495847541418159 0 0.44669421545054511 0.37696579432920713 0 0.44768697956960612 0.39098972236556723 0 0.4325893461585873 0.37495847541418159 0 0.43280281667933868 0.40340108353724302 0 0.44768697956960612 0.39098972236556723 0 0.44669421545054511 0.37696579432920713 0 0.44768697956960612 0.39098972236556723 0 0.45727268411303629 0.38581358903781149 0 0.43280281667933868 0.40340108353724302 0 0.44768697956960612 0.39098972236556723 0 0.45769985195014601 0.414796494011893 0 0.46401333525253502 0.39483162432895708 0 0.47822434041952622 0.4039249198251279 0 0.45769985195014601 0.414796494011893 0 0.44768697956960612 0.39098972236556723 0 0.46401333525253502 0.39483162432895708 0 0.45769985195014601 0.414796494011893 0 0.44768697956960612 0.39098972236556723 0 0.46401333525253502 0.39483162432895708 0 0.45727268411303629 0.38581358903781149 0 0.45852427624057618 0.37462453834335829 0 0.45727268411303629 0.38581358903781149 0 0.46443318435729158 0.3808837337843114 0 0.45852427624057618 0.37462453834335829 0 0.44669421545054511 0.37696579432920713 0 0.45727268411303629 0.38581358903781149 0 0.46401333525253502 0.39483162432895708 0 0.45727268411303629 0.38581358903781149 0 0.46443318435729158 0.3808837337843114 0 0.46401333525253502 0.39483162432895708 0 0.46443318435729158 0.3808837337843114 0 0.48078520872676722 0.38229526309331502 0 0.46157041745354349 0.36685365411811538 0 0.46443318435729158 0.3808837337843114 0 0.48078520872676722 0.38229526309331502 0 0.46401333525253502 0.39483162432895708 0 0.48078520872676722 0.38229526309331502 0 0.47822434041952622 0.4039249198251279 0 0.48078520872676722 0.38229526309331502 0 0.47822434041952622 0.4039249198251279 0 0.49999999999999312 0.3977368720685116 0 0.48078520872676722 0.38229526309331502 0 0.49999999999999312 0.3977368720685116 0 0.5 0.37286218677387789 0 0.48078520872676722 0.38229526309331502 0 0.49999999999999312 0.3977368720685116 0 0.49999999999999312 0.3977368720685116 0 0.48259688722095329 0.42619190448654298 0 0.5 0.45686297636881212 0 0.47822434041952622 0.4039249198251279 0 0.49999999999999312 0.3977368720685116 0 0.48259688722095329 0.42619190448654298 0 0.47822434041952622 0.4039249198251279 0 0.48259688722095329 0.42619190448654298 0 0.45769985195014601 0.414796494011893 0 0.48259688722095329 0.42619190448654298 0 0.45769985195014601 0.414796494011893 0 0.48259688722095329 0.42619190448654298 0 0.46436050514260629 0.43355711544547382 0 0.47687101442029778 0.44210658867308528 0 0.46436050514260629 0.43355711544547382 0 0.45769985195014601 0.414796494011893 0 0.44840380382394041 0.43249198754717377 0 0.48259688722095329 0.42619190448654298 0 0.46436050514260629 0.43355711544547382 0 0.45769985195014601 0.414796494011893 0 0.46436050514260629 0.43355711544547382 0 0.44840380382394041 0.43249198754717377 0 0.45292476510453578 0.44271340961829869 0 0.43280281667933868 0.40340108353724302 0 0.45769985195014601 0.414796494011893 0 0.43515770700081918 0.42058641901900362 0 0.43280281667933868 0.40340108353724302 0 0.45769985195014601 0.414796494011893 0 0.43515770700081918 0.42058641901900362 0 0.45769985195014601 0.414796494011893 0 0.44840380382394041 0.43249198754717377 0 0.43307070335747738 0.4357302959902738 0 0.43515770700081918 0.42058641901900362 0 0.44840380382394041 0.43249198754717377 0 0.43307070335747738 0.4357302959902738 0 0.44840380382394041 0.43249198754717377 0 0.44222888331920113 0.44405337357052083 0 0.44222888331920113 0.44405337357052083 0 0.44358162562612419 0.45605602994030509 0 0.43202167769828731 0.4507152153367579 0 0.44222888331920113 0.44405337357052083 0 0.45292476510453578 0.44271340961829869 0 0.44358162562612419 0.45605602994030509 0 0.44840380382394041 0.43249198754717377 0 0.44222888331920113 0.44405337357052083 0 0.45292476510453578 0.44271340961829869 0 0.44358162562612419 0.45605602994030509 0 0.45960496459582678 0.46417645987526268 0 0.44380417894164309 0.46950433545013248 0 0.45960496459582678 0.46417645987526268 0 0.46604900761080692 0.44740854158802001 0 0.47620008200603681 0.47105329433654441 0 0.44358162562612419 0.45605602994030509 0 0.45960496459582678 0.46417645987526268 0 0.46604900761080692 0.44740854158802001 0 0.45292476510453578 0.44271340961829869 0 0.44358162562612419 0.45605602994030509 0 0.46604900761080692 0.44740854158802001 0 0.44358162562612419 0.45605602994030509 0 0.46604900761080692 0.44740854158802001 0 0.46436050514260629 0.43355711544547382 0 0.45292476510453578 0.44271340961829869 0 0.46604900761080692 0.44740854158802001 0 0.46436050514260629 0.43355711544547382 0 0.46604900761080692 0.44740854158802001 0 0.47687101442029778 0.44210658867308528 0 0.47687101442029778 0.44210658867308528 0 0.5 0.45686297636881212 0 0.47620008200603681 0.47105329433654441 0 0.47687101442029778 0.44210658867308528 0 0.47620008200603681 0.47105329433654441 0 0.46604900761080692 0.44740854158802001 0 0.47687101442029778 0.44210658867308528 0 0.47620008200603681 0.47105329433654441 0 0.48259688722095329 0.42619190448654298 0 0.47687101442029778 0.44210658867308528 0 0.5 0.45686297636881212 0 0.5 0.45686297636881212 0 0.5 0.5 0 0.48793230789945308 0.48197906767633908 0 0.5 0.5 0 0.48793230789945308 0.48197906767633908 0 0.47552914959177561 0.50000000000000366 0 0.5 0.45686297636881212 0 0.48793230789945308 0.48197906767633908 0 0.47620008200603681 0.47105329433654441 0 0.48793230789945308 0.48197906767633908 0 0.47620008200603681 0.47105329433654441 0 0.47552914959177561 0.50000000000000366 0 0.47620008200603681 0.47105329433654441 0 0.47552914959177561 0.50000000000000366 0 0.45737605375507612 0.48089742538044228 0 0.47620008200603681 0.47105329433654441 0 0.47552914959177561 0.50000000000000366 0 0.47552914959177561 0.50000000000000366 0 0.45737605375507612 0.48089742538044228 0 0.44821665762312679 0.5 0 0.45960496459582678 0.46417645987526268 0 0.47620008200603681 0.47105329433654441 0 0.45737605375507612 0.48089742538044228 0 0.45960496459582678 0.46417645987526268 0 0.45737605375507612 0.48089742538044228 0 0.44380417894164309 0.46950433545013248 0 0.45737605375507612 0.48089742538044228 0 0.44380417894164309 0.46950433545013248 0 0.43734400708974719 0.48168824376206232 0 0.45737605375507612 0.48089742538044228 0 0.44821665762312679 0.5 0 0.43734400708974719 0.48168824376206232 0 0.42090416565447802 0.5 0 0.42167884376232539 0.48218588030023679 0 0.43734400708974719 0.48168824376206232 0 0.44821665762312679 0.5 0 0.42090416565447802 0.5 0 0.43734400708974719 0.48168824376206232 0 0.42090416565447802 0.5 0 0.40735295866363502 0.48235175914629441 0 0.42167884376232539 0.48218588030023679 0 0.42090416565447802 0.5 0 0.40735295866363502 0.48235175914629441 0 0.39359167368582898 0.49999999999999872 0 0.40735295866363502 0.48235175914629441 0 0.42111424364144151 0.46470351829259038 0 0.39461243574757809 0.47490382001145193 0 0.42111424364144151 0.46470351829259038 0 0.39461243574757809 0.47490382001145193 0 0.40735295866363502 0.48235175914629441 0 0.42167884376232539 0.48218588030023679 0 0.42111424364144151 0.46470351829259038 0 0.40735295866363502 0.48235175914629441 0 0.42111424364144151 0.46470351829259038 0 0.42167884376232539 0.48218588030023679 0 0.43734400708974719 0.48168824376206232 0 0.42111424364144151 0.46470351829259038 0 0.44380417894164309 0.46950433545013248 0 0.43734400708974719 0.48168824376206232 0 0.42111424364144151 0.46470351829259038 0 0.44358162562612419 0.45605602994030509 0 0.44380417894164309 0.46950433545013248 0 0.42111424364144151 0.46470351829259038 0 0.44358162562612419 0.45605602994030509 0 0.43202167769828731 0.4507152153367579 0 0.42111424364144151 0.46470351829259038 0 0.44358162562612419 0.45605602994030509 0 0.42111424364144151 0.46470351829259038 0 0.43202167769828731 0.4507152153367579 0 0.42111424364144151 0.46470351829259038 0 0.43202167769828731 0.4507152153367579 0 0.41784987452244088 0.44372132348948301 0 0.42111424364144151 0.46470351829259038 0 0.43307070335747738 0.4357302959902738 0 0.44222888331920113 0.44405337357052083 0 0.43202167769828731 0.4507152153367579 0 0.43307070335747738 0.4357302959902738 0 0.43202167769828731 0.4507152153367579 0 0.41784987452244088 0.44372132348948301 0 0.40755164177553921 0.43291664354494291 0 0.41784987452244088 0.44372132348948301 0 0.40405427303296371 0.45226938142235618 0 0.41784987452244088 0.44372132348948301 0 0.42111424364144151 0.46470351829259038 0 0.40405427303296371 0.45226938142235618 0 0.42111424364144151 0.46470351829259038 0 0.40234756637589297 0.4633225970728147 0 0.40405427303296371 0.45226938142235618 0 0.42111424364144151 0.46470351829259038 0 0.40234756637589297 0.4633225970728147 0 0.39461243574757809 0.47490382001145193 0 0.40234756637589297 0.4633225970728147 0 0.40405427303296371 0.45226938142235618 0 0.38960931308158891 0.46141366856486049 0 0.40234756637589297 0.4633225970728147 0 0.38960931308158891 0.46141366856486049 0 0.39461243574757809 0.47490382001145193 0 0.40755164177553921 0.43291664354494291 0 0.39114757398071942 0.44553250574781172 0 0.40405427303296371 0.45226938142235618 0 0.39114757398071942 0.44553250574781172 0 0.40405427303296371 0.45226938142235618 0 0.38960931308158891 0.46141366856486049 0 0.37690062581237332 0.43627968954933488 0 0.39114757398071942 0.44553250574781172 0 0.37512177367696298 0.45895591305414518 0 0.37690062581237332 0.43627968954933488 0 0.393647816504889 0.43135973835123143 0 0.39114757398071942 0.44553250574781172 0 0.39114757398071942 0.44553250574781172 0 0.38960931308158891 0.46141366856486049 0 0.37512177367696298 0.45895591305414518 0 0.38960931308158891 0.46141366856486049 0 0.37512177367696298 0.45895591305414518 0 0.38289335638182981 0.47181242392840878 0 0.37018046279026501 0.47805084372952139 0 0.37512177367696298 0.45895591305414518 0 0.38289335638182981 0.47181242392840878 0 0.38960931308158891 0.46141366856486049 0 0.38289335638182981 0.47181242392840878 0 0.39461243574757809 0.47490382001145193 0 0.38289335638182981 0.47181242392840878 0 0.38494279661275388 0.48573787428206489 0 0.39461243574757809 0.47490382001145193 0 0.37018046279026501 0.47805084372952139 0 0.38289335638182981 0.47181242392840878 0 0.38494279661275388 0.48573787428206489 0 0.36873120737008308 0.5 0 0.38494279661275388 0.48573787428206489 0 0.39359167368582898 0.49999999999999872 0 0.40735295866363502 0.48235175914629441 0 0.38494279661275388 0.48573787428206489 0 0.39359167368582898 0.49999999999999872 0 0.40735295866363502 0.48235175914629441 0 0.39359167368582898 0.49999999999999872 0 0.40735295866363502 0.48235175914629441 0 0.38494279661275388 0.48573787428206489 0 0.39461243574757809 0.47490382001145193 0 0.33352028226985431 0.090119207785541444 0 0.34657515999274219 0.094385042028696645 0 0.34531571522834831 0.074785522443184996 0 0.33352028226985431 0.090119207785541444 0 0.32312461521401242 0.077402607050093233 0 0.34531571522834831 0.074785522443184996 0 0.32312461521401242 0.077402607050093233 0 0.34531571522834831 0.074785522443184996 0 0.33446655575743472 0.047652532151898679 0 0.32312461521401242 0.077402607050093233 0 0.31061177173603349 0.058572172252160881 0 0.30434371664035548 0.077761147227659491 0 0.32312461521401242 0.077402607050093233 0 0.31061177173603349 0.058572172252160881 0 0.32312461521401242 0.077402607050093233 0 0.31145134884318221 0.08759403204634135 0 0.30434371664035548 0.077761147227659491 0 0.32312461521401242 0.077402607050093233 0 0.3209937184345017 0.092450356298595895 0 0.31145134884318221 0.08759403204634135 0 0.33352028226985431 0.090119207785541444 0 0.3209937184345017 0.092450356298595895 0 0.32890529999758122 0.098238231799854803 0 0.33352028226985431 0.090119207785541444 0 0.32312461521401242 0.077402607050093233 0 0.3209937184345017 0.092450356298595895 0 0.3209937184345017 0.092450356298595895 0 0.31145134884318221 0.08759403204634135 0 0.30652465220607023 0.097100259631785146 0 0.32433367470186369 0.1072766899877738 0 0.30652465220607023 0.097100259631785146 0 0.3209937184345017 0.092450356298595895 0 0.32433367470186369 0.1072766899877738 0 0.30652465220607023 0.097100259631785146 0 0.33118606038579479 0.114977610307874 0 0.30922620340601231 0.1110762725420283 0 0.30525112257551762 0.1003416642464236 0 0.32433367470186369 0.1072766899877738 0 0.33118606038579479 0.114977610307874 0 0.30525112257551762 0.1003416642464236 0 0.33118606038579479 0.114977610307874 0 0.30525112257551762 0.1003416642464236 0 0.3209937184345017 0.092450356298595895 0 0.32433367470186369 0.1072766899877738 0 0.32890529999758122 0.098238231799854803 0 0.31569058735429972 0.11724024770867431 0 0.33118606038579479 0.114977610307874 0 0.30922620340601231 0.1110762725420283 0 0.31569058735429972 0.11724024770867431 0 0.32300225620775658 0.1225337689545158 0 0.31395244580793752 0.12803880600780451 0 0.32300225620775658 0.1225337689545158 0 0.33118606038579479 0.114977610307874 0 0.32979145400193982 0.12636757476214061 0 0.31569058735429972 0.11724024770867431 0 0.32300225620775658 0.1225337689545158 0 0.33118606038579479 0.114977610307874 0 0.33118606038579479 0.114977610307874 0 0.3402130111099898 0.12927819269872909 0 0.35712099819607218 0.12961355636932451 0 0.33118606038579479 0.114977610307874 0 0.3402130111099898 0.12927819269872909 0 0.32979145400193982 0.12636757476214061 0 0.33118606038579479 0.114977610307874 0 0.33677352458410531 0.1031066731275081 0 0.34929168980133102 0.1100106297903477 0 0.33352028226985431 0.090119207785541444 0 0.32890529999758122 0.098238231799854803 0 0.33677352458410531 0.1031066731275081 0 0.32433367470186369 0.1072766899877738 0 0.32890529999758122 0.098238231799854803 0 0.33677352458410531 0.1031066731275081 0 0.32433367470186369 0.1072766899877738 0 0.33118606038579479 0.114977610307874 0 0.33677352458410531 0.1031066731275081 0 0.33352028226985431 0.090119207785541444 0 0.33677352458410531 0.1031066731275081 0 0.34657515999274219 0.094385042028696645 0 0.33677352458410531 0.1031066731275081 0 0.34657515999274219 0.094385042028696645 0 0.34929168980133102 0.1100106297903477 0 0.34657515999274219 0.094385042028696645 0 0.34929168980133102 0.1100106297903477 0 0.36016284416764371 0.10154570120728421 0 0.34929168980133102 0.1100106297903477 0 0.36298450455438419 0.1157431939465537 0 0.36016284416764371 0.10154570120728421 0 0.33118606038579479 0.114977610307874 0 0.34929168980133102 0.1100106297903477 0 0.35712099819607218 0.12961355636932451 0 0.33118606038579479 0.114977610307874 0 0.35712099819607218 0.12961355636932451 0 0.34929168980133102 0.1100106297903477 0 0.36298450455438419 0.1157431939465537 0 0.35712099819607218 0.12961355636932451 0 0.36298450455438419 0.1157431939465537 0 0.36016284416764371 0.10154570120728421 0 0.37875588668803689 0.1169754841774589 0 0.36298450455438419 0.1157431939465537 0 0.35712099819607218 0.12961355636932451 0 0.37875588668803689 0.1169754841774589 0 0.36016284416764371 0.10154570120728421 0 0.37194437105163669 0.090227953468852151 0 0.37875588668803689 0.1169754841774589 0 0.34657515999274219 0.094385042028696645 0 0.36016284416764371 0.10154570120728421 0 0.37194437105163669 0.090227953468852151 0 0.34657515999274219 0.094385042028696645 0 0.37194437105163669 0.090227953468852151 0 0.34531571522834831 0.074785522443184996 0 0.37194437105163669 0.090227953468852151 0 0.36513285541523671 0.063480422760245417 0 0.37714360225687033 0.074662844998703556 0 0.37194437105163669 0.090227953468852151 0 0.34531571522834831 0.074785522443184996 0 0.36513285541523671 0.063480422760245417 0 0.36513285541523671 0.063480422760245417 0 0.37714360225687033 0.074662844998703556 0 0.38028085903936792 0.058555013776169673 0 0.37194437105163669 0.090227953468852151 0 0.36513285541523671 0.063480422760245417 0 0.36513285541523671 0.063480422760245417 0 0.36838729724709168 0.047689693189821317 0 0.3583213397788369 0.036732892051638537 0 0.36513285541523671 0.063480422760245417 0 0.3583213397788369 0.036732892051638537 0 0.36513285541523671 0.063480422760245417 0 0.36838729724709168 0.047689693189821317 0 0.38028085903936792 0.058555013776169673 0 0.36838729724709168 0.047689693189821317 0 0.36961793171614221 0.031561823715653303 0 0.3583213397788369 0.036732892051638537 0 0.36838729724709168 0.047689693189821317 0 0.36961793171614221 0.031561823715653303 0 0.38028085903936792 0.058555013776169673 0 0.36961793171614221 0.031561823715653303 0 0.38028085903936792 0.058555013776169673 0 0.36961793171614221 0.031561823715653303 0 0.3583213397788369 0.036732892051638537 0 0.3583213397788369 0.036732892051638537 0 0.33903516774869841 0.027063418963827749 0 0.33446655575743472 0.047652532151898679 0 0.3583213397788369 0.036732892051638537 0 0.33446655575743472 0.047652532151898679 0 0.34531571522834831 0.074785522443184996 0 0.36513285541523671 0.063480422760245417 0 0.33446655575743472 0.047652532151898679 0 0.36513285541523671 0.063480422760245417 0 0.3583213397788369 0.036732892051638537 0 0.33446655575743472 0.047652532151898679 0 0.367426120563213 0.0011923754251482459 0 0.36769859598276772 0.01679057333599266 0 0.35107653077574552 0.0082839004274214839 0 0.367426120563213 0.0011923754251482459 0 0.36769859598276772 0.01679057333599266 0 0.37930030041949347 0.010092054012740419 0 0.36961793171614221 0.031561823715653303 0 0.3583213397788369 0.036732892051638537 0 0.36769859598276772 0.01679057333599266 0 0.36961793171614221 0.031561823715653303 0 0.36769859598276772 0.01679057333599266 0 0.38323450511353407 0.025328772904342128 0 0.3583213397788369 0.036732892051638537 0 0.35107653077574552 0.0082839004274214839 0 0.33903516774869841 0.027063418963827749 0 0.3583213397788369 0.036732892051638537 0 0.36769859598276772 0.01679057333599266 0 0.35107653077574552 0.0082839004274214839 0 0.3583213397788369 0.036732892051638537 0 0.35107653077574552 0.0082839004274214839 0 0.35107653077574552 0.0082839004274214839 0 0.32805118688364687 0.013175465829001811 0 0.32476018564880282 -0.0059557655257515144 0 0.35107653077574552 0.0082839004274214839 0 0.33903516774869841 0.027063418963827749 0 0.32805118688364687 0.013175465829001811 0 0.33903516774869841 0.027063418963827749 0 0.31969540072002778 0.02823221513421224 0 0.32805118688364687 0.013175465829001811 0 0.31969540072002778 0.02823221513421224 0 0.32805118688364687 0.013175465829001811 0 0.30568864952496 0.0082535601452990992 0 0.30568864952496 0.0082535601452990992 0 0.32476018564880282 -0.0059557655257515144 0 0.32805118688364687 0.013175465829001811 0 0.30568864952496 0.0082535601452990992 0 0.32476018564880282 -0.0059557655257515144 0 0.33903516774869841 0.027063418963827749 0 0.31969540072002778 0.02823221513421224 0 0.33446655575743472 0.047652532151898679 0 0.31969540072002778 0.02823221513421224 0 0.33446655575743472 0.047652532151898679 0 0.31061177173603349 0.058572172252160881 0 0.33446655575743472 0.047652532151898679 0 0.31061177173603349 0.058572172252160881 0 0.32312461521401242 0.077402607050093233 0 0.33446655575743472 0.047652532151898679 0 0.31061177173603349 0.058572172252160881 0 0.31061177173603349 0.058572172252160881 0 0.29861444256856379 0.040517529034262853 0 0.29075918947525742 0.067659785585983498 0 0.31061177173603349 0.058572172252160881 0 0.29861444256856379 0.040517529034262853 0 0.31969540072002778 0.02823221513421224 0 0.31061177173603349 0.058572172252160881 0 0.29861444256856379 0.040517529034262853 0 0.29861444256856379 0.040517529034262853 0 0.28661711340111712 0.022462885816349459 0 0.28087450175234963 0.045201433284843627 0 0.29861444256856379 0.040517529034262853 0 0.28661711340111712 0.022462885816349459 0 0.27322954104311692 0.058749696718715383 0 0.28087450175234963 0.045201433284843627 0 0.29075918947525742 0.067659785585983498 0 0.29861444256856379 0.040517529034262853 0 0.28087450175234963 0.045201433284843627 0 0.29075918947525742 0.067659785585983498 0 0.31969540072002778 0.02823221513421224 0 0.29861444256856379 0.040517529034262853 0 0.30302071177845119 0.02457611811427636 0 0.30568864952496 0.0082535601452990992 0 0.30302071177845119 0.02457611811427636 0 0.28661711340111712 0.022462885816349459 0 0.31969540072002778 0.02823221513421224 0 0.30568864952496 0.0082535601452990992 0 0.30302071177845119 0.02457611811427636 0 0.29861444256856379 0.040517529034262853 0 0.30302071177845119 0.02457611811427636 0 0.28661711340111712 0.022462885816349459 0 0.30568864952496 0.0082535601452990992 0 0.28661711340111712 0.022462885816349459 0 0.28661711340111712 0.022462885816349459 0 0.28943901284397561 0.0043087813462744521 0 0.27290296398581099 0.001824619476022873 0 0.30568864952496 0.0082535601452990992 0 0.28943901284397561 0.0043087813462744521 0 0.29265667154496888 -0.01210032114353716 0 0.30568864952496 0.0082535601452990992 0 0.28661711340111712 0.022462885816349459 0 0.28943901284397561 0.0043087813462744521 0 0.28661711340111712 0.022462885816349459 0 0.27290296398581099 0.001824619476022873 0 0.25762412804278623 0.01749275415485519 0 0.28661711340111712 0.022462885816349459 0 0.27290296398581099 0.001824619476022873 0 0.28661711340111712 0.022462885816349459 0 0.26545853699405808 0.038227169351321283 0 0.28661711340111712 0.022462885816349459 0 0.25762412804278623 0.01749275415485519 0 0.26545853699405808 0.038227169351321283 0 0.24555631408787959 0.033076231293803958 0 0.25762412804278623 0.01749275415485519 0 0.26545853699405808 0.038227169351321283 0 0.27290296398581099 0.001824619476022873 0 0.25762412804278623 0.01749275415485519 0 0.25584056744277112 -0.0017130667366374939 0 0.24063459591653041 0.0074870902855560884 0 0.25762412804278623 0.01749275415485519 0 0.25584056744277112 -0.0017130667366374939 0 0.26566601096823511 0.051241836186415902 0 0.27322954104311692 0.058749696718715383 0 0.28087450175234963 0.045201433284843627 0 0.27322954104311692 0.058749696718715383 0 0.26280696745515741 0.060137014834412528 0 0.27027387638572209 0.067272898229365857 0 0.26566601096823511 0.051241836186415902 0 0.27322954104311692 0.058749696718715383 0 0.26280696745515741 0.060137014834412528 0 0.28661711340111712 0.022462885816349459 0 0.28087450175234963 0.045201433284843627 0 0.26545853699405808 0.038227169351321283 0 0.26566601096823511 0.051241836186415902 0 0.28087450175234963 0.045201433284843627 0 0.26545853699405808 0.038227169351321283 0 0.24429996058699779 0.053991452886291709 0 0.26545853699405808 0.038227169351321283 0 0.24429996058699779 0.053991452886291709 0 0.24555631408787959 0.033076231293803958 0 0.26545853699405808 0.038227169351321283 0 0.24429996058699779 0.053991452886291709 0 0.26566601096823511 0.051241836186415902 0 0.26280696745515741 0.060137014834412528 0 0.24429996058699779 0.053991452886291709 0 0.26280696745515741 0.060137014834412528 0 0.26056544829171441 0.069429190151272469 0 0.24429996058699779 0.053991452886291709 0 0.26566601096823511 0.051241836186415902 0 0.26545853699405808 0.038227169351321283 0 0.24429996058699779 0.053991452886291709 0 0.26056544829171441 0.069429190151272469 0 0.25473487255354033 0.067506547460864375 0 0.27090660721448251 0.076747398919808391 0 0.24429996058699779 0.053991452886291709 0 0.25473487255354033 0.067506547460864375 0 0.26056544829171441 0.069429190151272469 0 0.25473487255354033 0.067506547460864375 0 0.26056544829171441 0.069429190151272469 0 0.27090660721448251 0.076747398919808391 0 0.24487990017332159 0.088661247044754365 0 0.25473487255354033 0.067506547460864375 0 0.27090660721448251 0.076747398919808391 0 0.26280696745515741 0.060137014834412528 0 0.26056544829171441 0.069429190151272469 0 0.27027387638572209 0.067272898229365857 0 0.24487990017332159 0.088661247044754365 0 0.27090660721448251 0.076747398919808391 0 0.24487990017332159 0.088661247044754365 0 0.27090660721448251 0.076747398919808391 0 0.26968237783122723 0.1021426490829387 0 0.27090660721448251 0.076747398919808391 0 0.28871562971027648 0.086923829275796477 0 0.26968237783122723 0.1021426490829387 0 0.27090660721448251 0.076747398919808391 0 0.28871562971027648 0.086923829275796477 0 0.27322954104311692 0.058749696718715383 0 0.27027387638572209 0.067272898229365857 0 0.29075918947525742 0.067659785585983498 0 0.27090660721448251 0.076747398919808391 0 0.29075918947525742 0.067659785585983498 0 0.27027387638572209 0.067272898229365857 0 0.27090660721448251 0.076747398919808391 0 0.29075918947525742 0.067659785585983498 0 0.26056544829171441 0.069429190151272469 0 0.27027387638572209 0.067272898229365857 0 0.27090660721448251 0.076747398919808391 0 0.29075918947525742 0.067659785585983498 0 0.28871562971027648 0.086923829275796477 0 0.30434371664035548 0.077761147227659491 0 0.27090660721448251 0.076747398919808391 0 0.29075918947525742 0.067659785585983498 0 0.28871562971027648 0.086923829275796477 0 0.28871562971027648 0.086923829275796477 0 0.30652465220607023 0.097100259631785146 0 0.28871562971027648 0.086923829275796477 0 0.30275883684997112 0.087344817045395609 0 0.30652465220607023 0.097100259631785146 0 0.28871562971027648 0.086923829275796477 0 0.30275883684997112 0.087344817045395609 0 0.30434371664035548 0.077761147227659491 0 0.30275883684997112 0.087344817045395609 0 0.31145134884318221 0.08759403204634135 0 0.30652465220607023 0.097100259631785146 0 0.30275883684997112 0.087344817045395609 0 0.31145134884318221 0.08759403204634135 0 0.30434371664035548 0.077761147227659491 0 0.31061177173603349 0.058572172252160881 0 0.29075918947525742 0.067659785585983498 0 0.31061177173603349 0.058572172252160881 0 0.29075918947525742 0.067659785585983498 0 0.30434371664035548 0.077761147227659491 0 0.29789397917651522 0.1129082861896436 0 0.30595084529435579 0.12061325655967189 0 0.30922620340601231 0.1110762725420283 0 0.29789397917651522 0.1129082861896436 0 0.30922620340601231 0.1110762725420283 0 0.30146030470212848 0.1069125725019484 0 0.29789397917651522 0.1129082861896436 0 0.30595084529435579 0.12061325655967189 0 0.29504643573847411 0.1239125062694071 0 0.31569058735429972 0.11724024770867431 0 0.30595084529435579 0.12061325655967189 0 0.31395244580793752 0.12803880600780451 0 0.31569058735429972 0.11724024770867431 0 0.30595084529435579 0.12061325655967189 0 0.30922620340601231 0.1110762725420283 0 0.30922620340601231 0.1110762725420283 0 0.30525112257551762 0.1003416642464236 0 0.30146030470212848 0.1069125725019484 0 0.32433367470186369 0.1072766899877738 0 0.30652465220607023 0.097100259631785146 0 0.30525112257551762 0.1003416642464236 0 0.30652465220607023 0.097100259631785146 0 0.30525112257551762 0.1003416642464236 0 0.29346991365046898 0.1033240670296984 0 0.30525112257551762 0.1003416642464236 0 0.30146030470212848 0.1069125725019484 0 0.29346991365046898 0.1033240670296984 0 0.29789397917651522 0.1129082861896436 0 0.30146030470212848 0.1069125725019484 0 0.29346991365046898 0.1033240670296984 0 0.29346991365046898 0.1033240670296984 0 0.28428001372231992 0.11707377961609471 0 0.26968237783122723 0.1021426490829387 0 0.28871562971027648 0.086923829275796477 0 0.30652465220607023 0.097100259631785146 0 0.29346991365046898 0.1033240670296984 0 0.28871562971027648 0.086923829275796477 0 0.29346991365046898 0.1033240670296984 0 0.26968237783122723 0.1021426490829387 0 0.29789397917651522 0.1129082861896436 0 0.29346991365046898 0.1033240670296984 0 0.28428001372231992 0.11707377961609471 0 0.29789397917651522 0.1129082861896436 0 0.28428001372231992 0.11707377961609471 0 0.29504643573847411 0.1239125062694071 0 0.28428001372231992 0.11707377961609471 0 0.26968237783122723 0.1021426490829387 0 0.26517191895859238 0.12386508283457071 0 0.2403526613891277 0.1184031388598471 0 0.24487990017332159 0.088661247044754365 0 0.26968237783122723 0.1021426490829387 0 0.2403526613891277 0.1184031388598471 0 0.26968237783122723 0.1021426490829387 0 0.26517191895859238 0.12386508283457071 0 0.2490797100873286 0.14227083668141521 0 0.26517191895859238 0.12386508283457071 0 0.26533450025146438 0.14702143492439321 0 0.2490797100873286 0.14227083668141521 0 0.26517191895859238 0.12386508283457071 0 0.2490797100873286 0.14227083668141521 0 0.2403526613891277 0.1184031388598471 0 0.26517191895859238 0.12386508283457071 0 0.28428001372231992 0.11707377961609471 0 0.26517191895859238 0.12386508283457071 0 0.28422928363144578 0.1390576131824833 0 0.26517191895859238 0.12386508283457071 0 0.26533450025146438 0.14702143492439321 0 0.28422928363144578 0.1390576131824833 0 0.26533450025146438 0.14702143492439321 0 0.27154925025050092 0.16762504236055961 0 0.28422928363144578 0.1390576131824833 0 0.2490797100873286 0.14227083668141521 0 0.26533450025146438 0.14702143492439321 0 0.2529989822304976 0.1585621632079868 0 0.2442222712976507 0.1733536933678313 0 0.2529989822304976 0.1585621632079868 0 0.27154925025050092 0.16762504236055961 0 0.26533450025146438 0.14702143492439321 0 0.2529989822304976 0.1585621632079868 0 0.27154925025050092 0.16762504236055961 0 0.2442222712976507 0.1733536933678313 0 0.27154925025050092 0.16762504236055961 0 0.2442222712976507 0.1733536933678313 0 0.27154925025050092 0.16762504236055961 0 0.25317992106129272 0.18846692460435269 0 0.27154925025050092 0.16762504236055961 0 0.25317992106129272 0.18846692460435269 0 0.27128024212838192 0.18937421325864859 0 0.27154925025050092 0.16762504236055961 0 0.28586542675027449 0.18321595569669741 0 0.27128024212838192 0.18937421325864859 0 0.28586542675027449 0.18321595569669741 0 0.29887622920335111 0.16189639135328801 0 0.30582322295673869 0.19544975348743979 0 0.27154925025050092 0.16762504236055961 0 0.29887622920335111 0.16189639135328801 0 0.29887622920335111 0.16189639135328801 0 0.30582322295673869 0.19544975348743979 0 0.3207478356761409 0.17587839705612179 0 0.27154925025050092 0.16762504236055961 0 0.28586542675027449 0.18321595569669741 0 0.29887622920335111 0.16189639135328801 0 0.29887622920335111 0.16189639135328801 0 0.30033453553708378 0.1438654316591578 0 0.31628749587432048 0.14166726443097799 0 0.30194513343921792 0.13284045766988201 0 0.31395244580793752 0.12803880600780451 0 0.31628749587432048 0.14166726443097799 0 0.30033453553708378 0.1438654316591578 0 0.30194513343921792 0.13284045766988201 0 0.31628749587432048 0.14166726443097799 0 0.30595084529435579 0.12061325655967189 0 0.30194513343921792 0.13284045766988201 0 0.31395244580793752 0.12803880600780451 0 0.30595084529435579 0.12061325655967189 0 0.29504643573847411 0.1239125062694071 0 0.30194513343921792 0.13284045766988201 0 0.30033453553708378 0.1438654316591578 0 0.30194513343921792 0.13284045766988201 0 0.28422928363144578 0.1390576131824833 0 0.29504643573847411 0.1239125062694071 0 0.30194513343921792 0.13284045766988201 0 0.28422928363144578 0.1390576131824833 0 0.28428001372231992 0.11707377961609471 0 0.29504643573847411 0.1239125062694071 0 0.28422928363144578 0.1390576131824833 0 0.27154925025050092 0.16762504236055961 0 0.29887622920335111 0.16189639135328801 0 0.28422928363144578 0.1390576131824833 0 0.29887622920335111 0.16189639135328801 0 0.30033453553708378 0.1438654316591578 0 0.28422928363144578 0.1390576131824833 0 0.28059146717311512 0.24366402070067791 0 0.26719816143785829 0.23785165896462299 0 0.28028801659397712 0.22954542023190039 0 0.26622002360442448 0.25243984376066608 0 0.28059146717311512 0.24366402070067791 0 0.26719816143785829 0.23785165896462299 0 0.25421322039033012 0.25011983010618499 0 0.26622002360442448 0.25243984376066608 0 0.26016568023347569 0.24444196959254541 0 0.26622002360442448 0.25243984376066608 0 0.26719816143785829 0.23785165896462299 0 0.26016568023347569 0.24444196959254541 0 0.25421322039033012 0.25011983010618499 0 0.26016568023347569 0.24444196959254541 0 0.25303131550129021 0.23735654553870739 0 0.26719816143785829 0.23785165896462299 0 0.26016568023347569 0.24444196959254541 0 0.25303131550129021 0.23735654553870739 0 0.26719816143785829 0.23785165896462299 0 0.25303131550129021 0.23735654553870739 0 0.25429160712161381 0.22670675697131451 0 0.26719816143785829 0.23785165896462299 0 0.25429160712161381 0.22670675697131451 0 0.2650713816414213 0.2226152850727825 0 0.24442332300999661 0.23079137593239779 0 0.25303131550129021 0.23735654553870739 0 0.25429160712161381 0.22670675697131451 0 0.2496020388829098 0.2174496008327092 0 0.25429160712161381 0.22670675697131451 0 0.2650713816414213 0.2226152850727825 0 0.26719816143785829 0.23785165896462299 0 0.2650713816414213 0.2226152850727825 0 0.28028801659397712 0.22954542023190039 0 0.2650713816414213 0.2226152850727825 0 0.28028801659397712 0.22954542023190039 0 0.27649791382382122 0.21543014967392271 0 0.2650713816414213 0.2226152850727825 0 0.27649791382382122 0.21543014967392271 0 0.26309967145918739 0.2064378628698928 0 0.27649791382382122 0.21543014967392271 0 0.26309967145918739 0.2064378628698928 0 0.28270694112065398 0.20112528076174069 0 0.2496020388829098 0.2174496008327092 0 0.2650713816414213 0.2226152850727825 0 0.26309967145918739 0.2064378628698928 0 0.24819076086490249 0.2034194395802591 0 0.2496020388829098 0.2174496008327092 0 0.26309967145918739 0.2064378628698928 0 0.26309967145918739 0.2064378628698928 0 0.25317992106129272 0.18846692460435269 0 0.27128024212838192 0.18937421325864859 0 0.24819076086490249 0.2034194395802591 0 0.26309967145918739 0.2064378628698928 0 0.25317992106129272 0.18846692460435269 0 0.28586542675027449 0.18321595569669741 0 0.27128024212838192 0.18937421325864859 0 0.28270694112065398 0.20112528076174069 0 0.26309967145918739 0.2064378628698928 0 0.27128024212838192 0.18937421325864859 0 0.28270694112065398 0.20112528076174069 0 0.28586542675027449 0.18321595569669741 0 0.28270694112065398 0.20112528076174069 0 0.30582322295673869 0.19544975348743979 0 0.30582322295673869 0.19544975348743979 0 0.3082451982575079 0.21647495188444829 0 0.29170491679742683 0.2158323572371228 0 0.28270694112065398 0.20112528076174069 0 0.30582322295673869 0.19544975348743979 0 0.29170491679742683 0.2158323572371228 0 0.27649791382382122 0.21543014967392271 0 0.28270694112065398 0.20112528076174069 0 0.29170491679742683 0.2158323572371228 0 0.28028801659397712 0.22954542023190039 0 0.29170491679742683 0.2158323572371228 0 0.29758346841640743 0.23314168611246711 0 0.28028801659397712 0.22954542023190039 0 0.27649791382382122 0.21543014967392271 0 0.29170491679742683 0.2158323572371228 0 0.3082451982575079 0.21647495188444829 0 0.29170491679742683 0.2158323572371228 0 0.29758346841640743 0.23314168611246711 0 0.3082451982575079 0.21647495188444829 0 0.29758346841640743 0.23314168611246711 0 0.32064952399487467 0.2292912508789402 0 0.29758346841640743 0.23314168611246711 0 0.309780111023994 0.24361163266558519 0 0.32064952399487467 0.2292912508789402 0 0.2965666488762293 0.25172381677544559 0 0.29758346841640743 0.23314168611246711 0 0.309780111023994 0.24361163266558519 0 0.2965666488762293 0.25172381677544559 0 0.28059146717311512 0.24366402070067791 0 0.29758346841640743 0.23314168611246711 0 0.28059146717311512 0.24366402070067791 0 0.28028801659397712 0.22954542023190039 0 0.29758346841640743 0.23314168611246711 0 0.3275727375344048 0.24525602491545151 0 0.33909048131749109 0.22659860343752999 0 0.34451217634681058 0.24619425716160009 0 0.309780111023994 0.24361163266558519 0 0.3275727375344048 0.24525602491545151 0 0.32064952399487467 0.2292912508789402 0 0.31449953507627998 0.25881948986149311 0 0.309780111023994 0.24361163266558519 0 0.3275727375344048 0.24525602491545151 0 0.3082451982575079 0.21647495188444829 0 0.32064952399487467 0.2292912508789402 0 0.32587713762872961 0.2116855616637989 0 0.32064952399487467 0.2292912508789402 0 0.33909048131749109 0.22659860343752999 0 0.32587713762872961 0.2116855616637989 0 0.3275727375344048 0.24525602491545151 0 0.32064952399487467 0.2292912508789402 0 0.33909048131749109 0.22659860343752999 0 0.33909048131749109 0.22659860343752999 0 0.32587713762872961 0.2116855616637989 0 0.35005156604422011 0.20811619323087979 0 0.32587713762872961 0.2116855616637989 0 0.33224407772833142 0.19269582134504371 0 0.35005156604422011 0.20811619323087979 0 0.30582322295673869 0.19544975348743979 0 0.3082451982575079 0.21647495188444829 0 0.32587713762872961 0.2116855616637989 0 0.30582322295673869 0.19544975348743979 0 0.33224407772833142 0.19269582134504371 0 0.3207478356761409 0.17587839705612179 0 0.30582322295673869 0.19544975348743979 0 0.32587713762872961 0.2116855616637989 0 0.33224407772833142 0.19269582134504371 0 0.35036380098379871 0.1888573653424154 0 0.36807295405782292 0.19426654452595929 0 0.35005156604422011 0.20811619323087979 0 0.33224407772833142 0.19269582134504371 0 0.35036380098379871 0.1888573653424154 0 0.35005156604422011 0.20811619323087979 0 0.36807295405782292 0.19426654452595929 0 0.37534433753220869 0.21618027211956789 0 0.36807295405782292 0.19426654452595929 0 0.35005156604422011 0.20811619323087979 0 0.37534433753220869 0.21618027211956789 0 0.35005156604422011 0.20811619323087979 0 0.35893130086430741 0.2309027566970312 0 0.37534433753220869 0.21618027211956789 0 0.33909048131749109 0.22659860343752999 0 0.35005156604422011 0.20811619323087979 0 0.35893130086430741 0.2309027566970312 0 0.35893130086430741 0.2309027566970312 0 0.38261572100659669 0.2380939997131756 0 0.37534433753220869 0.21618027211956789 0 0.36185635169600527 0.25097623099729632 0 0.38261572100659669 0.2380939997131756 0 0.36185635169600527 0.25097623099729632 0 0.35893130086430741 0.2309027566970312 0 0.38261572100659669 0.2380939997131756 0 0.36185635169600527 0.25097623099729632 0 0.37636476700360411 0.25356382796969262 0 0.38261572100659669 0.2380939997131756 0 0.36185635169600527 0.25097623099729632 0 0.35893130086430741 0.2309027566970312 0 0.34451217634681058 0.24619425716160009 0 0.33909048131749109 0.22659860343752999 0 0.35893130086430741 0.2309027566970312 0 0.34451217634681058 0.24619425716160009 0 0.33618158427197781 0.14333176746075499 0 0.32620320815620141 0.15616774034601641 0 0.35353018710905088 0.15043908933874231 0 0.32620320815620141 0.15616774034601641 0 0.35353018710905088 0.15043908933874231 0 0.33618158427197781 0.14333176746075499 0 0.3402130111099898 0.12927819269872909 0 0.34609554973390888 0.1361588461206179 0 0.3402130111099898 0.12927819269872909 0 0.32979145400193982 0.12636757476214061 0 0.32985205757028069 0.13434502945429741 0 0.33618158427197781 0.14333176746075499 0 0.3402130111099898 0.12927819269872909 0 0.32985205757028069 0.13434502945429741 0 0.32985205757028069 0.13434502945429741 0 0.32262102687857819 0.13032619687168981 0 0.31628749587432048 0.14166726443097799 0 0.33618158427197781 0.14333176746075499 0 0.32985205757028069 0.13434502945429741 0 0.31628749587432048 0.14166726443097799 0 0.32979145400193982 0.12636757476214061 0 0.32985205757028069 0.13434502945429741 0 0.32262102687857819 0.13032619687168981 0 0.32300225620775658 0.1225337689545158 0 0.32979145400193982 0.12636757476214061 0 0.32262102687857819 0.13032619687168981 0 0.32300225620775658 0.1225337689545158 0 0.32262102687857819 0.13032619687168981 0 0.31395244580793752 0.12803880600780451 0 0.32262102687857819 0.13032619687168981 0 0.31395244580793752 0.12803880600780451 0 0.31628749587432048 0.14166726443097799 0 0.33618158427197781 0.14333176746075499 0 0.31628749587432048 0.14166726443097799 0 0.32620320815620141 0.15616774034601641 0 0.29887622920335111 0.16189639135328801 0 0.31628749587432048 0.14166726443097799 0 0.32620320815620141 0.15616774034601641 0 0.29887622920335111 0.16189639135328801 0 0.32620320815620141 0.15616774034601641 0 0.3207478356761409 0.17587839705612179 0 0.29887622920335111 0.16189639135328801 0 0.32620320815620141 0.15616774034601641 0 0.33224407772833142 0.19269582134504371 0 0.35036380098379871 0.1888573653424154 0 0.34059244033608188 0.173182278748821 0 0.33224407772833142 0.19269582134504371 0 0.3207478356761409 0.17587839705612179 0 0.34059244033608188 0.173182278748821 0 0.32620320815620141 0.15616774034601641 0 0.3207478356761409 0.17587839705612179 0 0.34059244033608188 0.173182278748821 0 0.32620320815620141 0.15616774034601641 0 0.34059244033608188 0.173182278748821 0 0.35353018710905088 0.15043908933874231 0 0.36080157058343698 0.1723528169323508 0 0.35353018710905088 0.15043908933874231 0 0.34059244033608188 0.173182278748821 0 0.36080157058343698 0.1723528169323508 0 0.35353018710905088 0.15043908933874231 0 0.35036380098379871 0.1888573653424154 0 0.34059244033608188 0.173182278748821 0 0.36080157058343698 0.1723528169323508 0 0.36807295405782292 0.19426654452595929 0 0.36080157058343698 0.1723528169323508 0 0.36807295405782292 0.19426654452595929 0 0.36080157058343698 0.1723528169323508 0 0.3802321666565201 0.18323701038174431 0 0.35036380098379871 0.1888573653424154 0 0.36807295405782292 0.19426654452595929 0 0.36080157058343698 0.1723528169323508 0 0.36080157058343698 0.1723528169323508 0 0.37495560454671267 0.1637460773739377 0 0.3802321666565201 0.18323701038174431 0 0.36080157058343698 0.1723528169323508 0 0.37495560454671267 0.1637460773739377 0 0.35353018710905088 0.15043908933874231 0 0.35353018710905088 0.15043908933874231 0 0.38305593600634952 0.1442495024307745 0 0.35353018710905088 0.15043908933874231 0 0.38305593600634952 0.1442495024307745 0 0.38194988828880588 0.1467944399887533 0 0.37495560454671267 0.1637460773739377 0 0.35353018710905088 0.15043908933874231 0 0.38194988828880588 0.1467944399887533 0 0.35353018710905088 0.15043908933874231 0 0.35712099819607218 0.12961355636932451 0 0.38305593600634952 0.1442495024307745 0 0.33618158427197781 0.14333176746075499 0 0.35353018710905088 0.15043908933874231 0 0.35086660535759567 0.14241186795366309 0 0.35353018710905088 0.15043908933874231 0 0.35086660535759567 0.14241186795366309 0 0.35712099819607218 0.12961355636932451 0 0.35353018710905088 0.15043908933874231 0 0.35086660535759567 0.14241186795366309 0 0.33618158427197781 0.14333176746075499 0 0.35086660535759567 0.14241186795366309 0 0.34609554973390888 0.1361588461206179 0 0.3402130111099898 0.12927819269872909 0 0.34609554973390888 0.1361588461206179 0 0.35712099819607218 0.12961355636932451 0 0.35086660535759567 0.14241186795366309 0 0.34609554973390888 0.1361588461206179 0 0.35712099819607218 0.12961355636932451 0 0.35712099819607218 0.12961355636932451 0 0.38305593600634952 0.1442495024307745 0 0.37875588668803689 0.1169754841774589 0 0.35712099819607218 0.12961355636932451 0 0.38305593600634952 0.1442495024307745 0 0.38556740232443648 0.1437230148860657 0 0.38305593600634952 0.1442495024307745 0 0.37875588668803689 0.1169754841774589 0 0.38556740232443648 0.1437230148860657 0 0.37875588668803689 0.1169754841774589 0 0.39611912303543129 0.12903599556163359 0 0.38556740232443648 0.1437230148860657 0 0.37875588668803689 0.1169754841774589 0 0.39611912303543129 0.12903599556163359 0 0.38556740232443648 0.1437230148860657 0 0.411681031892694 0.13824872259098431 0 0.39611912303543129 0.12903599556163359 0 0.411681031892694 0.13824872259098431 0 0.40121430760825222 0.11168415298604591 0 0.38556740232443648 0.1437230148860657 0 0.411681031892694 0.13824872259098431 0 0.38656400920716882 0.14763650119707489 0 0.38556740232443648 0.1437230148860657 0 0.411681031892694 0.13824872259098431 0 0.4039099253729122 0.15575132421981849 0 0.38656400920716882 0.14763650119707489 0 0.411681031892694 0.13824872259098431 0 0.38656400920716882 0.14763650119707489 0 0.38194988828880588 0.1467944399887533 0 0.39170461108714771 0.1716128422259367 0 0.38656400920716882 0.14763650119707489 0 0.38579079681281958 0.1457928751406648 0 0.38194988828880588 0.1467944399887533 0 0.38656400920716882 0.14763650119707489 0 0.38556740232443648 0.1437230148860657 0 0.38656400920716882 0.14763650119707489 0 0.38579079681281958 0.1457928751406648 0 0.38556740232443648 0.1437230148860657 0 0.38579079681281958 0.1457928751406648 0 0.38305593600634952 0.1442495024307745 0 0.38579079681281958 0.1457928751406648 0 0.38305593600634952 0.1442495024307745 0 0.38194988828880588 0.1467944399887533 0 0.38579079681281958 0.1457928751406648 0 0.38556740232443648 0.1437230148860657 0 0.38305593600634952 0.1442495024307745 0 0.38556740232443648 0.1437230148860657 0 0.38305593600634952 0.1442495024307745 0 0.38194988828880588 0.1467944399887533 0 0.39170461108714771 0.1716128422259367 0 0.37495560454671267 0.1637460773739377 0 0.38194988828880588 0.1467944399887533 0 0.39170461108714771 0.1716128422259367 0 0.37495560454671267 0.1637460773739377 0 0.3802321666565201 0.18323701038174431 0 0.39170461108714771 0.1716128422259367 0 0.39170461108714771 0.1716128422259367 0 0.40145933388548938 0.1964312444631201 0 0.3802321666565201 0.18323701038174431 0 0.39170461108714771 0.1716128422259367 0 0.40145933388548938 0.1964312444631201 0 0.39170461108714771 0.1716128422259367 0 0.41179521513844841 0.17999810376230119 0 0.40145933388548938 0.1964312444631201 0 0.4039099253729122 0.15575132421981849 0 0.39170461108714771 0.1716128422259367 0 0.41179521513844841 0.17999810376230119 0 0.4039099253729122 0.15575132421981849 0 0.38656400920716882 0.14763650119707489 0 0.39170461108714771 0.1716128422259367 0 0.4039099253729122 0.15575132421981849 0 0.42153139955596031 0.1632489777151214 0 0.41179521513844841 0.17999810376230119 0 0.42153139955596031 0.1632489777151214 0 0.41179521513844841 0.17999810376230119 0 0.43138176721922611 0.18824923283925871 0 0.42153139955596031 0.1632489777151214 0 0.43138176721922611 0.18824923283925871 0 0.44561592190136118 0.17624516423932909 0 0.42153139955596031 0.1632489777151214 0 0.43138176721922611 0.18824923283925871 0 0.42153139955596031 0.1632489777151214 0 0.44506121328611709 0.15977177329172471 0 0.44561592190136118 0.17624516423932909 0 0.42153139955596031 0.1632489777151214 0 0.43359200819553151 0.13365544732685569 0 0.411681031892694 0.13824872259098431 0 0.42153139955596031 0.1632489777151214 0 0.43359200819553151 0.13365544732685569 0 0.44506121328611709 0.15977177329172471 0 0.43359200819553151 0.13365544732685569 0 0.411681031892694 0.13824872259098431 0 0.43359200819553151 0.13365544732685569 0 0.411681031892694 0.13824872259098431 0 0.42034451862635042 0.1173007813018255 0 0.42153139955596031 0.1632489777151214 0 0.411681031892694 0.13824872259098431 0 0.4039099253729122 0.15575132421981849 0 0.42153139955596031 0.1632489777151214 0 0.411681031892694 0.13824872259098431 0 0.40455138821377679 0.25667138028689518 0 0.39332254021852348 0.24487070095830471 0 0.4099990250929918 0.2404752888754374 0 0.39332254021852348 0.24487070095830471 0 0.39851607967790681 0.2316585038008033 0 0.4099990250929918 0.2404752888754374 0 0.39332254021852348 0.24487070095830471 0 0.38591833861442149 0.23604455961552839 0 0.39851607967790681 0.2316585038008033 0 0.38830557420488471 0.25524147838407418 0 0.39332254021852348 0.24487070095830471 0 0.38261572100659669 0.2380939997131756 0 0.38830557420488471 0.25524147838407418 0 0.37636476700360411 0.25356382796969262 0 0.38261572100659669 0.2380939997131756 0 0.38830557420488471 0.25524147838407418 0 0.38261572100659669 0.2380939997131756 0 0.39332254021852348 0.24487070095830471 0 0.38261572100659669 0.2380939997131756 0 0.38591833861442149 0.23604455961552839 0 0.38261572100659669 0.2380939997131756 0 0.38591833861442149 0.23604455961552839 0 0.38261572100659669 0.2380939997131756 0 0.37534433753220869 0.21618027211956789 0 0.38591833861442149 0.23604455961552839 0 0.39291396348459567 0.2177640602367974 0 0.37534433753220869 0.21618027211956789 0 0.38261572100659669 0.2380939997131756 0 0.38591833861442149 0.23604455961552839 0 0.37534433753220869 0.21618027211956789 0 0.38591833861442149 0.23604455961552839 0 0.39851607967790681 0.2316585038008033 0 0.39291396348459567 0.2177640602367974 0 0.39851607967790681 0.2316585038008033 0 0.39291396348459567 0.2177640602367974 0 0.41121405668383121 0.22124964670030359 0 0.39291396348459567 0.2177640602367974 0 0.40145933388548938 0.1964312444631201 0 0.41121405668383121 0.22124964670030359 0 0.39291396348459567 0.2177640602367974 0 0.38383151531052268 0.2014148864665018 0 0.40145933388548938 0.1964312444631201 0 0.36807295405782292 0.19426654452595929 0 0.37534433753220869 0.21618027211956789 0 0.38383151531052268 0.2014148864665018 0 0.39291396348459567 0.2177640602367974 0 0.37534433753220869 0.21618027211956789 0 0.38383151531052268 0.2014148864665018 0 0.36807295405782292 0.19426654452595929 0 0.3802321666565201 0.18323701038174431 0 0.38383151531052268 0.2014148864665018 0 0.3802321666565201 0.18323701038174431 0 0.38383151531052268 0.2014148864665018 0 0.40145933388548938 0.1964312444631201 0 0.41179521513844841 0.17999810376230119 0 0.40145933388548938 0.1964312444631201 0 0.42078425370995448 0.20469500111055219 0 0.41179521513844841 0.17999810376230119 0 0.43138176721922611 0.18824923283925871 0 0.42078425370995448 0.20469500111055219 0 0.43138176721922611 0.18824923283925871 0 0.44123213488249191 0.21324948796339591 0 0.43138176721922611 0.18824923283925871 0 0.42078425370995448 0.20469500111055219 0 0.44123213488249191 0.21324948796339591 0 0.42078425370995448 0.20469500111055219 0 0.42960600488081618 0.23016842191889539 0 0.44123213488249191 0.21324948796339591 0 0.42078425370995448 0.20469500111055219 0 0.41121405668383121 0.22124964670030359 0 0.42960600488081618 0.23016842191889539 0 0.40145933388548938 0.1964312444631201 0 0.42078425370995448 0.20469500111055219 0 0.41121405668383121 0.22124964670030359 0 0.40145933388548938 0.1964312444631201 0 0.41121405668383121 0.22124964670030359 0 0.41121405668383121 0.22124964670030359 0 0.42960600488081618 0.23016842191889539 0 0.4099990250929918 0.2404752888754374 0 0.39851607967790681 0.2316585038008033 0 0.41121405668383121 0.22124964670030359 0 0.4099990250929918 0.2404752888754374 0 0.4228684862923151 0.25332179165355478 0 0.42960600488081618 0.23016842191889539 0 0.44570869596409107 0.24482962705539521 0 0.4228684862923151 0.25332179165355478 0 0.42960600488081618 0.23016842191889539 0 0.4099990250929918 0.2404752888754374 0 0.46230728882809141 0.25281003656542128 0 0.46304145716655948 0.23638340335676131 0 0.47718607119399858 0.24514461198193049 0 0.46304145716655948 0.23638340335676131 0 0.44570869596409107 0.24482962705539521 0 0.45136443927222047 0.22656770504201851 0 0.46230728882809141 0.25281003656542128 0 0.46304145716655948 0.23638340335676131 0 0.44570869596409107 0.24482962705539521 0 0.42960600488081618 0.23016842191889539 0 0.45136443927222047 0.22656770504201851 0 0.44123213488249191 0.21324948796339591 0 0.42960600488081618 0.23016842191889539 0 0.44570869596409107 0.24482962705539521 0 0.45136443927222047 0.22656770504201851 0 0.46304145716655948 0.23638340335676131 0 0.45136443927222047 0.22656770504201851 0 0.46561105381340417 0.21732448795579301 0 0.45136443927222047 0.22656770504201851 0 0.45836796481080683 0.20196412501448799 0 0.46561105381340417 0.21732448795579301 0 0.45836796481080683 0.20196412501448799 0 0.48021644763604909 0.20865929555898971 0 0.45136443927222047 0.22656770504201851 0 0.46561105381340417 0.21732448795579301 0 0.45836796481080683 0.20196412501448799 0 0.45136443927222047 0.22656770504201851 0 0.44123213488249191 0.21324948796339591 0 0.45836796481080683 0.20196412501448799 0 0.43138176721922611 0.18824923283925871 0 0.45836796481080683 0.20196412501448799 0 0.44561592190136118 0.17624516423932909 0 0.43138176721922611 0.18824923283925871 0 0.44123213488249191 0.21324948796339591 0 0.45836796481080683 0.20196412501448799 0 0.45836796481080683 0.20196412501448799 0 0.4653714903493929 0.1773605449869575 0 0.48128176419775398 0.18733178979549131 0 0.45836796481080683 0.20196412501448799 0 0.4653714903493929 0.1773605449869575 0 0.45836796481080683 0.20196412501448799 0 0.48021644763604909 0.20865929555898971 0 0.48128176419775398 0.18733178979549131 0 0.5 0.19346190719074319 0 0.48021644763604909 0.20865929555898971 0 0.48128176419775398 0.18733178979549131 0 0.5 0.19346190719074319 0 0.48021644763604909 0.20865929555898971 0 0.5 0.22009575332560979 0 0.46561105381340417 0.21732448795579301 0 0.48021644763604909 0.20865929555898971 0 0.48041857268057558 0.2292014184155369 0 0.46304145716655948 0.23638340335676131 0 0.46561105381340417 0.21732448795579301 0 0.48041857268057558 0.2292014184155369 0 0.48021644763604909 0.20865929555898971 0 0.48041857268057558 0.2292014184155369 0 0.5 0.22009575332560979 0 0.48041857268057558 0.2292014184155369 0 0.5 0.22009575332560979 0 0.5 0.24672959946047651 0 0.48041857268057558 0.2292014184155369 0 0.5 0.24672959946047651 0 0.47718607119399858 0.24514461198193049 0 0.46304145716655948 0.23638340335676131 0 0.48041857268057558 0.2292014184155369 0 0.47718607119399858 0.24514461198193049 0 0.45676437561944733 0.1482161356510889 0 0.46868354149929531 0.1366899112788435 0 0.47237501588797898 0.15275696495942709 0 0.45550298449836829 0.12906217206272491 0 0.47741396080120457 0.1244688967985913 0 0.45676437561944733 0.1482161356510889 0 0.45550298449836829 0.12906217206272491 0 0.46868354149929531 0.1366899112788435 0 0.45550298449836829 0.12906217206272491 0 0.46868354149929531 0.1366899112788435 0 0.47741396080120457 0.1244688967985913 0 0.43359200819553151 0.13365544732685569 0 0.45550298449836829 0.12906217206272491 0 0.43359200819553151 0.13365544732685569 0 0.45676437561944733 0.1482161356510889 0 0.45550298449836829 0.12906217206272491 0 0.43359200819553151 0.13365544732685569 0 0.45676437561944733 0.1482161356510889 0 0.44506121328611709 0.15977177329172471 0 0.44506121328611709 0.15977177329172471 0 0.44561592190136118 0.17624516423932909 0 0.4653714903493929 0.1773605449869575 0 0.45836796481080683 0.20196412501448799 0 0.44561592190136118 0.17624516423932909 0 0.4653714903493929 0.1773605449869575 0 0.45676437561944733 0.1482161356510889 0 0.44506121328611709 0.15977177329172471 0 0.4653714903493929 0.1773605449869575 0 0.45676437561944733 0.1482161356510889 0 0.4653714903493929 0.1773605449869575 0 0.47237501588797898 0.15275696495942709 0 0.4653714903493929 0.1773605449869575 0 0.48165223688268249 0.16869635320272561 0 0.47237501588797898 0.15275696495942709 0 0.48165223688268249 0.16869635320272561 0 0.48968927071328128 0.14749072299388699 0 0.47237501588797898 0.15275696495942709 0 0.4653714903493929 0.1773605449869575 0 0.47237501588797898 0.15275696495942709 0 0.4653714903493929 0.1773605449869575 0 0.48165223688268249 0.16869635320272561 0 0.48128176419775398 0.18733178979549131 0 0.5 0.19346190719074319 0 0.48128176419775398 0.18733178979549131 0 0.49999999999999828 0.16682806105587669 0 0.48165223688268249 0.16869635320272561 0 0.48128176419775398 0.18733178979549131 0 0.49999999999999828 0.16682806105587669 0 0.50000000000000089 0.15676087213031559 0 0.49999999999999828 0.16682806105587669 0 0.48968927071328128 0.14749072299388699 0 0.49999999999999828 0.16682806105587669 0 0.48968927071328128 0.14749072299388699 0 0.48165223688268249 0.16869635320272561 0 0.49999999999999828 0.16682806105587669 0 0.48968927071328128 0.14749072299388699 0 0.50000000000000089 0.15676087213031559 0 0.49651633299773562 0.13897778232817831 0 0.5 0.13824748892414179 0 0.50000000000000089 0.15676087213031559 0 0.48968927071328128 0.14749072299388699 0 0.49651633299773562 0.13897778232817831 0 0.50000000000000089 0.15676087213031559 0 0.49651633299773562 0.13897778232817831 0 0.48968927071328128 0.14749072299388699 0 0.47237501588797898 0.15275696495942709 0 0.47937854142656539 0.12815338493189679 0 0.47237501588797898 0.15275696495942709 0 0.47937854142656539 0.12815338493189679 0 0.46868354149929531 0.1366899112788435 0 0.47237501588797898 0.15275696495942709 0 0.47937854142656539 0.12815338493189679 0 0.46868354149929531 0.1366899112788435 0 0.47937854142656539 0.12815338493189679 0 0.47741396080120457 0.1244688967985913 0 0.47937854142656539 0.12815338493189679 0 0.48015723179951147 0.12541782399163931 0 0.48855675772205731 0.12928739823317709 0 0.47937854142656539 0.12815338493189679 0 0.47741396080120457 0.1244688967985913 0 0.47937854142656539 0.12815338493189679 0 0.48015723179951147 0.12541782399163931 0 0.47937854142656539 0.12815338493189679 0 0.48015723179951147 0.12541782399163931 0 0.47741396080120457 0.1244688967985913 0 0.48968927071328128 0.14749072299388699 0 0.49651633299773562 0.13897778232817831 0 0.48855675772205731 0.12928739823317709 0 0.48968927071328128 0.14749072299388699 0 0.47937854142656539 0.12815338493189679 0 0.5 0.13824748892414179 0 0.49999999999999628 0.119734105717968 0 0.49303266599546941 0.12119469252604111 0 0.48015723179951147 0.12541782399163931 0 0.48855675772205731 0.12928739823317709 0 0.49303266599546941 0.12119469252604111 0 0.49651633299773562 0.13897778232817831 0 0.49303266599546941 0.12119469252604111 0 0.49651633299773562 0.13897778232817831 0 0.5 0.13824748892414179 0 0.49303266599546941 0.12119469252604111 0 0.49651633299773562 0.13897778232817831 0 0.48855675772205731 0.12928739823317709 0 0.49303266599546941 0.12119469252604111 0 0.48968927071328128 0.14749072299388699 0 0.47937854142656539 0.12815338493189679 0 0.48855675772205731 0.12928739823317709 0 0.49999999999999628 0.119734105717968 0 0.49303266599546941 0.12119469252604111 0 0.5 0.097471279036049907 0 0.49999999999999628 0.119734105717968 0 0.49303266599546941 0.12119469252604111 0 0.49303266599546941 0.12119469252604111 0 0.47741396080120457 0.1244688967985913 0 0.49303266599546941 0.12119469252604111 0 0.4880507660703462 0.095763566733566577 0 0.48147691290942879 0.1107159289269513 0 0.49303266599546941 0.12119469252604111 0 0.4880507660703462 0.095763566733566577 0 0.49303266599546941 0.12119469252604111 0 0.4880507660703462 0.095763566733566577 0 0.5 0.097471279036049907 0 0.4880507660703462 0.095763566733566577 0 0.48147691290942879 0.1107159289269513 0 0.46570452752733471 0.102508348380073 0 0.47741396080120457 0.1244688967985913 0 0.48147691290942879 0.1107159289269513 0 0.46570452752733471 0.102508348380073 0 0.47741396080120457 0.1244688967985913 0 0.46446784401804742 0.11726977938232409 0 0.46570452752733471 0.102508348380073 0 0.47741396080120457 0.1244688967985913 0 0.46570452752733471 0.102508348380073 0 0.48015723179951147 0.12541782399163931 0 0.49303266599546941 0.12119469252604111 0 0.47741396080120457 0.1244688967985913 0 0.49303266599546941 0.12119469252604111 0 0.47741396080120457 0.1244688967985913 0 0.48147691290942879 0.1107159289269513 0 0.49999999999999722 0.075208452354131761 0 0.49141839264781861 0.065281604829388981 0 0.49999999999999922 0.058225030273063472 0 0.49999999999999722 0.075208452354131761 0 0.49141839264781861 0.065281604829388981 0 0.48306886614522399 0.070332440941091867 0 0.49999999999999722 0.075208452354131761 0 0.48306886614522399 0.070332440941091867 0 0.49141839264781861 0.065281604829388981 0 0.48198447606122702 0.064796950255070235 0 0.49203862103264329 0.057845150323588439 0 0.49141839264781861 0.065281604829388981 0 0.48306886614522399 0.070332440941091867 0 0.48198447606122702 0.064796950255070235 0 0.4880507660703462 0.095763566733566577 0 0.5 0.097471279036049907 0 0.49999999999999722 0.075208452354131761 0 0.4880507660703462 0.095763566733566577 0 0.49999999999999722 0.075208452354131761 0 0.48306886614522399 0.070332440941091867 0 0.4880507660703462 0.095763566733566577 0 0.48306886614522399 0.070332440941091867 0 0.4880507660703462 0.095763566733566577 0 0.47632802100693339 0.081673335719659332 0 0.48306886614522399 0.070332440941091867 0 0.4880507660703462 0.095763566733566577 0 0.47632802100693339 0.081673335719659332 0 0.46570452752733471 0.102508348380073 0 0.47665156609815951 0.06848431732817753 0 0.45946861353887669 0.063535784435606826 0 0.47229500396614188 0.060490327883834863 0 0.47632802100693339 0.081673335719659332 0 0.48306886614522399 0.070332440941091867 0 0.47665156609815951 0.06848431732817753 0 0.47665156609815951 0.06848431732817753 0 0.46387433585936561 0.077318957026643265 0 0.47632802100693339 0.081673335719659332 0 0.47665156609815951 0.06848431732817753 0 0.46387433585936561 0.077318957026643265 0 0.47655201145450382 0.06335445886162748 0 0.47665156609815951 0.06848431732817753 0 0.47229500396614188 0.060490327883834863 0 0.47655201145450382 0.06335445886162748 0 0.47665156609815951 0.06848431732817753 0 0.48198447606122702 0.064796950255070235 0 0.47655201145450382 0.06335445886162748 0 0.48198447606122702 0.064796950255070235 0 0.48134132395923612 0.061513848977393891 0 0.47665156609815951 0.06848431732817753 0 0.48198447606122702 0.064796950255070235 0 0.48306886614522399 0.070332440941091867 0 0.47665156609815951 0.06848431732817753 0 0.48306886614522399 0.070332440941091867 0 0.48198447606122702 0.064796950255070235 0 0.48306886614522399 0.070332440941091867 0 0.47665156609815951 0.06848431732817753 0 0.48198447606122702 0.064796950255070235 0 0.48198447606122702 0.064796950255070235 0 0.48134132395923612 0.061513848977393891 0 0.47665156609815951 0.06848431732817753 0 0.45946861353887669 0.063535784435606826 0 0.46387433585936561 0.077318957026643265 0 0.47665156609815951 0.06848431732817753 0 0.45946861353887669 0.063535784435606826 0 0.45946861353887669 0.063535784435606826 0 0.45490592615782521 0.069997448241710544 0 0.46387433585936561 0.077318957026643265 0 0.45490592615782521 0.069997448241710544 0 0.46387433585936561 0.077318957026643265 0 0.45399509425346429 0.080547799961555006 0 0.45399509425346429 0.080547799961555006 0 0.46570452752733471 0.102508348380073 0 0.47632802100693339 0.081673335719659332 0 0.46387433585936561 0.077318957026643265 0 0.46570452752733471 0.102508348380073 0 0.46387433585936561 0.077318957026643265 0 0.45399509425346429 0.080547799961555006 0 0.46570452752733471 0.102508348380073 0 0.45399509425346429 0.080547799961555006 0 0.43761101876783393 0.080050081656941108 0 0.43946315400589869 0.1066305385962531 0 0.45946861353887669 0.063535784435606826 0 0.45490592615782521 0.069997448241710544 0 0.44228566097959371 0.058587251543037192 0 0.45399509425346429 0.080547799961555006 0 0.43761101876783393 0.080050081656941108 0 0.44228566097959371 0.058587251543037192 0 0.45490592615782521 0.069997448241710544 0 0.45399509425346429 0.080547799961555006 0 0.44228566097959371 0.058587251543037192 0 0.45399509425346429 0.080547799961555006 0 0.44228566097959371 0.058587251543037192 0 0.45550298449836829 0.12906217206272491 0 0.47741396080120457 0.1244688967985913 0 0.46446784401804742 0.11726977938232409 0 0.45550298449836829 0.12906217206272491 0 0.46446784401804742 0.11726977938232409 0 0.43946315400589869 0.1066305385962531 0 0.46446784401804742 0.11726977938232409 0 0.46570452752733471 0.102508348380073 0 0.43946315400589869 0.1066305385962531 0 0.45399509425346429 0.080547799961555006 0 0.46570452752733471 0.102508348380073 0 0.43946315400589869 0.1066305385962531 0 0.43359200819553151 0.13365544732685569 0 0.45550298449836829 0.12906217206272491 0 0.43946315400589869 0.1066305385962531 0 0.43359200819553151 0.13365544732685569 0 0.43946315400589869 0.1066305385962531 0 0.42034451862635042 0.1173007813018255 0 0.411681031892694 0.13824872259098431 0 0.40121430760825222 0.11168415298604591 0 0.411681031892694 0.13824872259098431 0 0.42034451862635042 0.1173007813018255 0 0.40121430760825222 0.11168415298604591 0 0.42034451862635042 0.1173007813018255 0 0.40939612198988629 0.096659870539690593 0 0.40121430760825222 0.11168415298604591 0 0.43946315400589869 0.1066305385962531 0 0.40939612198988629 0.096659870539690593 0 0.42296334949779951 0.085018441554922913 0 0.43946315400589869 0.1066305385962531 0 0.42034451862635042 0.1173007813018255 0 0.40939612198988629 0.096659870539690593 0 0.43761101876783393 0.080050081656941108 0 0.43946315400589869 0.1066305385962531 0 0.42296334949779951 0.085018441554922913 0 0.43761101876783393 0.080050081656941108 0 0.42296334949779951 0.085018441554922913 0 0.42934783510241331 0.069466376628937454 0 0.43761101876783393 0.080050081656941108 0 0.42934783510241331 0.069466376628937454 0 0.44228566097959371 0.058587251543037192 0 0.42296334949779951 0.085018441554922913 0 0.42934783510241331 0.069466376628937454 0 0.41583555019525997 0.065875220740267151 0 0.42934783510241331 0.069466376628937454 0 0.41583555019525997 0.065875220740267151 0 0.42729482051147022 0.054270026846767738 0 0.41583555019525997 0.065875220740267151 0 0.40769493921556982 0.079797444853579647 0 0.39953209107109289 0.066314108051909876 0 0.42296334949779951 0.085018441554922913 0 0.41583555019525997 0.065875220740267151 0 0.40769493921556982 0.079797444853579647 0 0.40939612198988629 0.096659870539690593 0 0.42296334949779951 0.085018441554922913 0 0.40769493921556982 0.079797444853579647 0 0.40939612198988629 0.096659870539690593 0 0.40769493921556982 0.079797444853579647 0 0.39074758332380999 0.0851195833811077 0 0.40769493921556982 0.079797444853579647 0 0.39074758332380999 0.0851195833811077 0 0.39953209107109289 0.066314108051909876 0 0.39074758332380999 0.0851195833811077 0 0.37714360225687033 0.074662844998703556 0 0.38028085903936792 0.058555013776169673 0 0.39074758332380999 0.0851195833811077 0 0.38028085903936792 0.058555013776169673 0 0.39074758332380999 0.0851195833811077 0 0.39953209107109289 0.066314108051909876 0 0.38028085903936792 0.058555013776169673 0 0.37194437105163669 0.090227953468852151 0 0.39074758332380999 0.0851195833811077 0 0.38500522404259779 0.1011429560888806 0 0.37194437105163669 0.090227953468852151 0 0.39074758332380999 0.0851195833811077 0 0.37714360225687033 0.074662844998703556 0 0.37194437105163669 0.090227953468852151 0 0.37875588668803689 0.1169754841774589 0 0.37194437105163669 0.090227953468852151 0 0.38500522404259779 0.1011429560888806 0 0.37875588668803689 0.1169754841774589 0 0.38500522404259779 0.1011429560888806 0 0.37875588668803689 0.1169754841774589 0 0.40121430760825222 0.11168415298604591 0 0.39611912303543129 0.12903599556163359 0 0.37875588668803689 0.1169754841774589 0 0.40121430760825222 0.11168415298604591 0 0.39074758332380999 0.0851195833811077 0 0.38500522404259779 0.1011429560888806 0 0.40121430760825222 0.11168415298604591 0 0.40939612198988629 0.096659870539690593 0 0.39074758332380999 0.0851195833811077 0 0.40121430760825222 0.11168415298604591 0 0.39074758332380999 0.0851195833811077 0 0.40121430760825222 0.11168415298604591 0 0.39260804163797591 0.01042787121187992 0 0.38323450511353407 0.025328772904342128 0 0.40814767044823091 0.013924653757044389 0 0.38323450511353407 0.025328772904342128 0 0.40177332910255498 0.032913831931892623 0 0.40814767044823091 0.013924653757044389 0 0.38323450511353407 0.025328772904342128 0 0.40814767044823091 0.013924653757044389 0 0.40238464504493571 0.001287509308259075 0 0.39260804163797591 0.01042787121187992 0 0.40814767044823091 0.013924653757044389 0 0.40238464504493571 0.001287509308259075 0 0.39260804163797591 0.01042787121187992 0 0.39083890390067 -0.00081650578165883979 0 0.39260804163797591 0.01042787121187992 0 0.37930030041949347 0.010092054012740419 0 0.38323450511353407 0.025328772904342128 0 0.39260804163797591 0.01042787121187992 0 0.37930030041949347 0.010092054012740419 0 0.39083890390067 -0.00081650578165883979 0 0.37930030041949347 0.010092054012740419 0 0.39083890390067 -0.00081650578165883979 0 0.3793334440860559 -0.0047231161978346864 0 0.367426120563213 0.0011923754251482459 0 0.37930030041949347 0.010092054012740419 0 0.3793334440860559 -0.0047231161978346864 0 0.36769859598276772 0.01679057333599266 0 0.37930030041949347 0.010092054012740419 0 0.38323450511353407 0.025328772904342128 0 0.36961793171614221 0.031561823715653303 0 0.38323450511353407 0.025328772904342128 0 0.36961793171614221 0.031561823715653303 0 0.38323450511353407 0.025328772904342128 0 0.38382433915465303 0.040640458995645022 0 0.36961793171614221 0.031561823715653303 0 0.38382433915465303 0.040640458995645022 0 0.38028085903936792 0.058555013776169673 0 0.38382433915465303 0.040640458995645022 0 0.39472265294650721 0.047016469947239771 0 0.3908887065793123 0.036474883444779893 0 0.38323450511353407 0.025328772904342128 0 0.38382433915465303 0.040640458995645022 0 0.3908887065793123 0.036474883444779893 0 0.38382433915465303 0.040640458995645022 0 0.38028085903936792 0.058555013776169673 0 0.39472265294650721 0.047016469947239771 0 0.39953209107109289 0.066314108051909876 0 0.38028085903936792 0.058555013776169673 0 0.39472265294650721 0.047016469947239771 0 0.39953209107109289 0.066314108051909876 0 0.39472265294650721 0.047016469947239771 0 0.41230398004334667 0.049952802150498007 0 0.38323450511353407 0.025328772904342128 0 0.3908887065793123 0.036474883444779893 0 0.40177332910255498 0.032913831931892623 0 0.39472265294650721 0.047016469947239771 0 0.40177332910255498 0.032913831931892623 0 0.41230398004334667 0.049952802150498007 0 0.39472265294650721 0.047016469947239771 0 0.3908887065793123 0.036474883444779893 0 0.40177332910255498 0.032913831931892623 0 0.40177332910255498 0.032913831931892623 0 0.41816753616861818 0.036783364905397228 0 0.41288077334742851 0.026077942806859052 0 0.40177332910255498 0.032913831931892623 0 0.41816753616861818 0.036783364905397228 0 0.41230398004334667 0.049952802150498007 0 0.41816753616861818 0.036783364905397228 0 0.41230398004334667 0.049952802150498007 0 0.4233798085898926 0.045814337462531822 0 0.41583555019525997 0.065875220740267151 0 0.41230398004334667 0.049952802150498007 0 0.42729482051147022 0.054270026846767738 0 0.41583555019525997 0.065875220740267151 0 0.39953209107109289 0.066314108051909876 0 0.41230398004334667 0.049952802150498007 0 0.41230398004334667 0.049952802150498007 0 0.42729482051147022 0.054270026846767738 0 0.4233798085898926 0.045814337462531822 0 0.41230398004334667 0.049952802150498007 0 0.42729482051147022 0.054270026846767738 0 0.42729482051147022 0.054270026846767738 0 0.43241247921282849 0.048102756726204253 0 0.4233798085898926 0.045814337462531822 0 0.43241247921282849 0.048102756726204253 0 0.43617346338050439 0.055179525015054333 0 0.44174088268015632 0.045762656109252162 0 0.42729482051147022 0.054270026846767738 0 0.43241247921282849 0.048102756726204253 0 0.43617346338050439 0.055179525015054333 0 0.42729482051147022 0.054270026846767738 0 0.43617346338050439 0.055179525015054333 0 0.44228566097959371 0.058587251543037192 0 0.42934783510241331 0.069466376628937454 0 0.42729482051147022 0.054270026846767738 0 0.44228566097959371 0.058587251543037192 0 0.42729482051147022 0.054270026846767738 0 0.44228566097959371 0.058587251543037192 0 0.43113385368971929 0.040048340587146097 0 0.4275334722387672 0.02589293449345579 0 0.44373376439070827 0.034465916919647031 0 0.41816753616861818 0.036783364905397228 0 0.43113385368971929 0.040048340587146097 0 0.4275334722387672 0.02589293449345579 0 0.41816753616861818 0.036783364905397228 0 0.4233798085898926 0.045814337462531822 0 0.43113385368971929 0.040048340587146097 0 0.43241247921282849 0.048102756726204253 0 0.4233798085898926 0.045814337462531822 0 0.43113385368971929 0.040048340587146097 0 0.43241247921282849 0.048102756726204253 0 0.43113385368971929 0.040048340587146097 0 0.44174088268015632 0.045762656109252162 0 0.4275334722387672 0.02589293449345579 0 0.4229374319365431 0.010449586706577099 0 0.45224078871311268 0.018067348514375959 0 0.40177332910255498 0.032913831931892623 0 0.41288077334742851 0.026077942806859052 0 0.40814767044823091 0.013924653757044389 0 0.41288077334742851 0.026077942806859052 0 0.40814767044823091 0.013924653757044389 0 0.4229374319365431 0.010449586706577099 0 0.41816753616861818 0.036783364905397228 0 0.4275334722387672 0.02589293449345579 0 0.41288077334742851 0.026077942806859052 0 0.4275334722387672 0.02589293449345579 0 0.41288077334742851 0.026077942806859052 0 0.4229374319365431 0.010449586706577099 0 0.40814767044823091 0.013924653757044389 0 0.4229374319365431 0.010449586706577099 0 0.43306083578292748 0.0025205346097466538 0 0.40814767044823091 0.013924653757044389 0 0.41602210345152968 0.00055301565283292326 0 0.43306083578292748 0.0025205346097466538 0 0.40814767044823091 0.013924653757044389 0 0.43306083578292748 0.0025205346097466538 0 0.40238464504493571 0.001287509308259075 0 0.40814767044823091 0.013924653757044389 0 0.41602210345152968 0.00055301565283292326 0 0.4229374319365431 0.010449586706577099 0 0.43306083578292748 0.0025205346097466538 0 0.45224078871311268 0.018067348514375959 0 0.43306083578292748 0.0025205346097466538 0 0.45224078871311268 0.018067348514375959 0 0.45797400111762421 -0.0088835845375510487 0 0.4229374319365431 0.010449586706577099 0 0.45224078871311268 0.018067348514375959 0 0.4275334722387672 0.02589293449345579 0 0.45224078871311268 0.018067348514375959 0 0.44373376439070827 0.034465916919647031 0 0.45224078871311268 0.018067348514375959 0 0.45972033633065601 0.029299798752802031 0 0.44373376439070827 0.034465916919647031 0 0.4275334722387672 0.02589293449345579 0 0.45224078871311268 0.018067348514375959 0 0.45224078871311268 0.018067348514375959 0 0.47612039435655601 0.01050392464746893 0 0.47520091095174971 0.02403610982815613 0 0.45224078871311268 0.018067348514375959 0 0.47520091095174971 0.02403610982815613 0 0.45224078871311268 0.018067348514375959 0 0.45972033633065601 0.029299798752802031 0 0.47520091095174971 0.02403610982815613 0 0.45972033633065601 0.029299798752802031 0 0.47075484461144179 0.0335928028083382 0 0.47520091095174971 0.02403610982815613 0 0.45224078871311268 0.018067348514375959 0 0.46509864024943082 0.003813755222785931 0 0.47612039435655601 0.01050392464746893 0 0.45224078871311268 0.018067348514375959 0 0.46509864024943082 0.003813755222785931 0 0.45797400111762421 -0.0088835845375510487 0 0.45224078871311268 0.018067348514375959 0 0.47612039435655601 0.01050392464746893 0 0.43617346338050439 0.055179525015054333 0 0.46410604220657381 0.056512337669322142 0 0.45946861353887669 0.063535784435606826 0 0.44228566097959371 0.058587251543037192 0 0.43617346338050439 0.055179525015054333 0 0.44228566097959371 0.058587251543037192 0 0.46410604220657381 0.056512337669322142 0 0.43617346338050439 0.055179525015054333 0 0.45155305795951622 0.049477872122916218 0 0.46410604220657381 0.056512337669322142 0 0.43617346338050439 0.055179525015054333 0 0.45155305795951622 0.049477872122916218 0 0.44174088268015632 0.045762656109252162 0 0.45972033633065601 0.029299798752802031 0 0.44373376439070827 0.034465916919647031 0 0.45426197899726178 0.042047234887610113 0 0.45155305795951622 0.049477872122916218 0 0.44174088268015632 0.045762656109252162 0 0.45426197899726178 0.042047234887610113 0 0.44174088268015632 0.045762656109252162 0 0.44373376439070827 0.034465916919647031 0 0.45426197899726178 0.042047234887610113 0 0.43113385368971929 0.040048340587146097 0 0.44174088268015632 0.045762656109252162 0 0.44373376439070827 0.034465916919647031 0 0.45972033633065601 0.029299798752802031 0 0.46614037931866931 0.040697768663807372 0 0.45426197899726178 0.042047234887610113 0 0.45972033633065601 0.029299798752802031 0 0.46614037931866931 0.040697768663807372 0 0.47075484461144179 0.0335928028083382 0 0.46614037931866931 0.040697768663807372 0 0.46076617486429461 0.047884422560312542 0 0.46811300025820951 0.047493468606661107 0 0.46614037931866931 0.040697768663807372 0 0.45426197899726178 0.042047234887610113 0 0.46076617486429461 0.047884422560312542 0 0.45155305795951622 0.049477872122916218 0 0.45426197899726178 0.042047234887610113 0 0.46076617486429461 0.047884422560312542 0 0.45946861353887669 0.063535784435606826 0 0.44228566097959371 0.058587251543037192 0 0.46410604220657381 0.056512337669322142 0 0.45155305795951622 0.049477872122916218 0 0.46076617486429461 0.047884422560312542 0 0.46410604220657381 0.056512337669322142 0 0.46076617486429461 0.047884422560312542 0 0.46811300025820951 0.047493468606661107 0 0.46410604220657381 0.056512337669322142 0 0.45946861353887669 0.063535784435606826 0 0.46410604220657381 0.056512337669322142 0 0.47229500396614188 0.060490327883834863 0 0.46410604220657381 0.056512337669322142 0 0.49203862103264329 0.057845150323588439 0 0.47463641533206019 0.0502392894741268 0 0.4857826357888651 0.049942513856276682 0 0.49203862103264329 0.057845150323588439 0 0.48134132395923612 0.061513848977393891 0 0.47229500396614188 0.060490327883834863 0 0.49203862103264329 0.057845150323588439 0 0.46410604220657381 0.056512337669322142 0 0.47463641533206019 0.0502392894741268 0 0.49203862103264329 0.057845150323588439 0 0.46410604220657381 0.056512337669322142 0 0.47229500396614188 0.060490327883834863 0 0.49203862103264329 0.057845150323588439 0 0.47655201145450382 0.06335445886162748 0 0.48134132395923612 0.061513848977393891 0 0.47229500396614188 0.060490327883834863 0 0.46811300025820951 0.047493468606661107 0 0.46410604220657381 0.056512337669322142 0 0.47463641533206019 0.0502392894741268 0 0.47463641533206019 0.0502392894741268 0 0.48395771102749552 0.042432255187182438 0 0.4857826357888651 0.049942513856276682 0 0.48395771102749552 0.042432255187182438 0 0.47368208818792779 0.041558164232774912 0 0.47849017857969051 0.034893400656533499 0 0.47463641533206019 0.0502392894741268 0 0.48395771102749552 0.042432255187182438 0 0.47368208818792779 0.041558164232774912 0 0.46811300025820951 0.047493468606661107 0 0.47463641533206019 0.0502392894741268 0 0.47368208818792779 0.041558164232774912 0 0.46614037931866931 0.040697768663807372 0 0.46811300025820951 0.047493468606661107 0 0.47368208818792779 0.041558164232774912 0 0.46614037931866931 0.040697768663807372 0 0.47368208818792779 0.041558164232774912 0 0.47075484461144179 0.0335928028083382 0 0.47368208818792779 0.041558164232774912 0 0.47075484461144179 0.0335928028083382 0 0.47849017857969051 0.034893400656533499 0 0.48395771102749552 0.042432255187182438 0 0.47849017857969051 0.034893400656533499 0 0.4879682225848187 0.033820605055926413 0 0.49999999999999989 0.052340364594205969 0 0.49816103319038668 0.030004871141936219 0 0.5 0.027640432687384031 0 0.49274719016617341 0.041541217315483103 0 0.49999999999999989 0.052340364594205969 0 0.49816103319038668 0.030004871141936219 0 0.4879682225848187 0.033820605055926413 0 0.49274719016617341 0.041541217315483103 0 0.49816103319038668 0.030004871141936219 0 0.48395771102749552 0.042432255187182438 0 0.49274719016617341 0.041541217315483103 0 0.49168526302845228 0.049032411366300391 0 0.48395771102749552 0.042432255187182438 0 0.4879682225848187 0.033820605055926413 0 0.49274719016617341 0.041541217315483103 0 0.4857826357888651 0.049942513856276682 0 0.49168526302845228 0.049032411366300391 0 0.49203862103264329 0.057845150323588439 0 0.48395771102749552 0.042432255187182438 0 0.4857826357888651 0.049942513856276682 0 0.49168526302845228 0.049032411366300391 0 0.49274719016617341 0.041541217315483103 0 0.49168526302845228 0.049032411366300391 0 0.49999999999999989 0.052340364594205969 0 0.49168526302845228 0.049032411366300391 0 0.49999999999999989 0.052340364594205969 0 0.49203862103264329 0.057845150323588439 0 0.49999999999999922 0.058225030273063472 0 0.49203862103264329 0.057845150323588439 0 0.49999999999999989 0.052340364594205969 0 0.49999999999999922 0.058225030273063472 0 0.49203862103264329 0.057845150323588439 0 0.49999999999999989 0.052340364594205969 0 0.49203862103264329 0.057845150323588439 0 0.49141839264781861 0.065281604829388981 0 0.49999999999999922 0.058225030273063472 0 0.49203862103264329 0.057845150323588439 0 0.48198447606122702 0.064796950255070235 0 0.49203862103264329 0.057845150323588439 0 0.48198447606122702 0.064796950255070235 0 0.48134132395923612 0.061513848977393891 0 0.49203862103264329 0.057845150323588439 0 0.46509864024943082 0.003813755222785931 0 0.47612039435655601 0.01050392464746893 0 0.47405937681043042 -0.0044326677331501148 0 0.47075484461144179 0.0335928028083382 0 0.47849017857969051 0.034893400656533499 0 0.47520091095174971 0.02403610982815613 0 0.47849017857969051 0.034893400656533499 0 0.4879682225848187 0.033820605055926413 0 0.47520091095174971 0.02403610982815613 0 0.47612039435655601 0.01050392464746893 0 0.47520091095174971 0.02403610982815613 0 0.48915207712596359 0.019746370436263209 0 0.47520091095174971 0.02403610982815613 0 0.48915207712596359 0.019746370436263209 0 0.49816103319038668 0.030004871141936219 0 0.4879682225848187 0.033820605055926413 0 0.47520091095174971 0.02403610982815613 0 0.49816103319038668 0.030004871141936219 0 0.47520091095174971 0.02403610982815613 0 0.49816103319038668 0.030004871141936219 0 0.48915207712596359 0.019746370436263209 0 0.5 0.027640432687384031 0 0.49999999999999928 0.0029405007805621869 0 0.48915207712596359 0.019746370436263209 0 0.49816103319038668 0.030004871141936219 0 0.5 0.027640432687384031 0 0.47612039435655601 0.01050392464746893 0 0.48915207712596359 0.019746370436263209 0 0.49999999999999928 0.0029405007805621869 0 0.47612039435655601 0.01050392464746893 0 0.49999999999999928 0.0029405007805621869 0 0.48661338752386141 -0.0072653667984014349 0 0.47612039435655601 0.01050392464746893 0 0.49999999999999928 0.0029405007805621869 0 0.49999999999999928 0.0029405007805621869 0 0.48661338752386141 -0.0072653667984014349 0 0.5 -0.025050888002039421 0 0.48288716645232072 -0.020287703684848751 0 0.45797400111762421 -0.0088835845375510487 0 0.48661338752386141 -0.0072653667984014349 0 0.47405937681043042 -0.0044326677331501148 0 0.48288716645232072 -0.020287703684848751 0 0.47405937681043042 -0.0044326677331501148 0 0.48288716645232072 -0.020287703684848751 0 0.45797400111762421 -0.0088835845375510487 0 0.47612039435655601 0.01050392464746893 0 0.48661338752386141 -0.0072653667984014349 0 0.47405937681043042 -0.0044326677331501148 0 0.48288716645232072 -0.020287703684848751 0 0.48311843445209313 -0.040227722597724391 0 0.46278480469246092 -0.029917716688331802 0 0.48288716645232072 -0.020287703684848751 0 0.5 -0.025050888002039421 0 0.48311843445209313 -0.040227722597724391 0 0.48661338752386141 -0.0072653667984014349 0 0.48288716645232072 -0.020287703684848751 0 0.5 -0.025050888002039421 0 0.5 -0.025050888002039421 0 0.5 -0.053042276784640963 0 0.48311843445209313 -0.040227722597724391 0 0.5 -0.053042276784640963 0 0.48311843445209313 -0.040227722597724391 0 0.47915419491146849 -0.06250408502136752 0 0.48311843445209313 -0.040227722597724391 0 0.46180036330649032 -0.050478320461888528 0 0.47915419491146849 -0.06250408502136752 0 0.48311843445209313 -0.040227722597724391 0 0.46180036330649032 -0.050478320461888528 0 0.46278480469246092 -0.029917716688331802 0 0.46180036330649032 -0.050478320461888528 0 0.43816979888384538 -0.038389817865375972 0 0.46278480469246092 -0.029917716688331802 0 0.46180036330649032 -0.050478320461888528 0 0.45969015021141568 -0.066679068659805094 0 0.43983363117412871 -0.064751743959087185 0 0.46180036330649032 -0.050478320461888528 0 0.47915419491146849 -0.06250408502136752 0 0.45969015021141568 -0.066679068659805094 0 0.46180036330649032 -0.050478320461888528 0 0.43816979888384538 -0.038389817865375972 0 0.43983363117412871 -0.064751743959087185 0 0.43816979888384538 -0.038389817865375972 0 0.43983363117412871 -0.064751743959087185 0 0.43816979888384538 -0.038389817865375972 0 0.44889684984714862 -0.022337763707518169 0 0.43650596659356222 -0.01202789177166475 0 0.43816979888384538 -0.038389817865375972 0 0.44889684984714862 -0.022337763707518169 0 0.46278480469246092 -0.029917716688331802 0 0.43306083578292748 0.0025205346097466538 0 0.45797400111762421 -0.0088835845375510487 0 0.43306083578292748 0.0025205346097466538 0 0.45797400111762421 -0.0088835845375510487 0 0.43650596659356222 -0.01202789177166475 0 0.44889684984714862 -0.022337763707518169 0 0.45797400111762421 -0.0088835845375510487 0 0.43650596659356222 -0.01202789177166475 0 0.46509864024943082 0.003813755222785931 0 0.47405937681043042 -0.0044326677331501148 0 0.45797400111762421 -0.0088835845375510487 0 0.48288716645232072 -0.020287703684848751 0 0.45797400111762421 -0.0088835845375510487 0 0.46278480469246092 -0.029917716688331802 0 0.44889684984714862 -0.022337763707518169 0 0.45797400111762421 -0.0088835845375510487 0 0.46278480469246092 -0.029917716688331802 0 0.4756219178793622 -0.1128785738623389 0 0.46749167243231382 -0.1198217170993895 0 0.47508342966173922 -0.12530855750060921 0 0.46749167243231382 -0.1198217170993895 0 0.46740508961049843 -0.1280090345356969 0 0.47508342966173922 -0.12530855750060921 0 0.4756219178793622 -0.1128785738623389 0 0.48631863465428371 -0.1248194111880794 0 0.47508342966173922 -0.12530855750060921 0 0.4756219178793622 -0.1128785738623389 0 0.48631863465428371 -0.1248194111880794 0 0.5 -0.10902505434984409 0 0.48631863465428371 -0.1248194111880794 0 0.5 -0.10902505434984409 0 0.4999999999999975 -0.13701644313244571 0 0.48544172654116369 -0.095963608704080994 0 0.5 -0.10902505434984409 0 0.5 -0.081033665567242508 0 0.4756219178793622 -0.1128785738623389 0 0.48544172654116369 -0.095963608704080994 0 0.5 -0.10902505434984409 0 0.4756219178793622 -0.1128785738623389 0 0.48544172654116369 -0.095963608704080994 0 0.46617568739111909 -0.098403405739485167 0 0.48544172654116369 -0.095963608704080994 0 0.47031622149881258 -0.083563456056903684 0 0.46617568739111909 -0.098403405739485167 0 0.48544172654116369 -0.095963608704080994 0 0.47031622149881258 -0.083563456056903684 0 0.5 -0.081033665567242508 0 0.5 -0.053042276784640963 0 0.5 -0.081033665567242508 0 0.47915419491146849 -0.06250408502136752 0 0.47031622149881258 -0.083563456056903684 0 0.47915419491146849 -0.06250408502136752 0 0.45969015021141568 -0.066679068659805094 0 0.47031622149881258 -0.083563456056903684 0 0.5 -0.081033665567242508 0 0.47915419491146849 -0.06250408502136752 0 0.43983363117412871 -0.064751743959087185 0 0.44149746346441182 -0.091113670052798315 0 0.45969015021141568 -0.066679068659805094 0 0.43983363117412871 -0.064751743959087185 0 0.44149746346441182 -0.091113670052798315 0 0.47031622149881258 -0.083563456056903684 0 0.45969015021141568 -0.066679068659805094 0 0.44149746346441182 -0.091113670052798315 0 0.47031622149881258 -0.083563456056903684 0 0.44149746346441182 -0.091113670052798315 0 0.46617568739111909 -0.098403405739485167 0 0.44149746346441182 -0.091113670052798315 0 0.46617568739111909 -0.098403405739485167 0 0.46007895930705972 -0.109272908840431 0 0.4756219178793622 -0.1128785738623389 0 0.46617568739111909 -0.098403405739485167 0 0.46007895930705972 -0.109272908840431 0 0.44149746346441182 -0.091113670052798315 0 0.44316129575469432 -0.1174755961465095 0 0.44149746346441182 -0.091113670052798315 0 0.45103208736276712 -0.114995348691852 0 0.44316129575469432 -0.1174755961465095 0 0.44149746346441182 -0.091113670052798315 0 0.46007895930705972 -0.109272908840431 0 0.45103208736276712 -0.114995348691852 0 0.45103208736276712 -0.114995348691852 0 0.44316129575469432 -0.1174755961465095 0 0.44316129575469432 -0.1174755961465095 0 0.44360952062101239 -0.12457731599425489 0 0.43321649721482008 -0.12734116507156709 0 0.44316129575469432 -0.1174755961465095 0 0.44360952062101239 -0.12457731599425489 0 0.44844945590559981 -0.1207068388283653 0 0.44316129575469432 -0.1174755961465095 0 0.44360952062101239 -0.12457731599425489 0 0.45103208736276712 -0.114995348691852 0 0.44844945590559981 -0.1207068388283653 0 0.45435526495467082 -0.1235771025221362 0 0.44360952062101239 -0.12457731599425489 0 0.44844945590559981 -0.1207068388283653 0 0.44616294079318658 -0.1295115982927616 0 0.45103208736276712 -0.114995348691852 0 0.44316129575469432 -0.1174755961465095 0 0.44844945590559981 -0.1207068388283653 0 0.44844945590559981 -0.1207068388283653 0 0.45435526495467082 -0.1235771025221362 0 0.44616294079318658 -0.1295115982927616 0 0.45103208736276712 -0.114995348691852 0 0.45435526495467082 -0.1235771025221362 0 0.45865492731238461 -0.1184247375967219 0 0.45435526495467082 -0.1235771025221362 0 0.45865492731238461 -0.1184247375967219 0 0.46157148455332969 -0.12517052751972901 0 0.46007895930705972 -0.109272908840431 0 0.45103208736276712 -0.114995348691852 0 0.45865492731238461 -0.1184247375967219 0 0.4756219178793622 -0.1128785738623389 0 0.46007895930705972 -0.109272908840431 0 0.46749167243231382 -0.1198217170993895 0 0.46007895930705972 -0.109272908840431 0 0.45865492731238461 -0.1184247375967219 0 0.46749167243231382 -0.1198217170993895 0 0.46749167243231382 -0.1198217170993895 0 0.46157148455332969 -0.12517052751972901 0 0.46740508961049843 -0.1280090345356969 0 0.45865492731238461 -0.1184247375967219 0 0.46749167243231382 -0.1198217170993895 0 0.46157148455332969 -0.12517052751972901 0 0.41029395300418309 -0.1112676529078211 0 0.4193310385157204 -0.1249849977167619 0 0.42678458430046951 -0.10798958204280509 0 0.41029395300418309 -0.1112676529078211 0 0.4193310385157204 -0.1249849977167619 0 0.40333775820725248 -0.1217211762340845 0 0.44316129575469432 -0.1174755961465095 0 0.4193310385157204 -0.1249849977167619 0 0.44316129575469432 -0.1174755961465095 0 0.4193310385157204 -0.1249849977167619 0 0.43321649721482008 -0.12734116507156709 0 0.44316129575469432 -0.1174755961465095 0 0.4193310385157204 -0.1249849977167619 0 0.42678458430046951 -0.10798958204280509 0 0.44149746346441182 -0.091113670052798315 0 0.42678458430046951 -0.10798958204280509 0 0.41456056443478678 -0.093949003313036572 0 0.44149746346441182 -0.091113670052798315 0 0.44316129575469432 -0.1174755961465095 0 0.42678458430046951 -0.10798958204280509 0 0.41029395300418309 -0.1112676529078211 0 0.42678458430046951 -0.10798958204280509 0 0.41456056443478678 -0.093949003313036572 0 0.41029395300418309 -0.1112676529078211 0 0.41456056443478678 -0.093949003313036572 0 0.40072532477094258 -0.1034107738306216 0 0.41456056443478678 -0.093949003313036572 0 0.4239096019348047 -0.077506151537960713 0 0.40405590977968642 -0.076157024841875587 0 0.44149746346441182 -0.091113670052798315 0 0.41456056443478678 -0.093949003313036572 0 0.4239096019348047 -0.077506151537960713 0 0.43983363117412871 -0.064751743959087185 0 0.44149746346441182 -0.091113670052798315 0 0.4239096019348047 -0.077506151537960713 0 0.43983363117412871 -0.064751743959087185 0 0.4239096019348047 -0.077506151537960713 0 0.41687809721215852 -0.058252055987956637 0 0.3990838221870881 -0.062681547344835289 0 0.40405590977968642 -0.076157024841875587 0 0.41687809721215852 -0.058252055987956637 0 0.4239096019348047 -0.077506151537960713 0 0.40405590977968642 -0.076157024841875587 0 0.41687809721215852 -0.058252055987956637 0 0.40405590977968642 -0.076157024841875587 0 0.39052589237044522 -0.06986320397682462 0 0.38716046361447393 -0.080784330836314228 0 0.3990838221870881 -0.062681547344835289 0 0.40405590977968642 -0.076157024841875587 0 0.39052589237044522 -0.06986320397682462 0 0.3990838221870881 -0.062681547344835289 0 0.39052589237044522 -0.06986320397682462 0 0.38185671821547068 -0.059539617530821043 0 0.39052589237044522 -0.06986320397682462 0 0.37999397765270099 -0.072750812106699439 0 0.38185671821547068 -0.059539617530821043 0 0.37999397765270099 -0.072750812106699439 0 0.38185671821547068 -0.059539617530821043 0 0.36657386302136341 -0.070686606899855023 0 0.39052589237044522 -0.06986320397682462 0 0.37999397765270099 -0.072750812106699439 0 0.38716046361447393 -0.080784330836314228 0 0.38716046361447393 -0.080784330836314228 0 0.38249325919362381 -0.091593965672730995 0 0.3737532488745004 -0.083421408118103613 0 0.37999397765270099 -0.072750812106699439 0 0.38716046361447393 -0.080784330836314228 0 0.3737532488745004 -0.083421408118103613 0 0.38249325919362381 -0.091593965672730995 0 0.3737532488745004 -0.083421408118103613 0 0.37140080656200469 -0.097581835557020574 0 0.38716046361447393 -0.080784330836314228 0 0.38249325919362381 -0.091593965672730995 0 0.39505479978193869 -0.090847474130506478 0 0.41456056443478678 -0.093949003313036572 0 0.40405590977968642 -0.076157024841875587 0 0.39505479978193869 -0.090847474130506478 0 0.40405590977968642 -0.076157024841875587 0 0.38716046361447393 -0.080784330836314228 0 0.39505479978193869 -0.090847474130506478 0 0.41456056443478678 -0.093949003313036572 0 0.39505479978193869 -0.090847474130506478 0 0.40072532477094258 -0.1034107738306216 0 0.40072532477094258 -0.1034107738306216 0 0.3854946631281303 -0.105984085874843 0 0.39550833704813992 -0.11514456456236789 0 0.39505479978193869 -0.090847474130506478 0 0.40072532477094258 -0.1034107738306216 0 0.3854946631281303 -0.105984085874843 0 0.38249325919362381 -0.091593965672730995 0 0.39505479978193869 -0.090847474130506478 0 0.3854946631281303 -0.105984085874843 0 0.38249325919362381 -0.091593965672730995 0 0.3854946631281303 -0.105984085874843 0 0.37140080656200469 -0.097581835557020574 0 0.37510744705977711 -0.10933737253140691 0 0.3854946631281303 -0.105984085874843 0 0.37140080656200469 -0.097581835557020574 0 0.3854946631281303 -0.105984085874843 0 0.3868432880593981 -0.1182168326532521 0 0.39550833704813992 -0.11514456456236789 0 0.3854946631281303 -0.105984085874843 0 0.37807172595975502 -0.11875126214602889 0 0.3868432880593981 -0.1182168326532521 0 0.37510744705977711 -0.10933737253140691 0 0.3854946631281303 -0.105984085874843 0 0.37807172595975502 -0.11875126214602889 0 0.37807172595975502 -0.11875126214602889 0 0.37264530279310082 -0.12848939238147181 0 0.38264701268865892 -0.12740858735565361 0 0.37807172595975502 -0.11875126214602889 0 0.3868432880593981 -0.1182168326532521 0 0.38264701268865892 -0.12740858735565361 0 0.3868432880593981 -0.1182168326532521 0 0.39249470147230658 -0.1237956633273669 0 0.38264701268865892 -0.12740858735565361 0 0.39249470147230658 -0.1237956633273669 0 0.39550833704813992 -0.11514456456236789 0 0.40333775820725248 -0.1217211762340845 0 0.3868432880593981 -0.1182168326532521 0 0.39249470147230658 -0.1237956633273669 0 0.39550833704813992 -0.11514456456236789 0 0.41029395300418309 -0.1112676529078211 0 0.39550833704813992 -0.11514456456236789 0 0.40333775820725248 -0.1217211762340845 0 0.41029395300418309 -0.1112676529078211 0 0.40072532477094258 -0.1034107738306216 0 0.39550833704813992 -0.11514456456236789 0 0.41139858080114311 -0.018989648808204491 0 0.41492503893139931 -0.038076464061062389 0 0.39956718326415219 -0.035003263314197577 0 0.41139858080114311 -0.018989648808204491 0 0.42424235825940743 -0.023689822013302029 0 0.41492503893139931 -0.038076464061062389 0 0.41139858080114311 -0.018989648808204491 0 0.42366110924148881 -0.0080828886117897125 0 0.42424235825940743 -0.023689822013302029 0 0.41139858080114311 -0.018989648808204491 0 0.41285625674006599 -0.0068847307990957899 0 0.40053470650595402 -0.009992695869211525 0 0.40238464504493571 0.001287509308259075 0 0.41602210345152968 0.00055301565283292326 0 0.41285625674006599 -0.0068847307990957899 0 0.41602210345152968 0.00055301565283292326 0 0.41285625674006599 -0.0068847307990957899 0 0.42366110924148881 -0.0080828886117897125 0 0.41139858080114311 -0.018989648808204491 0 0.41285625674006599 -0.0068847307990957899 0 0.42366110924148881 -0.0080828886117897125 0 0.42366110924148881 -0.0080828886117897125 0 0.43650596659356222 -0.01202789177166475 0 0.42424235825940743 -0.023689822013302029 0 0.41602210345152968 0.00055301565283292326 0 0.43306083578292748 0.0025205346097466538 0 0.42366110924148881 -0.0080828886117897125 0 0.43306083578292748 0.0025205346097466538 0 0.42366110924148881 -0.0080828886117897125 0 0.43650596659356222 -0.01202789177166475 0 0.43816979888384538 -0.038389817865375972 0 0.43650596659356222 -0.01202789177166475 0 0.42424235825940743 -0.023689822013302029 0 0.43816979888384538 -0.038389817865375972 0 0.43650596659356222 -0.01202789177166475 0 0.43816979888384538 -0.038389817865375972 0 0.42424235825940743 -0.023689822013302029 0 0.41492503893139931 -0.038076464061062389 0 0.43816979888384538 -0.038389817865375972 0 0.41687809721215852 -0.058252055987956637 0 0.41492503893139931 -0.038076464061062389 0 0.43816979888384538 -0.038389817865375972 0 0.43983363117412871 -0.064751743959087185 0 0.41687809721215852 -0.058252055987956637 0 0.41687809721215852 -0.058252055987956637 0 0.41492503893139931 -0.038076464061062389 0 0.39992333325881629 -0.049257040633457157 0 0.41492503893139931 -0.038076464061062389 0 0.39956718326415219 -0.035003263314197577 0 0.39992333325881629 -0.049257040633457157 0 0.39956718326415219 -0.035003263314197577 0 0.39992333325881629 -0.049257040633457157 0 0.38818478040825249 -0.042446684090335189 0 0.39956718326415219 -0.035003263314197577 0 0.38818478040825249 -0.042446684090335189 0 0.38660702378518952 -0.02684838915973186 0 0.3990838221870881 -0.062681547344835289 0 0.41687809721215852 -0.058252055987956637 0 0.39992333325881629 -0.049257040633457157 0 0.3990838221870881 -0.062681547344835289 0 0.39992333325881629 -0.049257040633457157 0 0.38185671821547068 -0.059539617530821043 0 0.39992333325881629 -0.049257040633457157 0 0.38185671821547068 -0.059539617530821043 0 0.38818478040825249 -0.042446684090335189 0 0.37682232149477651 -0.047660390792675852 0 0.38185671821547068 -0.059539617530821043 0 0.38818478040825249 -0.042446684090335189 0 0.37682232149477651 -0.047660390792675852 0 0.38818478040825249 -0.042446684090335189 0 0.37355505143116918 -0.032001718578081997 0 0.38818478040825249 -0.042446684090335189 0 0.38660702378518952 -0.02684838915973186 0 0.37355505143116918 -0.032001718578081997 0 0.38660702378518952 -0.02684838915973186 0 0.37268846663845001 -0.015806780506451901 0 0.37355505143116918 -0.032001718578081997 0 0.38660702378518952 -0.02684838915973186 0 0.38809680984712808 -0.01334525824752782 0 0.37268846663845001 -0.015806780506451901 0 0.41139858080114311 -0.018989648808204491 0 0.39956718326415219 -0.035003263314197577 0 0.39763304270178179 -0.021207540887041292 0 0.39956718326415219 -0.035003263314197577 0 0.38660702378518952 -0.02684838915973186 0 0.39763304270178179 -0.021207540887041292 0 0.38660702378518952 -0.02684838915973186 0 0.39763304270178179 -0.021207540887041292 0 0.38809680984712808 -0.01334525824752782 0 0.41139858080114311 -0.018989648808204491 0 0.39763304270178179 -0.021207540887041292 0 0.40053470650595402 -0.009992695869211525 0 0.40238464504493571 0.001287509308259075 0 0.41285625674006599 -0.0068847307990957899 0 0.40053470650595402 -0.009992695869211525 0 0.39763304270178179 -0.021207540887041292 0 0.40053470650595402 -0.009992695869211525 0 0.38809680984712808 -0.01334525824752782 0 0.40053470650595402 -0.009992695869211525 0 0.39083890390067 -0.00081650578165883979 0 0.38809680984712808 -0.01334525824752782 0 0.40238464504493571 0.001287509308259075 0 0.40053470650595402 -0.009992695869211525 0 0.39083890390067 -0.00081650578165883979 0 0.39083890390067 -0.00081650578165883979 0 0.38809680984712808 -0.01334525824752782 0 0.3793334440860559 -0.0047231161978346864 0 0.38809680984712808 -0.01334525824752782 0 0.3793334440860559 -0.0047231161978346864 0 0.37268846663845001 -0.015806780506451901 0 0.367426120563213 0.0011923754251482459 0 0.37268846663845001 -0.015806780506451901 0 0.35749907648853491 -0.012308244723177739 0 0.367426120563213 0.0011923754251482459 0 0.3793334440860559 -0.0047231161978346864 0 0.37268846663845001 -0.015806780506451901 0 0.37268846663845001 -0.015806780506451901 0 0.36273897761436391 -0.02011813178193133 0 0.37355505143116918 -0.032001718578081997 0 0.36273897761436391 -0.02011813178193133 0 0.359973336769633 -0.028727431620334521 0 0.35578378749202733 -0.021235914601047311 0 0.37268846663845001 -0.015806780506451901 0 0.36273897761436391 -0.02011813178193133 0 0.35749907648853491 -0.012308244723177739 0 0.36273897761436391 -0.02011813178193133 0 0.359973336769633 -0.028727431620334521 0 0.37355505143116918 -0.032001718578081997 0 0.34383172177265098 -0.020165091196794761 0 0.33964558233498793 -0.036603267241073253 0 0.34977435484800612 -0.031349831820363848 0 0.359973336769633 -0.028727431620334521 0 0.3513100667200032 -0.024738210814141209 0 0.34977435484800612 -0.031349831820363848 0 0.359973336769633 -0.028727431620334521 0 0.35578378749202733 -0.021235914601047311 0 0.3513100667200032 -0.024738210814141209 0 0.35578378749202733 -0.021235914601047311 0 0.34955274976633388 -0.020538383292240388 0 0.35749907648853491 -0.012308244723177739 0 0.36273897761436391 -0.02011813178193133 0 0.35578378749202733 -0.021235914601047311 0 0.35749907648853491 -0.012308244723177739 0 0.35578378749202733 -0.021235914601047311 0 0.34955274976633388 -0.020538383292240388 0 0.3513100667200032 -0.024738210814141209 0 0.34383172177265098 -0.020165091196794761 0 0.34955274976633388 -0.020538383292240388 0 0.35749907648853491 -0.012308244723177739 0 0.34383172177265098 -0.020165091196794761 0 0.34955274976633388 -0.020538383292240388 0 0.3513100667200032 -0.024738210814141209 0 0.34383172177265098 -0.020165091196794761 0 0.3513100667200032 -0.024738210814141209 0 0.34977435484800612 -0.031349831820363848 0 0.367426120563213 0.0011923754251482459 0 0.35107653077574552 0.0082839004274214839 0 0.35749907648853491 -0.012308244723177739 0 0.35107653077574552 0.0082839004274214839 0 0.34383172177265098 -0.020165091196794761 0 0.35107653077574552 0.0082839004274214839 0 0.34383172177265098 -0.020165091196794761 0 0.35749907648853491 -0.012308244723177739 0 0.35107653077574552 0.0082839004274214839 0 0.34383172177265098 -0.020165091196794761 0 0.32476018564880282 -0.0059557655257515144 0 0.34383172177265098 -0.020165091196794761 0 0.32476018564880282 -0.0059557655257515144 0 0.34383172177265098 -0.020165091196794761 0 0.32985741002585961 -0.025593597023564771 0 0.33964558233498793 -0.036603267241073253 0 0.34383172177265098 -0.020165091196794761 0 0.32985741002585961 -0.025593597023564771 0 0.32476018564880282 -0.0059557655257515144 0 0.34383172177265098 -0.020165091196794761 0 0.33964558233498793 -0.036603267241073253 0 0.32985741002585961 -0.025593597023564771 0 0.31541028721149411 -0.027280764618136812 0 0.32476018564880282 -0.0059557655257515144 0 0.32985741002585961 -0.025593597023564771 0 0.31541028721149411 -0.027280764618136812 0 0.32312305455415441 -0.0406624791470621 0 0.30568864952496 0.0082535601452990992 0 0.32476018564880282 -0.0059557655257515144 0 0.3090991736871041 -0.01106957266485648 0 0.31541028721149411 -0.027280764618136812 0 0.32476018564880282 -0.0059557655257515144 0 0.3090991736871041 -0.01106957266485648 0 0.32312305455415441 -0.0406624791470621 0 0.33545944289732132 -0.053041443285350882 0 0.31213989077845722 -0.06028194207248011 0 0.33545944289732132 -0.053041443285350882 0 0.31213989077845722 -0.06028194207248011 0 0.32312305455415441 -0.0406624791470621 0 0.30604861535726807 -0.041363850971932611 0 0.31213989077845722 -0.06028194207248011 0 0.31541028721149411 -0.027280764618136812 0 0.32312305455415441 -0.0406624791470621 0 0.30604861535726807 -0.041363850971932611 0 0.32312305455415441 -0.0406624791470621 0 0.33964558233498793 -0.036603267241073253 0 0.33545944289732132 -0.053041443285350882 0 0.33964558233498793 -0.036603267241073253 0 0.33545944289732132 -0.053041443285350882 0 0.35104722325007892 -0.048201585977504929 0 0.33964558233498793 -0.036603267241073253 0 0.33545944289732132 -0.053041443285350882 0 0.32985741002585961 -0.025593597023564771 0 0.32312305455415441 -0.0406624791470621 0 0.33964558233498793 -0.036603267241073253 0 0.33545944289732132 -0.053041443285350882 0 0.35104722325007892 -0.048201585977504929 0 0.33545944289732132 -0.053041443285350882 0 0.35104722325007892 -0.048201585977504929 0 0.34835321149925952 -0.068411922064241015 0 0.35104722325007892 -0.048201585977504929 0 0.36537723908602332 -0.056397365978348872 0 0.34835321149925952 -0.068411922064241015 0 0.33964558233498793 -0.036603267241073253 0 0.35104722325007892 -0.048201585977504929 0 0.34977435484800612 -0.031349831820363848 0 0.35104722325007892 -0.048201585977504929 0 0.34977435484800612 -0.031349831820363848 0 0.35718789128419798 -0.037828257852068309 0 0.35104722325007892 -0.048201585977504929 0 0.35718789128419798 -0.037828257852068309 0 0.36663500360283652 -0.043361728669658997 0 0.35104722325007892 -0.048201585977504929 0 0.36663500360283652 -0.043361728669658997 0 0.359973336769633 -0.028727431620334521 0 0.34977435484800612 -0.031349831820363848 0 0.35718789128419798 -0.037828257852068309 0 0.37682232149477651 -0.047660390792675852 0 0.36663500360283652 -0.043361728669658997 0 0.37355505143116918 -0.032001718578081997 0 0.359973336769633 -0.028727431620334521 0 0.36663500360283652 -0.043361728669658997 0 0.37355505143116918 -0.032001718578081997 0 0.359973336769633 -0.028727431620334521 0 0.35718789128419798 -0.037828257852068309 0 0.36663500360283652 -0.043361728669658997 0 0.38185671821547068 -0.059539617530821043 0 0.36537723908602332 -0.056397365978348872 0 0.36657386302136341 -0.070686606899855023 0 0.37682232149477651 -0.047660390792675852 0 0.38185671821547068 -0.059539617530821043 0 0.36537723908602332 -0.056397365978348872 0 0.35104722325007892 -0.048201585977504929 0 0.36663500360283652 -0.043361728669658997 0 0.36537723908602332 -0.056397365978348872 0 0.37682232149477651 -0.047660390792675852 0 0.36663500360283652 -0.043361728669658997 0 0.36537723908602332 -0.056397365978348872 0 0.36537723908602332 -0.056397365978348872 0 0.36657386302136341 -0.070686606899855023 0 0.34835321149925952 -0.068411922064241015 0 0.37999397765270099 -0.072750812106699439 0 0.36657386302136341 -0.070686606899855023 0 0.3737532488745004 -0.083421408118103613 0 0.3737532488745004 -0.083421408118103613 0 0.35554720617335112 -0.086970505231836789 0 0.37140080656200469 -0.097581835557020574 0 0.36657386302136341 -0.070686606899855023 0 0.3737532488745004 -0.083421408118103613 0 0.35554720617335112 -0.086970505231836789 0 0.35554720617335112 -0.086970505231836789 0 0.34835321149925952 -0.068411922064241015 0 0.33897359687706391 -0.090134937825729983 0 0.36657386302136341 -0.070686606899855023 0 0.35554720617335112 -0.086970505231836789 0 0.34835321149925952 -0.068411922064241015 0 0.36979436099952268 -0.1192923436573685 0 0.36208889453912868 -0.1110338188079027 0 0.36162311814362658 -0.12598057538412091 0 0.37807172595975502 -0.11875126214602889 0 0.36979436099952268 -0.1192923436573685 0 0.37264530279310082 -0.12848939238147181 0 0.36979436099952268 -0.1192923436573685 0 0.37264530279310082 -0.12848939238147181 0 0.36162311814362658 -0.12598057538412091 0 0.37510744705977711 -0.10933737253140691 0 0.37807172595975502 -0.11875126214602889 0 0.36979436099952268 -0.1192923436573685 0 0.37510744705977711 -0.10933737253140691 0 0.36979436099952268 -0.1192923436573685 0 0.36208889453912868 -0.1110338188079027 0 0.35554720617335112 -0.086970505231836789 0 0.37140080656200469 -0.097581835557020574 0 0.35920675474834179 -0.10026632148279579 0 0.36208889453912868 -0.1110338188079027 0 0.37140080656200469 -0.097581835557020574 0 0.35920675474834179 -0.10026632148279579 0 0.37510744705977711 -0.10933737253140691 0 0.36208889453912868 -0.1110338188079027 0 0.37140080656200469 -0.097581835557020574 0 0.35554720617335112 -0.086970505231836789 0 0.35920675474834179 -0.10026632148279579 0 0.34734450687431062 -0.1046893164028975 0 0.35554720617335112 -0.086970505231836789 0 0.34734450687431062 -0.1046893164028975 0 0.33897359687706391 -0.090134937825729983 0 0.36208889453912868 -0.1110338188079027 0 0.35920675474834179 -0.10026632148279579 0 0.34734450687431062 -0.1046893164028975 0 0.34734450687431062 -0.1046893164028975 0 0.35033710761940412 -0.1182944096234021 0 0.33451146657312381 -0.11753635235919251 0 0.36208889453912868 -0.1110338188079027 0 0.34734450687431062 -0.1046893164028975 0 0.35033710761940412 -0.1182944096234021 0 0.36208889453912868 -0.1110338188079027 0 0.35033710761940412 -0.1182944096234021 0 0.36162311814362658 -0.12598057538412091 0 0.35033710761940412 -0.1182944096234021 0 0.33451146657312381 -0.11753635235919251 0 0.34593654893522813 -0.13151216816619529 0 0.34734450687431062 -0.1046893164028975 0 0.33451146657312381 -0.11753635235919251 0 0.3234854644436771 -0.1000609868773128 0 0.34734450687431062 -0.1046893164028975 0 0.3234854644436771 -0.1000609868773128 0 0.33897359687706391 -0.090134937825729983 0 0.3234854644436771 -0.1000609868773128 0 0.31749847521685498 -0.1235707586732938 0 0.30185440508622918 -0.1119289979285859 0 0.33451146657312381 -0.11753635235919251 0 0.3234854644436771 -0.1000609868773128 0 0.31749847521685498 -0.1235707586732938 0 0.3234854644436771 -0.1000609868773128 0 0.31749847521685498 -0.1235707586732938 0 0.33545944289732132 -0.053041443285350882 0 0.34835321149925952 -0.068411922064241015 0 0.32947245367049932 -0.076551215081331836 0 0.33545944289732132 -0.053041443285350882 0 0.32947245367049932 -0.076551215081331836 0 0.3234854644436771 -0.1000609868773128 0 0.32947245367049932 -0.076551215081331836 0 0.33897359687706391 -0.090134937825729983 0 0.34835321149925952 -0.068411922064241015 0 0.32947245367049932 -0.076551215081331836 0 0.33897359687706391 -0.090134937825729983 0 0.3234854644436771 -0.1000609868773128 0 0.32947245367049932 -0.076551215081331836 0 0.3234854644436771 -0.1000609868773128 0 0.32947245367049932 -0.076551215081331836 0 0.30784225922497138 -0.075646730879748811 0 0.33545944289732132 -0.053041443285350882 0 0.32947245367049932 -0.076551215081331836 0 0.31213989077845722 -0.06028194207248011 0 0.32947245367049932 -0.076551215081331836 0 0.30784225922497138 -0.075646730879748811 0 0.31213989077845722 -0.06028194207248011 0 0.2933921074980107 -0.068883633428928087 0 0.28882033865959311 -0.067522440859609373 0 0.31213989077845722 -0.06028194207248011 0 0.30784225922497138 -0.075646730879748811 0 0.2933921074980107 -0.068883633428928087 0 0.31213989077845722 -0.06028194207248011 0 0.28882033865959311 -0.067522440859609373 0 0.31213989077845722 -0.06028194207248011 0 0.30784225922497138 -0.075646730879748811 0 0.2953511337842214 -0.08578275846488928 0 0.2933921074980107 -0.068883633428928087 0 0.30784225922497138 -0.075646730879748811 0 0.3043588146987104 -0.093443941018684806 0 0.2953511337842214 -0.08578275846488928 0 0.3234854644436771 -0.1000609868773128 0 0.30784225922497138 -0.075646730879748811 0 0.3043588146987104 -0.093443941018684806 0 0.3043588146987104 -0.093443941018684806 0 0.2953511337842214 -0.08578275846488928 0 0.29245780451496289 -0.099638053558886455 0 0.2953511337842214 -0.08578275846488928 0 0.2933921074980107 -0.068883633428928087 0 0.27877762094174069 -0.090576235752357251 0 0.2953511337842214 -0.08578275846488928 0 0.29245780451496289 -0.099638053558886455 0 0.27877762094174069 -0.090576235752357251 0 0.2933921074980107 -0.068883633428928087 0 0.27877762094174069 -0.090576235752357251 0 0.28882033865959311 -0.067522440859609373 0 0.27291009263881089 -0.069645011671972901 0 0.28457188567669561 -0.057917682558440708 0 0.2933921074980107 -0.068883633428928087 0 0.28882033865959311 -0.067522440859609373 0 0.27877762094174069 -0.090576235752357251 0 0.31749847521685498 -0.1235707586732938 0 0.30185440508622918 -0.1119289979285859 0 0.30328028366004728 -0.13030275286617979 0 0.30185440508622918 -0.1119289979285859 0 0.28909917237325627 -0.12725859344629459 0 0.30328028366004728 -0.13030275286617979 0 0.3234854644436771 -0.1000609868773128 0 0.3043588146987104 -0.093443941018684806 0 0.30185440508622918 -0.1119289979285859 0 0.3043588146987104 -0.093443941018684806 0 0.30185440508622918 -0.1119289979285859 0 0.29245780451496289 -0.099638053558886455 0 0.29245780451496289 -0.099638053558886455 0 0.2825830670514744 -0.1101346108093819 0 0.27877762094174069 -0.090576235752357251 0 0.30185440508622918 -0.1119289979285859 0 0.29245780451496289 -0.099638053558886455 0 0.2825830670514744 -0.1101346108093819 0 0.30185440508622918 -0.1119289979285859 0 0.2825830670514744 -0.1101346108093819 0 0.28909917237325627 -0.12725859344629459 0 0.2825830670514744 -0.1101346108093819 0 0.27150012169239712 -0.12993679895225069 0 0.28909917237325627 -0.12725859344629459 0 0.2825830670514744 -0.1101346108093819 0 0.26416313438547068 -0.1122688380757866 0 0.27150012169239712 -0.12993679895225069 0 0.26416313438547068 -0.1122688380757866 0 0.27877762094174069 -0.090576235752357251 0 0.2825830670514744 -0.1101346108093819 0 0.26416313438547068 -0.1122688380757866 0 0.27877762094174069 -0.090576235752357251 0 0.25294995541228588 -0.08743910421378126 0 0.24776082221192491 -0.1129473279923605 0 0.26416313438547068 -0.1122688380757866 0 0.27877762094174069 -0.090576235752357251 0 0.25294995541228588 -0.08743910421378126 0 0.26416313438547068 -0.1122688380757866 0 0.25294995541228588 -0.08743910421378126 0 0.24776082221192491 -0.1129473279923605 0 0.26416313438547068 -0.1122688380757866 0 0.24776082221192491 -0.1129473279923605 0 0.24954864782920069 -0.1339614403992159 0 0.26416313438547068 -0.1122688380757866 0 0.24954864782920069 -0.1339614403992159 0 0.28882033865959311 -0.067522440859609373 0 0.27291009263881089 -0.069645011671972901 0 0.27877762094174069 -0.090576235752357251 0 0.27291009263881089 -0.069645011671972901 0 0.27877762094174069 -0.090576235752357251 0 0.25294995541228588 -0.08743910421378126 0 0.27291009263881089 -0.069645011671972901 0 0.25294995541228588 -0.08743910421378126 0 0.25813908861264689 -0.061930880435202097 0 0.25294995541228588 -0.08743910421378126 0 0.25813908861264689 -0.061930880435202097 0 0.2438609853148884 -0.067640948374130455 0 0.25294995541228588 -0.08743910421378126 0 0.25813908861264689 -0.061930880435202097 0 0.25813908861264689 -0.061930880435202097 0 0.26332822181300791 -0.036422656656622927 0 0.24541873300142519 -0.054290412664607282 0 0.25813908861264689 -0.061930880435202097 0 0.27537910869648502 -0.051384310461597991 0 0.26332822181300791 -0.036422656656622927 0 0.25813908861264689 -0.061930880435202097 0 0.26332822181300791 -0.036422656656622927 0 0.27291009263881089 -0.069645011671972901 0 0.27537910869648502 -0.051384310461597991 0 0.28457188567669561 -0.057917682558440708 0 0.27291009263881089 -0.069645011671972901 0 0.25813908861264689 -0.061930880435202097 0 0.27537910869648502 -0.051384310461597991 0 0.27537910869648502 -0.051384310461597991 0 0.2797334042931453 -0.039098566092708079 0 0.26332822181300791 -0.036422656656622927 0 0.2797334042931453 -0.039098566092708079 0 0.26332822181300791 -0.036422656656622927 0 0.28066454571138322 -0.02529148913814739 0 0.27537910869648502 -0.051384310461597991 0 0.2797334042931453 -0.039098566092708079 0 0.28515759422153131 -0.047483149438660978 0 0.26332822181300791 -0.036422656656622927 0 0.24541873300142519 -0.054290412664607282 0 0.24547466515520511 -0.039451913204634308 0 0.26332822181300791 -0.036422656656622927 0 0.25918881457050802 -0.01881364686430571 0 0.24547466515520511 -0.039451913204634308 0 0.25918881457050802 -0.01881364686430571 0 0.24547466515520511 -0.039451913204634308 0 0.26332822181300791 -0.036422656656622927 0 0.25918881457050802 -0.01881364686430571 0 0.26851735501336887 -0.01091443287804377 0 0.25918881457050802 -0.01881364686430571 0 0.25584056744277112 -0.0017130667366374939 0 0.2485653326959707 -0.01183239388210067 0 0.27290296398581099 0.001824619476022873 0 0.25918881457050802 -0.01881364686430571 0 0.25584056744277112 -0.0017130667366374939 0 0.27290296398581099 0.001824619476022873 0 0.25918881457050802 -0.01881364686430571 0 0.26851735501336887 -0.01091443287804377 0 0.28083610981990148 -0.0084345684674861972 0 0.28066454571138322 -0.02529148913814739 0 0.28943901284397561 0.0043087813462744521 0 0.27290296398581099 0.001824619476022873 0 0.28083610981990148 -0.0084345684674861972 0 0.27290296398581099 0.001824619476022873 0 0.25918881457050802 -0.01881364686430571 0 0.26851735501336887 -0.01091443287804377 0 0.27290296398581099 0.001824619476022873 0 0.26851735501336887 -0.01091443287804377 0 0.28083610981990148 -0.0084345684674861972 0 0.26332822181300791 -0.036422656656622927 0 0.26851735501336887 -0.01091443287804377 0 0.28066454571138322 -0.02529148913814739 0 0.26332822181300791 -0.036422656656622927 0 0.26851735501336887 -0.01091443287804377 0 0.28066454571138322 -0.02529148913814739 0 0.29970299189393129 -0.025790718493418938 0 0.29171869056677457 -0.038820417076505312 0 0.28066454571138322 -0.02529148913814739 0 0.29265667154496888 -0.01210032114353716 0 0.29970299189393129 -0.025790718493418938 0 0.28083610981990148 -0.0084345684674861972 0 0.28066454571138322 -0.02529148913814739 0 0.29265667154496888 -0.01210032114353716 0 0.28943901284397561 0.0043087813462744521 0 0.28083610981990148 -0.0084345684674861972 0 0.29265667154496888 -0.01210032114353716 0 0.30568864952496 0.0082535601452990992 0 0.29265667154496888 -0.01210032114353716 0 0.3090991736871041 -0.01106957266485648 0 0.31541028721149411 -0.027280764618136812 0 0.3090991736871041 -0.01106957266485648 0 0.29970299189393129 -0.025790718493418938 0 0.29265667154496888 -0.01210032114353716 0 0.3090991736871041 -0.01106957266485648 0 0.29970299189393129 -0.025790718493418938 0 0.31541028721149411 -0.027280764618136812 0 0.29970299189393129 -0.025790718493418938 0 0.30604861535726807 -0.041363850971932611 0 0.29970299189393129 -0.025790718493418938 0 0.30604861535726807 -0.041363850971932611 0 0.29171869056677457 -0.038820417076505312 0 0.30604861535726807 -0.041363850971932611 0 0.29470260026527412 -0.051966159684605308 0 0.29171869056677457 -0.038820417076505312 0 0.31213989077845722 -0.06028194207248011 0 0.29470260026527412 -0.051966159684605308 0 0.29505867884500497 -0.059422056293783873 0 0.30604861535726807 -0.041363850971932611 0 0.31213989077845722 -0.06028194207248011 0 0.29470260026527412 -0.051966159684605308 0 0.28882033865959311 -0.067522440859609373 0 0.31213989077845722 -0.06028194207248011 0 0.29505867884500497 -0.059422056293783873 0 0.29470260026527412 -0.051966159684605308 0 0.29505867884500497 -0.059422056293783873 0 0.28457188567669561 -0.057917682558440708 0 0.28882033865959311 -0.067522440859609373 0 0.29505867884500497 -0.059422056293783873 0 0.28457188567669561 -0.057917682558440708 0 0.27537910869648502 -0.051384310461597991 0 0.28457188567669561 -0.057917682558440708 0 0.28515759422153131 -0.047483149438660978 0 0.29470260026527412 -0.051966159684605308 0 0.28457188567669561 -0.057917682558440708 0 0.28515759422153131 -0.047483149438660978 0 0.2797334042931453 -0.039098566092708079 0 0.28515759422153131 -0.047483149438660978 0 0.29171869056677457 -0.038820417076505312 0 0.2797334042931453 -0.039098566092708079 0 0.28066454571138322 -0.02529148913814739 0 0.29171869056677457 -0.038820417076505312 0 0.29470260026527412 -0.051966159684605308 0 0.28515759422153131 -0.047483149438660978 0 0.29171869056677457 -0.038820417076505312 0 0.2933615441484419 -0.20501944968024219 0 0.28997504230266308 -0.21601484529300591 0 0.28561890123103562 -0.20500190966974319 0 0.2933615441484419 -0.20501944968024219 0 0.28997504230266308 -0.21601484529300591 0 0.30393756951962481 -0.2095487770895535 0 0.28997504230266308 -0.21601484529300591 0 0.28561890123103562 -0.20500190966974319 0 0.27726345228313692 -0.2107927573852082 0 0.28561890123103562 -0.20500190966974319 0 0.27726345228313692 -0.2107927573852082 0 0.28097148575700881 -0.19519014054323119 0 0.28561890123103562 -0.20500190966974319 0 0.28899717392091001 -0.1973741928055649 0 0.28097148575700881 -0.19519014054323119 0 0.29028773767243699 -0.18902104036176251 0 0.28097148575700881 -0.19519014054323119 0 0.28421033684072139 -0.17843554387239399 0 0.28899717392091001 -0.1973741928055649 0 0.29028773767243699 -0.18902104036176251 0 0.28097148575700881 -0.19519014054323119 0 0.28899717392091001 -0.1973741928055649 0 0.29028773767243699 -0.18902104036176251 0 0.29693608417726108 -0.19408373831723461 0 0.29028773767243699 -0.18902104036176251 0 0.29693608417726108 -0.19408373831723461 0 0.30222918217256928 -0.18353037800062999 0 0.2933615441484419 -0.20501944968024219 0 0.28899717392091001 -0.1973741928055649 0 0.29693608417726108 -0.19408373831723461 0 0.2933615441484419 -0.20501944968024219 0 0.28561890123103562 -0.20500190966974319 0 0.28899717392091001 -0.1973741928055649 0 0.29693608417726108 -0.19408373831723461 0 0.30393756951962481 -0.2095487770895535 0 0.30142219803941389 -0.19936139177822421 0 0.30776328593480978 -0.19208120093634259 0 0.32011119947607453 -0.20205874374740429 0 0.2933615441484419 -0.20501944968024219 0 0.29693608417726108 -0.19408373831723461 0 0.30393756951962481 -0.2095487770895535 0 0.30142219803941389 -0.19936139177822421 0 0.32011119947607453 -0.20205874374740429 0 0.30142219803941389 -0.19936139177822421 0 0.29693608417726108 -0.19408373831723461 0 0.30393756951962481 -0.2095487770895535 0 0.30142219803941389 -0.19936139177822421 0 0.29693608417726108 -0.19408373831723461 0 0.30776328593480978 -0.19208120093634259 0 0.29693608417726108 -0.19408373831723461 0 0.30776328593480978 -0.19208120093634259 0 0.30222918217256928 -0.18353037800062999 0 0.30776328593480978 -0.19208120093634259 0 0.31111744329606589 -0.18461079220340801 0 0.31584868850961528 -0.18981200885019489 0 0.30393756951962481 -0.2095487770895535 0 0.32011119947607453 -0.20205874374740429 0 0.30142219803941389 -0.19936139177822421 0 0.30393756951962481 -0.2095487770895535 0 0.32011119947607453 -0.20205874374740429 0 0.28997504230266308 -0.21601484529300591 0 0.30393756951962481 -0.2095487770895535 0 0.30051933137523951 -0.22248985120321521 0 0.28997504230266308 -0.21601484529300591 0 0.30393756951962481 -0.2095487770895535 0 0.30393756951962481 -0.2095487770895535 0 0.31277872386237149 -0.22907731825143129 0 0.30393756951962481 -0.2095487770895535 0 0.30051933137523951 -0.22248985120321521 0 0.31277872386237149 -0.22907731825143129 0 0.30348794369316962 -0.23247670453314681 0 0.30051933137523951 -0.22248985120321521 0 0.31277872386237149 -0.22907731825143129 0 0.30348794369316962 -0.23247670453314681 0 0.30051933137523951 -0.22248985120321521 0 0.29263905727273481 -0.2297108020210496 0 0.30801466226233248 -0.24862884665689089 0 0.29263905727273481 -0.2297108020210496 0 0.30801466226233248 -0.24862884665689089 0 0.29129395956281962 -0.23808761955519239 0 0.30347191818050478 -0.25849345267182122 0 0.30348794369316962 -0.23247670453314681 0 0.30801466226233248 -0.24862884665689089 0 0.31277872386237149 -0.22907731825143129 0 0.30801466226233248 -0.24862884665689089 0 0.29129395956281962 -0.23808761955519239 0 0.29263905727273481 -0.2297108020210496 0 0.30348794369316962 -0.23247670453314681 0 0.30801466226233248 -0.24862884665689089 0 0.29263905727273481 -0.2297108020210496 0 0.29129395956281962 -0.23808761955519239 0 0.27958677495974732 -0.2447848115143455 0 0.29300723869941647 -0.26352735189550441 0 0.29129395956281962 -0.23808761955519239 0 0.28273068314605249 -0.2324552487051936 0 0.27958677495974732 -0.2447848115143455 0 0.29263905727273481 -0.2297108020210496 0 0.27726345228313692 -0.2107927573852082 0 0.28997504230266308 -0.21601484529300591 0 0.29263905727273481 -0.2297108020210496 0 0.27726345228313692 -0.2107927573852082 0 0.29263905727273481 -0.2297108020210496 0 0.27874857125031122 -0.2245346620075882 0 0.27726345228313692 -0.2107927573852082 0 0.28997504230266308 -0.21601484529300591 0 0.30051933137523951 -0.22248985120321521 0 0.29263905727273481 -0.2297108020210496 0 0.29263905727273481 -0.2297108020210496 0 0.28273068314605249 -0.2324552487051936 0 0.27874857125031122 -0.2245346620075882 0 0.29129395956281962 -0.23808761955519239 0 0.29263905727273481 -0.2297108020210496 0 0.28273068314605249 -0.2324552487051936 0 0.28273068314605249 -0.2324552487051936 0 0.27874857125031122 -0.2245346620075882 0 0.27208709918470142 -0.23070709782578311 0 0.27208709918470142 -0.23070709782578311 0 0.26902256436493027 -0.2190074041007066 0 0.26065811401312761 -0.22649114314979449 0 0.27874857125031122 -0.2245346620075882 0 0.27208709918470142 -0.23070709782578311 0 0.26902256436493027 -0.2190074041007066 0 0.27208709918470142 -0.23070709782578311 0 0.27958677495974732 -0.2447848115143455 0 0.26265931117148639 -0.24279301432387981 0 0.27958677495974732 -0.2447848115143455 0 0.26265931117148639 -0.24279301432387981 0 0.27574235799400748 -0.2611385367805199 0 0.28273068314605249 -0.2324552487051936 0 0.27208709918470142 -0.23070709782578311 0 0.27958677495974732 -0.2447848115143455 0 0.26265931117148639 -0.24279301432387981 0 0.25130844721976531 -0.23249202155761681 0 0.2425869977773347 -0.2530110808549289 0 0.27208709918470142 -0.23070709782578311 0 0.26265931117148639 -0.24279301432387981 0 0.26065811401312761 -0.22649114314979449 0 0.26265931117148639 -0.24279301432387981 0 0.26065811401312761 -0.22649114314979449 0 0.25130844721976531 -0.23249202155761681 0 0.26902256436493027 -0.2190074041007066 0 0.26065811401312761 -0.22649114314979449 0 0.25895833760014542 -0.2130145617397344 0 0.26065811401312761 -0.22649114314979449 0 0.25130844721976531 -0.23249202155761681 0 0.24991292453773681 -0.2209327593510462 0 0.26065811401312761 -0.22649114314979449 0 0.25895833760014542 -0.2130145617397344 0 0.24991292453773681 -0.2209327593510462 0 0.25895833760014542 -0.2130145617397344 0 0.26678305038543781 -0.208672358993754 0 0.26188784729353881 -0.1918747127493669 0 0.25071913866524609 -0.2088259921999813 0 0.25895833760014542 -0.2130145617397344 0 0.26188784729353881 -0.1918747127493669 0 0.25071913866524609 -0.2088259921999813 0 0.25895833760014542 -0.2130145617397344 0 0.24991292453773681 -0.2209327593510462 0 0.26902256436493027 -0.2190074041007066 0 0.25895833760014542 -0.2130145617397344 0 0.26678305038543781 -0.208672358993754 0 0.26902256436493027 -0.2190074041007066 0 0.26678305038543781 -0.208672358993754 0 0.27726345228313692 -0.2107927573852082 0 0.26678305038543781 -0.208672358993754 0 0.27726345228313692 -0.2107927573852082 0 0.26188784729353881 -0.1918747127493669 0 0.27874857125031122 -0.2245346620075882 0 0.26902256436493027 -0.2190074041007066 0 0.27726345228313692 -0.2107927573852082 0 0.28097148575700881 -0.19519014054323119 0 0.26188784729353881 -0.1918747127493669 0 0.28421033684072139 -0.17843554387239399 0 0.27726345228313692 -0.2107927573852082 0 0.28097148575700881 -0.19519014054323119 0 0.26188784729353881 -0.1918747127493669 0 0.27726345228313692 -0.2107927573852082 0 0.26188784729353881 -0.1918747127493669 0 0.26188784729353881 -0.1918747127493669 0 0.24268963472839261 -0.20343292269963939 0 0.25071913866524609 -0.2088259921999813 0 0.26188784729353881 -0.1918747127493669 0 0.24268963472839261 -0.20343292269963939 0 0.26188784729353881 -0.1918747127493669 0 0.25148260257237132 -0.1893326623892739 0 0.24268963472839261 -0.20343292269963939 0 0.26188784729353881 -0.1918747127493669 0 0.25148260257237132 -0.1893326623892739 0 0.24860364772782129 -0.17552991977987151 0 0.26499936939085039 -0.17796490079797581 0 0.26957292714855841 -0.16604679000967229 0 0.24860364772782129 -0.17552991977987151 0 0.26188784729353881 -0.1918747127493669 0 0.26499936939085039 -0.17796490079797581 0 0.24860364772782129 -0.17552991977987151 0 0.26188784729353881 -0.1918747127493669 0 0.24860364772782129 -0.17552991977987151 0 0.25754555157200659 -0.1641020854964671 0 0.26957292714855841 -0.16604679000967229 0 0.24860364772782129 -0.17552991977987151 0 0.25754555157200659 -0.1641020854964671 0 0.24887762459330839 -0.16978030732796051 0 0.24827657619030499 -0.16329531176010531 0 0.26957292714855841 -0.16604679000967229 0 0.24860364772782129 -0.17552991977987151 0 0.25754555157200659 -0.1641020854964671 0 0.24887762459330839 -0.16978030732796051 0 0.24860364772782129 -0.17552991977987151 0 0.25754555157200659 -0.1641020854964671 0 0.25505816379881491 -0.15574787727149389 0 0.24827657619030499 -0.16329531176010531 0 0.25754555157200659 -0.1641020854964671 0 0.26957292714855841 -0.16604679000967229 0 0.26543169171221731 -0.15462962560480539 0 0.25754555157200659 -0.1641020854964671 0 0.25505816379881491 -0.15574787727149389 0 0.26543169171221731 -0.15462962560480539 0 0.26957292714855841 -0.16604679000967229 0 0.27636225146798532 -0.15193412527910119 0 0.29054220656929558 -0.1565636602394736 0 0.26957292714855841 -0.16604679000967229 0 0.29054220656929558 -0.1565636602394736 0 0.26957292714855841 -0.16604679000967229 0 0.26543169171221731 -0.15462962560480539 0 0.27636225146798532 -0.15193412527910119 0 0.26499936939085039 -0.17796490079797581 0 0.26957292714855841 -0.16604679000967229 0 0.28421033684072139 -0.17843554387239399 0 0.26188784729353881 -0.1918747127493669 0 0.26499936939085039 -0.17796490079797581 0 0.28421033684072139 -0.17843554387239399 0 0.26188784729353881 -0.1918747127493669 0 0.28421033684072139 -0.17843554387239399 0 0.26416313438547068 -0.1122688380757866 0 0.27150012169239712 -0.12993679895225069 0 0.24954864782920069 -0.1339614403992159 0 0.25997437710784532 -0.1446581617197546 0 0.27150012169239712 -0.12993679895225069 0 0.24954864782920069 -0.1339614403992159 0 0.25997437710784532 -0.1446581617197546 0 0.24954864782920069 -0.1339614403992159 0 0.24580873852321239 -0.15139799092491929 0 0.25997437710784532 -0.1446581617197546 0 0.25505816379881491 -0.15574787727149389 0 0.24580873852321239 -0.15139799092491929 0 0.25997437710784532 -0.1446581617197546 0 0.25505816379881491 -0.15574787727149389 0 0.26543169171221731 -0.15462962560480539 0 0.26543169171221731 -0.15462962560480539 0 0.27636225146798532 -0.15193412527910119 0 0.27215797703192141 -0.14315542775617229 0 0.27636225146798532 -0.15193412527910119 0 0.27215797703192141 -0.14315542775617229 0 0.28338033918925309 -0.1405398126471552 0 0.25997437710784532 -0.1446581617197546 0 0.26543169171221731 -0.15462962560480539 0 0.27215797703192141 -0.14315542775617229 0 0.25997437710784532 -0.1446581617197546 0 0.27215797703192141 -0.14315542775617229 0 0.27150012169239712 -0.12993679895225069 0 0.27215797703192141 -0.14315542775617229 0 0.27150012169239712 -0.12993679895225069 0 0.28338033918925309 -0.1405398126471552 0 0.27150012169239712 -0.12993679895225069 0 0.28909917237325627 -0.12725859344629459 0 0.28338033918925309 -0.1405398126471552 0 0.28909917237325627 -0.12725859344629459 0 0.28338033918925309 -0.1405398126471552 0 0.2964378796338632 -0.1416748838134502 0 0.28909917237325627 -0.12725859344629459 0 0.2964378796338632 -0.1416748838134502 0 0.30328028366004728 -0.13030275286617979 0 0.28338033918925309 -0.1405398126471552 0 0.2964378796338632 -0.1416748838134502 0 0.29054220656929558 -0.1565636602394736 0 0.27636225146798532 -0.15193412527910119 0 0.28338033918925309 -0.1405398126471552 0 0.29054220656929558 -0.1565636602394736 0 0.31151148599003292 -0.14708053046927469 0 0.30653282638790308 -0.16499637499541969 0 0.31151148599003292 -0.14708053046927469 0 0.29054220656929558 -0.1565636602394736 0 0.30653282638790308 -0.16499637499541969 0 0.31151148599003292 -0.14708053046927469 0 0.29054220656929558 -0.1565636602394736 0 0.2964378796338632 -0.1416748838134502 0 0.31151148599003292 -0.14708053046927469 0 0.29054220656929558 -0.1565636602394736 0 0.31749847521685498 -0.1235707586732938 0 0.31151148599003292 -0.14708053046927469 0 0.30328028366004728 -0.13030275286617979 0 0.2964378796338632 -0.1416748838134502 0 0.31151148599003292 -0.14708053046927469 0 0.30328028366004728 -0.13030275286617979 0 0.29028773767243699 -0.18902104036176251 0 0.28421033684072139 -0.17843554387239399 0 0.30222918217256928 -0.18353037800062999 0 0.26957292714855841 -0.16604679000967229 0 0.28421033684072139 -0.17843554387239399 0 0.29054220656929558 -0.1565636602394736 0 0.28421033684072139 -0.17843554387239399 0 0.29054220656929558 -0.1565636602394736 0 0.30653282638790308 -0.16499637499541969 0 0.28421033684072139 -0.17843554387239399 0 0.30653282638790308 -0.16499637499541969 0 0.31151148599003292 -0.14708053046927469 0 0.30653282638790308 -0.16499637499541969 0 0.3153167339656488 -0.1584368735796203 0 0.30653282638790308 -0.16499637499541969 0 0.31194635920352931 -0.17609465805803801 0 0.31760511182385692 -0.1663484470257727 0 0.30653282638790308 -0.16499637499541969 0 0.30222918217256928 -0.18353037800062999 0 0.30653282638790308 -0.16499637499541969 0 0.31194635920352931 -0.17609465805803801 0 0.30222918217256928 -0.18353037800062999 0 0.28421033684072139 -0.17843554387239399 0 0.30653282638790308 -0.16499637499541969 0 0.30222918217256928 -0.18353037800062999 0 0.30776328593480978 -0.19208120093634259 0 0.30222918217256928 -0.18353037800062999 0 0.31111744329606589 -0.18461079220340801 0 0.31194635920352931 -0.17609465805803801 0 0.30222918217256928 -0.18353037800062999 0 0.31111744329606589 -0.18461079220340801 0 0.31194635920352931 -0.17609465805803801 0 0.31111744329606589 -0.18461079220340801 0 0.31779970065980601 -0.18153571517183439 0 0.31111744329606589 -0.18461079220340801 0 0.31779970065980601 -0.18153571517183439 0 0.31584868850961528 -0.18981200885019489 0 0.31779970065980601 -0.18153571517183439 0 0.31584868850961528 -0.18981200885019489 0 0.32575137512810748 -0.18771112320391639 0 0.31779970065980601 -0.18153571517183439 0 0.32538632547595542 -0.17962651804083099 0 0.32575137512810748 -0.18771112320391639 0 0.32538632547595542 -0.17962651804083099 0 0.31970328290751421 -0.1743534566812906 0 0.32859354036345501 -0.16940532835987401 0 0.31779970065980601 -0.18153571517183439 0 0.32538632547595542 -0.17962651804083099 0 0.31970328290751421 -0.1743534566812906 0 0.31194635920352931 -0.17609465805803801 0 0.31970328290751421 -0.1743534566812906 0 0.31760511182385692 -0.1663484470257727 0 0.31194635920352931 -0.17609465805803801 0 0.31779970065980601 -0.18153571517183439 0 0.31970328290751421 -0.1743534566812906 0 0.30653282638790308 -0.16499637499541969 0 0.31760511182385692 -0.1663484470257727 0 0.3153167339656488 -0.1584368735796203 0 0.31760511182385692 -0.1663484470257727 0 0.3153167339656488 -0.1584368735796203 0 0.32528000396740442 -0.15501306258848141 0 0.31760511182385692 -0.1663484470257727 0 0.32859354036345501 -0.16940532835987401 0 0.32528000396740442 -0.15501306258848141 0 0.31970328290751421 -0.1743534566812906 0 0.31760511182385692 -0.1663484470257727 0 0.32859354036345501 -0.16940532835987401 0 0.32859354036345501 -0.16940532835987401 0 0.33834667213176761 -0.15786985228252379 0 0.33977466149173441 -0.1711035658609534 0 0.32859354036345501 -0.16940532835987401 0 0.33834667213176761 -0.15786985228252379 0 0.32528000396740442 -0.15501306258848141 0 0.33834667213176761 -0.15786985228252379 0 0.33977466149173441 -0.1711035658609534 0 0.34537587342697529 -0.16409407541461979 0 0.33977466149173441 -0.1711035658609534 0 0.33507641321967502 -0.1817223337626237 0 0.34589025659403583 -0.17950153905684799 0 0.33507641321967502 -0.1817223337626237 0 0.34589025659403583 -0.17950153905684799 0 0.34106516946910642 -0.19235492745379021 0 0.33507641321967502 -0.1817223337626237 0 0.34106516946910642 -0.19235492745379021 0 0.32575137512810748 -0.18771112320391639 0 0.32538632547595542 -0.17962651804083099 0 0.33507641321967502 -0.1817223337626237 0 0.32575137512810748 -0.18771112320391639 0 0.32538632547595542 -0.17962651804083099 0 0.32859354036345501 -0.16940532835987401 0 0.33507641321967502 -0.1817223337626237 0 0.32859354036345501 -0.16940532835987401 0 0.33977466149173441 -0.1711035658609534 0 0.33507641321967502 -0.1817223337626237 0 0.31749847521685498 -0.1235707586732938 0 0.31151148599003292 -0.14708053046927469 0 0.32872401746263052 -0.13929634931773499 0 0.31749847521685498 -0.1235707586732938 0 0.31151148599003292 -0.14708053046927469 0 0.33451146657312381 -0.11753635235919251 0 0.31749847521685498 -0.1235707586732938 0 0.32872401746263052 -0.13929634931773499 0 0.31151148599003292 -0.14708053046927469 0 0.32528000396740442 -0.15501306258848141 0 0.32872401746263052 -0.13929634931773499 0 0.31151148599003292 -0.14708053046927469 0 0.32872401746263052 -0.13929634931773499 0 0.31151148599003292 -0.14708053046927469 0 0.3153167339656488 -0.1584368735796203 0 0.32528000396740442 -0.15501306258848141 0 0.32528000396740442 -0.15501306258848141 0 0.33826600606593132 -0.1461322158038004 0 0.32872401746263052 -0.13929634931773499 0 0.33834667213176761 -0.15786985228252379 0 0.32528000396740442 -0.15501306258848141 0 0.33826600606593132 -0.1461322158038004 0 0.33834667213176761 -0.15786985228252379 0 0.33826600606593132 -0.1461322158038004 0 0.34968581350639288 -0.14534478001336501 0 0.32872401746263052 -0.13929634931773499 0 0.34593654893522813 -0.13151216816619529 0 0.33826600606593132 -0.1461322158038004 0 0.32872401746263052 -0.13929634931773499 0 0.34593654893522813 -0.13151216816619529 0 0.33451146657312381 -0.11753635235919251 0 0.32872401746263052 -0.13929634931773499 0 0.34593654893522813 -0.13151216816619529 0 0.34593654893522813 -0.13151216816619529 0 0.35845169360630469 -0.13781000373648011 0 0.36162311814362658 -0.12598057538412091 0 0.35033710761940412 -0.1182944096234021 0 0.34593654893522813 -0.13151216816619529 0 0.36162311814362658 -0.12598057538412091 0 0.34593654893522813 -0.13151216816619529 0 0.35845169360630469 -0.13781000373648011 0 0.34968581350639288 -0.14534478001336501 0 0.35845169360630469 -0.13781000373648011 0 0.34968581350639288 -0.14534478001336501 0 0.36099140033785182 -0.1491753411503107 0 0.33826600606593132 -0.1461322158038004 0 0.34593654893522813 -0.13151216816619529 0 0.34968581350639288 -0.14534478001336501 0 0.33834667213176761 -0.15786985228252379 0 0.34968581350639288 -0.14534478001336501 0 0.35186626075687411 -0.15772712646830611 0 0.34968581350639288 -0.14534478001336501 0 0.36099140033785182 -0.1491753411503107 0 0.35186626075687411 -0.15772712646830611 0 0.36099140033785182 -0.1491753411503107 0 0.36780923437218332 -0.15455826336413811 0 0.36915030359552548 -0.1469708363859287 0 0.36099140033785182 -0.1491753411503107 0 0.36780923437218332 -0.15455826336413811 0 0.36356584521475549 -0.16229703224557071 0 0.36780923437218332 -0.15455826336413811 0 0.37498173825591657 -0.15142720760095379 0 0.37614495713266233 -0.1624948639423652 0 0.36780923437218332 -0.15455826336413811 0 0.37498173825591657 -0.15142720760095379 0 0.36915030359552548 -0.1469708363859287 0 0.37498173825591657 -0.15142720760095379 0 0.36915030359552548 -0.1469708363859287 0 0.37466000061608712 -0.14509625561303691 0 0.37466000061608712 -0.14509625561303691 0 0.37167052403777251 -0.1400038008572673 0 0.37711781380134252 -0.13972697074461701 0 0.36915030359552548 -0.1469708363859287 0 0.37466000061608712 -0.14509625561303691 0 0.37167052403777251 -0.1400038008572673 0 0.36915030359552548 -0.1469708363859287 0 0.36529968747172797 -0.14168916498234979 0 0.37167052403777251 -0.1400038008572673 0 0.36099140033785182 -0.1491753411503107 0 0.36915030359552548 -0.1469708363859287 0 0.36529968747172797 -0.14168916498234979 0 0.35845169360630469 -0.13781000373648011 0 0.36099140033785182 -0.1491753411503107 0 0.36529968747172797 -0.14168916498234979 0 0.35845169360630469 -0.13781000373648011 0 0.36529968747172797 -0.14168916498234979 0 0.36623451578118582 -0.13448584278176229 0 0.36529968747172797 -0.14168916498234979 0 0.36623451578118582 -0.13448584278176229 0 0.37167052403777251 -0.1400038008572673 0 0.36623451578118582 -0.13448584278176229 0 0.37167052403777251 -0.1400038008572673 0 0.37264530279310082 -0.12848939238147181 0 0.36623451578118582 -0.13448584278176229 0 0.37264530279310082 -0.12848939238147181 0 0.36162311814362658 -0.12598057538412091 0 0.35845169360630469 -0.13781000373648011 0 0.36623451578118582 -0.13448584278176229 0 0.36162311814362658 -0.12598057538412091 0 0.34589025659403583 -0.17950153905684799 0 0.36201913946213848 -0.1826511111601764 0 0.34106516946910642 -0.19235492745379021 0 0.34589025659403583 -0.17950153905684799 0 0.35151589932752508 -0.16967575704669599 0 0.36201913946213848 -0.1826511111601764 0 0.33977466149173441 -0.1711035658609534 0 0.34589025659403583 -0.17950153905684799 0 0.35151589932752508 -0.16967575704669599 0 0.35151589932752508 -0.16967575704669599 0 0.36356584521475549 -0.16229703224557071 0 0.36201913946213848 -0.1826511111601764 0 0.33977466149173441 -0.1711035658609534 0 0.35151589932752508 -0.16967575704669599 0 0.34537587342697529 -0.16409407541461979 0 0.33834667213176761 -0.15786985228252379 0 0.34537587342697529 -0.16409407541461979 0 0.35186626075687411 -0.15772712646830611 0 0.35151589932752508 -0.16967575704669599 0 0.34537587342697529 -0.16409407541461979 0 0.35186626075687411 -0.15772712646830611 0 0.36099140033785182 -0.1491753411503107 0 0.35186626075687411 -0.15772712646830611 0 0.36356584521475549 -0.16229703224557071 0 0.35151589932752508 -0.16967575704669599 0 0.35186626075687411 -0.15772712646830611 0 0.36356584521475549 -0.16229703224557071 0 0.36780923437218332 -0.15455826336413811 0 0.36356584521475549 -0.16229703224557071 0 0.37614495713266233 -0.1624948639423652 0 0.36356584521475549 -0.16229703224557071 0 0.37614495713266233 -0.1624948639423652 0 0.37675001539297492 -0.17556881831659249 0 0.36356584521475549 -0.16229703224557071 0 0.36201913946213848 -0.1826511111601764 0 0.37675001539297492 -0.17556881831659249 0 0.36201913946213848 -0.1826511111601764 0 0.37610529436994172 -0.19145745739780329 0 0.37675001539297492 -0.17556881831659249 0 0.36035562456405118 -0.197256056830481 0 0.37470995629361792 -0.20993888997756871 0 0.37610529436994172 -0.19145745739780329 0 0.36201913946213848 -0.1826511111601764 0 0.36035562456405118 -0.197256056830481 0 0.37610529436994172 -0.19145745739780329 0 0.37470995629361792 -0.20993888997756871 0 0.34741057788484619 -0.20599881686248681 0 0.35924269635478229 -0.21977930360326661 0 0.37470995629361792 -0.20993888997756871 0 0.34741057788484619 -0.20599881686248681 0 0.36035562456405118 -0.197256056830481 0 0.37470995629361792 -0.20993888997756871 0 0.34741057788484619 -0.20599881686248681 0 0.34741057788484619 -0.20599881686248681 0 0.34679880144468372 -0.22129632612398781 0 0.35924269635478229 -0.21977930360326661 0 0.36201913946213848 -0.1826511111601764 0 0.36035562456405118 -0.197256056830481 0 0.34106516946910642 -0.19235492745379021 0 0.36035562456405118 -0.197256056830481 0 0.34741057788484619 -0.20599881686248681 0 0.34106516946910642 -0.19235492745379021 0 0.36201913946213848 -0.1826511111601764 0 0.34106516946910642 -0.19235492745379021 0 0.34106516946910642 -0.19235492745379021 0 0.32011119947607453 -0.20205874374740429 0 0.32575137512810748 -0.18771112320391639 0 0.34741057788484619 -0.20599881686248681 0 0.34106516946910642 -0.19235492745379021 0 0.32011119947607453 -0.20205874374740429 0 0.34106516946910642 -0.19235492745379021 0 0.32011119947607453 -0.20205874374740429 0 0.34741057788484619 -0.20599881686248681 0 0.332988398154346 -0.2147707585134713 0 0.32011119947607453 -0.20205874374740429 0 0.34741057788484619 -0.20599881686248681 0 0.32011119947607453 -0.20205874374740429 0 0.34741057788484619 -0.20599881686248681 0 0.332988398154346 -0.2147707585134713 0 0.34679880144468372 -0.22129632612398781 0 0.30393756951962481 -0.2095487770895535 0 0.32113324605439791 -0.21717066078029471 0 0.31277872386237149 -0.22907731825143129 0 0.30393756951962481 -0.2095487770895535 0 0.32113324605439791 -0.21717066078029471 0 0.32011119947607453 -0.20205874374740429 0 0.332988398154346 -0.2147707585134713 0 0.32113324605439791 -0.21717066078029471 0 0.32011119947607453 -0.20205874374740429 0 0.30776328593480978 -0.19208120093634259 0 0.32011119947607453 -0.20205874374740429 0 0.31584868850961528 -0.18981200885019489 0 0.32011119947607453 -0.20205874374740429 0 0.31584868850961528 -0.18981200885019489 0 0.32575137512810748 -0.18771112320391639 0 0.30801466226233248 -0.24862884665689089 0 0.32161987820511828 -0.2486058594133092 0 0.31277872386237149 -0.22907731825143129 0 0.32161987820511828 -0.2486058594133092 0 0.31277872386237149 -0.22907731825143129 0 0.32161987820511828 -0.2486058594133092 0 0.31277872386237149 -0.22907731825143129 0 0.33204157105202359 -0.2428835663714094 0 0.32113324605439791 -0.21717066078029471 0 0.31277872386237149 -0.22907731825143129 0 0.33585033925957258 -0.2303977062996129 0 0.31277872386237149 -0.22907731825143129 0 0.33585033925957258 -0.2303977062996129 0 0.33204157105202359 -0.2428835663714094 0 0.332988398154346 -0.2147707585134713 0 0.32113324605439791 -0.21717066078029471 0 0.33585033925957258 -0.2303977062996129 0 0.332988398154346 -0.2147707585134713 0 0.33585033925957258 -0.2303977062996129 0 0.34679880144468372 -0.22129632612398781 0 0.33585033925957258 -0.2303977062996129 0 0.33204157105202359 -0.2428835663714094 0 0.34448151405886818 -0.25183472295814407 0 0.32161987820511828 -0.2486058594133092 0 0.33204157105202359 -0.2428835663714094 0 0.33229988997940452 -0.25553629683876838 0 0.35850199556987122 -0.23553504534110131 0 0.34448151405886818 -0.25183472295814407 0 0.36028104451921888 -0.25194785591280983 0 0.33585033925957258 -0.2303977062996129 0 0.35850199556987122 -0.23553504534110131 0 0.34448151405886818 -0.25183472295814407 0 0.35850199556987122 -0.23553504534110131 0 0.34448151405886818 -0.25183472295814407 0 0.33585033925957258 -0.2303977062996129 0 0.35850199556987122 -0.23553504534110131 0 0.34679880144468372 -0.22129632612398781 0 0.35850199556987122 -0.23553504534110131 0 0.34679880144468372 -0.22129632612398781 0 0.35924269635478229 -0.21977930360326661 0 0.35850199556987122 -0.23553504534110131 0 0.35924269635478229 -0.21977930360326661 0 0.37100830910442301 -0.22790532161148161 0 0.37470995629361792 -0.20993888997756871 0 0.35924269635478229 -0.21977930360326661 0 0.37100830910442301 -0.22790532161148161 0 0.35850199556987122 -0.23553504534110131 0 0.37842677557578852 -0.2476989620572124 0 0.36028104451921888 -0.25194785591280983 0 0.35850199556987122 -0.23553504534110131 0 0.37100830910442301 -0.22790532161148161 0 0.37842677557578852 -0.2476989620572124 0 0.37842677557578852 -0.2476989620572124 0 0.4012380690170872 -0.24450755129420401 0 0.38501300251791393 -0.22713563901034109 0 0.4012380690170872 -0.24450755129420401 0 0.38501300251791393 -0.22713563901034109 0 0.40108436707899769 -0.2289705765550982 0 0.38501300251791393 -0.22713563901034109 0 0.40200933470238959 -0.21387896309265059 0 0.4012380690170872 -0.24450755129420401 0 0.40108436707899769 -0.2289705765550982 0 0.38501300251791393 -0.22713563901034109 0 0.37470995629361792 -0.20993888997756871 0 0.37100830910442301 -0.22790532161148161 0 0.38501300251791393 -0.22713563901034109 0 0.37100830910442301 -0.22790532161148161 0 0.37842677557578852 -0.2476989620572124 0 0.38501300251791393 -0.22713563901034109 0 0.37470995629361792 -0.20993888997756871 0 0.40200933470238959 -0.21387896309265059 0 0.37470995629361792 -0.20993888997756871 0 0.39095298304820941 -0.19915047188244919 0 0.40200933470238959 -0.21387896309265059 0 0.37470995629361792 -0.20993888997756871 0 0.38501300251791393 -0.22713563901034109 0 0.40200933470238959 -0.21387896309265059 0 0.37470995629361792 -0.20993888997756871 0 0.37610529436994172 -0.19145745739780329 0 0.39095298304820941 -0.19915047188244919 0 0.37610529436994172 -0.19145745739780329 0 0.39095298304820941 -0.19915047188244919 0 0.39184404745865797 -0.18417939621955209 0 0.39095298304820941 -0.19915047188244919 0 0.40200933470238959 -0.21387896309265059 0 0.40962829707583481 -0.19241857142409191 0 0.39095298304820941 -0.19915047188244919 0 0.40962829707583481 -0.19241857142409191 0 0.39184404745865797 -0.18417939621955209 0 0.40200933470238959 -0.21387896309265059 0 0.42065001264883062 -0.20895564150869839 0 0.40962829707583481 -0.19241857142409191 0 0.40200933470238959 -0.21387896309265059 0 0.42065001264883062 -0.20895564150869839 0 0.4192457900325311 -0.22963700314154659 0 0.42065001264883062 -0.20895564150869839 0 0.40962829707583481 -0.19241857142409191 0 0.4333301534151634 -0.1916058397712925 0 0.42065001264883062 -0.20895564150869839 0 0.4192457900325311 -0.22963700314154659 0 0.43903648801823419 -0.21723783011391029 0 0.4333301534151634 -0.1916058397712925 0 0.43903648801823419 -0.21723783011391029 0 0.42065001264883062 -0.20895564150869839 0 0.4333301534151634 -0.1916058397712925 0 0.43903648801823419 -0.21723783011391029 0 0.4192457900325311 -0.22963700314154659 0 0.44474282262130499 -0.24286982045652811 0 0.43903648801823419 -0.21723783011391029 0 0.42570036879476142 -0.24729859014922589 0 0.4192457900325311 -0.22963700314154659 0 0.44474282262130499 -0.24286982045652811 0 0.4012380690170872 -0.24450755129420401 0 0.42570036879476142 -0.24729859014922589 0 0.4192457900325311 -0.22963700314154659 0 0.40108436707899769 -0.2289705765550982 0 0.40200933470238959 -0.21387896309265059 0 0.4192457900325311 -0.22963700314154659 0 0.4012380690170872 -0.24450755129420401 0 0.40108436707899769 -0.2289705765550982 0 0.4192457900325311 -0.22963700314154659 0 0.4193310385157204 -0.1249849977167619 0 0.40333775820725248 -0.1217211762340845 0 0.39550078127674648 -0.13249439928701459 0 0.4193310385157204 -0.1249849977167619 0 0.40169425104107348 -0.13918486522218271 0 0.39550078127674648 -0.13249439928701459 0 0.40169425104107348 -0.13918486522218271 0 0.39550078127674648 -0.13249439928701459 0 0.37711781380134252 -0.13972697074461701 0 0.39249470147230658 -0.1237956633273669 0 0.40333775820725248 -0.1217211762340845 0 0.39550078127674648 -0.13249439928701459 0 0.37167052403777251 -0.1400038008572673 0 0.39550078127674648 -0.13249439928701459 0 0.38264701268865892 -0.12740858735565361 0 0.37167052403777251 -0.1400038008572673 0 0.39550078127674648 -0.13249439928701459 0 0.39249470147230658 -0.1237956633273669 0 0.39550078127674648 -0.13249439928701459 0 0.38264701268865892 -0.12740858735565361 0 0.40169425104107348 -0.13918486522218271 0 0.37711781380134252 -0.13972697074461701 0 0.37167052403777251 -0.1400038008572673 0 0.39550078127674648 -0.13249439928701459 0 0.37711781380134252 -0.13972697074461701 0 0.37167052403777251 -0.1400038008572673 0 0.37264530279310082 -0.12848939238147181 0 0.38264701268865892 -0.12740858735565361 0 0.40169425104107348 -0.13918486522218271 0 0.37711781380134252 -0.13972697074461701 0 0.38266919660512899 -0.1467855760258259 0 0.37466000061608712 -0.14509625561303691 0 0.37711781380134252 -0.13972697074461701 0 0.38266919660512899 -0.1467855760258259 0 0.37498173825591657 -0.15142720760095379 0 0.37466000061608712 -0.14509625561303691 0 0.38266919660512899 -0.1467855760258259 0 0.37498173825591657 -0.15142720760095379 0 0.38266919660512899 -0.1467855760258259 0 0.38969118177958562 -0.15238320800370811 0 0.37498173825591657 -0.15142720760095379 0 0.38969118177958562 -0.15238320800370811 0 0.37614495713266233 -0.1624948639423652 0 0.40169425104107348 -0.13918486522218271 0 0.38266919660512899 -0.1467855760258259 0 0.38969118177958562 -0.15238320800370811 0 0.40169425104107348 -0.13918486522218271 0 0.38969118177958562 -0.15238320800370811 0 0.40106849720763288 -0.15445206812423171 0 0.40169425104107348 -0.13918486522218271 0 0.40106849720763288 -0.15445206812423171 0 0.41425272356684639 -0.1511658148524854 0 0.40106849720763288 -0.15445206812423171 0 0.390352823379089 -0.16645396763350831 0 0.40701819929237099 -0.16694301500797809 0 0.38969118177958562 -0.15238320800370811 0 0.40106849720763288 -0.15445206812423171 0 0.390352823379089 -0.16645396763350831 0 0.38969118177958562 -0.15238320800370811 0 0.37614495713266233 -0.1624948639423652 0 0.390352823379089 -0.16645396763350831 0 0.37614495713266233 -0.1624948639423652 0 0.390352823379089 -0.16645396763350831 0 0.37675001539297492 -0.17556881831659249 0 0.37610529436994172 -0.19145745739780329 0 0.37675001539297492 -0.17556881831659249 0 0.39184404745865797 -0.18417939621955209 0 0.390352823379089 -0.16645396763350831 0 0.37675001539297492 -0.17556881831659249 0 0.39184404745865797 -0.18417939621955209 0 0.40962829707583481 -0.19241857142409191 0 0.39184404745865797 -0.18417939621955209 0 0.40701819929237099 -0.16694301500797809 0 0.390352823379089 -0.16645396763350831 0 0.39184404745865797 -0.18417939621955209 0 0.40701819929237099 -0.16694301500797809 0 0.40962829707583481 -0.19241857142409191 0 0.42324470235522821 -0.1769272881844153 0 0.40701819929237099 -0.16694301500797809 0 0.40962829707583481 -0.19241857142409191 0 0.4333301534151634 -0.1916058397712925 0 0.42324470235522821 -0.1769272881844153 0 0.4333301534151634 -0.1916058397712925 0 0.42324470235522821 -0.1769272881844153 0 0.44526365379313138 -0.1769641980425205 0 0.42324470235522821 -0.1769272881844153 0 0.43026364946927842 -0.15999884207499651 0 0.44526365379313138 -0.1769641980425205 0 0.42324470235522821 -0.1769272881844153 0 0.43026364946927842 -0.15999884207499651 0 0.40701819929237099 -0.16694301500797809 0 0.40106849720763288 -0.15445206812423171 0 0.40701819929237099 -0.16694301500797809 0 0.41425272356684639 -0.1511658148524854 0 0.43026364946927842 -0.15999884207499651 0 0.40701819929237099 -0.16694301500797809 0 0.43026364946927842 -0.15999884207499651 0 0.40701819929237099 -0.16694301500797809 0 0.41425272356684639 -0.1511658148524854 0 0.40169425104107348 -0.13918486522218271 0 0.41425272356684639 -0.1511658148524854 0 0.4262706882808045 -0.1386427596997484 0 0.43026364946927842 -0.15999884207499651 0 0.41425272356684639 -0.1511658148524854 0 0.4262706882808045 -0.1386427596997484 0 0.43026364946927842 -0.15999884207499651 0 0.4262706882808045 -0.1386427596997484 0 0.43875715864793552 -0.14735948039353469 0 0.4262706882808045 -0.1386427596997484 0 0.43321649721482008 -0.12734116507156709 0 0.44616294079318658 -0.1295115982927616 0 0.4193310385157204 -0.1249849977167619 0 0.4262706882808045 -0.1386427596997484 0 0.43321649721482008 -0.12734116507156709 0 0.4193310385157204 -0.1249849977167619 0 0.39550078127674648 -0.13249439928701459 0 0.4193310385157204 -0.1249849977167619 0 0.40169425104107348 -0.13918486522218271 0 0.4262706882808045 -0.1386427596997484 0 0.40169425104107348 -0.13918486522218271 0 0.4262706882808045 -0.1386427596997484 0 0.45084712552053552 -0.13810065417731421 0 0.46340686510782347 -0.14380832223453061 0 0.47542356276026648 -0.1375585486548799 0 0.45969299685358589 -0.13050743009679749 0 0.45084712552053552 -0.13810065417731421 0 0.47542356276026648 -0.1375585486548799 0 0.46740508961049843 -0.1280090345356969 0 0.45969299685358589 -0.13050743009679749 0 0.47542356276026648 -0.1375585486548799 0 0.45084712552053552 -0.13810065417731421 0 0.47542356276026648 -0.1375585486548799 0 0.46157148455332969 -0.12517052751972901 0 0.46740508961049843 -0.1280090345356969 0 0.45969299685358589 -0.13050743009679749 0 0.45435526495467082 -0.1235771025221362 0 0.45969299685358589 -0.13050743009679749 0 0.44616294079318658 -0.1295115982927616 0 0.45435526495467082 -0.1235771025221362 0 0.46157148455332969 -0.12517052751972901 0 0.45969299685358589 -0.13050743009679749 0 0.4262706882808045 -0.1386427596997484 0 0.45084712552053552 -0.13810065417731421 0 0.45969299685358589 -0.13050743009679749 0 0.44616294079318658 -0.1295115982927616 0 0.45084712552053552 -0.13810065417731421 0 0.4262706882808045 -0.1386427596997484 0 0.44616294079318658 -0.1295115982927616 0 0.45084712552053552 -0.13810065417731421 0 0.44360952062101239 -0.12457731599425489 0 0.43321649721482008 -0.12734116507156709 0 0.44616294079318658 -0.1295115982927616 0 0.45084712552053552 -0.13810065417731421 0 0.43875715864793552 -0.14735948039353469 0 0.4535090996461858 -0.15305466914201499 0 0.4262706882808045 -0.1386427596997484 0 0.45084712552053552 -0.13810065417731421 0 0.43875715864793552 -0.14735948039353469 0 0.43026364946927842 -0.15999884207499651 0 0.43875715864793552 -0.14735948039353469 0 0.4535090996461858 -0.15305466914201499 0 0.4535090996461858 -0.15305466914201499 0 0.46340686510782347 -0.14380832223453061 0 0.47675454982309318 -0.14611049620903341 0 0.4535090996461858 -0.15305466914201499 0 0.47020721290558998 -0.1569112521868837 0 0.47675454982309318 -0.14611049620903341 0 0.4535090996461858 -0.15305466914201499 0 0.47675454982309318 -0.14611049620903341 0 0.45084712552053552 -0.13810065417731421 0 0.4535090996461858 -0.15305466914201499 0 0.46340686510782347 -0.14380832223453061 0 0.4535090996461858 -0.15305466914201499 0 0.44526365379313138 -0.1769641980425205 0 0.46938565306216989 -0.16781893176986071 0 0.4535090996461858 -0.15305466914201499 0 0.46938565306216989 -0.16781893176986071 0 0.47020721290558998 -0.1569112521868837 0 0.43026364946927842 -0.15999884207499651 0 0.4535090996461858 -0.15305466914201499 0 0.43026364946927842 -0.15999884207499651 0 0.4535090996461858 -0.15305466914201499 0 0.44526365379313138 -0.1769641980425205 0 0.44526365379313138 -0.1769641980425205 0 0.46938565306216989 -0.16781893176986071 0 0.46042013795253123 -0.18854279032322879 0 0.46938565306216989 -0.16781893176986071 0 0.47797456073759242 -0.18832157813941361 0 0.48570795257813471 -0.1762092958391264 0 0.46938565306216989 -0.16781893176986071 0 0.47797456073759242 -0.18832157813941361 0 0.46938565306216989 -0.16781893176986071 0 0.46042013795253123 -0.18854279032322879 0 0.47797456073759242 -0.18832157813941361 0 0.48570795257813471 -0.1762092958391264 0 0.5 -0.1678037936452613 0 0.5 -0.19644126401447071 0 0.48570795257813471 -0.1762092958391264 0 0.47797456073759242 -0.18832157813941361 0 0.5 -0.19644126401447071 0 0.48570795257813471 -0.1762092958391264 0 0.5 -0.1678037936452613 0 0.4811795490909111 -0.16066091162662571 0 0.5 -0.1678037936452613 0 0.4811795490909111 -0.16066091162662571 0 0.49031965766254909 -0.15326839856548979 0 0.48570795257813471 -0.1762092958391264 0 0.4811795490909111 -0.16066091162662571 0 0.46938565306216989 -0.16781893176986071 0 0.4811795490909111 -0.16066091162662571 0 0.46938565306216989 -0.16781893176986071 0 0.47020721290558998 -0.1569112521868837 0 0.47675454982309318 -0.14611049620903341 0 0.50000000000000067 -0.13916632327605161 0 0.47542356276026648 -0.1375585486548799 0 0.4811795490909111 -0.16066091162662571 0 0.47020721290558998 -0.1569112521868837 0 0.47675454982309318 -0.14611049620903341 0 0.46340686510782347 -0.14380832223453061 0 0.47675454982309318 -0.14611049620903341 0 0.47542356276026648 -0.1375585486548799 0 0.4811795490909111 -0.16066091162662571 0 0.47675454982309318 -0.14611049620903341 0 0.49031965766254909 -0.15326839856548979 0 0.47675454982309318 -0.14611049620903341 0 0.50000000000000067 -0.13916632327605161 0 0.47675454982309318 -0.14611049620903341 0 0.49031965766254909 -0.15326839856548979 0 0.50000000000000067 -0.13916632327605161 0 0.5 -0.1678037936452613 0 0.49031965766254909 -0.15326839856548979 0 0.50000000000000067 -0.13916632327605161 0 0.50000000000000067 -0.13916632327605161 0 0.4999999999999975 -0.13701644313244571 0 0.47542356276026648 -0.1375585486548799 0 0.4999999999999975 -0.13701644313244571 0 0.47542356276026648 -0.1375585486548799 0 0.48631863465428371 -0.1248194111880794 0 0.4999999999999975 -0.13701644313244571 0 0.47542356276026648 -0.1375585486548799 0 0.48631863465428371 -0.1248194111880794 0 0.47542356276026648 -0.1375585486548799 0 0.47508342966173922 -0.12530855750060921 0 0.46740508961049843 -0.1280090345356969 0 0.47542356276026648 -0.1375585486548799 0 0.47508342966173922 -0.12530855750060921 0 0.45538281532691471 -0.22646074686186801 0 0.47297531455605352 -0.2265668765552416 0 0.47280076665640752 -0.2489143408388326 0 0.45538281532691471 -0.22646074686186801 0 0.46923901700832088 -0.20887376025218959 0 0.47297531455605352 -0.2265668765552416 0 0.45538281532691471 -0.22646074686186801 0 0.44474282262130499 -0.24286982045652811 0 0.47280076665640752 -0.2489143408388326 0 0.45538281532691471 -0.22646074686186801 0 0.44474282262130499 -0.24286982045652811 0 0.43903648801823419 -0.21723783011391029 0 0.44474282262130499 -0.24286982045652811 0 0.43903648801823419 -0.21723783011391029 0 0.4333301534151634 -0.1916058397712925 0 0.43903648801823419 -0.21723783011391029 0 0.44881712264080142 -0.20125903174215859 0 0.45538281532691471 -0.22646074686186801 0 0.43903648801823419 -0.21723783011391029 0 0.44881712264080142 -0.20125903174215859 0 0.4333301534151634 -0.1916058397712925 0 0.44526365379313138 -0.1769641980425205 0 0.44881712264080142 -0.20125903174215859 0 0.44526365379313138 -0.1769641980425205 0 0.44881712264080142 -0.20125903174215859 0 0.46042013795253123 -0.18854279032322879 0 0.44881712264080142 -0.20125903174215859 0 0.46042013795253123 -0.18854279032322879 0 0.46923901700832088 -0.20887376025218959 0 0.45538281532691471 -0.22646074686186801 0 0.44881712264080142 -0.20125903174215859 0 0.46923901700832088 -0.20887376025218959 0 0.46923901700832088 -0.20887376025218959 0 0.48656346841301479 -0.20882422450896651 0 0.48384692194484702 -0.22075930075288289 0 0.46923901700832088 -0.20887376025218959 0 0.48384692194484702 -0.22075930075288289 0 0.47297531455605352 -0.2265668765552416 0 0.46042013795253123 -0.18854279032322879 0 0.46923901700832088 -0.20887376025218959 0 0.47797456073759242 -0.18832157813941361 0 0.46923901700832088 -0.20887376025218959 0 0.47797456073759242 -0.18832157813941361 0 0.48656346841301479 -0.20882422450896651 0 0.47797456073759242 -0.18832157813941361 0 0.48656346841301479 -0.20882422450896651 0 0.47797456073759242 -0.18832157813941361 0 0.5 -0.19644126401447071 0 0.48656346841301479 -0.20882422450896651 0 0.5 -0.19644126401447071 0 0.48656346841301479 -0.20882422450896651 0 0.49999999999999861 -0.22507873438368009 0 0.48656346841301479 -0.20882422450896651 0 0.4951523760884371 -0.22932687087851941 0 0.48384692194484702 -0.22075930075288289 0 0.48656346841301479 -0.20882422450896651 0 0.49999999999999861 -0.22507873438368009 0 0.4951523760884371 -0.22932687087851941 0 0.49999999999999861 -0.22507873438368009 0 0.4951523760884371 -0.22932687087851941 0 0.49999999999999839 -0.24089867052374109 0 0.48656346841301479 -0.20882422450896651 0 0.4951523760884371 -0.22932687087851941 0 0.49999999999999861 -0.22507873438368009 0 0.4951523760884371 -0.22932687087851941 0 0.4951523760884371 -0.22932687087851941 0 0.48384692194484702 -0.22075930075288289 0 0.47297531455605352 -0.2265668765552416 0 0.4951523760884371 -0.22932687087851941 0 0.47280076665640752 -0.2489143408388326 0 0.4951523760884371 -0.22932687087851941 0 0.47297531455605352 -0.2265668765552416 0 0.47280076665640752 -0.2489143408388326 0 0.4951523760884371 -0.22932687087851941 0 0.49999999999999839 -0.24089867052374109 0 0.48923455691713502 -0.25129100206982041 0 0.4951523760884371 -0.22932687087851941 0 0.47280076665640752 -0.2489143408388326 0 0.48923455691713502 -0.25129100206982041 0 0.4951523760884371 -0.22932687087851941 0 0.49999999999999839 -0.24089867052374109 0 0.49999999999999839 -0.24089867052374109 0 0.48923455691713502 -0.25129100206982041 0 0.5 -0.2680169238196034 0 0.48923455691713502 -0.25129100206982041 0 0.5 -0.2680169238196034 0 0.48107672123809131 -0.26239207312427693 0 0.5 -0.2680169238196034 0 0.47530539527662319 -0.27651806263839179 0 0.48584518453122499 -0.2882241891547454 0 0.5 -0.2680169238196034 0 0.47530539527662319 -0.27651806263839179 0 0.48107672123809131 -0.26239207312427693 0 0.47530539527662319 -0.27651806263839179 0 0.48107672123809131 -0.26239207312427693 0 0.46804288734029059 -0.26722003625473661 0 0.47530539527662319 -0.27651806263839179 0 0.46804288734029059 -0.26722003625473661 0 0.46340069923443289 -0.27920135291261139 0 0.47280076665640752 -0.2489143408388326 0 0.48923455691713502 -0.25129100206982041 0 0.48107672123809131 -0.26239207312427693 0 0.47280076665640752 -0.2489143408388326 0 0.48107672123809131 -0.26239207312427693 0 0.46804288734029059 -0.26722003625473661 0 0.44474282262130499 -0.24286982045652811 0 0.47280076665640752 -0.2489143408388326 0 0.45044915722437762 -0.26850181079914559 0 0.47280076665640752 -0.2489143408388326 0 0.45044915722437762 -0.26850181079914559 0 0.47280076665640752 -0.2489143408388326 0 0.46804288734029059 -0.26722003625473661 0 0.45044915722437762 -0.26850181079914559 0 0.46804288734029059 -0.26722003625473661 0 0.46340069923443289 -0.27920135291261139 0 0.45044915722437762 -0.26850181079914559 0 0.46340069923443289 -0.27920135291261139 0 0.45044915722437762 -0.26850181079914559 0 0.45619736340931982 -0.29432188194263809 0 0.45044915722437762 -0.26850181079914559 0 0.44520550316575902 -0.27309700188226788 0 0.44212973817522738 -0.26364726224876639 0 0.45044915722437762 -0.26850181079914559 0 0.44691560429357058 -0.27646306579045621 0 0.44520550316575902 -0.27309700188226788 0 0.45044915722437762 -0.26850181079914559 0 0.44520550316575902 -0.27309700188226788 0 0.45044915722437762 -0.26850181079914559 0 0.44691560429357058 -0.27646306579045621 0 0.44918938048374552 -0.28374871594965762 0 0.44691560429357058 -0.27646306579045621 0 0.44281837630040061 -0.28050473453075359 0 0.44918938048374552 -0.28374871594965762 0 0.44281837630040061 -0.28050473453075359 0 0.43939866828287732 -0.27185479433692672 0 0.44520550316575902 -0.27309700188226788 0 0.44281837630040061 -0.28050473453075359 0 0.43939866828287732 -0.27185479433692672 0 0.43368820201543401 -0.27925137586193 0 0.44691560429357058 -0.27646306579045621 0 0.44281837630040061 -0.28050473453075359 0 0.44520550316575902 -0.27309700188226788 0 0.43939866828287732 -0.27185479433692672 0 0.44212973817522738 -0.26364726224876639 0 0.43315152175756549 -0.26277359716091581 0 0.43939866828287732 -0.27185479433692672 0 0.44520550316575902 -0.27309700188226788 0 0.44212973817522738 -0.26364726224876639 0 0.44474282262130499 -0.24286982045652811 0 0.45044915722437762 -0.26850181079914559 0 0.44212973817522738 -0.26364726224876639 0 0.44474282262130499 -0.24286982045652811 0 0.45044915722437762 -0.26850181079914559 0 0.44474282262130499 -0.24286982045652811 0 0.44212973817522738 -0.26364726224876639 0 0.43315152175756549 -0.26277359716091581 0 0.44991326851460728 -0.29662328814579292 0 0.45705149851677751 -0.3028322136137459 0 0.44915899497211831 -0.31540627377660702 0 0.44991326851460728 -0.29662328814579292 0 0.44915899497211831 -0.31540627377660702 0 0.43199575209959251 -0.2974920255688015 0 0.44915899497211831 -0.31540627377660702 0 0.43199575209959251 -0.2974920255688015 0 0.44281837630040061 -0.28050473453075359 0 0.44991326851460728 -0.29662328814579292 0 0.43368820201543401 -0.27925137586193 0 0.44281837630040061 -0.28050473453075359 0 0.44918938048374552 -0.28374871594965762 0 0.44991326851460728 -0.29662328814579292 0 0.44991326851460728 -0.29662328814579292 0 0.43368820201543401 -0.27925137586193 0 0.44991326851460728 -0.29662328814579292 0 0.43368820201543401 -0.27925137586193 0 0.43199575209959251 -0.2974920255688015 0 0.45044915722437762 -0.26850181079914559 0 0.44918938048374552 -0.28374871594965762 0 0.45619736340931982 -0.29432188194263809 0 0.44918938048374552 -0.28374871594965762 0 0.44991326851460728 -0.29662328814579292 0 0.45619736340931982 -0.29432188194263809 0 0.45044915722437762 -0.26850181079914559 0 0.45619736340931982 -0.29432188194263809 0 0.46340069923443289 -0.27920135291261139 0 0.45619736340931982 -0.29432188194263809 0 0.47021973710646742 -0.29021565804087679 0 0.45619736340931982 -0.29432188194263809 0 0.46513399988034471 -0.29895676919306557 0 0.47021973710646742 -0.29021565804087679 0 0.45705149851677751 -0.3028322136137459 0 0.46490350566512251 -0.30913513788071512 0 0.44915899497211831 -0.31540627377660702 0 0.46513399988034471 -0.29895676919306557 0 0.45705149851677751 -0.3028322136137459 0 0.46490350566512251 -0.30913513788071512 0 0.44991326851460728 -0.29662328814579292 0 0.45619736340931982 -0.29432188194263809 0 0.45705149851677751 -0.3028322136137459 0 0.45619736340931982 -0.29432188194263809 0 0.46513399988034471 -0.29895676919306557 0 0.45705149851677751 -0.3028322136137459 0 0.46490350566512251 -0.30913513788071512 0 0.47800317780116569 -0.3022896295055793 0 0.47523249595466432 -0.31436487621184628 0 0.46513399988034471 -0.29895676919306557 0 0.46490350566512251 -0.30913513788071512 0 0.47800317780116569 -0.3022896295055793 0 0.46513399988034471 -0.29895676919306557 0 0.47800317780116569 -0.3022896295055793 0 0.47021973710646742 -0.29021565804087679 0 0.47800317780116569 -0.3022896295055793 0 0.48710516333862069 -0.31453355689682172 0 0.47523249595466432 -0.31436487621184628 0 0.47530539527662319 -0.27651806263839179 0 0.47021973710646742 -0.29021565804087679 0 0.48584518453122499 -0.2882241891547454 0 0.47800317780116569 -0.3022896295055793 0 0.47021973710646742 -0.29021565804087679 0 0.48584518453122499 -0.2882241891547454 0 0.47530539527662319 -0.27651806263839179 0 0.46340069923443289 -0.27920135291261139 0 0.47021973710646742 -0.29021565804087679 0 0.47800317780116569 -0.3022896295055793 0 0.48584518453122499 -0.2882241891547454 0 0.5 -0.29513517711546572 0 0.5 -0.2680169238196034 0 0.48584518453122499 -0.2882241891547454 0 0.5 -0.29513517711546572 0 0.5 -0.29513517711546572 0 0.5 -0.32225343041132792 0 0.48710516333862069 -0.31453355689682172 0 0.47800317780116569 -0.3022896295055793 0 0.5 -0.29513517711546572 0 0.48710516333862069 -0.31453355689682172 0 0.5 -0.32225343041132792 0 0.48710516333862069 -0.31453355689682172 0 0.48774687906170228 -0.33467443406128339 0 0.5 -0.32225343041132792 0 0.48774687906170228 -0.33467443406128339 0 0.5 -0.34937168370719018 0 0.48420746469406772 -0.35198834574086368 0 0.46632223784464472 -0.33332052198441198 0 0.48774687906170228 -0.33467443406128339 0 0.47725415643624342 -0.32588392793097443 0 0.46632223784464472 -0.33332052198441198 0 0.48774687906170228 -0.33467443406128339 0 0.48420746469406772 -0.35198834574086368 0 0.46632223784464472 -0.33332052198441198 0 0.47725415643624342 -0.32588392793097443 0 0.46632223784464472 -0.33332052198441198 0 0.47725415643624342 -0.32588392793097443 0 0.4666263454023078 -0.31963021888624338 0 0.46632223784464472 -0.33332052198441198 0 0.48710516333862069 -0.31453355689682172 0 0.48774687906170228 -0.33467443406128339 0 0.47725415643624342 -0.32588392793097443 0 0.46490350566512251 -0.30913513788071512 0 0.47523249595466432 -0.31436487621184628 0 0.4666263454023078 -0.31963021888624338 0 0.47523249595466432 -0.31436487621184628 0 0.47725415643624342 -0.32588392793097443 0 0.4666263454023078 -0.31963021888624338 0 0.48710516333862069 -0.31453355689682172 0 0.47523249595466432 -0.31436487621184628 0 0.47725415643624342 -0.32588392793097443 0 0.5 -0.34937168370719018 0 0.48295643063652732 -0.37013504762846833 0 0.5 -0.37648993700305239 0 0.48774687906170228 -0.33467443406128339 0 0.5 -0.34937168370719018 0 0.48420746469406772 -0.35198834574086368 0 0.5 -0.34937168370719018 0 0.48420746469406772 -0.35198834574086368 0 0.48295643063652732 -0.37013504762846833 0 0.48420746469406772 -0.35198834574086368 0 0.46713536672557793 -0.35433876519054119 0 0.46632223784464472 -0.33332052198441198 0 0.48420746469406772 -0.35198834574086368 0 0.48295643063652732 -0.37013504762846833 0 0.46713536672557793 -0.35433876519054119 0 0.48295643063652732 -0.37013504762846833 0 0.45921131556880629 -0.36746147544456992 0 0.46713536672557793 -0.35433876519054119 0 0.48295643063652732 -0.37013504762846833 0 0.45921131556880629 -0.36746147544456992 0 0.46574491250191019 -0.3832216328700182 0 0.45921131556880629 -0.36746147544456992 0 0.46713536672557793 -0.35433876519054119 0 0.44419582861972118 -0.34837232847995719 0 0.46713536672557793 -0.35433876519054119 0 0.44419582861972118 -0.34837232847995719 0 0.46632223784464472 -0.33332052198441198 0 0.4450227825017109 -0.36811244387186859 0 0.43352400282182291 -0.37047518658766998 0 0.45021257242739049 -0.38058863462656611 0 0.45921131556880629 -0.36746147544456992 0 0.44419582861972118 -0.34837232847995719 0 0.4450227825017109 -0.36811244387186859 0 0.44419582861972118 -0.34837232847995719 0 0.4450227825017109 -0.36811244387186859 0 0.43352400282182291 -0.37047518658766998 0 0.45921131556880629 -0.36746147544456992 0 0.4450227825017109 -0.36811244387186859 0 0.45021257242739049 -0.38058863462656611 0 0.46632223784464472 -0.33332052198441198 0 0.44915899497211831 -0.31540627377660702 0 0.46490350566512251 -0.30913513788071512 0 0.4666263454023078 -0.31963021888624338 0 0.44915899497211831 -0.31540627377660702 0 0.46632223784464472 -0.33332052198441198 0 0.44905928313476817 -0.33204860926801871 0 0.44915899497211831 -0.31540627377660702 0 0.4666263454023078 -0.31963021888624338 0 0.46632223784464472 -0.33332052198441198 0 0.44915899497211831 -0.31540627377660702 0 0.44419582861972118 -0.34837232847995719 0 0.46632223784464472 -0.33332052198441198 0 0.44905928313476817 -0.33204860926801871 0 0.44419582861972118 -0.34837232847995719 0 0.46632223784464472 -0.33332052198441198 0 0.44419582861972118 -0.34837232847995719 0 0.44905928313476817 -0.33204860926801871 0 0.43507319911074199 -0.33150836224624908 0 0.44905928313476817 -0.33204860926801871 0 0.44915899497211831 -0.31540627377660702 0 0.43507319911074199 -0.33150836224624908 0 0.44915899497211831 -0.31540627377660702 0 0.42984196566903138 -0.31583128146460671 0 0.43507319911074199 -0.33150836224624908 0 0.42984196566903138 -0.31583128146460671 0 0.43507319911074199 -0.33150836224624908 0 0.41480527445688969 -0.32820814696699091 0 0.44419582861972118 -0.34837232847995719 0 0.43507319911074199 -0.33150836224624908 0 0.42919706485388859 -0.34327222659587009 0 0.43507319911074199 -0.33150836224624908 0 0.42250436920626228 -0.33795672273453642 0 0.41480527445688969 -0.32820814696699091 0 0.43507319911074199 -0.33150836224624908 0 0.42250436920626228 -0.33795672273453642 0 0.42919706485388859 -0.34327222659587009 0 0.42250436920626228 -0.33795672273453642 0 0.42919706485388859 -0.34327222659587009 0 0.41936797908115242 -0.34633639245184489 0 0.41480527445688969 -0.32820814696699091 0 0.41407832852863868 -0.34045848541172702 0 0.40158494932840261 -0.34502702141403863 0 0.42250436920626228 -0.33795672273453642 0 0.41480527445688969 -0.32820814696699091 0 0.41407832852863868 -0.34045848541172702 0 0.41480527445688969 -0.32820814696699091 0 0.40158494932840261 -0.34502702141403863 0 0.42250436920626228 -0.33795672273453642 0 0.41407832852863868 -0.34045848541172702 0 0.41936797908115242 -0.34633639245184489 0 0.41480527445688969 -0.32820814696699091 0 0.40595155021468732 -0.31866949024157692 0 0.41518499018721527 -0.30825221519594143 0 0.41480527445688969 -0.32820814696699091 0 0.40595155021468732 -0.31866949024157692 0 0.39846696184768238 -0.3277482067391379 0 0.42984196566903138 -0.31583128146460671 0 0.41480527445688969 -0.32820814696699091 0 0.41518499018721527 -0.30825221519594143 0 0.44419582861972118 -0.34837232847995719 0 0.43352400282182291 -0.37047518658766998 0 0.42206941939479942 -0.36342413497550519 0 0.43352400282182291 -0.37047518658766998 0 0.42206941939479942 -0.36342413497550519 0 0.42160158510756701 -0.37451121410048088 0 0.44419582861972118 -0.34837232847995719 0 0.42206941939479942 -0.36342413497550519 0 0.44419582861972118 -0.34837232847995719 0 0.42206941939479942 -0.36342413497550519 0 0.42334498053078018 -0.35398976342873878 0 0.44419582861972118 -0.34837232847995719 0 0.42919706485388859 -0.34327222659587009 0 0.42334498053078018 -0.35398976342873878 0 0.42919706485388859 -0.34327222659587009 0 0.42334498053078018 -0.35398976342873878 0 0.41936797908115242 -0.34633639245184489 0 0.41331338853771582 -0.35769113729715352 0 0.41589883313060538 -0.36762176458041412 0 0.40280848111522949 -0.35180741393458681 0 0.41936797908115242 -0.34633639245184489 0 0.41437427896708978 -0.35043701824779189 0 0.41063010284970097 -0.34656657985320027 0 0.41407832852863868 -0.34045848541172702 0 0.41936797908115242 -0.34633639245184489 0 0.41063010284970097 -0.34656657985320027 0 0.42334498053078018 -0.35398976342873878 0 0.41936797908115242 -0.34633639245184489 0 0.41800162388073497 -0.35261513916719811 0 0.41936797908115242 -0.34633639245184489 0 0.41437427896708978 -0.35043701824779189 0 0.41800162388073497 -0.35261513916719811 0 0.41407832852863868 -0.34045848541172702 0 0.41063010284970097 -0.34656657985320027 0 0.40158494932840261 -0.34502702141403863 0 0.40638690274476469 -0.34880488858321967 0 0.41052407768572602 -0.35181853913105288 0 0.40280848111522949 -0.35180741393458681 0 0.41063010284970097 -0.34656657985320027 0 0.40638690274476469 -0.34880488858321967 0 0.41052407768572602 -0.35181853913105288 0 0.41437427896708978 -0.35043701824779189 0 0.41063010284970097 -0.34656657985320027 0 0.41052407768572602 -0.35181853913105288 0 0.41437427896708978 -0.35043701824779189 0 0.41052407768572602 -0.35181853913105288 0 0.41497866397787919 -0.35480094713670218 0 0.41052407768572602 -0.35181853913105288 0 0.41331338853771582 -0.35769113729715352 0 0.41497866397787919 -0.35480094713670218 0 0.41052407768572602 -0.35181853913105288 0 0.41331338853771582 -0.35769113729715352 0 0.40280848111522949 -0.35180741393458681 0 0.41331338853771582 -0.35769113729715352 0 0.41497866397787919 -0.35480094713670218 0 0.41801167048973231 -0.35769118616866458 0 0.41331338853771582 -0.35769113729715352 0 0.41801167048973231 -0.35769118616866458 0 0.41765860482712303 -0.36240697283149981 0 0.41437427896708978 -0.35043701824779189 0 0.41497866397787919 -0.35480094713670218 0 0.41800162388073497 -0.35261513916719811 0 0.41497866397787919 -0.35480094713670218 0 0.41800162388073497 -0.35261513916719811 0 0.41801167048973231 -0.35769118616866458 0 0.42334498053078018 -0.35398976342873878 0 0.41800162388073497 -0.35261513916719811 0 0.41801167048973231 -0.35769118616866458 0 0.42334498053078018 -0.35398976342873878 0 0.41801167048973231 -0.35769118616866458 0 0.41974518505096048 -0.36122522457484429 0 0.41589883313060538 -0.36762176458041412 0 0.40280848111522949 -0.35180741393458681 0 0.4094998651341224 -0.36629488882666189 0 0.41589883313060538 -0.36762176458041412 0 0.40280848111522949 -0.35180741393458681 0 0.41331338853771582 -0.35769113729715352 0 0.41765860482712303 -0.36240697283149981 0 0.41589883313060538 -0.36762176458041412 0 0.42206941939479942 -0.36342413497550519 0 0.42334498053078018 -0.35398976342873878 0 0.41974518505096048 -0.36122522457484429 0 0.42206941939479942 -0.36342413497550519 0 0.41974518505096048 -0.36122522457484429 0 0.41765860482712303 -0.36240697283149981 0 0.41801167048973231 -0.35769118616866458 0 0.41974518505096048 -0.36122522457484429 0 0.41765860482712303 -0.36240697283149981 0 0.42206941939479942 -0.36342413497550519 0 0.41765860482712303 -0.36240697283149981 0 0.41589883313060538 -0.36762176458041412 0 0.42206941939479942 -0.36342413497550519 0 0.41589883313060538 -0.36762176458041412 0 0.40904191692467662 -0.37228627994929392 0 0.41589883313060538 -0.36762176458041412 0 0.41411331673282109 -0.38022031233322517 0 0.4094998651341224 -0.36629488882666189 0 0.40904191692467662 -0.37228627994929392 0 0.41589883313060538 -0.36762176458041412 0 0.40904191692467662 -0.37228627994929392 0 0.41589883313060538 -0.36762176458041412 0 0.4094998651341224 -0.36629488882666189 0 0.40904191692467662 -0.37228627994929392 0 0.406107948598182 -0.37009192839024307 0 0.42206941939479942 -0.36342413497550519 0 0.42160158510756701 -0.37451121410048088 0 0.42206941939479942 -0.36342413497550519 0 0.41589883313060538 -0.36762176458041412 0 0.42160158510756701 -0.37451121410048088 0 0.41589883313060538 -0.36762176458041412 0 0.42160158510756701 -0.37451121410048088 0 0.41411331673282109 -0.38022031233322517 0 0.41589883313060538 -0.36762176458041412 0 0.42160158510756701 -0.37451121410048088 0 0.406107948598182 -0.37009192839024307 0 0.3979321310670989 -0.36164496709924232 0 0.40280848111522949 -0.35180741393458681 0 0.406107948598182 -0.37009192839024307 0 0.40280848111522949 -0.35180741393458681 0 0.4094998651341224 -0.36629488882666189 0 0.406107948598182 -0.37009192839024307 0 0.40280848111522949 -0.35180741393458681 0 0.39632431041278121 -0.37241775427887658 0 0.406107948598182 -0.37009192839024307 0 0.3979321310670989 -0.36164496709924232 0 0.39632431041278121 -0.37241775427887658 0 0.3979321310670989 -0.36164496709924232 0 0.3849727210417655 -0.36616106911129159 0 0.39944719416753621 -0.34774666978121332 0 0.3849727210417655 -0.36616106911129159 0 0.3979321310670989 -0.36164496709924232 0 0.39944719416753621 -0.34774666978121332 0 0.3849727210417655 -0.36616106911129159 0 0.3979321310670989 -0.36164496709924232 0 0.40280848111522949 -0.35180741393458681 0 0.39944719416753621 -0.34774666978121332 0 0.40280848111522949 -0.35180741393458681 0 0.39944719416753621 -0.34774666978121332 0 0.40280848111522949 -0.35180741393458681 0 0.40158494932840261 -0.34502702141403863 0 0.41063010284970097 -0.34656657985320027 0 0.40638690274476469 -0.34880488858321967 0 0.40158494932840261 -0.34502702141403863 0 0.40280848111522949 -0.35180741393458681 0 0.39944719416753621 -0.34774666978121332 0 0.40158494932840261 -0.34502702141403863 0 0.40638690274476469 -0.34880488858321967 0 0.40280848111522949 -0.35180741393458681 0 0.40158494932840261 -0.34502702141403863 0 0.39944719416753621 -0.34774666978121332 0 0.40158494932840261 -0.34502702141403863 0 0.37913080788941023 -0.34704742573611691 0 0.3849727210417655 -0.36616106911129159 0 0.36449801693046352 -0.35653353055336567 0 0.39944719416753621 -0.34774666978121332 0 0.37913080788941023 -0.34704742573611691 0 0.3849727210417655 -0.36616106911129159 0 0.39632431041278121 -0.37241775427887658 0 0.3849727210417655 -0.36616106911129159 0 0.38959988535118251 -0.38203856511228412 0 0.39846696184768238 -0.3277482067391379 0 0.39534897436696198 -0.31046939206423718 0 0.39846696184768238 -0.3277482067391379 0 0.38293690440463618 -0.3149226035927235 0 0.39534897436696198 -0.31046939206423718 0 0.40595155021468732 -0.31866949024157692 0 0.39846696184768238 -0.3277482067391379 0 0.39534897436696198 -0.31046939206423718 0 0.39944719416753621 -0.34774666978121332 0 0.38300785244658547 -0.32788643118286781 0 0.40158494932840261 -0.34502702141403863 0 0.39846696184768238 -0.3277482067391379 0 0.38300785244658547 -0.32788643118286781 0 0.39944719416753621 -0.34774666978121332 0 0.40158494932840261 -0.34502702141403863 0 0.38300785244658547 -0.32788643118286781 0 0.41480527445688969 -0.32820814696699091 0 0.40158494932840261 -0.34502702141403863 0 0.39846696184768238 -0.3277482067391379 0 0.40158494932840261 -0.34502702141403863 0 0.39846696184768238 -0.3277482067391379 0 0.39944719416753621 -0.34774666978121332 0 0.37913080788941023 -0.34704742573611691 0 0.38300785244658547 -0.32788643118286781 0 0.37913080788941023 -0.34704742573611691 0 0.38300785244658547 -0.32788643118286781 0 0.37001166429093729 -0.33495670932523292 0 0.38300785244658547 -0.32788643118286781 0 0.38293690440463618 -0.3149226035927235 0 0.37000821144581558 -0.32141789506041257 0 0.39846696184768238 -0.3277482067391379 0 0.38300785244658547 -0.32788643118286781 0 0.38293690440463618 -0.3149226035927235 0 0.38496401369691657 -0.30016428819033991 0 0.37362155735316249 -0.291527603103302 0 0.36766681071101831 -0.3060050769085817 0 0.38293690440463618 -0.3149226035927235 0 0.38496401369691657 -0.30016428819033991 0 0.36766681071101831 -0.3060050769085817 0 0.38293690440463618 -0.3149226035927235 0 0.38496401369691657 -0.30016428819033991 0 0.39534897436696198 -0.31046939206423718 0 0.38496401369691657 -0.30016428819033991 0 0.39534897436696198 -0.31046939206423718 0 0.40240473732237048 -0.29376157755385041 0 0.39534897436696198 -0.31046939206423718 0 0.40240473732237048 -0.29376157755385041 0 0.41518499018721527 -0.30825221519594143 0 0.40595155021468732 -0.31866949024157692 0 0.39534897436696198 -0.31046939206423718 0 0.41518499018721527 -0.30825221519594143 0 0.40240473732237048 -0.29376157755385041 0 0.38612387669044529 -0.28554177467531899 0 0.39710896403820739 -0.27811098799199852 0 0.38496401369691657 -0.30016428819033991 0 0.40240473732237048 -0.29376157755385041 0 0.38612387669044529 -0.28554177467531899 0 0.40240473732237048 -0.29376157755385041 0 0.39710896403820739 -0.27811098799199852 0 0.4148325092270666 -0.27957777736099609 0 0.38612387669044529 -0.28554177467531899 0 0.37039703338323082 -0.27845584177728089 0 0.37362155735316249 -0.291527603103302 0 0.38496401369691657 -0.30016428819033991 0 0.38612387669044529 -0.28554177467531899 0 0.37362155735316249 -0.291527603103302 0 0.38612387669044529 -0.28554177467531899 0 0.3834587817843747 -0.26928156361290018 0 0.37039703338323082 -0.27845584177728089 0 0.38612387669044529 -0.28554177467531899 0 0.3834587817843747 -0.26928156361290018 0 0.39710896403820739 -0.27811098799199852 0 0.37842677557578852 -0.2476989620572124 0 0.3834587817843747 -0.26928156361290018 0 0.39766926635454081 -0.26166352915319058 0 0.37842677557578852 -0.2476989620572124 0 0.3834587817843747 -0.26928156361290018 0 0.36968856660685873 -0.2639334702088682 0 0.37842677557578852 -0.2476989620572124 0 0.4012380690170872 -0.24450755129420401 0 0.39766926635454081 -0.26166352915319058 0 0.4012380690170872 -0.24450755129420401 0 0.39766926635454081 -0.26166352915319058 0 0.41746313551626058 -0.26187946357806702 0 0.39766926635454081 -0.26166352915319058 0 0.39710896403820739 -0.27811098799199852 0 0.4148325092270666 -0.27957777736099609 0 0.3834587817843747 -0.26928156361290018 0 0.39766926635454081 -0.26166352915319058 0 0.39710896403820739 -0.27811098799199852 0 0.39766926635454081 -0.26166352915319058 0 0.4148325092270666 -0.27957777736099609 0 0.41746313551626058 -0.26187946357806702 0 0.39766926635454081 -0.26166352915319058 0 0.4148325092270666 -0.27957777736099609 0 0.4012380690170872 -0.24450755129420401 0 0.42570036879476142 -0.24729859014922589 0 0.41746313551626058 -0.26187946357806702 0 0.4012380690170872 -0.24450755129420401 0 0.41746313551626058 -0.26187946357806702 0 0.42570036879476142 -0.24729859014922589 0 0.44474282262130499 -0.24286982045652811 0 0.43315152175756549 -0.26277359716091581 0 0.42570036879476142 -0.24729859014922589 0 0.41746313551626058 -0.26187946357806702 0 0.43315152175756549 -0.26277359716091581 0 0.4148325092270666 -0.27957777736099609 0 0.41746313551626058 -0.26187946357806702 0 0.43368820201543401 -0.27925137586193 0 0.41746313551626058 -0.26187946357806702 0 0.43368820201543401 -0.27925137586193 0 0.41746313551626058 -0.26187946357806702 0 0.43315152175756549 -0.26277359716091581 0 0.43368820201543401 -0.27925137586193 0 0.43939866828287732 -0.27185479433692672 0 0.43315152175756549 -0.26277359716091581 0 0.43368820201543401 -0.27925137586193 0 0.4148325092270666 -0.27957777736099609 0 0.43199575209959251 -0.2974920255688015 0 0.4148325092270666 -0.27957777736099609 0 0.43368820201543401 -0.27925137586193 0 0.43199575209959251 -0.2974920255688015 0 0.44915899497211831 -0.31540627377660702 0 0.42984196566903138 -0.31583128146460671 0 0.43199575209959251 -0.2974920255688015 0 0.42984196566903138 -0.31583128146460671 0 0.43199575209959251 -0.2974920255688015 0 0.41518499018721527 -0.30825221519594143 0 0.43199575209959251 -0.2974920255688015 0 0.41518499018721527 -0.30825221519594143 0 0.41610449720906117 -0.29477089891989727 0 0.40240473732237048 -0.29376157755385041 0 0.41518499018721527 -0.30825221519594143 0 0.41610449720906117 -0.29477089891989727 0 0.4148325092270666 -0.27957777736099609 0 0.43199575209959251 -0.2974920255688015 0 0.41610449720906117 -0.29477089891989727 0 0.40240473732237048 -0.29376157755385041 0 0.4148325092270666 -0.27957777736099609 0 0.41610449720906117 -0.29477089891989727 0 0.44743494495685809 -0.48019854275646462 0 0.47933494662464382 -0.47864198040378442 0 0.45842161788938501 -0.46056679151078628 0 0.44743494495685809 -0.48019854275646462 0 0.45811272235343942 -0.50000000000000167 0 0.47933494662464382 -0.47864198040378442 0 0.44743494495685809 -0.48019854275646462 0 0.45811272235343942 -0.50000000000000167 0 0.43290864349546432 -0.5 0 0.44743494495685809 -0.48019854275646462 0 0.45842161788938501 -0.46056679151078628 0 0.4280473361504199 -0.46678931888308839 0 0.45811272235343942 -0.50000000000000167 0 0.47933494662464382 -0.47864198040378442 0 0.45811272235343942 -0.50000000000000167 0 0.48760895668473242 -0.48579312772384398 0 0.47933494662464382 -0.47864198040378442 0 0.45811272235343942 -0.50000000000000167 0 0.5 -0.5 0 0.48760895668473242 -0.48579312772384398 0 0.5 -0.5 0 0.48760895668473242 -0.48579312772384398 0 0.49999999999999789 -0.457844696890639 0 0.48760895668473242 -0.48579312772384398 0 0.47933494662464382 -0.47864198040378442 0 0.49999999999999789 -0.457844696890639 0 0.47933494662464382 -0.47864198040378442 0 0.45842161788938501 -0.46056679151078628 0 0.48760895668473242 -0.48579312772384398 0 0.47933494662464382 -0.47864198040378442 0 0.47933494662464382 -0.47864198040378442 0 0.47533823150818688 -0.45612589162827472 0 0.4923874147236843 -0.46002701451518169 0 0.47933494662464382 -0.47864198040378442 0 0.47533823150818688 -0.45612589162827472 0 0.45842161788938501 -0.46056679151078628 0 0.47933494662464382 -0.47864198040378442 0 0.49999999999999789 -0.457844696890639 0 0.4923874147236843 -0.46002701451518169 0 0.49999999999999789 -0.457844696890639 0 0.49020417241121672 -0.44382058717293288 0 0.47933494662464382 -0.47864198040378442 0 0.4923874147236843 -0.46002701451518169 0 0.49999999999999789 -0.457844696890639 0 0.49999999999999789 -0.457844696890639 0 0.49020417241121672 -0.44382058717293288 0 0.5 -0.4307264435947768 0 0.4923874147236843 -0.46002701451518169 0 0.49020417241121672 -0.44382058717293288 0 0.47469095731965483 -0.43864806441150672 0 0.4923874147236843 -0.46002701451518169 0 0.47469095731965483 -0.43864806441150672 0 0.49020417241121672 -0.44382058717293288 0 0.47469095731965483 -0.43864806441150672 0 0.48629109420424282 -0.43230302816257471 0 0.47533823150818688 -0.45612589162827472 0 0.4923874147236843 -0.46002701451518169 0 0.47469095731965483 -0.43864806441150672 0 0.47533823150818688 -0.45612589162827472 0 0.46919075262325532 -0.44760265828852153 0 0.47469095731965483 -0.43864806441150672 0 0.46919075262325532 -0.44760265828852153 0 0.46164766646977129 -0.44028563331346099 0 0.45842161788938501 -0.46056679151078628 0 0.46919075262325532 -0.44760265828852153 0 0.47469095731965483 -0.43864806441150672 0 0.46164766646977129 -0.44028563331346099 0 0.47533823150818688 -0.45612589162827472 0 0.46919075262325532 -0.44760265828852153 0 0.45842161788938501 -0.46056679151078628 0 0.45842161788938501 -0.46056679151078628 0 0.43750828915412587 -0.44249160261778869 0 0.4280473361504199 -0.46678931888308839 0 0.46164766646977129 -0.44028563331346099 0 0.43750828915412587 -0.44249160261778869 0 0.46164766646977129 -0.44028563331346099 0 0.45842161788938501 -0.46056679151078628 0 0.43750828915412587 -0.44249160261778869 0 0.46164766646977129 -0.44028563331346099 0 0.43750828915412587 -0.44249160261778869 0 0.44858524283796403 -0.43098949677167703 0 0.45842161788938501 -0.46056679151078628 0 0.43750828915412587 -0.44249160261778869 0 0.44858524283796403 -0.43098949677167703 0 0.43819051581233359 -0.42391163684762628 0 0.45699449991562507 -0.41726911430783148 0 0.43750828915412587 -0.44249160261778869 0 0.44858524283796403 -0.43098949677167703 0 0.43819051581233359 -0.42391163684762628 0 0.43819051581233359 -0.42391163684762628 0 0.43822670101896027 -0.41006445112121281 0 0.45699449991562507 -0.41726911430783148 0 0.45699449991562507 -0.41726911430783148 0 0.43929804251159571 -0.39589016420415662 0 0.43822670101896027 -0.41006445112121281 0 0.45699449991562507 -0.41726911430783148 0 0.43929804251159571 -0.39589016420415662 0 0.45699449991562507 -0.41726911430783148 0 0.48026924708609992 -0.41601701747108238 0 0.45969082239437559 -0.3979547981066785 0 0.46164766646977129 -0.44028563331346099 0 0.44858524283796403 -0.43098949677167703 0 0.45699449991562507 -0.41726911430783148 0 0.47469095731965483 -0.43864806441150672 0 0.45699449991562507 -0.41726911430783148 0 0.47469095731965483 -0.43864806441150672 0 0.46164766646977129 -0.44028563331346099 0 0.45699449991562507 -0.41726911430783148 0 0.47469095731965483 -0.43864806441150672 0 0.45699449991562507 -0.41726911430783148 0 0.48026924708609992 -0.41601701747108238 0 0.47469095731965483 -0.43864806441150672 0 0.48629109420424282 -0.43230302816257471 0 0.48026924708609992 -0.41601701747108238 0 0.48629109420424282 -0.43230302816257471 0 0.5 -0.4307264435947768 0 0.48026924708609992 -0.41601701747108238 0 0.49020417241121672 -0.44382058717293288 0 0.48629109420424282 -0.43230302816257471 0 0.5 -0.4307264435947768 0 0.5 -0.4307264435947768 0 0.48026924708609992 -0.41601701747108238 0 0.5 -0.40360819029891459 0 0.48026924708609992 -0.41601701747108238 0 0.48144356876981892 -0.39123777056303571 0 0.45969082239437559 -0.3979547981066785 0 0.48144356876981892 -0.39123777056303571 0 0.46574491250191019 -0.3832216328700182 0 0.45969082239437559 -0.3979547981066785 0 0.48026924708609992 -0.41601701747108238 0 0.48144356876981892 -0.39123777056303571 0 0.5 -0.40360819029891459 0 0.48295643063652732 -0.37013504762846833 0 0.48144356876981892 -0.39123777056303571 0 0.5 -0.37648993700305239 0 0.48144356876981892 -0.39123777056303571 0 0.5 -0.40360819029891459 0 0.5 -0.37648993700305239 0 0.48295643063652732 -0.37013504762846833 0 0.48144356876981892 -0.39123777056303571 0 0.46574491250191019 -0.3832216328700182 0 0.46574491250191019 -0.3832216328700182 0 0.45969082239437559 -0.3979547981066785 0 0.45021257242739049 -0.38058863462656611 0 0.45921131556880629 -0.36746147544456992 0 0.46574491250191019 -0.3832216328700182 0 0.45021257242739049 -0.38058863462656611 0 0.45969082239437559 -0.3979547981066785 0 0.43929804251159571 -0.39589016420415662 0 0.45021257242739049 -0.38058863462656611 0 0.45699449991562507 -0.41726911430783148 0 0.45969082239437559 -0.3979547981066785 0 0.43929804251159571 -0.39589016420415662 0 0.43352400282182291 -0.37047518658766998 0 0.43929804251159571 -0.39589016420415662 0 0.45021257242739049 -0.38058863462656611 0 0.43352400282182291 -0.37047518658766998 0 0.42160158510756701 -0.37451121410048088 0 0.43929804251159571 -0.39589016420415662 0 0.42160158510756701 -0.37451121410048088 0 0.43929804251159571 -0.39589016420415662 0 0.42049764159413761 -0.40067327493484078 0 0.42160158510756701 -0.37451121410048088 0 0.43929804251159571 -0.39589016420415662 0 0.43822670101896027 -0.41006445112121281 0 0.43929804251159571 -0.39589016420415662 0 0.42049764159413761 -0.40067327493484078 0 0.42049764159413761 -0.40067327493484078 0 0.4094074160811339 -0.38837644284589962 0 0.40309521469247123 -0.41274871332659041 0 0.42049764159413761 -0.40067327493484078 0 0.4094074160811339 -0.38837644284589962 0 0.41411331673282109 -0.38022031233322517 0 0.42160158510756701 -0.37451121410048088 0 0.42049764159413761 -0.40067327493484078 0 0.41411331673282109 -0.38022031233322517 0 0.42160158510756701 -0.37451121410048088 0 0.42049764159413761 -0.40067327493484078 0 0.40904191692467662 -0.37228627994929392 0 0.406107948598182 -0.37009192839024307 0 0.4094074160811339 -0.38837644284589962 0 0.40904191692467662 -0.37228627994929392 0 0.4094074160811339 -0.38837644284589962 0 0.41411331673282109 -0.38022031233322517 0 0.406107948598182 -0.37009192839024307 0 0.4094074160811339 -0.38837644284589962 0 0.39632431041278121 -0.37241775427887658 0 0.406107948598182 -0.37009192839024307 0 0.4094074160811339 -0.38837644284589962 0 0.4094074160811339 -0.38837644284589962 0 0.38959988535118251 -0.38203856511228412 0 0.3867967313042347 -0.39866209088398069 0 0.39632431041278121 -0.37241775427887658 0 0.4094074160811339 -0.38837644284589962 0 0.38959988535118251 -0.38203856511228412 0 0.3849727210417655 -0.36616106911129159 0 0.3704982479159975 -0.38457546844137203 0 0.38959988535118251 -0.38203856511228412 0 0.3867967313042347 -0.39866209088398069 0 0.3704982479159975 -0.38457546844137203 0 0.3849727210417655 -0.36616106911129159 0 0.38959988535118251 -0.38203856511228412 0 0.3704982479159975 -0.38457546844137203 0 0.39593111894877647 -0.41129147081542211 0 0.37260289457872148 -0.39256356844412649 0 0.39593111894877647 -0.41129147081542211 0 0.37824964613223411 -0.40721598256057973 0 0.37260289457872148 -0.39256356844412649 0 0.3867967313042347 -0.39866209088398069 0 0.39593111894877647 -0.41129147081542211 0 0.37260289457872148 -0.39256356844412649 0 0.3867967313042347 -0.39866209088398069 0 0.3704982479159975 -0.38457546844137203 0 0.3867967313042347 -0.39866209088398069 0 0.37260289457872148 -0.39256356844412649 0 0.3704982479159975 -0.38457546844137203 0 0.4094074160811339 -0.38837644284589962 0 0.3867967313042347 -0.39866209088398069 0 0.40309521469247123 -0.41274871332659041 0 0.3867967313042347 -0.39866209088398069 0 0.40309521469247123 -0.41274871332659041 0 0.40309521469247123 -0.41274871332659041 0 0.39593111894877647 -0.41129147081542211 0 0.41925934331883102 -0.43001937318671812 0 0.3867967313042347 -0.39866209088398069 0 0.40309521469247123 -0.41274871332659041 0 0.39593111894877647 -0.41129147081542211 0 0.39742323409801311 -0.42183298033522748 0 0.39593111894877647 -0.41129147081542211 0 0.41925934331883102 -0.43001937318671812 0 0.39742323409801311 -0.42183298033522748 0 0.39593111894877647 -0.41129147081542211 0 0.38564828361652048 -0.41508976198804243 0 0.39593111894877647 -0.41129147081542211 0 0.38564828361652048 -0.41508976198804243 0 0.37824964613223411 -0.40721598256057973 0 0.39742323409801311 -0.42183298033522748 0 0.38564828361652048 -0.41508976198804243 0 0.38606601568649629 -0.42432343085859647 0 0.38564828361652048 -0.41508976198804243 0 0.38606601568649629 -0.42432343085859647 0 0.37110555012516089 -0.41483452963896411 0 0.38564828361652048 -0.41508976198804243 0 0.37824964613223411 -0.40721598256057973 0 0.37110555012516089 -0.41483452963896411 0 0.38606601568649629 -0.42432343085859647 0 0.37172660466160962 -0.43252602748886382 0 0.37110555012516089 -0.41483452963896411 0 0.38606601568649629 -0.42432343085859647 0 0.38599230701666332 -0.44719937423060141 0 0.37172660466160962 -0.43252602748886382 0 0.39742323409801311 -0.42183298033522748 0 0.40083832292686722 -0.43113476564834541 0 0.41925934331883102 -0.43001937318671812 0 0.38606601568649629 -0.42432343085859647 0 0.40083832292686722 -0.43113476564834541 0 0.38599230701666332 -0.44719937423060141 0 0.39742323409801311 -0.42183298033522748 0 0.38606601568649629 -0.42432343085859647 0 0.40083832292686722 -0.43113476564834541 0 0.40083832292686722 -0.43113476564834541 0 0.41183484046744301 -0.43595189509022642 0 0.41925934331883102 -0.43001937318671812 0 0.40083832292686722 -0.43113476564834541 0 0.41183484046744301 -0.43595189509022642 0 0.41175029808539459 -0.44484548842419519 0 0.40309521469247123 -0.41274871332659041 0 0.41925934331883102 -0.43001937318671812 0 0.41939369808070731 -0.42683533576920057 0 0.41183484046744301 -0.43595189509022642 0 0.41925934331883102 -0.43001937318671812 0 0.41879872786794109 -0.44093537504805108 0 0.41925934331883102 -0.43001937318671812 0 0.41879872786794109 -0.44093537504805108 0 0.41925934331883102 -0.43001937318671812 0 0.41939369808070731 -0.42683533576920057 0 0.40309521469247123 -0.41274871332659041 0 0.41939369808070731 -0.42683533576920057 0 0.42049764159413761 -0.40067327493484078 0 0.40309521469247123 -0.41274871332659041 0 0.41939369808070731 -0.42683533576920057 0 0.39593111894877647 -0.41129147081542211 0 0.41925934331883102 -0.43001937318671812 0 0.42049764159413761 -0.40067327493484078 0 0.41939369808070731 -0.42683533576920057 0 0.42049764159413761 -0.40067327493484078 0 0.41939369808070731 -0.42683533576920057 0 0.42942741962824621 -0.41523290192779377 0 0.43822670101896027 -0.41006445112121281 0 0.42049764159413761 -0.40067327493484078 0 0.42942741962824621 -0.41523290192779377 0 0.43819051581233359 -0.42391163684762628 0 0.43822670101896027 -0.41006445112121281 0 0.42942741962824621 -0.41523290192779377 0 0.43750828915412587 -0.44249160261778869 0 0.41939369808070731 -0.42683533576920057 0 0.43819051581233359 -0.42391163684762628 0 0.41939369808070731 -0.42683533576920057 0 0.42942741962824621 -0.41523290192779377 0 0.43750828915412587 -0.44249160261778869 0 0.43819051581233359 -0.42391163684762628 0 0.41939369808070731 -0.42683533576920057 0 0.43750828915412587 -0.44249160261778869 0 0.41939369808070731 -0.42683533576920057 0 0.43204561699859662 -0.44028419580539441 0 0.41925934331883102 -0.43001937318671812 0 0.41939369808070731 -0.42683533576920057 0 0.43204561699859662 -0.44028419580539441 0 0.41925934331883102 -0.43001937318671812 0 0.43204561699859662 -0.44028419580539441 0 0.41879872786794109 -0.44093537504805108 0 0.41925934331883102 -0.43001937318671812 0 0.43204561699859662 -0.44028419580539441 0 0.43750828915412587 -0.44249160261778869 0 0.41879872786794109 -0.44093537504805108 0 0.41175029808539459 -0.44484548842419519 0 0.43750828915412587 -0.44249160261778869 0 0.41175029808539459 -0.44484548842419519 0 0.43750828915412587 -0.44249160261778869 0 0.43204561699859662 -0.44028419580539441 0 0.41879872786794109 -0.44093537504805108 0 0.43750828915412587 -0.44249160261778869 0 0.4280473361504199 -0.46678931888308839 0 0.41175029808539459 -0.44484548842419519 0 0.4280473361504199 -0.46678931888308839 0 0.41175029808539459 -0.44484548842419519 0 0.40035086313170082 -0.46115656658412552 0 0.41183484046744301 -0.43595189509022642 0 0.41879872786794109 -0.44093537504805108 0 0.41175029808539459 -0.44484548842419519 0 0.41175029808539459 -0.44484548842419519 0 0.38599230701666332 -0.44719937423060141 0 0.41175029808539459 -0.44484548842419519 0 0.38599230701666332 -0.44719937423060141 0 0.40035086313170082 -0.46115656658412552 0 0.40083832292686722 -0.43113476564834541 0 0.41175029808539459 -0.44484548842419519 0 0.38599230701666332 -0.44719937423060141 0 0.38599230701666332 -0.44719937423060141 0 0.40035086313170082 -0.46115656658412552 0 0.37499402128373183 -0.4619101617447034 0 0.40035086313170082 -0.46115656658412552 0 0.38546661026729317 -0.47660854903505467 0 0.37499402128373183 -0.4619101617447034 0 0.40035086313170082 -0.46115656658412552 0 0.38546661026729317 -0.47660854903505467 0 0.40744926309725149 -0.47873955045079652 0 0.38546661026729317 -0.47660854903505467 0 0.38250048577951418 -0.50000000000000056 0 0.36177717572780671 -0.48279307087465823 0 0.38250048577951418 -0.50000000000000056 0 0.40770456463748928 -0.5 0 0.40744926309725149 -0.47873955045079652 0 0.38546661026729317 -0.47660854903505467 0 0.38250048577951418 -0.50000000000000056 0 0.40744926309725149 -0.47873955045079652 0 0.44743494495685809 -0.48019854275646462 0 0.4280473361504199 -0.46678931888308839 0 0.43290864349546432 -0.5 0 0.4280473361504199 -0.46678931888308839 0 0.40744926309725149 -0.47873955045079652 0 0.43290864349546432 -0.5 0 0.40770456463748928 -0.5 0 0.40744926309725149 -0.47873955045079652 0 0.43290864349546432 -0.5 0 0.4280473361504199 -0.46678931888308839 0 0.40035086313170082 -0.46115656658412552 0 0.40744926309725149 -0.47873955045079652 0 0.31906492150509752 -0.5 0 0.31922860177957618 -0.48417078574268468 0 0.30240395027898559 -0.49999999999999462 0 0.31906492150509752 -0.5 0 0.31922860177957618 -0.48417078574268468 0 0.33572589273120951 -0.49999999999999528 0 0.31922860177957618 -0.48417078574268468 0 0.32087640598761591 -0.46684443196558612 0 0.30463980851243888 -0.47210245990326438 0 0.31922860177957618 -0.48417078574268468 0 0.33510110880520538 -0.47595357292170581 0 0.32087640598761591 -0.46684443196558612 0 0.33510110880520538 -0.47595357292170581 0 0.34648327722654071 -0.48567433420923167 0 0.34105386567609941 -0.46558614174931551 0 0.31922860177957618 -0.48417078574268468 0 0.33510110880520538 -0.47595357292170581 0 0.33572589273120951 -0.49999999999999528 0 0.33510110880520538 -0.47595357292170581 0 0.33572589273120951 -0.49999999999999528 0 0.33510110880520538 -0.47595357292170581 0 0.33572589273120951 -0.49999999999999528 0 0.34648327722654071 -0.48567433420923167 0 0.33572589273120951 -0.49999999999999528 0 0.34648327722654071 -0.48567433420923167 0 0.35911318925536179 -0.5 0 0.34648327722654071 -0.48567433420923167 0 0.35911318925536179 -0.5 0 0.36177717572780671 -0.48279307087465823 0 0.38250048577951418 -0.50000000000000056 0 0.35911318925536179 -0.5 0 0.36177717572780671 -0.48279307087465823 0 0.38250048577951418 -0.50000000000000056 0 0.36177717572780671 -0.48279307087465823 0 0.38546661026729317 -0.47660854903505467 0 0.36177717572780671 -0.48279307087465823 0 0.37499402128373183 -0.4619101617447034 0 0.36177717572780671 -0.48279307087465823 0 0.35871899746378122 -0.46548574143433302 0 0.37499402128373183 -0.4619101617447034 0 0.36177717572780671 -0.48279307087465823 0 0.34105386567609941 -0.46558614174931551 0 0.34648327722654071 -0.48567433420923167 0 0.36177717572780671 -0.48279307087465823 0 0.34105386567609941 -0.46558614174931551 0 0.36177717572780671 -0.48279307087465823 0 0.35871899746378122 -0.46548574143433302 0 0.34105386567609941 -0.46558614174931551 0 0.36023431594793198 -0.44955326003700752 0 0.33447632487920098 -0.45190714584341629 0 0.34105386567609941 -0.46558614174931551 0 0.35871899746378122 -0.46548574143433302 0 0.36023431594793198 -0.44955326003700752 0 0.34105386567609941 -0.46558614174931551 0 0.35871899746378122 -0.46548574143433302 0 0.37499402128373183 -0.4619101617447034 0 0.36023431594793198 -0.44955326003700752 0 0.38599230701666332 -0.44719937423060141 0 0.36023431594793198 -0.44955326003700752 0 0.37172660466160962 -0.43252602748886382 0 0.38599230701666332 -0.44719937423060141 0 0.37499402128373183 -0.4619101617447034 0 0.36023431594793198 -0.44955326003700752 0 0.38599230701666332 -0.44719937423060141 0 0.36023431594793198 -0.44955326003700752 0 0.36023431594793198 -0.44955326003700752 0 0.33447632487920098 -0.45190714584341629 0 0.36023431594793198 -0.44955326003700752 0 0.34596223197073611 -0.43950965463418268 0 0.35523483453179538 -0.42671954267914908 0 0.36023431594793198 -0.44955326003700752 0 0.34596223197073611 -0.43950965463418268 0 0.33447632487920098 -0.45190714584341629 0 0.33447632487920098 -0.45190714584341629 0 0.32025437652030259 -0.45222050459520508 0 0.33390345252401582 -0.42985866997715783 0 0.33447632487920098 -0.45190714584341629 0 0.33390345252401582 -0.42985866997715783 0 0.34596223197073611 -0.43950965463418268 0 0.33447632487920098 -0.45190714584341629 0 0.33390345252401582 -0.42985866997715783 0 0.33510110880520538 -0.47595357292170581 0 0.33447632487920098 -0.45190714584341629 0 0.33510110880520538 -0.47595357292170581 0 0.33447632487920098 -0.45190714584341629 0 0.34105386567609941 -0.46558614174931551 0 0.33510110880520538 -0.47595357292170581 0 0.32886468645453182 -0.45978229866450637 0 0.32087640598761591 -0.46684443196558612 0 0.33510110880520538 -0.47595357292170581 0 0.33447632487920098 -0.45190714584341629 0 0.32886468645453182 -0.45978229866450637 0 0.32886468645453182 -0.45978229866450637 0 0.32087640598761591 -0.46684443196558612 0 0.32025437652030259 -0.45222050459520508 0 0.32087640598761591 -0.46684443196558612 0 0.32025437652030259 -0.45222050459520508 0 0.30463980851243888 -0.47210245990326438 0 0.33447632487920098 -0.45190714584341629 0 0.32886468645453182 -0.45978229866450637 0 0.32025437652030259 -0.45222050459520508 0 0.32025437652030259 -0.45222050459520508 0 0.33390345252401582 -0.42985866997715783 0 0.30687566674589251 -0.44420491980653409 0 0.33390345252401582 -0.42985866997715783 0 0.30911152497934619 -0.41630737970980403 0 0.30687566674589251 -0.44420491980653409 0 0.33333058016883038 -0.40781019411089919 0 0.33390345252401582 -0.42985866997715783 0 0.30911152497934619 -0.41630737970980403 0 0.33333058016883038 -0.40781019411089919 0 0.32163679904365572 -0.39957228291960462 0 0.30911152497934619 -0.41630737970980403 0 0.33333058016883038 -0.40781019411089919 0 0.33390345252401582 -0.42985866997715783 0 0.33333058016883038 -0.40781019411089919 0 0.33390345252401582 -0.42985866997715783 0 0.35523483453179538 -0.42671954267914908 0 0.34596223197073611 -0.43950965463418268 0 0.33390345252401582 -0.42985866997715783 0 0.35523483453179538 -0.42671954267914908 0 0.35523483453179538 -0.42671954267914908 0 0.37172660466160962 -0.43252602748886382 0 0.37110555012516089 -0.41483452963896411 0 0.36023431594793198 -0.44955326003700752 0 0.35523483453179538 -0.42671954267914908 0 0.37172660466160962 -0.43252602748886382 0 0.35523483453179538 -0.42671954267914908 0 0.37110555012516089 -0.41483452963896411 0 0.35447685990688182 -0.40495785017358182 0 0.37110555012516089 -0.41483452963896411 0 0.35447685990688182 -0.40495785017358182 0 0.36596038339199122 -0.40230058191634332 0 0.37824964613223411 -0.40721598256057973 0 0.37110555012516089 -0.41483452963896411 0 0.36596038339199122 -0.40230058191634332 0 0.33333058016883038 -0.40781019411089919 0 0.35523483453179538 -0.42671954267914908 0 0.35447685990688182 -0.40495785017358182 0 0.35447685990688182 -0.40495785017358182 0 0.3704982479159975 -0.38457546844137203 0 0.34974541639729961 -0.38842620805365979 0 0.33333058016883038 -0.40781019411089919 0 0.35447685990688182 -0.40495785017358182 0 0.34974541639729961 -0.38842620805365979 0 0.35447685990688182 -0.40495785017358182 0 0.3704982479159975 -0.38457546844137203 0 0.36596038339199122 -0.40230058191634332 0 0.37260289457872148 -0.39256356844412649 0 0.3704982479159975 -0.38457546844137203 0 0.35447685990688182 -0.40495785017358182 0 0.36596038339199122 -0.40230058191634332 0 0.3704982479159975 -0.38457546844137203 0 0.37824964613223411 -0.40721598256057973 0 0.36596038339199122 -0.40230058191634332 0 0.37260289457872148 -0.39256356844412649 0 0.3704982479159975 -0.38457546844137203 0 0.36919728637136667 -0.37000592409045602 0 0.35682015959724073 -0.37275362825579472 0 0.3704982479159975 -0.38457546844137203 0 0.35682015959724073 -0.37275362825579472 0 0.3704982479159975 -0.38457546844137203 0 0.34974541639729961 -0.38842620805365979 0 0.35682015959724073 -0.37275362825579472 0 0.34974541639729961 -0.38842620805365979 0 0.35682015959724073 -0.37275362825579472 0 0.33640781305987583 -0.3721848729580427 0 0.34974541639729961 -0.38842620805365979 0 0.33275770781364522 -0.38576171824464067 0 0.33640781305987583 -0.3721848729580427 0 0.33333058016883038 -0.40781019411089919 0 0.33275770781364522 -0.38576171824464067 0 0.32163679904365572 -0.39957228291960462 0 0.33333058016883038 -0.40781019411089919 0 0.33275770781364522 -0.38576171824464067 0 0.33333058016883038 -0.40781019411089919 0 0.34974541639729961 -0.38842620805365979 0 0.33275770781364522 -0.38576171824464067 0 0.32163679904365572 -0.39957228291960462 0 0.31134738321280092 -0.38840983961307379 0 0.30911152497934619 -0.41630737970980403 0 0.33275770781364522 -0.38576171824464067 0 0.32163679904365572 -0.39957228291960462 0 0.31134738321280092 -0.38840983961307379 0 0.31134738321280092 -0.38840983961307379 0 0.33640781305987583 -0.3721848729580427 0 0.31300234705635438 -0.36776031027645811 0 0.31134738321280092 -0.38840983961307379 0 0.33640781305987583 -0.3721848729580427 0 0.33275770781364522 -0.38576171824464067 0 0.31134738321280092 -0.38840983961307379 0 0.33640781305987583 -0.3721848729580427 0 0.31134738321280092 -0.38840983961307379 0 0.30406415113964969 -0.38337692439112248 0 0.29537418335312082 -0.39875142739424818 0 0.31134738321280092 -0.38840983961307379 0 0.30406415113964969 -0.38337692439112248 0 0.31300234705635438 -0.36776031027645811 0 0.31134738321280092 -0.38840983961307379 0 0.31300234705635438 -0.36776031027645811 0 0.30406415113964969 -0.38337692439112248 0 0.29207498217776079 -0.38700721792956722 0 0.29452487996116072 -0.37919551719903483 0 0.30406415113964969 -0.38337692439112248 0 0.29537418335312082 -0.39875142739424818 0 0.29207498217776079 -0.38700721792956722 0 0.30406415113964969 -0.38337692439112248 0 0.29452487996116072 -0.37919551719903483 0 0.29656497987040309 -0.36871855788078151 0 0.30406415113964969 -0.38337692439112248 0 0.31300234705635438 -0.36776031027645811 0 0.31134738321280092 -0.38840983961307379 0 0.29537418335312082 -0.39875142739424818 0 0.31134738321280092 -0.38840983961307379 0 0.29537418335312082 -0.39875142739424818 0 0.30911152497934619 -0.41630737970980403 0 0.31134738321280092 -0.38840983961307379 0 0.30911152497934619 -0.41630737970980403 0 0.29537418335312082 -0.39875142739424818 0 0.28218240458321731 -0.39471537075506391 0 0.29207498217776079 -0.38700721792956722 0 0.29537418335312082 -0.39875142739424818 0 0.27940098349343961 -0.40909301517542068 0 0.29537418335312082 -0.39875142739424818 0 0.28218240458321731 -0.39471537075506391 0 0.27940098349343961 -0.40909301517542068 0 0.28218240458321731 -0.39471537075506391 0 0.29207498217776079 -0.38700721792956722 0 0.28300907856763041 -0.37919747375382079 0 0.29207498217776079 -0.38700721792956722 0 0.29452487996116072 -0.37919551719903483 0 0.28300907856763041 -0.37919747375382079 0 0.29452487996116072 -0.37919551719903483 0 0.28300907856763041 -0.37919747375382079 0 0.29656497987040309 -0.36871855788078151 0 0.28300907856763041 -0.37919747375382079 0 0.26341802357356991 -0.39300348633723919 0 0.26624006255564892 -0.37167388564706239 0 0.28218240458321731 -0.39471537075506391 0 0.28300907856763041 -0.37919747375382079 0 0.26341802357356991 -0.39300348633723919 0 0.26341802357356991 -0.39300348633723919 0 0.24822324428336001 -0.39977759549644748 0 0.2474350636536945 -0.37691395749906331 0 0.26341802357356991 -0.39300348633723919 0 0.26624006255564892 -0.37167388564706239 0 0.2474350636536945 -0.37691395749906331 0 0.26341802357356991 -0.39300348633723919 0 0.2474350636536945 -0.37691395749906331 0 0.26341802357356991 -0.39300348633723919 0 0.26072118089039792 -0.42118694876739998 0 0.24822324428336001 -0.39977759549644748 0 0.28218240458321731 -0.39471537075506391 0 0.26341802357356991 -0.39300348633723919 0 0.27940098349343961 -0.40909301517542068 0 0.26341802357356991 -0.39300348633723919 0 0.27940098349343961 -0.40909301517542068 0 0.27940098349343961 -0.40909301517542068 0 0.26072118089039792 -0.42118694876739998 0 0.27069883005659301 -0.42637901337841388 0 0.27940098349343961 -0.40909301517542068 0 0.27069883005659301 -0.42637901337841388 0 0.2808447309487267 -0.42493635397353052 0 0.26341802357356991 -0.39300348633723919 0 0.27940098349343961 -0.40909301517542068 0 0.26072118089039792 -0.42118694876739998 0 0.27940098349343961 -0.40909301517542068 0 0.26072118089039792 -0.42118694876739998 0 0.26213132235319281 -0.42580991272637642 0 0.26517119207728318 -0.43531319684491088 0 0.2581056415248752 -0.4505399418175845 0 0.26072118089039792 -0.42118694876739998 0 0.26213132235319281 -0.42580991272637642 0 0.24204137828735611 -0.43328088235937928 0 0.26213132235319281 -0.42580991272637642 0 0.25227507479676847 -0.44145558259856998 0 0.24204137828735611 -0.43328088235937928 0 0.26072118089039792 -0.42118694876739998 0 0.24204137828735611 -0.43328088235937928 0 0.26072118089039792 -0.42118694876739998 0 0.26213132235319281 -0.42580991272637642 0 0.27069883005659301 -0.42637901337841388 0 0.27069883005659301 -0.42637901337841388 0 0.27731032625283231 -0.43312116778681942 0 0.26974897437447198 -0.43852391945726898 0 0.26517119207728318 -0.43531319684491088 0 0.27069883005659301 -0.42637901337841388 0 0.26974897437447198 -0.43852391945726898 0 0.26213132235319281 -0.42580991272637642 0 0.26517119207728318 -0.43531319684491088 0 0.27069883005659301 -0.42637901337841388 0 0.27069883005659301 -0.42637901337841388 0 0.2808447309487267 -0.42493635397353052 0 0.27731032625283231 -0.43312116778681942 0 0.27731032625283231 -0.43312116778681942 0 0.2862266809176488 -0.43267928038837128 0 0.2794947078178685 -0.44132908858565689 0 0.2808447309487267 -0.42493635397353052 0 0.27731032625283231 -0.43312116778681942 0 0.2862266809176488 -0.43267928038837128 0 0.2862266809176488 -0.43267928038837128 0 0.29375881555670202 -0.43240910582243047 0 0.29294255101416328 -0.44145991872626761 0 0.29375881555670202 -0.43240910582243047 0 0.29175567126281371 -0.42153007978349938 0 0.30411035903218209 -0.43396714439158379 0 0.2862266809176488 -0.43267928038837128 0 0.29375881555670202 -0.43240910582243047 0 0.29175567126281371 -0.42153007978349938 0 0.2808447309487267 -0.42493635397353052 0 0.2862266809176488 -0.43267928038837128 0 0.29175567126281371 -0.42153007978349938 0 0.27940098349343961 -0.40909301517542068 0 0.29175567126281371 -0.42153007978349938 0 0.27940098349343961 -0.40909301517542068 0 0.2808447309487267 -0.42493635397353052 0 0.29175567126281371 -0.42153007978349938 0 0.29537418335312082 -0.39875142739424818 0 0.27940098349343961 -0.40909301517542068 0 0.29175567126281371 -0.42153007978349938 0 0.29537418335312082 -0.39875142739424818 0 0.29175567126281371 -0.42153007978349938 0 0.30911152497934619 -0.41630737970980403 0 0.30911152497934619 -0.41630737970980403 0 0.30687566674589251 -0.44420491980653409 0 0.30911152497934619 -0.41630737970980403 0 0.30411035903218209 -0.43396714439158379 0 0.30687566674589251 -0.44420491980653409 0 0.29175567126281371 -0.42153007978349938 0 0.30911152497934619 -0.41630737970980403 0 0.30411035903218209 -0.43396714439158379 0 0.29375881555670202 -0.43240910582243047 0 0.30411035903218209 -0.43396714439158379 0 0.29294255101416328 -0.44145991872626761 0 0.29175567126281371 -0.42153007978349938 0 0.30411035903218209 -0.43396714439158379 0 0.30687566674589251 -0.44420491980653409 0 0.29191410887872732 -0.45486901675454261 0 0.29294255101416328 -0.44145991872626761 0 0.30411035903218209 -0.43396714439158379 0 0.30687566674589251 -0.44420491980653409 0 0.29294255101416328 -0.44145991872626761 0 0.32025437652030259 -0.45222050459520508 0 0.30687566674589251 -0.44420491980653409 0 0.30463980851243888 -0.47210245990326438 0 0.30687566674589251 -0.44420491980653409 0 0.30463980851243888 -0.47210245990326438 0 0.30687566674589251 -0.44420491980653409 0 0.29191410887872732 -0.45486901675454261 0 0.30463980851243888 -0.47210245990326438 0 0.29191410887872732 -0.45486901675454261 0 0.28360932927168242 -0.46772549431914279 0 0.30463980851243888 -0.47210245990326438 0 0.29191410887872732 -0.45486901675454261 0 0.28360932927168242 -0.46772549431914279 0 0.2794779514047479 -0.45381022521145908 0 0.29294255101416328 -0.44145991872626761 0 0.2794947078178685 -0.44132908858565689 0 0.2794779514047479 -0.45381022521145908 0 0.29191410887872732 -0.45486901675454261 0 0.29294255101416328 -0.44145991872626761 0 0.2794779514047479 -0.45381022521145908 0 0.2862266809176488 -0.43267928038837128 0 0.29294255101416328 -0.44145991872626761 0 0.2794947078178685 -0.44132908858565689 0 0.27731032625283231 -0.43312116778681942 0 0.2794947078178685 -0.44132908858565689 0 0.26974897437447198 -0.43852391945726898 0 0.2794947078178685 -0.44132908858565689 0 0.27081216221657722 -0.44868989680142701 0 0.2794779514047479 -0.45381022521145908 0 0.27081216221657722 -0.44868989680142701 0 0.26974897437447198 -0.43852391945726898 0 0.2581056415248752 -0.4505399418175845 0 0.2794947078178685 -0.44132908858565689 0 0.27081216221657722 -0.44868989680142701 0 0.26974897437447198 -0.43852391945726898 0 0.26517119207728318 -0.43531319684491088 0 0.26974897437447198 -0.43852391945726898 0 0.2581056415248752 -0.4505399418175845 0 0.26213132235319281 -0.42580991272637642 0 0.2581056415248752 -0.4505399418175845 0 0.26213132235319281 -0.42580991272637642 0 0.2581056415248752 -0.4505399418175845 0 0.25227507479676847 -0.44145558259856998 0 0.2581056415248752 -0.4505399418175845 0 0.25227507479676847 -0.44145558259856998 0 0.2468219570216508 -0.45619159349094113 0 0.2581056415248752 -0.4505399418175845 0 0.26939723382367931 -0.46311576446515651 0 0.25407996069655758 -0.47526997090879253 0 0.2581056415248752 -0.4505399418175845 0 0.25407996069655758 -0.47526997090879253 0 0.2468219570216508 -0.45619159349094113 0 0.2581056415248752 -0.4505399418175845 0 0.25407996069655758 -0.47526997090879253 0 0.27081216221657722 -0.44868989680142701 0 0.26939723382367931 -0.46311576446515651 0 0.2794779514047479 -0.45381022521145908 0 0.27081216221657722 -0.44868989680142701 0 0.2581056415248752 -0.4505399418175845 0 0.26939723382367931 -0.46311576446515651 0 0.28360932927168242 -0.46772549431914279 0 0.26939723382367931 -0.46311576446515651 0 0.2794779514047479 -0.45381022521145908 0 0.28360932927168242 -0.46772549431914279 0 0.27029835782763573 -0.48265905773253331 0 0.28775746771258598 -0.48409013462947192 0 0.28360932927168242 -0.46772549431914279 0 0.26939723382367931 -0.46311576446515651 0 0.27029835782763573 -0.48265905773253331 0 0.26939723382367931 -0.46311576446515651 0 0.27029835782763573 -0.48265905773253331 0 0.25407996069655758 -0.47526997090879253 0 0.27029835782763573 -0.48265905773253331 0 0.25407996069655758 -0.47526997090879253 0 0.25005427986824003 -0.50000000000000044 0 0.25407996069655758 -0.47526997090879253 0 0.25005427986824003 -0.50000000000000044 0 0.27029835782763573 -0.48265905773253331 0 0.25005427986824003 -0.50000000000000044 0 0.27622911507361281 -0.5 0 0.27029835782763573 -0.48265905773253331 0 0.27622911507361281 -0.5 0 0.28775746771258598 -0.48409013462947192 0 0.27622911507361281 -0.5 0 0.28775746771258598 -0.48409013462947192 0 0.30240395027898559 -0.49999999999999462 0 0.28360932927168242 -0.46772549431914279 0 0.28775746771258598 -0.48409013462947192 0 0.30463980851243888 -0.47210245990326438 0 0.31922860177957618 -0.48417078574268468 0 0.30463980851243888 -0.47210245990326438 0 0.30240395027898559 -0.49999999999999462 0 0.28775746771258598 -0.48409013462947192 0 0.30463980851243888 -0.47210245990326438 0 0.30240395027898559 -0.49999999999999462 0 0.30463980851243888 -0.47210245990326438 0 0.30240395027898559 -0.49999999999999462 0 0.3382143260025221 -0.28456222046687851 0 0.33286239474884338 -0.3015294812119198 0 0.31732406148756409 -0.29948451852150271 0 0.32823195099078328 -0.28304974410517192 0 0.3382143260025221 -0.28456222046687851 0 0.32218868927368288 -0.28852010720826249 0 0.3382143260025221 -0.28456222046687851 0 0.33286239474884338 -0.3015294812119198 0 0.34437509975320157 -0.29527652217166062 0 0.33286239474884338 -0.3015294812119198 0 0.34746762597723962 -0.30754335304285579 0 0.3303133105587811 -0.31359230452648967 0 0.33286239474884338 -0.3015294812119198 0 0.34437509975320157 -0.29527652217166062 0 0.34746762597723962 -0.30754335304285579 0 0.33286239474884338 -0.3015294812119198 0 0.32012120039462222 -0.3093142959158931 0 0.31732406148756409 -0.29948451852150271 0 0.33286239474884338 -0.3015294812119198 0 0.32012120039462222 -0.3093142959158931 0 0.3303133105587811 -0.31359230452648967 0 0.32012120039462222 -0.3093142959158931 0 0.31732406148756409 -0.29948451852150271 0 0.31073241274671881 -0.31234029843420669 0 0.3382143260025221 -0.28456222046687851 0 0.31732406148756409 -0.29948451852150271 0 0.32218868927368288 -0.28852010720826249 0 0.31732406148756409 -0.29948451852150271 0 0.32218868927368288 -0.28852010720826249 0 0.30796172774240832 -0.29429123510677752 0 0.3382143260025221 -0.28456222046687851 0 0.31732406148756409 -0.29948451852150271 0 0.32823195099078328 -0.28304974410517192 0 0.32218868927368288 -0.28852010720826249 0 0.31921138014513672 -0.28121281784098218 0 0.32218868927368288 -0.28852010720826249 0 0.31921138014513672 -0.28121281784098218 0 0.30796172774240832 -0.29429123510677752 0 0.31921138014513672 -0.28121281784098218 0 0.30796172774240832 -0.29429123510677752 0 0.31921138014513672 -0.28121281784098218 0 0.31815475575169561 -0.27168383983498318 0 0.30784180279287432 -0.27453030597483841 0 0.31815475575169561 -0.27168383983498318 0 0.31510480752090642 -0.26285783494892517 0 0.30784180279287432 -0.27453030597483841 0 0.31815475575169561 -0.27168383983498318 0 0.31510480752090642 -0.26285783494892517 0 0.33046103254786519 -0.268134400575187 0 0.31921138014513672 -0.28121281784098218 0 0.33390018348634237 -0.27573087475268682 0 0.33046103254786519 -0.268134400575187 0 0.32823195099078328 -0.28304974410517192 0 0.31921138014513672 -0.28121281784098218 0 0.33390018348634237 -0.27573087475268682 0 0.31921138014513672 -0.28121281784098218 0 0.31815475575169561 -0.27168383983498318 0 0.33046103254786519 -0.268134400575187 0 0.31921138014513672 -0.28121281784098218 0 0.33046103254786519 -0.268134400575187 0 0.32161987820511828 -0.2486058594133092 0 0.31510480752090642 -0.26285783494892517 0 0.33046103254786519 -0.268134400575187 0 0.32161987820511828 -0.2486058594133092 0 0.33046103254786519 -0.268134400575187 0 0.30801466226233248 -0.24862884665689089 0 0.32161987820511828 -0.2486058594133092 0 0.31510480752090642 -0.26285783494892517 0 0.32161987820511828 -0.2486058594133092 0 0.33229988997940452 -0.25553629683876838 0 0.33046103254786519 -0.268134400575187 0 0.33229988997940452 -0.25553629683876838 0 0.33046103254786519 -0.268134400575187 0 0.34448151405886818 -0.25183472295814407 0 0.33046103254786519 -0.268134400575187 0 0.34111783622301878 -0.26788648729817982 0 0.34448151405886818 -0.25183472295814407 0 0.33046103254786519 -0.268134400575187 0 0.34448151405886818 -0.25183472295814407 0 0.33204157105202359 -0.2428835663714094 0 0.33229988997940452 -0.25553629683876838 0 0.34448151405886818 -0.25183472295814407 0 0.33390018348634237 -0.27573087475268682 0 0.34111783622301878 -0.26788648729817982 0 0.35135832095009822 -0.27162582486279502 0 0.3382143260025221 -0.28456222046687851 0 0.33390018348634237 -0.27573087475268682 0 0.35135832095009822 -0.27162582486279502 0 0.32823195099078328 -0.28304974410517192 0 0.3382143260025221 -0.28456222046687851 0 0.33390018348634237 -0.27573087475268682 0 0.33390018348634237 -0.27573087475268682 0 0.33046103254786519 -0.268134400575187 0 0.34111783622301878 -0.26788648729817982 0 0.33390018348634237 -0.27573087475268682 0 0.33046103254786519 -0.268134400575187 0 0.3382143260025221 -0.28456222046687851 0 0.35135832095009822 -0.27162582486279502 0 0.35895605228420141 -0.28747103396498841 0 0.34111783622301878 -0.26788648729817982 0 0.35135832095009822 -0.27162582486279502 0 0.34448151405886818 -0.25183472295814407 0 0.35135832095009822 -0.27162582486279502 0 0.34448151405886818 -0.25183472295814407 0 0.36028104451921888 -0.25194785591280983 0 0.35135832095009822 -0.27162582486279502 0 0.36028104451921888 -0.25194785591280983 0 0.36968856660685873 -0.2639334702088682 0 0.37842677557578852 -0.2476989620572124 0 0.36028104451921888 -0.25194785591280983 0 0.36968856660685873 -0.2639334702088682 0 0.35135832095009822 -0.27162582486279502 0 0.36968856660685873 -0.2639334702088682 0 0.37039703338323082 -0.27845584177728089 0 0.35135832095009822 -0.27162582486279502 0 0.37039703338323082 -0.27845584177728089 0 0.35895605228420141 -0.28747103396498841 0 0.3834587817843747 -0.26928156361290018 0 0.36968856660685873 -0.2639334702088682 0 0.37039703338323082 -0.27845584177728089 0 0.37039703338323082 -0.27845584177728089 0 0.37362155735316249 -0.291527603103302 0 0.35895605228420141 -0.28747103396498841 0 0.37362155735316249 -0.291527603103302 0 0.35895605228420141 -0.28747103396498841 0 0.36766681071101831 -0.3060050769085817 0 0.3382143260025221 -0.28456222046687851 0 0.35895605228420141 -0.28747103396498841 0 0.34437509975320157 -0.29527652217166062 0 0.35895605228420141 -0.28747103396498841 0 0.34437509975320157 -0.29527652217166062 0 0.34746762597723962 -0.30754335304285579 0 0.35895605228420141 -0.28747103396498841 0 0.34746762597723962 -0.30754335304285579 0 0.36766681071101831 -0.3060050769085817 0 0.34746762597723962 -0.30754335304285579 0 0.36766681071101831 -0.3060050769085817 0 0.3552433671018787 -0.31882772283118682 0 0.35895605228420141 -0.28747103396498841 0 0.34746762597723962 -0.30754335304285579 0 0.38293690440463618 -0.3149226035927235 0 0.36766681071101831 -0.3060050769085817 0 0.37000821144581558 -0.32141789506041257 0 0.36766681071101831 -0.3060050769085817 0 0.37000821144581558 -0.32141789506041257 0 0.3552433671018787 -0.31882772283118682 0 0.37000821144581558 -0.32141789506041257 0 0.35509498770504272 -0.33155661702336081 0 0.3552433671018787 -0.31882772283118682 0 0.38300785244658547 -0.32788643118286781 0 0.37000821144581558 -0.32141789506041257 0 0.37001166429093729 -0.33495670932523292 0 0.37913080788941023 -0.34704742573611691 0 0.37001166429093729 -0.33495670932523292 0 0.35844159241251772 -0.34468030991543108 0 0.37001166429093729 -0.33495670932523292 0 0.35509498770504272 -0.33155661702336081 0 0.35844159241251772 -0.34468030991543108 0 0.37000821144581558 -0.32141789506041257 0 0.37001166429093729 -0.33495670932523292 0 0.35509498770504272 -0.33155661702336081 0 0.35509498770504272 -0.33155661702336081 0 0.35844159241251772 -0.34468030991543108 0 0.34006091074366018 -0.34227504368340922 0 0.34746762597723962 -0.30754335304285579 0 0.3552433671018787 -0.31882772283118682 0 0.33597919967027767 -0.32761567212072318 0 0.35509498770504272 -0.33155661702336081 0 0.3552433671018787 -0.31882772283118682 0 0.33597919967027767 -0.32761567212072318 0 0.36919728637136667 -0.37000592409045602 0 0.36449801693046352 -0.35653353055336567 0 0.35682015959724073 -0.37275362825579472 0 0.3849727210417655 -0.36616106911129159 0 0.3704982479159975 -0.38457546844137203 0 0.36919728637136667 -0.37000592409045602 0 0.3849727210417655 -0.36616106911129159 0 0.36919728637136667 -0.37000592409045602 0 0.36449801693046352 -0.35653353055336567 0 0.37913080788941023 -0.34704742573611691 0 0.36449801693046352 -0.35653353055336567 0 0.35844159241251772 -0.34468030991543108 0 0.36449801693046352 -0.35653353055336567 0 0.3471901088218971 -0.35179249906105509 0 0.34723104312780267 -0.36395776905290339 0 0.36449801693046352 -0.35653353055336567 0 0.35844159241251772 -0.34468030991543108 0 0.3471901088218971 -0.35179249906105509 0 0.35844159241251772 -0.34468030991543108 0 0.3471901088218971 -0.35179249906105509 0 0.34006091074366018 -0.34227504368340922 0 0.3471901088218971 -0.35179249906105509 0 0.34723104312780267 -0.36395776905290339 0 0.33691067862406471 -0.35669207852317042 0 0.34723104312780267 -0.36395776905290339 0 0.35682015959724073 -0.37275362825579472 0 0.33640781305987583 -0.3721848729580427 0 0.36449801693046352 -0.35653353055336567 0 0.34723104312780267 -0.36395776905290339 0 0.35682015959724073 -0.37275362825579472 0 0.34723104312780267 -0.36395776905290339 0 0.33640781305987583 -0.3721848729580427 0 0.33691067862406471 -0.35669207852317042 0 0.33640781305987583 -0.3721848729580427 0 0.33691067862406471 -0.35669207852317042 0 0.32648260346923069 -0.36156227407627389 0 0.33691067862406471 -0.35669207852317042 0 0.32449077336331589 -0.34768799119859062 0 0.32648260346923069 -0.36156227407627389 0 0.3471901088218971 -0.35179249906105509 0 0.33691067862406471 -0.35669207852317042 0 0.34006091074366018 -0.34227504368340922 0 0.33691067862406471 -0.35669207852317042 0 0.32449077336331589 -0.34768799119859062 0 0.34006091074366018 -0.34227504368340922 0 0.3146902750374469 -0.34669947653112232 0 0.31300234705635438 -0.36776031027645811 0 0.32449077336331589 -0.34768799119859062 0 0.31300234705635438 -0.36776031027645811 0 0.32449077336331589 -0.34768799119859062 0 0.32648260346923069 -0.36156227407627389 0 0.31300234705635438 -0.36776031027645811 0 0.32449077336331589 -0.34768799119859062 0 0.3146902750374469 -0.34669947653112232 0 0.31300234705635438 -0.36776031027645811 0 0.33640781305987583 -0.3721848729580427 0 0.32648260346923069 -0.36156227407627389 0 0.31300234705635438 -0.36776031027645811 0 0.34746762597723962 -0.30754335304285579 0 0.33597919967027767 -0.32761567212072318 0 0.3303133105587811 -0.31359230452648967 0 0.34746762597723962 -0.30754335304285579 0 0.33597919967027767 -0.32761567212072318 0 0.32449077336331589 -0.34768799119859062 0 0.33597919967027767 -0.32761567212072318 0 0.32449077336331589 -0.34768799119859062 0 0.33597919967027767 -0.32761567212072318 0 0.34006091074366018 -0.34227504368340922 0 0.35509498770504272 -0.33155661702336081 0 0.33597919967027767 -0.32761567212072318 0 0.34006091074366018 -0.34227504368340922 0 0.32449077336331589 -0.34768799119859062 0 0.33597919967027767 -0.32761567212072318 0 0.31637820301853892 -0.32563864278578653 0 0.32449077336331589 -0.34768799119859062 0 0.3146902750374469 -0.34669947653112232 0 0.31637820301853892 -0.32563864278578653 0 0.3146902750374469 -0.34669947653112232 0 0.31637820301853892 -0.32563864278578653 0 0.33597919967027767 -0.32761567212072318 0 0.3303133105587811 -0.31359230452648967 0 0.31637820301853892 -0.32563864278578653 0 0.32012120039462222 -0.3093142959158931 0 0.3303133105587811 -0.31359230452648967 0 0.31637820301853892 -0.32563864278578653 0 0.32012120039462222 -0.3093142959158931 0 0.31637820301853892 -0.32563864278578653 0 0.31073241274671881 -0.31234029843420669 0 0.31637820301853892 -0.32563864278578653 0 0.30455727762739099 -0.31838294690052971 0 0.31073241274671881 -0.31234029843420669 0 0.30455727762739099 -0.31838294690052971 0 0.29643379697260719 -0.31440681657612812 0 0.29679520923164909 -0.31977326909285941 0 0.30455727762739099 -0.31838294690052971 0 0.29643379697260719 -0.31440681657612812 0 0.31073241274671881 -0.31234029843420669 0 0.30455727762739099 -0.31838294690052971 0 0.30433692089583531 -0.32781716694103641 0 0.29679520923164909 -0.31977326909285941 0 0.30433692089583531 -0.32781716694103641 0 0.29431791696653897 -0.33206579635275563 0 0.29679520923164909 -0.31977326909285941 0 0.31637820301853892 -0.32563864278578653 0 0.30455727762739099 -0.31838294690052971 0 0.30433692089583531 -0.32781716694103641 0 0.31637820301853892 -0.32563864278578653 0 0.30433692089583531 -0.32781716694103641 0 0.30430773408687428 -0.33912850954392781 0 0.3146902750374469 -0.34669947653112232 0 0.31637820301853892 -0.32563864278578653 0 0.30430773408687428 -0.33912850954392781 0 0.30433692089583531 -0.32781716694103641 0 0.30430773408687428 -0.33912850954392781 0 0.29431791696653897 -0.33206579635275563 0 0.29431791696653897 -0.33206579635275563 0 0.29064808635585843 -0.34278605905790233 0 0.27477323255967773 -0.32987935393771289 0 0.30430773408687428 -0.33912850954392781 0 0.29431791696653897 -0.33206579635275563 0 0.29064808635585843 -0.34278605905790233 0 0.29643379697260719 -0.31440681657612812 0 0.2790393778912772 -0.31336159352709292 0 0.27477323255967773 -0.32987935393771289 0 0.29643379697260719 -0.31440681657612812 0 0.27477323255967773 -0.32987935393771289 0 0.29643379697260719 -0.31440681657612812 0 0.29679520923164909 -0.31977326909285941 0 0.27477323255967773 -0.32987935393771289 0 0.29431791696653897 -0.33206579635275563 0 0.29679520923164909 -0.31977326909285941 0 0.27477323255967773 -0.32987935393771289 0 0.29643379697260719 -0.31440681657612812 0 0.29679520923164909 -0.31977326909285941 0 0.31300234705635438 -0.36776031027645811 0 0.30127940843889878 -0.35432288601861128 0 0.29656497987040309 -0.36871855788078151 0 0.30406415113964969 -0.38337692439112248 0 0.31300234705635438 -0.36776031027645811 0 0.29656497987040309 -0.36871855788078151 0 0.3146902750374469 -0.34669947653112232 0 0.31300234705635438 -0.36776031027645811 0 0.30127940843889878 -0.35432288601861128 0 0.3146902750374469 -0.34669947653112232 0 0.30430773408687428 -0.33912850954392781 0 0.30127940843889878 -0.35432288601861128 0 0.30430773408687428 -0.33912850954392781 0 0.29064808635585843 -0.34278605905790233 0 0.30127940843889878 -0.35432288601861128 0 0.29064808635585843 -0.34278605905790233 0 0.28376747019409021 -0.35992750183235572 0 0.2770243762075984 -0.34571785972456792 0 0.29064808635585843 -0.34278605905790233 0 0.30127940843889878 -0.35432288601861128 0 0.28376747019409021 -0.35992750183235572 0 0.28300907856763041 -0.37919747375382079 0 0.28376747019409021 -0.35992750183235572 0 0.29656497987040309 -0.36871855788078151 0 0.30127940843889878 -0.35432288601861128 0 0.28376747019409021 -0.35992750183235572 0 0.29656497987040309 -0.36871855788078151 0 0.28376747019409021 -0.35992750183235572 0 0.26624006255564892 -0.37167388564706239 0 0.26665917642406373 -0.35698076104499799 0 0.28300907856763041 -0.37919747375382079 0 0.28376747019409021 -0.35992750183235572 0 0.26624006255564892 -0.37167388564706239 0 0.28376747019409021 -0.35992750183235572 0 0.2770243762075984 -0.34571785972456792 0 0.26665917642406373 -0.35698076104499799 0 0.2770243762075984 -0.34571785972456792 0 0.26665917642406373 -0.35698076104499799 0 0.25311266814674921 -0.34535189129929911 0 0.26665917642406373 -0.35698076104499799 0 0.25311266814674921 -0.34535189129929911 0 0.25315130501623168 -0.36223266672170501 0 0.26624006255564892 -0.37167388564706239 0 0.25315130501623168 -0.36223266672170501 0 0.2474350636536945 -0.37691395749906331 0 0.26624006255564892 -0.37167388564706239 0 0.26665917642406373 -0.35698076104499799 0 0.25315130501623168 -0.36223266672170501 0 0.26689999923313668 -0.31677090734091801 0 0.2790393778912772 -0.31336159352709292 0 0.27477323255967773 -0.32987935393771289 0 0.2770243762075984 -0.34571785972456792 0 0.25311266814674921 -0.34535189129929911 0 0.27477323255967773 -0.32987935393771289 0 0.29064808635585843 -0.34278605905790233 0 0.2770243762075984 -0.34571785972456792 0 0.27477323255967773 -0.32987935393771289 0 0.25311266814674921 -0.34535189129929911 0 0.27477323255967773 -0.32987935393771289 0 0.25311266814674921 -0.34535189129929911 0 0.27477323255967773 -0.32987935393771289 0 0.25249252294720631 -0.31820689639820671 0 0.26689999923313668 -0.31677090734091801 0 0.25249252294720631 -0.31820689639820671 0 0.27211978491251387 -0.30326672437339802 0 0.26689999923313668 -0.31677090734091801 0 0.27477323255967773 -0.32987935393771289 0 0.25249252294720631 -0.31820689639820671 0 0.25249252294720631 -0.31820689639820671 0 0.25793101245844691 -0.28938793590824102 0 0.27211978491251387 -0.30326672437339802 0 0.25793101245844691 -0.28938793590824102 0 0.27784295032526429 -0.28944228508889452 0 0.27211978491251387 -0.30326672437339802 0 0.25793101245844691 -0.28938793590824102 0 0.27784295032526429 -0.28944228508889452 0 0.27107827509037541 -0.27618214222382409 0 0.26689999923313668 -0.31677090734091801 0 0.2790393778912772 -0.31336159352709292 0 0.27211978491251387 -0.30326672437339802 0 0.27784295032526429 -0.28944228508889452 0 0.27211978491251387 -0.30326672437339802 0 0.28497007577845052 -0.30248416540730738 0 0.2790393778912772 -0.31336159352709292 0 0.27211978491251387 -0.30326672437339802 0 0.28497007577845052 -0.30248416540730738 0 0.29643379697260719 -0.31440681657612812 0 0.28497007577845052 -0.30248416540730738 0 0.29472051783601338 -0.28896708423581607 0 0.29643379697260719 -0.31440681657612812 0 0.29472051783601338 -0.28896708423581607 0 0.29643379697260719 -0.31440681657612812 0 0.2790393778912772 -0.31336159352709292 0 0.28497007577845052 -0.30248416540730738 0 0.27784295032526429 -0.28944228508889452 0 0.28497007577845052 -0.30248416540730738 0 0.29472051783601338 -0.28896708423581607 0 0.27784295032526429 -0.28944228508889452 0 0.29472051783601338 -0.28896708423581607 0 0.28247826798901537 -0.27585148004491178 0 0.31921138014513672 -0.28121281784098218 0 0.30796172774240832 -0.29429123510677752 0 0.30784180279287432 -0.27453030597483841 0 0.29472051783601338 -0.28896708423581607 0 0.30796172774240832 -0.29429123510677752 0 0.30784180279287432 -0.27453030597483841 0 0.31732406148756409 -0.29948451852150271 0 0.29643379697260719 -0.31440681657612812 0 0.30796172774240832 -0.29429123510677752 0 0.29643379697260719 -0.31440681657612812 0 0.29472051783601338 -0.28896708423581607 0 0.30796172774240832 -0.29429123510677752 0 0.31732406148756409 -0.29948451852150271 0 0.29643379697260719 -0.31440681657612812 0 0.31732406148756409 -0.29948451852150271 0 0.29643379697260719 -0.31440681657612812 0 0.31073241274671881 -0.31234029843420669 0 0.31510480752090642 -0.26285783494892517 0 0.30347191818050478 -0.25849345267182122 0 0.30784180279287432 -0.27453030597483841 0 0.30347191818050478 -0.25849345267182122 0 0.30784180279287432 -0.27453030597483841 0 0.29300723869941647 -0.26352735189550441 0 0.30801466226233248 -0.24862884665689089 0 0.31510480752090642 -0.26285783494892517 0 0.30347191818050478 -0.25849345267182122 0 0.29472051783601338 -0.28896708423581607 0 0.30784180279287432 -0.27453030597483841 0 0.29300723869941647 -0.26352735189550441 0 0.28247826798901537 -0.27585148004491178 0 0.29300723869941647 -0.26352735189550441 0 0.27574235799400748 -0.2611385367805199 0 0.29472051783601338 -0.28896708423581607 0 0.29300723869941647 -0.26352735189550441 0 0.29472051783601338 -0.28896708423581607 0 0.28247826798901537 -0.27585148004491178 0 0.29300723869941647 -0.26352735189550441 0 0.27958677495974732 -0.2447848115143455 0 0.29300723869941647 -0.26352735189550441 0 0.27574235799400748 -0.2611385367805199 0 0.29129395956281962 -0.23808761955519239 0 0.30347191818050478 -0.25849345267182122 0 0.29300723869941647 -0.26352735189550441 0 0.29129395956281962 -0.23808761955519239 0 0.29300723869941647 -0.26352735189550441 0 0.27574235799400748 -0.2611385367805199 0 0.27107827509037541 -0.27618214222382409 0 0.25794956935717778 -0.26644078272895039 0 0.27784295032526429 -0.28944228508889452 0 0.28247826798901537 -0.27585148004491178 0 0.27107827509037541 -0.27618214222382409 0 0.28247826798901537 -0.27585148004491178 0 0.27574235799400748 -0.2611385367805199 0 0.27107827509037541 -0.27618214222382409 0 0.25793101245844691 -0.28938793590824102 0 0.27107827509037541 -0.27618214222382409 0 0.25794956935717778 -0.26644078272895039 0 0.25793101245844691 -0.28938793590824102 0 0.25794956935717778 -0.26644078272895039 0 0.23769946165141601 -0.27613198628230889 0 0.26265931117148639 -0.24279301432387981 0 0.25794956935717778 -0.26644078272895039 0 0.2425869977773347 -0.2530110808549289 0 0.26265931117148639 -0.24279301432387981 0 0.27574235799400748 -0.2611385367805199 0 0.25794956935717778 -0.26644078272895039 0 0.2425869977773347 -0.2530110808549289 0 0.23769946165141601 -0.27613198628230889 0 0.22625439958297691 -0.25656269544022259 0 0.2425869977773347 -0.2530110808549289 0 0.23769946165141601 -0.27613198628230889 0 0.25794956935717778 -0.26644078272895039 0 0.2425869977773347 -0.2530110808549289 0 0.23769946165141601 -0.27613198628230889 0 0.23769946165141601 -0.27613198628230889 0 0.21960131809693381 -0.2709340603189419 0 0.2226683307413439 -0.28496936778224419 0 0.23769946165141601 -0.27613198628230889 0 0.21960131809693381 -0.2709340603189419 0 0.22625439958297691 -0.25656269544022259 0 0.2425869977773347 -0.2530110808549289 0 0.22625439958297691 -0.25656269544022259 0 0.2267389340957664 -0.2418178955646223 0 0.21960131809693381 -0.2709340603189419 0 0.22625439958297691 -0.25656269544022259 0 0.21227572241766829 -0.25850278331779308 0 0.22625439958297691 -0.25656269544022259 0 0.21227572241766829 -0.25850278331779308 0 0.2097396511237111 -0.24274520029346891 0 0.21227572241766829 -0.25850278331779308 0 0.200656609462492 -0.25555746859197959 0 0.2097396511237111 -0.24274520029346891 0 0.21227572241766829 -0.25850278331779308 0 0.20525101989627681 -0.26734860860117943 0 0.200656609462492 -0.25555746859197959 0 0.21960131809693381 -0.2709340603189419 0 0.21227572241766829 -0.25850278331779308 0 0.20525101989627681 -0.26734860860117943 0 0.21960131809693381 -0.2709340603189419 0 0.20601689970842041 -0.27922114497236739 0 0.2226683307413439 -0.28496936778224419 0 0.21960131809693381 -0.2709340603189419 0 0.20601689970842041 -0.27922114497236739 0 0.20525101989627681 -0.26734860860117943 0 0.20525101989627681 -0.26734860860117943 0 0.19534272504378691 -0.27395527126544272 0 0.194513200700524 -0.26496155301393198 0 0.20601689970842041 -0.27922114497236739 0 0.19534272504378691 -0.27395527126544272 0 0.19370759516997821 -0.28264986126682629 0 0.20601689970842041 -0.27922114497236739 0 0.20525101989627681 -0.26734860860117943 0 0.19534272504378691 -0.27395527126544272 0 0.18950050390669221 -0.27797132419462778 0 0.19370759516997821 -0.28264986126682629 0 0.1829857302742823 -0.27845877574827638 0 0.19534272504378691 -0.27395527126544272 0 0.18950050390669221 -0.27797132419462778 0 0.19370759516997821 -0.28264986126682629 0 0.19534272504378691 -0.27395527126544272 0 0.18950050390669221 -0.27797132419462778 0 0.18987558617673181 -0.27178168099994943 0 0.18950050390669221 -0.27797132419462778 0 0.18987558617673181 -0.27178168099994943 0 0.1841788455821608 -0.2761902547805129 0 0.19534272504378691 -0.27395527126544272 0 0.18987558617673181 -0.27178168099994943 0 0.194513200700524 -0.26496155301393198 0 0.18987558617673181 -0.27178168099994943 0 0.194513200700524 -0.26496155301393198 0 0.18574327239553159 -0.26534993580265498 0 0.194513200700524 -0.26496155301393198 0 0.18993780220987239 -0.25497306796996289 0 0.200656609462492 -0.25555746859197959 0 0.194513200700524 -0.26496155301393198 0 0.18993780220987239 -0.25497306796996289 0 0.18574327239553159 -0.26534993580265498 0 0.18993780220987239 -0.25497306796996289 0 0.200656609462492 -0.25555746859197959 0 0.19479421355439899 -0.24532330472355049 0 0.20525101989627681 -0.26734860860117943 0 0.194513200700524 -0.26496155301393198 0 0.200656609462492 -0.25555746859197959 0 0.19790363792798099 -0.30892052975445838 0 0.19044468410113161 -0.29368965275136738 0 0.2018071753388255 -0.2914663427559715 0 0.19790363792798099 -0.30892052975445838 0 0.19206157470846941 -0.31929228883287231 0 0.18380711209504921 -0.30734929959056789 0 0.19790363792798099 -0.30892052975445838 0 0.19044468410113161 -0.29368965275136738 0 0.18380711209504921 -0.30734929959056789 0 0.19790363792798099 -0.30892052975445838 0 0.19044468410113161 -0.29368965275136738 0 0.19044468410113161 -0.29368965275136738 0 0.19370759516997821 -0.28264986126682629 0 0.1829857302742823 -0.27845877574827638 0 0.20601689970842041 -0.27922114497236739 0 0.19370759516997821 -0.28264986126682629 0 0.2018071753388255 -0.2914663427559715 0 0.19044468410113161 -0.29368965275136738 0 0.19370759516997821 -0.28264986126682629 0 0.2018071753388255 -0.2914663427559715 0 0.20601689970842041 -0.27922114497236739 0 0.2132709102913013 -0.29655135329420168 0 0.2226683307413439 -0.28496936778224419 0 0.20601689970842041 -0.27922114497236739 0 0.2018071753388255 -0.2914663427559715 0 0.2132709102913013 -0.29655135329420168 0 0.19790363792798099 -0.30892052975445838 0 0.2132709102913013 -0.29655135329420168 0 0.2145745296791968 -0.31374051859651442 0 0.19790363792798099 -0.30892052975445838 0 0.2018071753388255 -0.2914663427559715 0 0.2132709102913013 -0.29655135329420168 0 0.23281192552549729 -0.29925289170968888 0 0.22792438939957871 -0.32237379713706887 0 0.23281192552549729 -0.29925289170968888 0 0.22792438939957871 -0.32237379713706887 0 0.2145745296791968 -0.31374051859651442 0 0.2132709102913013 -0.29655135329420168 0 0.23281192552549729 -0.29925289170968888 0 0.2145745296791968 -0.31374051859651442 0 0.23769946165141601 -0.27613198628230889 0 0.23281192552549729 -0.29925289170968888 0 0.2226683307413439 -0.28496936778224419 0 0.2132709102913013 -0.29655135329420168 0 0.23281192552549729 -0.29925289170968888 0 0.2226683307413439 -0.28496936778224419 0 0.23769946165141601 -0.27613198628230889 0 0.23281192552549729 -0.29925289170968888 0 0.25793101245844691 -0.28938793590824102 0 0.23769946165141601 -0.27613198628230889 0 0.23281192552549729 -0.29925289170968888 0 0.25249252294720631 -0.31820689639820671 0 0.25793101245844691 -0.28938793590824102 0 0.23281192552549729 -0.29925289170968888 0 0.25249252294720631 -0.31820689639820671 0 0.23834404993825381 -0.33604900472355692 0 0.22792438939957871 -0.32237379713706887 0 0.25249252294720631 -0.31820689639820671 0 0.23281192552549729 -0.29925289170968888 0 0.22792438939957871 -0.32237379713706887 0 0.25311266814674921 -0.34535189129929911 0 0.23834404993825381 -0.33604900472355692 0 0.2364864187731209 -0.34693000681204761 0 0.25311266814674921 -0.34535189129929911 0 0.25249252294720631 -0.31820689639820671 0 0.23834404993825381 -0.33604900472355692 0 0.22792438939957871 -0.32237379713706887 0 0.22303685327365999 -0.34549470256444897 0 0.21398526684424021 -0.32983146951939463 0 0.23834404993825381 -0.33604900472355692 0 0.22792438939957871 -0.32237379713706887 0 0.22303685327365999 -0.34549470256444897 0 0.22792438939957871 -0.32237379713706887 0 0.22303685327365999 -0.34549470256444897 0 0.23834404993825381 -0.33604900472355692 0 0.2364864187731209 -0.34693000681204761 0 0.22303685327365999 -0.34549470256444897 0 0.22792438939957871 -0.32237379713706887 0 0.2145745296791968 -0.31374051859651442 0 0.21398526684424021 -0.32983146951939463 0 0.23145210373382091 -0.36082442866088549 0 0.2474350636536945 -0.37691395749906331 0 0.25315130501623168 -0.36223266672170501 0 0.23145210373382091 -0.36082442866088549 0 0.2474350636536945 -0.37691395749906331 0 0.23145210373382091 -0.36082442866088549 0 0.22915890759396679 -0.3715422140680717 0 0.2474350636536945 -0.37691395749906331 0 0.25311266814674921 -0.34535189129929911 0 0.25315130501623168 -0.36223266672170501 0 0.23145210373382091 -0.36082442866088549 0 0.25311266814674921 -0.34535189129929911 0 0.23145210373382091 -0.36082442866088549 0 0.25311266814674921 -0.34535189129929911 0 0.2364864187731209 -0.34693000681204761 0 0.23145210373382091 -0.36082442866088549 0 0.23145210373382091 -0.36082442866088549 0 0.21796592809160209 -0.35527358154705041 0 0.21221489731587481 -0.34145895512037239 0 0.22303685327365999 -0.34549470256444897 0 0.23145210373382091 -0.36082442866088549 0 0.21221489731587481 -0.34145895512037239 0 0.23145210373382091 -0.36082442866088549 0 0.21221489731587481 -0.34145895512037239 0 0.2364864187731209 -0.34693000681204761 0 0.22303685327365999 -0.34549470256444897 0 0.23145210373382091 -0.36082442866088549 0 0.23145210373382091 -0.36082442866088549 0 0.22088124833207709 -0.36172543937038742 0 0.21796592809160209 -0.35527358154705041 0 0.23145210373382091 -0.36082442866088549 0 0.2206957243839538 -0.36850790717942622 0 0.22915890759396679 -0.3715422140680717 0 0.23145210373382091 -0.36082442866088549 0 0.2206957243839538 -0.36850790717942622 0 0.23145210373382091 -0.36082442866088549 0 0.22088124833207709 -0.36172543937038742 0 0.2206957243839538 -0.36850790717942622 0 0.2206957243839538 -0.36850790717942622 0 0.22915890759396679 -0.3715422140680717 0 0.21554831839594449 -0.37610859260574109 0 0.2206957243839538 -0.36850790717942622 0 0.20851399690228051 -0.36932361920029161 0 0.21554831839594449 -0.37610859260574109 0 0.2206957243839538 -0.36850790717942622 0 0.20851399690228051 -0.36932361920029161 0 0.21341123711893151 -0.36229584009418753 0 0.22088124833207709 -0.36172543937038742 0 0.2206957243839538 -0.36850790717942622 0 0.21341123711893151 -0.36229584009418753 0 0.22088124833207709 -0.36172543937038742 0 0.21341123711893151 -0.36229584009418753 0 0.21796592809160209 -0.35527358154705041 0 0.20851399690228051 -0.36932361920029161 0 0.21341123711893151 -0.36229584009418753 0 0.20255986903729889 -0.35934015590544832 0 0.21341123711893151 -0.36229584009418753 0 0.2093872315528213 -0.35091598357873749 0 0.20255986903729889 -0.35934015590544832 0 0.2093872315528213 -0.35091598357873749 0 0.20086784600726859 -0.34719569334940442 0 0.20255986903729889 -0.35934015590544832 0 0.21341123711893151 -0.36229584009418753 0 0.21796592809160209 -0.35527358154705041 0 0.2093872315528213 -0.35091598357873749 0 0.21796592809160209 -0.35527358154705041 0 0.2093872315528213 -0.35091598357873749 0 0.21221489731587481 -0.34145895512037239 0 0.2093872315528213 -0.35091598357873749 0 0.20086784600726859 -0.34719569334940442 0 0.21221489731587481 -0.34145895512037239 0 0.20086784600726859 -0.34719569334940442 0 0.18865592318124619 -0.35730826722282422 0 0.18924170893530329 -0.33729412965925021 0 0.20086784600726859 -0.34719569334940442 0 0.18865592318124619 -0.35730826722282422 0 0.20255986903729889 -0.35934015590544832 0 0.18865592318124619 -0.35730826722282422 0 0.1875839088044752 -0.37307614977852482 0 0.1976630734353515 -0.36845318744210948 0 0.18865592318124619 -0.35730826722282422 0 0.20255986903729889 -0.35934015590544832 0 0.1976630734353515 -0.36845318744210948 0 0.20851399690228051 -0.36932361920029161 0 0.20255986903729889 -0.35934015590544832 0 0.1976630734353515 -0.36845318744210948 0 0.20851399690228051 -0.36932361920029161 0 0.1976630734353515 -0.36845318744210948 0 0.2012594668818723 -0.38071452851993648 0 0.1875839088044752 -0.37307614977852482 0 0.1976630734353515 -0.36845318744210948 0 0.2012594668818723 -0.38071452851993648 0 0.2145745296791968 -0.31374051859651442 0 0.21398526684424021 -0.32983146951939463 0 0.2012438133619017 -0.32686788005421241 0 0.19790363792798099 -0.30892052975445838 0 0.2145745296791968 -0.31374051859651442 0 0.2012438133619017 -0.32686788005421241 0 0.22303685327365999 -0.34549470256444897 0 0.21398526684424021 -0.32983146951939463 0 0.21221489731587481 -0.34145895512037239 0 0.20086784600726859 -0.34719569334940442 0 0.21221489731587481 -0.34145895512037239 0 0.2031474460210671 -0.33685666860979407 0 0.21398526684424021 -0.32983146951939463 0 0.21221489731587481 -0.34145895512037239 0 0.2031474460210671 -0.33685666860979407 0 0.21398526684424021 -0.32983146951939463 0 0.2031474460210671 -0.33685666860979407 0 0.2012438133619017 -0.32686788005421241 0 0.2031474460210671 -0.33685666860979407 0 0.18924170893530329 -0.33729412965925021 0 0.2012438133619017 -0.32686788005421241 0 0.20086784600726859 -0.34719569334940442 0 0.2031474460210671 -0.33685666860979407 0 0.18924170893530329 -0.33729412965925021 0 0.18924170893530329 -0.33729412965925021 0 0.2012438133619017 -0.32686788005421241 0 0.19206157470846941 -0.31929228883287231 0 0.19790363792798099 -0.30892052975445838 0 0.2012438133619017 -0.32686788005421241 0 0.19206157470846941 -0.31929228883287231 0 0.19206157470846941 -0.31929228883287231 0 0.1789613131607477 -0.32057304737956732 0 0.18380711209504921 -0.30734929959056789 0 0.18924170893530329 -0.33729412965925021 0 0.19206157470846941 -0.31929228883287231 0 0.1789613131607477 -0.32057304737956732 0 0.17087197906324439 -0.33140950207718639 0 0.1788165110853355 -0.34803927565410292 0 0.166492226154004 -0.34467847124706552 0 0.18924170893530329 -0.33729412965925021 0 0.1789613131607477 -0.32057304737956732 0 0.17087197906324439 -0.33140950207718639 0 0.18924170893530329 -0.33729412965925021 0 0.17087197906324439 -0.33140950207718639 0 0.1788165110853355 -0.34803927565410292 0 0.1590761015809298 -0.3239191714570181 0 0.166492226154004 -0.34467847124706552 0 0.15477501628563681 -0.33984610609241561 0 0.1590761015809298 -0.3239191714570181 0 0.166492226154004 -0.34467847124706552 0 0.17087197906324439 -0.33140950207718639 0 0.1590761015809298 -0.3239191714570181 0 0.166492226154004 -0.34467847124706552 0 0.1789613131607477 -0.32057304737956732 0 0.17087197906324439 -0.33140950207718639 0 0.1590761015809298 -0.3239191714570181 0 0.1789613131607477 -0.32057304737956732 0 0.1590761015809298 -0.3239191714570181 0 0.17103091592760611 -0.30118897360264718 0 0.1590761015809298 -0.3239191714570181 0 0.17103091592760611 -0.30118897360264718 0 0.18865592318124619 -0.35730826722282422 0 0.1875839088044752 -0.37307614977852482 0 0.17390835072707811 -0.36543777103711289 0 0.1875839088044752 -0.37307614977852482 0 0.17390835072707811 -0.36543777103711289 0 0.1807421569595361 -0.38456703874140152 0 0.1875839088044752 -0.37307614977852482 0 0.17390835072707811 -0.36543777103711289 0 0.17390835072707811 -0.36543777103711289 0 0.1788165110853355 -0.34803927565410292 0 0.166492226154004 -0.34467847124706552 0 0.18865592318124619 -0.35730826722282422 0 0.17390835072707811 -0.36543777103711289 0 0.1788165110853355 -0.34803927565410292 0 0.18865592318124619 -0.35730826722282422 0 0.18924170893530329 -0.33729412965925021 0 0.1788165110853355 -0.34803927565410292 0 0.17390835072707811 -0.36543777103711289 0 0.166492226154004 -0.34467847124706552 0 0.15453815590006861 -0.35461869633855492 0 0.17390835072707811 -0.36543777103711289 0 0.166492226154004 -0.34467847124706552 0 0.166492226154004 -0.34467847124706552 0 0.15453815590006861 -0.35461869633855492 0 0.15477501628563681 -0.33984610609241561 0 0.15453815590006861 -0.35461869633855492 0 0.1585300372540005 -0.3751883429839174 0 0.17390835072707811 -0.36543777103711289 0 0.15453815590006861 -0.35461869633855492 0 0.1585300372540005 -0.3751883429839174 0 0.17390835072707811 -0.36543777103711289 0 0.15453815590006861 -0.35461869633855492 0 0.17390835072707811 -0.36543777103711289 0 0.17023397662116421 -0.37811741904559648 0 0.1585300372540005 -0.3751883429839174 0 0.14743232748717289 -0.36685659144869631 0 0.14556564882705211 -0.34960717089325738 0 0.132799474710939 -0.37388004164538879 0 0.14743232748717289 -0.36685659144869631 0 0.15453815590006861 -0.35461869633855492 0 0.1585300372540005 -0.3751883429839174 0 0.14743232748717289 -0.36685659144869631 0 0.132799474710939 -0.37388004164538879 0 0.1461663820260804 -0.38245668122592008 0 0.14743232748717289 -0.36685659144869631 0 0.1585300372540005 -0.3751883429839174 0 0.1461663820260804 -0.38245668122592008 0 0.14743232748717289 -0.36685659144869631 0 0.15453815590006861 -0.35461869633855492 0 0.14556564882705211 -0.34960717089325738 0 0.15453815590006861 -0.35461869633855492 0 0.14556564882705211 -0.34960717089325738 0 0.15453815590006861 -0.35461869633855492 0 0.14797419842488571 -0.34502769292620372 0 0.14556564882705211 -0.34960717089325738 0 0.15453815590006861 -0.35461869633855492 0 0.15477501628563681 -0.33984610609241561 0 0.15207109321799769 -0.34190624245448947 0 0.15453815590006861 -0.35461869633855492 0 0.14797419842488571 -0.34502769292620372 0 0.15207109321799769 -0.34190624245448947 0 0.15453815590006861 -0.35461869633855492 0 0.15207109321799769 -0.34190624245448947 0 0.14797419842488571 -0.34502769292620372 0 0.1434872732485836 -0.3484463100534016 0 0.14797419842488571 -0.34502769292620372 0 0.1434872732485836 -0.3484463100534016 0 0.14152333340150641 -0.33850872435638218 0 0.14797419842488571 -0.34502769292620372 0 0.14556564882705211 -0.34960717089325738 0 0.14797419842488571 -0.34502769292620372 0 0.14556564882705211 -0.34960717089325738 0 0.1434872732485836 -0.3484463100534016 0 0.14556564882705211 -0.34960717089325738 0 0.1434872732485836 -0.3484463100534016 0 0.1434872732485836 -0.3484463100534016 0 0.12797710395461731 -0.33978322319872029 0 0.12115745367068601 -0.36545954309312878 0 0.1434872732485836 -0.3484463100534016 0 0.12115745367068601 -0.36545954309312878 0 0.14556564882705211 -0.34960717089325738 0 0.1434872732485836 -0.3484463100534016 0 0.132799474710939 -0.37388004164538879 0 0.1434872732485836 -0.3484463100534016 0 0.12797710395461731 -0.33978322319872029 0 0.14556564882705211 -0.34960717089325738 0 0.132799474710939 -0.37388004164538879 0 0.1434872732485836 -0.3484463100534016 0 0.132799474710939 -0.37388004164538879 0 0.12115745367068601 -0.36545954309312878 0 0.15140933970313369 -0.33849631245905609 0 0.13902555336870079 -0.32698277490121519 0 0.14620381090882609 -0.31167289803168091 0 0.1590761015809298 -0.3239191714570181 0 0.15140933970313369 -0.33849631245905609 0 0.14620381090882609 -0.31167289803168091 0 0.15140933970313369 -0.33849631245905609 0 0.14620381090882609 -0.31167289803168091 0 0.1590761015809298 -0.3239191714570181 0 0.15140933970313369 -0.33849631245905609 0 0.1590761015809298 -0.3239191714570181 0 0.15477501628563681 -0.33984610609241561 0 0.15140933970313369 -0.33849631245905609 0 0.15477501628563681 -0.33984610609241561 0 0.15207109321799769 -0.34190624245448947 0 0.15477501628563681 -0.33984610609241561 0 0.15140933970313369 -0.33849631245905609 0 0.15207109321799769 -0.34190624245448947 0 0.14797419842488571 -0.34502769292620372 0 0.15207109321799769 -0.34190624245448947 0 0.14797419842488571 -0.34502769292620372 0 0.15140933970313369 -0.33849631245905609 0 0.15207109321799769 -0.34190624245448947 0 0.14797419842488571 -0.34502769292620372 0 0.15140933970313369 -0.33849631245905609 0 0.15140933970313369 -0.33849631245905609 0 0.15207109321799769 -0.34190624245448947 0 0.14797419842488571 -0.34502769292620372 0 0.15140933970313369 -0.33849631245905609 0 0.14152333340150641 -0.33850872435638218 0 0.15140933970313369 -0.33849631245905609 0 0.14152333340150641 -0.33850872435638218 0 0.13902555336870079 -0.32698277490121519 0 0.12797710395461731 -0.33978322319872029 0 0.13902555336870079 -0.32698277490121519 0 0.1244969324359799 -0.32062488420160112 0 0.14152333340150641 -0.33850872435638218 0 0.12797710395461731 -0.33978322319872029 0 0.13902555336870079 -0.32698277490121519 0 0.1434872732485836 -0.3484463100534016 0 0.14152333340150641 -0.33850872435638218 0 0.12797710395461731 -0.33978322319872029 0 0.13902555336870079 -0.32698277490121519 0 0.13358260259598639 -0.31268548294998388 0 0.14620381090882609 -0.31167289803168091 0 0.13902555336870079 -0.32698277490121519 0 0.13358260259598639 -0.31268548294998388 0 0.1244969324359799 -0.32062488420160112 0 0.13358260259598639 -0.31268548294998388 0 0.13420294691316101 -0.30014474709490468 0 0.12398376935326461 -0.30400211052051751 0 0.13420294691316101 -0.30014474709490468 0 0.14620381090882609 -0.31167289803168091 0 0.1409982821145167 -0.28484948360430618 0 0.13358260259598639 -0.31268548294998388 0 0.12398376935326461 -0.30400211052051751 0 0.1244969324359799 -0.32062488420160112 0 0.13420294691316101 -0.30014474709490468 0 0.12595864474843599 -0.28875554883283161 0 0.12398376935326461 -0.30400211052051751 0 0.13358260259598639 -0.31268548294998388 0 0.13420294691316101 -0.30014474709490468 0 0.14620381090882609 -0.31167289803168091 0 0.1590761015809298 -0.3239191714570181 0 0.14620381090882609 -0.31167289803168091 0 0.1489429507255578 -0.29555434096479699 0 0.14620381090882609 -0.31167289803168091 0 0.1489429507255578 -0.29555434096479699 0 0.1409982821145167 -0.28484948360430618 0 0.14620381090882609 -0.31167289803168091 0 0.1409982821145167 -0.28484948360430618 0 0.1590761015809298 -0.3239191714570181 0 0.1489429507255578 -0.29555434096479699 0 0.1590761015809298 -0.3239191714570181 0 0.1489429507255578 -0.29555434096479699 0 0.16025524532335941 -0.29960659183167532 0 0.1489429507255578 -0.29555434096479699 0 0.13880979987018571 -0.26718951047257589 0 0.1489429507255578 -0.29555434096479699 0 0.1409982821145167 -0.28484948360430618 0 0.13880979987018571 -0.26718951047257589 0 0.1489429507255578 -0.29555434096479699 0 0.15112906794183761 -0.27967948229526318 0 0.1569228649662576 -0.28894622334021092 0 0.15112906794183761 -0.27967948229526318 0 0.15947059337709141 -0.28122283122845759 0 0.1569228649662576 -0.28894622334021092 0 0.1489429507255578 -0.29555434096479699 0 0.16025524532335941 -0.29960659183167532 0 0.1569228649662576 -0.28894622334021092 0 0.13420294691316101 -0.30014474709490468 0 0.1409982821145167 -0.28484948360430618 0 0.12595864474843599 -0.28875554883283161 0 0.1409982821145167 -0.28484948360430618 0 0.12595864474843599 -0.28875554883283161 0 0.12726001490913411 -0.2735988055416349 0 0.1409982821145167 -0.28484948360430618 0 0.12726001490913411 -0.2735988055416349 0 0.13579275332020729 -0.25802606917693138 0 0.1409982821145167 -0.28484948360430618 0 0.13579275332020729 -0.25802606917693138 0 0.1409982821145167 -0.28484948360430618 0 0.13880979987018571 -0.26718951047257589 0 0.13579275332020729 -0.25802606917693138 0 0.13579275332020729 -0.25802606917693138 0 0.12383087915321001 -0.26110690826341221 0 0.1248312630638693 -0.25185872287740718 0 0.12726001490913411 -0.2735988055416349 0 0.13579275332020729 -0.25802606917693138 0 0.12383087915321001 -0.26110690826341221 0 0.13880979987018571 -0.26718951047257589 0 0.13579275332020729 -0.25802606917693138 0 0.14474575970412451 -0.2609047833448272 0 0.13579275332020729 -0.25802606917693138 0 0.14586321943159419 -0.25281070489990048 0 0.14326640903758939 -0.2423350284972916 0 0.13579275332020729 -0.25802606917693138 0 0.14586321943159419 -0.25281070489990048 0 0.14474575970412451 -0.2609047833448272 0 0.14586321943159419 -0.25281070489990048 0 0.14474575970412451 -0.2609047833448272 0 0.15283459505208991 -0.25749347268689371 0 0.14474575970412451 -0.2609047833448272 0 0.15283459505208991 -0.25749347268689371 0 0.15042843084654511 -0.26900415948783452 0 0.15283459505208991 -0.25749347268689371 0 0.15042843084654511 -0.26900415948783452 0 0.1600907895199298 -0.26672848182476327 0 0.14586321943159419 -0.25281070489990048 0 0.15283459505208991 -0.25749347268689371 0 0.15382594782826181 -0.2456638197013967 0 0.1489429507255578 -0.29555434096479699 0 0.13880979987018571 -0.26718951047257589 0 0.15112906794183761 -0.27967948229526318 0 0.13880979987018571 -0.26718951047257589 0 0.14474575970412451 -0.2609047833448272 0 0.15042843084654511 -0.26900415948783452 0 0.13880979987018571 -0.26718951047257589 0 0.15042843084654511 -0.26900415948783452 0 0.15112906794183761 -0.27967948229526318 0 0.15042843084654511 -0.26900415948783452 0 0.15591144022513401 -0.27454102124018931 0 0.1600907895199298 -0.26672848182476327 0 0.15042843084654511 -0.26900415948783452 0 0.15112906794183761 -0.27967948229526318 0 0.15591144022513401 -0.27454102124018931 0 0.15112906794183761 -0.27967948229526318 0 0.15591144022513401 -0.27454102124018931 0 0.15947059337709141 -0.28122283122845759 0 0.15947059337709141 -0.28122283122845759 0 0.16185392716696309 -0.27531229770694798 0 0.16570286654591021 -0.28043371299443082 0 0.15591144022513401 -0.27454102124018931 0 0.15947059337709141 -0.28122283122845759 0 0.16185392716696309 -0.27531229770694798 0 0.16185392716696309 -0.27531229770694798 0 0.1600907895199298 -0.26672848182476327 0 0.16983156124434731 -0.27255291471445131 0 0.15591144022513401 -0.27454102124018931 0 0.16185392716696309 -0.27531229770694798 0 0.1600907895199298 -0.26672848182476327 0 0.16983156124434731 -0.27255291471445131 0 0.16570286654591021 -0.28043371299443082 0 0.17110550860696189 -0.28411083260312042 0 0.16185392716696309 -0.27531229770694798 0 0.16983156124434731 -0.27255291471445131 0 0.16570286654591021 -0.28043371299443082 0 0.1600907895199298 -0.26672848182476327 0 0.16983156124434731 -0.27255291471445131 0 0.17171055168490701 -0.25543532470283709 0 0.15283459505208991 -0.25749347268689371 0 0.1600907895199298 -0.26672848182476327 0 0.17171055168490701 -0.25543532470283709 0 0.15283459505208991 -0.25749347268689371 0 0.17171055168490701 -0.25543532470283709 0 0.15382594782826181 -0.2456638197013967 0 0.18993780220987239 -0.25497306796996289 0 0.17171055168490701 -0.25543532470283709 0 0.18108999837583681 -0.24278436805804121 0 0.18993780220987239 -0.25497306796996289 0 0.17171055168490701 -0.25543532470283709 0 0.18574327239553159 -0.26534993580265498 0 0.16983156124434731 -0.27255291471445131 0 0.17171055168490701 -0.25543532470283709 0 0.1829857302742823 -0.27845877574827638 0 0.17171055168490701 -0.25543532470283709 0 0.1841788455821608 -0.2761902547805129 0 0.1829857302742823 -0.27845877574827638 0 0.17171055168490701 -0.25543532470283709 0 0.18574327239553159 -0.26534993580265498 0 0.1841788455821608 -0.2761902547805129 0 0.17171055168490701 -0.25543532470283709 0 0.1829857302742823 -0.27845877574827638 0 0.16983156124434731 -0.27255291471445131 0 0.1829857302742823 -0.27845877574827638 0 0.17110550860696189 -0.28411083260312042 0 0.18987558617673181 -0.27178168099994943 0 0.18574327239553159 -0.26534993580265498 0 0.1841788455821608 -0.2761902547805129 0 0.1841788455821608 -0.2761902547805129 0 0.1829857302742823 -0.27845877574827638 0 0.18950050390669221 -0.27797132419462778 0 0.1841788455821608 -0.2761902547805129 0 0.1829857302742823 -0.27845877574827638 0 0.19044468410113161 -0.29368965275136738 0 0.1829857302742823 -0.27845877574827638 0 0.17103091592760611 -0.30118897360264718 0 0.1829857302742823 -0.27845877574827638 0 0.17103091592760611 -0.30118897360264718 0 0.17110550860696189 -0.28411083260312042 0 0.19044468410113161 -0.29368965275136738 0 0.1829857302742823 -0.27845877574827638 0 0.1829857302742823 -0.27845877574827638 0 0.17103091592760611 -0.30118897360264718 0 0.1789613131607477 -0.32057304737956732 0 0.18380711209504921 -0.30734929959056789 0 0.17103091592760611 -0.30118897360264718 0 0.19044468410113161 -0.29368965275136738 0 0.18380711209504921 -0.30734929959056789 0 0.17103091592760611 -0.30118897360264718 0 0.1590761015809298 -0.3239191714570181 0 0.17103091592760611 -0.30118897360264718 0 0.16025524532335941 -0.29960659183167532 0 0.17103091592760611 -0.30118897360264718 0 0.17110550860696189 -0.28411083260312042 0 0.16530339341644609 -0.28842424979370329 0 0.16025524532335941 -0.29960659183167532 0 0.1569228649662576 -0.28894622334021092 0 0.16530339341644609 -0.28842424979370329 0 0.15947059337709141 -0.28122283122845759 0 0.1569228649662576 -0.28894622334021092 0 0.16530339341644609 -0.28842424979370329 0 0.15947059337709141 -0.28122283122845759 0 0.16570286654591021 -0.28043371299443082 0 0.16530339341644609 -0.28842424979370329 0 0.16570286654591021 -0.28043371299443082 0 0.17110550860696189 -0.28411083260312042 0 0.16530339341644609 -0.28842424979370329 0 0.17103091592760611 -0.30118897360264718 0 0.16025524532335941 -0.29960659183167532 0 0.16530339341644609 -0.28842424979370329 0 0.19108684639935519 -0.48926961883470788 0 0.20386539219474639 -0.5 0 0.1807709483579997 -0.5 0 0.19108684639935519 -0.48926961883470788 0 0.20386539219474639 -0.5 0 0.2093080992096541 -0.48696917955497138 0 0.19475283014634129 -0.47484327503182672 0 0.19756244094196809 -0.46207804504509292 0 0.17532297226927401 -0.47647662638794952 0 0.19108684639935519 -0.48926961883470788 0 0.19475283014634129 -0.47484327503182672 0 0.2093080992096541 -0.48696917955497138 0 0.19475283014634129 -0.47484327503182672 0 0.21418268802340851 -0.47320992367570469 0 0.19756244094196809 -0.46207804504509292 0 0.19475283014634129 -0.47484327503182672 0 0.21418268802340851 -0.47320992367570469 0 0.2093080992096541 -0.48696917955497138 0 0.19475283014634129 -0.47484327503182672 0 0.21418268802340851 -0.47320992367570469 0 0.21418268802340851 -0.47320992367570469 0 0.2093080992096541 -0.48696917955497138 0 0.22497164443521619 -0.48428926519060889 0 0.20386539219474639 -0.5 0 0.2093080992096541 -0.48696917955497138 0 0.22695983603149331 -0.5 0 0.22695983603149331 -0.5 0 0.23834759318626811 -0.48635755103080891 0 0.22497164443521619 -0.48428926519060889 0 0.2093080992096541 -0.48696917955497138 0 0.22695983603149331 -0.5 0 0.22497164443521619 -0.48428926519060889 0 0.25005427986824003 -0.50000000000000044 0 0.22695983603149331 -0.5 0 0.23834759318626811 -0.48635755103080891 0 0.25407996069655758 -0.47526997090879253 0 0.25005427986824003 -0.50000000000000044 0 0.23834759318626811 -0.48635755103080891 0 0.25407996069655758 -0.47526997090879253 0 0.23834759318626811 -0.48635755103080891 0 0.23564288687246929 -0.47202552445766238 0 0.21418268802340851 -0.47320992367570469 0 0.23564288687246929 -0.47202552445766238 0 0.22497164443521619 -0.48428926519060889 0 0.23834759318626811 -0.48635755103080891 0 0.23564288687246929 -0.47202552445766238 0 0.22497164443521619 -0.48428926519060889 0 0.21418268802340851 -0.47320992367570469 0 0.231721207234104 -0.456984969250049 0 0.2198019096146617 -0.44767946370223538 0 0.21418268802340851 -0.47320992367570469 0 0.23564288687246929 -0.47202552445766238 0 0.231721207234104 -0.456984969250049 0 0.25407996069655758 -0.47526997090879253 0 0.23564288687246929 -0.47202552445766238 0 0.2468219570216508 -0.45619159349094113 0 0.23564288687246929 -0.47202552445766238 0 0.231721207234104 -0.456984969250049 0 0.2468219570216508 -0.45619159349094113 0 0.231721207234104 -0.456984969250049 0 0.2468219570216508 -0.45619159349094113 0 0.24204137828735611 -0.43328088235937928 0 0.25227507479676847 -0.44145558259856998 0 0.2468219570216508 -0.45619159349094113 0 0.24204137828735611 -0.43328088235937928 0 0.2468219570216508 -0.45619159349094113 0 0.24204137828735611 -0.43328088235937928 0 0.231721207234104 -0.456984969250049 0 0.2198019096146617 -0.44767946370223538 0 0.24204137828735611 -0.43328088235937928 0 0.2198019096146617 -0.44767946370223538 0 0.24204137828735611 -0.43328088235937928 0 0.2198019096146617 -0.44767946370223538 0 0.20726279492628361 -0.44147934200615729 0 0.2207581992447393 -0.4274067527118226 0 0.2198019096146617 -0.44767946370223538 0 0.20726279492628361 -0.44147934200615729 0 0.2043733609862973 -0.45476793614026628 0 0.2198019096146617 -0.44767946370223538 0 0.19756244094196809 -0.46207804504509292 0 0.2198019096146617 -0.44767946370223538 0 0.2043733609862973 -0.45476793614026628 0 0.19756244094196809 -0.46207804504509292 0 0.21418268802340851 -0.47320992367570469 0 0.2198019096146617 -0.44767946370223538 0 0.19756244094196809 -0.46207804504509292 0 0.20726279492628361 -0.44147934200615729 0 0.2043733609862973 -0.45476793614026628 0 0.1811929633294368 -0.4392076109802171 0 0.2043733609862973 -0.45476793614026628 0 0.1811929633294368 -0.4392076109802171 0 0.2043733609862973 -0.45476793614026628 0 0.19756244094196809 -0.46207804504509292 0 0.1811929633294368 -0.4392076109802171 0 0.20726279492628361 -0.44147934200615729 0 0.20393069554981291 -0.42835124025161542 0 0.1811929633294368 -0.4392076109802171 0 0.19646838587688931 -0.41175943690699462 0 0.20393069554981291 -0.42835124025161542 0 0.1811929633294368 -0.4392076109802171 0 0.19646838587688931 -0.41175943690699462 0 0.20986606414065931 -0.41845546084068591 0 0.20393069554981291 -0.42835124025161542 0 0.19646838587688931 -0.41175943690699462 0 0.20986606414065931 -0.41845546084068591 0 0.21830697589119569 -0.40630441349231089 0 0.20986606414065931 -0.41845546084068591 0 0.21830697589119569 -0.40630441349231089 0 0.2207581992447393 -0.4274067527118226 0 0.20726279492628361 -0.44147934200615729 0 0.20393069554981291 -0.42835124025161542 0 0.2207581992447393 -0.4274067527118226 0 0.20986606414065931 -0.41845546084068591 0 0.20393069554981291 -0.42835124025161542 0 0.2207581992447393 -0.4274067527118226 0 0.2198019096146617 -0.44767946370223538 0 0.2207581992447393 -0.4274067527118226 0 0.24204137828735611 -0.43328088235937928 0 0.2207581992447393 -0.4274067527118226 0 0.24204137828735611 -0.43328088235937928 0 0.23774722138956 -0.41270132626227668 0 0.26072118089039792 -0.42118694876739998 0 0.24204137828735611 -0.43328088235937928 0 0.23774722138956 -0.41270132626227668 0 0.24204137828735611 -0.43328088235937928 0 0.23774722138956 -0.41270132626227668 0 0.26072118089039792 -0.42118694876739998 0 0.23774722138956 -0.41270132626227668 0 0.24822324428336001 -0.39977759549644748 0 0.21830697589119569 -0.40630441349231089 0 0.2207581992447393 -0.4274067527118226 0 0.23774722138956 -0.41270132626227668 0 0.21830697589119569 -0.40630441349231089 0 0.2334530644917634 -0.39212177016517419 0 0.22067797363707339 -0.38766974112338809 0 0.21830697589119569 -0.40630441349231089 0 0.23774722138956 -0.41270132626227668 0 0.2334530644917634 -0.39212177016517419 0 0.23774722138956 -0.41270132626227668 0 0.2334530644917634 -0.39212177016517419 0 0.23774722138956 -0.41270132626227668 0 0.2334530644917634 -0.39212177016517419 0 0.24822324428336001 -0.39977759549644748 0 0.22915890759396679 -0.3715422140680717 0 0.2334530644917634 -0.39212177016517419 0 0.2474350636536945 -0.37691395749906331 0 0.2334530644917634 -0.39212177016517419 0 0.24822324428336001 -0.39977759549644748 0 0.2474350636536945 -0.37691395749906331 0 0.22915890759396679 -0.3715422140680717 0 0.2334530644917634 -0.39212177016517419 0 0.22067797363707339 -0.38766974112338809 0 0.22915890759396679 -0.3715422140680717 0 0.22067797363707339 -0.38766974112338809 0 0.21554831839594449 -0.37610859260574109 0 0.22915890759396679 -0.3715422140680717 0 0.2334530644917634 -0.39212177016517419 0 0.21554831839594449 -0.37610859260574109 0 0.208500167616191 -0.39330446541816849 0 0.2012594668818723 -0.38071452851993648 0 0.22067797363707339 -0.38766974112338809 0 0.21554831839594449 -0.37610859260574109 0 0.208500167616191 -0.39330446541816849 0 0.20851399690228051 -0.36932361920029161 0 0.21554831839594449 -0.37610859260574109 0 0.2012594668818723 -0.38071452851993648 0 0.21830697589119569 -0.40630441349231089 0 0.22067797363707339 -0.38766974112338809 0 0.208500167616191 -0.39330446541816849 0 0.19646838587688931 -0.41175943690699462 0 0.21830697589119569 -0.40630441349231089 0 0.208500167616191 -0.39330446541816849 0 0.19646838587688931 -0.41175943690699462 0 0.19307383237251091 -0.3929604016943215 0 0.18009993260996901 -0.39891508860316133 0 0.19646838587688931 -0.41175943690699462 0 0.208500167616191 -0.39330446541816849 0 0.19307383237251091 -0.3929604016943215 0 0.19307383237251091 -0.3929604016943215 0 0.19105410034464701 -0.38292458173799448 0 0.2012594668818723 -0.38071452851993648 0 0.19307383237251091 -0.3929604016943215 0 0.19105410034464701 -0.38292458173799448 0 0.1807421569595361 -0.38456703874140152 0 0.1875839088044752 -0.37307614977852482 0 0.19105410034464701 -0.38292458173799448 0 0.2012594668818723 -0.38071452851993648 0 0.1875839088044752 -0.37307614977852482 0 0.2012594668818723 -0.38071452851993648 0 0.208500167616191 -0.39330446541816849 0 0.19307383237251091 -0.3929604016943215 0 0.2012594668818723 -0.38071452851993648 0 0.17390835072707811 -0.36543777103711289 0 0.1807421569595361 -0.38456703874140152 0 0.17023397662116421 -0.37811741904559648 0 0.17390835072707811 -0.36543777103711289 0 0.1807421569595361 -0.38456703874140152 0 0.1875839088044752 -0.37307614977852482 0 0.19105410034464701 -0.38292458173799448 0 0.1807421569595361 -0.38456703874140152 0 0.19307383237251091 -0.3929604016943215 0 0.1807421569595361 -0.38456703874140152 0 0.18009993260996901 -0.39891508860316133 0 0.18009993260996901 -0.39891508860316133 0 0.16252191860792439 -0.39575798962928138 0 0.1741253298145406 -0.41323909864311648 0 0.1807421569595361 -0.38456703874140152 0 0.18009993260996901 -0.39891508860316133 0 0.16252191860792439 -0.39575798962928138 0 0.16252191860792439 -0.39575798962928138 0 0.15171074973176851 -0.41082951719754057 0 0.16214831383066389 -0.41146975278128489 0 0.1807421569595361 -0.38456703874140152 0 0.16252191860792439 -0.39575798962928138 0 0.17023397662116421 -0.37811741904559648 0 0.16252191860792439 -0.39575798962928138 0 0.1585300372540005 -0.3751883429839174 0 0.16252191860792439 -0.39575798962928138 0 0.17023397662116421 -0.37811741904559648 0 0.1585300372540005 -0.3751883429839174 0 0.16252191860792439 -0.39575798962928138 0 0.1585300372540005 -0.3751883429839174 0 0.1461663820260804 -0.38245668122592008 0 0.1461663820260804 -0.38245668122592008 0 0.13588016811784859 -0.39175374667390961 0 0.14556951524167841 -0.396192137440599 0 0.132799474710939 -0.37388004164538879 0 0.1461663820260804 -0.38245668122592008 0 0.13588016811784859 -0.39175374667390961 0 0.132799474710939 -0.37388004164538879 0 0.120033300594829 -0.3981529123975216 0 0.132799474710939 -0.37388004164538879 0 0.13588016811784859 -0.39175374667390961 0 0.120033300594829 -0.3981529123975216 0 0.13588016811784859 -0.39175374667390961 0 0.13483216801571579 -0.40808696066011851 0 0.120033300594829 -0.3981529123975216 0 0.13588016811784859 -0.39175374667390961 0 0.14556951524167841 -0.396192137440599 0 0.13483216801571579 -0.40808696066011851 0 0.13483216801571579 -0.40808696066011851 0 0.120033300594829 -0.3981529123975216 0 0.16252191860792439 -0.39575798962928138 0 0.14556951524167841 -0.396192137440599 0 0.15171074973176851 -0.41082951719754057 0 0.14556951524167841 -0.396192137440599 0 0.15171074973176851 -0.41082951719754057 0 0.13483216801571579 -0.40808696066011851 0 0.16252191860792439 -0.39575798962928138 0 0.1461663820260804 -0.38245668122592008 0 0.14556951524167841 -0.396192137440599 0 0.15171074973176851 -0.41082951719754057 0 0.13483216801571579 -0.40808696066011851 0 0.13483216801571579 -0.40808696066011851 0 0.1434497207123375 -0.42247695391963741 0 0.15801256567257621 -0.42364728582016792 0 0.15171074973176851 -0.41082951719754057 0 0.13483216801571579 -0.40808696066011851 0 0.15801256567257621 -0.42364728582016792 0 0.13483216801571579 -0.40808696066011851 0 0.15801256567257621 -0.42364728582016792 0 0.12574661367947601 -0.4154995545671244 0 0.1330549079819319 -0.42476894690306749 0 0.11742886150221241 -0.42353132176743741 0 0.13483216801571579 -0.40808696066011851 0 0.12574661367947601 -0.4154995545671244 0 0.11638502573463951 -0.40508953282460403 0 0.13483216801571579 -0.40808696066011851 0 0.1330549079819319 -0.42476894690306749 0 0.1434497207123375 -0.42247695391963741 0 0.13483216801571579 -0.40808696066011851 0 0.11638502573463951 -0.40508953282460403 0 0.13483216801571579 -0.40808696066011851 0 0.12574661367947601 -0.4154995545671244 0 0.1330549079819319 -0.42476894690306749 0 0.1330549079819319 -0.42476894690306749 0 0.1478992411791262 -0.4334046222951955 0 0.14185566341414471 -0.4516595710815835 0 0.1478992411791262 -0.4334046222951955 0 0.15801256567257621 -0.42364728582016792 0 0.16110021160725421 -0.44409380049428038 0 0.1330549079819319 -0.42476894690306749 0 0.1478992411791262 -0.4334046222951955 0 0.1434497207123375 -0.42247695391963741 0 0.1478992411791262 -0.4334046222951955 0 0.1434497207123375 -0.42247695391963741 0 0.15801256567257621 -0.42364728582016792 0 0.15801256567257621 -0.42364728582016792 0 0.1811929633294368 -0.4392076109802171 0 0.15801256567257621 -0.42364728582016792 0 0.1741253298145406 -0.41323909864311648 0 0.1811929633294368 -0.4392076109802171 0 0.15801256567257621 -0.42364728582016792 0 0.1811929633294368 -0.4392076109802171 0 0.16110021160725421 -0.44409380049428038 0 0.16252191860792439 -0.39575798962928138 0 0.16214831383066389 -0.41146975278128489 0 0.1741253298145406 -0.41323909864311648 0 0.15801256567257621 -0.42364728582016792 0 0.16214831383066389 -0.41146975278128489 0 0.1741253298145406 -0.41323909864311648 0 0.15171074973176851 -0.41082951719754057 0 0.15801256567257621 -0.42364728582016792 0 0.16214831383066389 -0.41146975278128489 0 0.19646838587688931 -0.41175943690699462 0 0.1741253298145406 -0.41323909864311648 0 0.1811929633294368 -0.4392076109802171 0 0.19646838587688931 -0.41175943690699462 0 0.18009993260996901 -0.39891508860316133 0 0.1741253298145406 -0.41323909864311648 0 0.19756244094196809 -0.46207804504509292 0 0.1811929633294368 -0.4392076109802171 0 0.17540758679683741 -0.45718463848898372 0 0.1811929633294368 -0.4392076109802171 0 0.17540758679683741 -0.45718463848898372 0 0.16110021160725421 -0.44409380049428038 0 0.19756244094196809 -0.46207804504509292 0 0.17540758679683741 -0.45718463848898372 0 0.17532297226927401 -0.47647662638794952 0 0.17540758679683741 -0.45718463848898372 0 0.1608685705867737 -0.46159296634257913 0 0.17532297226927401 -0.47647662638794952 0 0.17540758679683741 -0.45718463848898372 0 0.1608685705867737 -0.46159296634257913 0 0.16110021160725421 -0.44409380049428038 0 0.1608685705867737 -0.46159296634257913 0 0.16110021160725421 -0.44409380049428038 0 0.14185566341414471 -0.4516595710815835 0 0.1478992411791262 -0.4334046222951955 0 0.16110021160725421 -0.44409380049428038 0 0.14185566341414471 -0.4516595710815835 0 0.1330549079819319 -0.42476894690306749 0 0.14185566341414471 -0.4516595710815835 0 0.1203966273334699 -0.44008063856667368 0 0.1330549079819319 -0.42476894690306749 0 0.14185566341414471 -0.4516595710815835 0 0.14185566341414471 -0.4516595710815835 0 0.12601670775743901 -0.4618830355857485 0 0.1203966273334699 -0.44008063856667368 0 0.14185566341414471 -0.4516595710815835 0 0.12601670775743901 -0.4618830355857485 0 0.1506564188463578 -0.4785501952600994 0 0.14185566341414471 -0.4516595710815835 0 0.1506564188463578 -0.4785501952600994 0 0.1608685705867737 -0.46159296634257913 0 0.14185566341414471 -0.4516595710815835 0 0.1506564188463578 -0.4785501952600994 0 0.1506564188463578 -0.4785501952600994 0 0.15440923375031601 -0.49001688536087262 0 0.1506564188463578 -0.4785501952600994 0 0.1249966723593048 -0.48070725590292462 0 0.12601670775743901 -0.4618830355857485 0 0.1506564188463578 -0.4785501952600994 0 0.1249966723593048 -0.48070725590292462 0 0.1506564188463578 -0.4785501952600994 0 0.14140872874001101 -0.48985486730477928 0 0.1249966723593048 -0.48070725590292462 0 0.13799160167987001 -0.49999999999999728 0 0.14140872874001101 -0.48985486730477928 0 0.1249966723593048 -0.48070725590292462 0 0.13799160167987001 -0.49999999999999728 0 0.1249966723593048 -0.48070725590292462 0 0.13799160167987001 -0.49999999999999728 0 0.15440923375031601 -0.49001688536087262 0 0.13799160167987001 -0.49999999999999728 0 0.14140872874001101 -0.48985486730477928 0 0.15440923375031601 -0.49001688536087262 0 0.13799160167987001 -0.49999999999999728 0 0.15440923375031601 -0.49001688536087262 0 0.15767650452125281 -0.50000000000000067 0 0.1506564188463578 -0.4785501952600994 0 0.14140872874001101 -0.48985486730477928 0 0.15440923375031601 -0.49001688536087262 0 0.15440923375031601 -0.49001688536087262 0 0.15767650452125281 -0.50000000000000067 0 0.17018202622826081 -0.49086152908370029 0 0.15767650452125281 -0.50000000000000067 0 0.1807709483579997 -0.5 0 0.15440923375031601 -0.49001688536087262 0 0.17018202622826081 -0.49086152908370029 0 0.15767650452125281 -0.50000000000000067 0 0.15440923375031601 -0.49001688536087262 0 0.17018202622826081 -0.49086152908370029 0 0.17532297226927401 -0.47647662638794952 0 0.1506564188463578 -0.4785501952600994 0 0.15440923375031601 -0.49001688536087262 0 0.17532297226927401 -0.47647662638794952 0 0.1608685705867737 -0.46159296634257913 0 0.1506564188463578 -0.4785501952600994 0 0.17532297226927401 -0.47647662638794952 0 0.1506564188463578 -0.4785501952600994 0 0.17532297226927401 -0.47647662638794952 0 0.15440923375031601 -0.49001688536087262 0 0.17532297226927401 -0.47647662638794952 0 0.19108684639935519 -0.48926961883470788 0 0.19475283014634129 -0.47484327503182672 0 0.17532297226927401 -0.47647662638794952 0 0.19756244094196809 -0.46207804504509292 0 0.17532297226927401 -0.47647662638794952 0 0.19475283014634129 -0.47484327503182672 0 0.17532297226927401 -0.47647662638794952 0 0.19108684639935519 -0.48926961883470788 0 0.17018202622826081 -0.49086152908370029 0 0.17532297226927401 -0.47647662638794952 0 0.19108684639935519 -0.48926961883470788 0 0.17018202622826081 -0.49086152908370029 0 0.1807709483579997 -0.5 0 0.06361055174583391 -0.48011988098768221 0 0.080084708726003831 -0.49502660554649902 0 0.054061429018413043 -0.5 0 0.082038153238898737 -0.5 0 0.080084708726003831 -0.49502660554649902 0 0.054061429018413043 -0.5 0 0.06361055174583391 -0.48011988098768221 0 0.083850258327285959 -0.47361798318585158 0 0.080084708726003831 -0.49502660554649902 0 0.06361055174583391 -0.48011988098768221 0 0.083850258327285959 -0.47361798318585158 0 0.065640867496588096 -0.45572759305845523 0 0.083850258327285959 -0.47361798318585158 0 0.080084708726003831 -0.49502660554649902 0 0.083850258327285959 -0.47361798318585158 0 0.095348381901719528 -0.49190168959030639 0 0.097216568561943134 -0.47044879225803637 0 0.083850258327285959 -0.47361798318585158 0 0.080084708726003831 -0.49502660554649902 0 0.095348381901719528 -0.49190168959030639 0 0.082038153238898737 -0.5 0 0.080084708726003831 -0.49502660554649902 0 0.095348381901719528 -0.49190168959030639 0 0.082038153238898737 -0.5 0 0.095348381901719528 -0.49190168959030639 0 0.11001487745938431 -0.5 0 0.095348381901719528 -0.49190168959030639 0 0.11001487745938431 -0.5 0 0.10752059893145161 -0.48217636434487537 0 0.11001487745938431 -0.5 0 0.1249966723593048 -0.48070725590292462 0 0.10752059893145161 -0.48217636434487537 0 0.13799160167987001 -0.49999999999999728 0 0.11001487745938431 -0.5 0 0.1249966723593048 -0.48070725590292462 0 0.1249966723593048 -0.48070725590292462 0 0.10752059893145161 -0.48217636434487537 0 0.1081890149445786 -0.45575399718374021 0 0.1249966723593048 -0.48070725590292462 0 0.10752059893145161 -0.48217636434487537 0 0.097216568561943134 -0.47044879225803637 0 0.10752059893145161 -0.48217636434487537 0 0.1081890149445786 -0.45575399718374021 0 0.095348381901719528 -0.49190168959030639 0 0.097216568561943134 -0.47044879225803637 0 0.10752059893145161 -0.48217636434487537 0 0.097216568561943134 -0.47044879225803637 0 0.1081890149445786 -0.45575399718374021 0 0.087615807928568074 -0.45220936082520419 0 0.12601670775743901 -0.4618830355857485 0 0.1249966723593048 -0.48070725590292462 0 0.1081890149445786 -0.45575399718374021 0 0.1249966723593048 -0.48070725590292462 0 0.1081890149445786 -0.45575399718374021 0 0.12601670775743901 -0.4618830355857485 0 0.1081890149445786 -0.45575399718374021 0 0.1203966273334699 -0.44008063856667368 0 0.1081890149445786 -0.45575399718374021 0 0.1203966273334699 -0.44008063856667368 0 0.10756772139041899 -0.44056045500808738 0 0.1203966273334699 -0.44008063856667368 0 0.10756772139041899 -0.44056045500808738 0 0.1126421547474498 -0.43290646570082081 0 0.1081890149445786 -0.45575399718374021 0 0.087615807928568074 -0.45220936082520419 0 0.091381357529850965 -0.43080073846455691 0 0.1081890149445786 -0.45575399718374021 0 0.10756772139041899 -0.44056045500808738 0 0.091381357529850965 -0.43080073846455691 0 0.1081890149445786 -0.45575399718374021 0 0.091381357529850965 -0.43080073846455691 0 0.087615807928568074 -0.45220936082520419 0 0.075519439466956426 -0.44414390698556622 0 0.083867785047200091 -0.43549234044607821 0 0.087615807928568074 -0.45220936082520419 0 0.091381357529850965 -0.43080073846455691 0 0.087615807928568074 -0.45220936082520419 0 0.083867785047200091 -0.43549234044607821 0 0.091381357529850965 -0.43080073846455691 0 0.083850258327285959 -0.47361798318585158 0 0.087615807928568074 -0.45220936082520419 0 0.065640867496588096 -0.45572759305845523 0 0.083850258327285959 -0.47361798318585158 0 0.097216568561943134 -0.47044879225803637 0 0.087615807928568074 -0.45220936082520419 0 0.083850258327285959 -0.47361798318585158 0 0.087615807928568074 -0.45220936082520419 0 0.087615807928568074 -0.45220936082520419 0 0.065640867496588096 -0.45572759305845523 0 0.075519439466956426 -0.44414390698556622 0 0.065640867496588096 -0.45572759305845523 0 0.075519439466956426 -0.44414390698556622 0 0.068430265658369363 -0.43364829907220642 0 0.076258270757399521 -0.42301510720026297 0 0.078115980389577927 -0.430319001157145 0 0.068430265658369363 -0.43364829907220642 0 0.076258270757399521 -0.42301510720026297 0 0.068430265658369363 -0.43364829907220642 0 0.068116849210106439 -0.42075607456835118 0 0.075519439466956426 -0.44414390698556622 0 0.078115980389577927 -0.430319001157145 0 0.068430265658369363 -0.43364829907220642 0 0.068430265658369363 -0.43364829907220642 0 0.068116849210106439 -0.42075607456835118 0 0.056522483661813137 -0.42810296826997479 0 0.068116849210106439 -0.42075607456835118 0 0.072902369868226319 -0.41035980402799371 0 0.05914768460240976 -0.41270518465408812 0 0.072902369868226319 -0.41035980402799371 0 0.07576374078453077 -0.40004530466529381 0 0.05914768460240976 -0.41270518465408812 0 0.07576374078453077 -0.40004530466529381 0 0.05914768460240976 -0.41270518465408812 0 0.072902369868226319 -0.41035980402799371 0 0.077521347857375328 -0.41208538320752042 0 0.078113197714817006 -0.40839448033305731 0 0.072902369868226319 -0.41035980402799371 0 0.077521347857375328 -0.41208538320752042 0 0.076228645492525879 -0.41609213320588723 0 0.072902369868226319 -0.41035980402799371 0 0.078113197714817006 -0.40839448033305731 0 0.077510451371998371 -0.40380438143930852 0 0.076258270757399521 -0.42301510720026297 0 0.068116849210106439 -0.42075607456835118 0 0.076228645492525879 -0.41609213320588723 0 0.068116849210106439 -0.42075607456835118 0 0.072902369868226319 -0.41035980402799371 0 0.076228645492525879 -0.41609213320588723 0 0.077521347857375328 -0.41208538320752042 0 0.076228645492525879 -0.41609213320588723 0 0.079793979718542601 -0.41474778589886502 0 0.076258270757399521 -0.42301510720026297 0 0.076228645492525879 -0.41609213320588723 0 0.080480458542330033 -0.41885226190152802 0 0.093602156408125026 -0.41194159376164502 0 0.091381357529850965 -0.43080073846455691 0 0.095836739094833687 -0.4054701515656764 0 0.091381357529850965 -0.43080073846455691 0 0.095836739094833687 -0.4054701515656764 0 0.076258270757399521 -0.42301510720026297 0 0.080480458542330033 -0.41885226190152802 0 0.082072273976905211 -0.42333019606279598 0 0.093602156408125026 -0.41194159376164502 0 0.092286151016206908 -0.41545865958332112 0 0.091381357529850965 -0.43080073846455691 0 0.080480458542330033 -0.41885226190152802 0 0.083250832205795683 -0.42040325731733857 0 0.082072273976905211 -0.42333019606279598 0 0.080480458542330033 -0.41885226190152802 0 0.079793979718542601 -0.41474778589886502 0 0.082628473226765531 -0.41585839065232078 0 0.076228645492525879 -0.41609213320588723 0 0.080480458542330033 -0.41885226190152802 0 0.079793979718542601 -0.41474778589886502 0 0.079793979718542601 -0.41474778589886502 0 0.082628473226765531 -0.41585839065232078 0 0.082737644433641871 -0.41344044189385742 0 0.082628473226765531 -0.41585839065232078 0 0.085022712191758526 -0.41629541839523942 0 0.083473758400547826 -0.41809832301262401 0 0.080480458542330033 -0.41885226190152802 0 0.082628473226765531 -0.41585839065232078 0 0.083473758400547826 -0.41809832301262401 0 0.082628473226765531 -0.41585839065232078 0 0.082737644433641871 -0.41344044189385742 0 0.084812810302905731 -0.41390049925826522 0 0.082628473226765531 -0.41585839065232078 0 0.085022712191758526 -0.41629541839523942 0 0.084812810302905731 -0.41390049925826522 0 0.085022712191758526 -0.41629541839523942 0 0.084812810302905731 -0.41390049925826522 0 0.086888938761794904 -0.41551248042372591 0 0.085022712191758526 -0.41629541839523942 0 0.08516887540335745 -0.41794153409450813 0 0.083473758400547826 -0.41809832301262401 0 0.085022712191758526 -0.41629541839523942 0 0.08516887540335745 -0.41794153409450813 0 0.086799121281380454 -0.41732006174837721 0 0.08516887540335745 -0.41794153409450813 0 0.085361677048514356 -0.41964711051188303 0 0.086890231727602643 -0.41891963598489401 0 0.085361677048514356 -0.41964711051188303 0 0.083250832205795683 -0.42040325731733857 0 0.083473758400547826 -0.41809832301262401 0 0.08516887540335745 -0.41794153409450813 0 0.085361677048514356 -0.41964711051188303 0 0.083473758400547826 -0.41809832301262401 0 0.085361677048514356 -0.41964711051188303 0 0.08530127616983979 -0.42168611697045649 0 0.083250832205795683 -0.42040325731733857 0 0.08530127616983979 -0.42168611697045649 0 0.083250832205795683 -0.42040325731733857 0 0.082072273976905211 -0.42333019606279598 0 0.080480458542330033 -0.41885226190152802 0 0.083250832205795683 -0.42040325731733857 0 0.083473758400547826 -0.41809832301262401 0 0.080740834154632735 -0.40790532549245251 0 0.082843901300202666 -0.40857164684883068 0 0.082311882548445348 -0.40627984796582051 0 0.080740834154632735 -0.40790532549245251 0 0.082311882548445348 -0.40627984796582051 0 0.079866642716933778 -0.40544793974275489 0 0.078113197714817006 -0.40839448033305731 0 0.080740834154632735 -0.40790532549245251 0 0.079866642716933778 -0.40544793974275489 0 0.078113197714817006 -0.40839448033305731 0 0.080740834154632735 -0.40790532549245251 0 0.080568546492764889 -0.41083271257179882 0 0.080740834154632735 -0.40790532549245251 0 0.080568546492764889 -0.41083271257179882 0 0.082843901300202666 -0.40857164684883068 0 0.077521347857375328 -0.41208538320752042 0 0.079793979718542601 -0.41474778589886502 0 0.080568546492764889 -0.41083271257179882 0 0.079793979718542601 -0.41474778589886502 0 0.080568546492764889 -0.41083271257179882 0 0.082737644433641871 -0.41344044189385742 0 0.077521347857375328 -0.41208538320752042 0 0.078113197714817006 -0.40839448033305731 0 0.080568546492764889 -0.41083271257179882 0 0.082737644433641871 -0.41344044189385742 0 0.084812810302905731 -0.41390049925826522 0 0.083317497254351669 -0.41100918873865638 0 0.084812810302905731 -0.41390049925826522 0 0.083317497254351669 -0.41100918873865638 0 0.086501991900628086 -0.41366637718621663 0 0.085805338894548611 -0.41112787900343878 0 0.083317497254351669 -0.41100918873865638 0 0.086501991900628086 -0.41366637718621663 0 0.085805338894548611 -0.41112787900343878 0 0.083317497254351669 -0.41100918873865638 0 0.084656044845450848 -0.40946169690719908 0 0.080568546492764889 -0.41083271257179882 0 0.082737644433641871 -0.41344044189385742 0 0.083317497254351669 -0.41100918873865638 0 0.083317497254351669 -0.41100918873865638 0 0.082843901300202666 -0.40857164684883068 0 0.084656044845450848 -0.40946169690719908 0 0.080568546492764889 -0.41083271257179882 0 0.083317497254351669 -0.41100918873865638 0 0.082843901300202666 -0.40857164684883068 0 0.085805338894548611 -0.41112787900343878 0 0.084656044845450848 -0.40946169690719908 0 0.086397645968795136 -0.40866304716104362 0 0.084656044845450848 -0.40946169690719908 0 0.08461276317797746 -0.40756507625797012 0 0.086397645968795136 -0.40866304716104362 0 0.082843901300202666 -0.40857164684883068 0 0.084656044845450848 -0.40946169690719908 0 0.08461276317797746 -0.40756507625797012 0 0.08461276317797746 -0.40756507625797012 0 0.086699966868620096 -0.40686809837984872 0 0.084767137536350734 -0.40554612028507808 0 0.08461276317797746 -0.40756507625797012 0 0.086699966868620096 -0.40686809837984872 0 0.086397645968795136 -0.40866304716104362 0 0.082843901300202666 -0.40857164684883068 0 0.08461276317797746 -0.40756507625797012 0 0.082311882548445348 -0.40627984796582051 0 0.08461276317797746 -0.40756507625797012 0 0.082311882548445348 -0.40627984796582051 0 0.084767137536350734 -0.40554612028507808 0 0.089103199848941467 -0.40835623014820149 0 0.091199903534709983 -0.40760962196606237 0 0.087612219294723404 -0.40475882107017891 0 0.086699966868620096 -0.40686809837984872 0 0.086397645968795136 -0.40866304716104362 0 0.089103199848941467 -0.40835623014820149 0 0.086699966868620096 -0.40686809837984872 0 0.089103199848941467 -0.40835623014820149 0 0.087612219294723404 -0.40475882107017891 0 0.085805338894548611 -0.41112787900343878 0 0.086397645968795136 -0.40866304716104362 0 0.087734339571614833 -0.41028203929692753 0 0.086397645968795136 -0.40866304716104362 0 0.089103199848941467 -0.40835623014820149 0 0.087734339571614833 -0.41028203929692753 0 0.089103199848941467 -0.40835623014820149 0 0.087734339571614833 -0.41028203929692753 0 0.088027538659603694 -0.41236139515943121 0 0.089103199848941467 -0.40835623014820149 0 0.088027538659603694 -0.41236139515943121 0 0.091093184437251631 -0.41003885288065561 0 0.088027538659603694 -0.41236139515943121 0 0.090410494275046743 -0.4128354507231104 0 0.091093184437251631 -0.41003885288065561 0 0.085805338894548611 -0.41112787900343878 0 0.087734339571614833 -0.41028203929692753 0 0.088027538659603694 -0.41236139515943121 0 0.085805338894548611 -0.41112787900343878 0 0.086501991900628086 -0.41366637718621663 0 0.088027538659603694 -0.41236139515943121 0 0.086501991900628086 -0.41366637718621663 0 0.088027538659603694 -0.41236139515943121 0 0.088442337402436094 -0.41436356337755031 0 0.088027538659603694 -0.41236139515943121 0 0.090410494275046743 -0.4128354507231104 0 0.088442337402436094 -0.41436356337755031 0 0.090410494275046743 -0.4128354507231104 0 0.093602156408125026 -0.41194159376164502 0 0.092286151016206908 -0.41545865958332112 0 0.090410494275046743 -0.4128354507231104 0 0.093602156408125026 -0.41194159376164502 0 0.091093184437251631 -0.41003885288065561 0 0.091093184437251631 -0.41003885288065561 0 0.092729050361527218 -0.40809912053911013 0 0.091199903534709983 -0.40760962196606237 0 0.089103199848941467 -0.40835623014820149 0 0.091093184437251631 -0.41003885288065561 0 0.091199903534709983 -0.40760962196606237 0 0.093602156408125026 -0.41194159376164502 0 0.091093184437251631 -0.41003885288065561 0 0.092729050361527218 -0.40809912053911013 0 0.092729050361527218 -0.40809912053911013 0 0.091199903534709983 -0.40760962196606237 0 0.093087119392458728 -0.40567073664114689 0 0.091373591728677442 -0.41778198150174228 0 0.092286151016206908 -0.41545865958332112 0 0.091381357529850965 -0.43080073846455691 0 0.088500512658632388 -0.41838964904736381 0 0.089111299858046972 -0.41990860291365778 0 0.087537840524712113 -0.42051421029047797 0 0.088500512658632388 -0.41838964904736381 0 0.089111299858046972 -0.41990860291365778 0 0.090639192636554219 -0.41932053360798799 0 0.089111299858046972 -0.41990860291365778 0 0.089397161181125173 -0.42169375067955889 0 0.090639192636554219 -0.41932053360798799 0 0.089397161181125173 -0.42169375067955889 0 0.087537840524712113 -0.42051421029047797 0 0.087463608161770873 -0.42228048372420252 0 0.089111299858046972 -0.41990860291365778 0 0.089397161181125173 -0.42169375067955889 0 0.087537840524712113 -0.42051421029047797 0 0.08530127616983979 -0.42168611697045649 0 0.087537840524712113 -0.42051421029047797 0 0.087463608161770873 -0.42228048372420252 0 0.085361677048514356 -0.41964711051188303 0 0.08530127616983979 -0.42168611697045649 0 0.087537840524712113 -0.42051421029047797 0 0.088500512658632388 -0.41838964904736381 0 0.087537840524712113 -0.42051421029047797 0 0.086890231727602643 -0.41891963598489401 0 0.085361677048514356 -0.41964711051188303 0 0.087537840524712113 -0.42051421029047797 0 0.086890231727602643 -0.41891963598489401 0 0.088500512658632388 -0.41838964904736381 0 0.086890231727602643 -0.41891963598489401 0 0.086799121281380454 -0.41732006174837721 0 0.08516887540335745 -0.41794153409450813 0 0.086890231727602643 -0.41891963598489401 0 0.086799121281380454 -0.41732006174837721 0 0.085022712191758526 -0.41629541839523942 0 0.086799121281380454 -0.41732006174837721 0 0.086888938761794904 -0.41551248042372591 0 0.086799121281380454 -0.41732006174837721 0 0.086888938761794904 -0.41551248042372591 0 0.088550254302883324 -0.416494571268619 0 0.084812810302905731 -0.41390049925826522 0 0.086501991900628086 -0.41366637718621663 0 0.086888938761794904 -0.41551248042372591 0 0.086501991900628086 -0.41366637718621663 0 0.086888938761794904 -0.41551248042372591 0 0.088442337402436094 -0.41436356337755031 0 0.086888938761794904 -0.41551248042372591 0 0.088442337402436094 -0.41436356337755031 0 0.088550254302883324 -0.416494571268619 0 0.090410494275046743 -0.4128354507231104 0 0.088442337402436094 -0.41436356337755031 0 0.090260593453162466 -0.41563509228501527 0 0.088442337402436094 -0.41436356337755031 0 0.088550254302883324 -0.416494571268619 0 0.090260593453162466 -0.41563509228501527 0 0.088500512658632388 -0.41838964904736381 0 0.088550254302883324 -0.416494571268619 0 0.090260593453162466 -0.41563509228501527 0 0.088500512658632388 -0.41838964904736381 0 0.086799121281380454 -0.41732006174837721 0 0.088550254302883324 -0.416494571268619 0 0.088500512658632388 -0.41838964904736381 0 0.091373591728677442 -0.41778198150174228 0 0.090260593453162466 -0.41563509228501527 0 0.091373591728677442 -0.41778198150174228 0 0.090260593453162466 -0.41563509228501527 0 0.092286151016206908 -0.41545865958332112 0 0.090410494275046743 -0.4128354507231104 0 0.090260593453162466 -0.41563509228501527 0 0.092286151016206908 -0.41545865958332112 0 0.088500512658632388 -0.41838964904736381 0 0.091373591728677442 -0.41778198150174228 0 0.090639192636554219 -0.41932053360798799 0 0.091373591728677442 -0.41778198150174228 0 0.090639192636554219 -0.41932053360798799 0 0.091381357529850965 -0.43080073846455691 0 0.089397161181125173 -0.42169375067955889 0 0.089552810058654467 -0.42590832554836239 0 0.091381357529850965 -0.43080073846455691 0 0.089397161181125173 -0.42169375067955889 0 0.090639192636554219 -0.41932053360798799 0 0.091381357529850965 -0.43080073846455691 0 0.089552810058654467 -0.42590832554836239 0 0.087759173652759009 -0.42709084405742459 0 0.091381357529850965 -0.43080073846455691 0 0.087759173652759009 -0.42709084405742459 0 0.088112940383161156 -0.42976667527517037 0 0.091381357529850965 -0.43080073846455691 0 0.089552810058654467 -0.42590832554836239 0 0.087759173652759009 -0.42709084405742459 0 0.08762166470244559 -0.4252567740453369 0 0.087759173652759009 -0.42709084405742459 0 0.08762166470244559 -0.4252567740453369 0 0.084953947867752663 -0.42670114309120638 0 0.087759173652759009 -0.42709084405742459 0 0.084953947867752663 -0.42670114309120638 0 0.088112940383161156 -0.42976667527517037 0 0.089397161181125173 -0.42169375067955889 0 0.089552810058654467 -0.42590832554836239 0 0.088246154304914365 -0.42373104276908108 0 0.089397161181125173 -0.42169375067955889 0 0.088246154304914365 -0.42373104276908108 0 0.087463608161770873 -0.42228048372420252 0 0.089552810058654467 -0.42590832554836239 0 0.088246154304914365 -0.42373104276908108 0 0.08762166470244559 -0.4252567740453369 0 0.08762166470244559 -0.4252567740453369 0 0.086339066655919852 -0.42374030485233832 0 0.084953947867752663 -0.42670114309120638 0 0.088246154304914365 -0.42373104276908108 0 0.08762166470244559 -0.4252567740453369 0 0.086339066655919852 -0.42374030485233832 0 0.08530127616983979 -0.42168611697045649 0 0.086339066655919852 -0.42374030485233832 0 0.087463608161770873 -0.42228048372420252 0 0.088246154304914365 -0.42373104276908108 0 0.086339066655919852 -0.42374030485233832 0 0.087463608161770873 -0.42228048372420252 0 0.086339066655919852 -0.42374030485233832 0 0.082072273976905211 -0.42333019606279598 0 0.084953947867752663 -0.42670114309120638 0 0.08530127616983979 -0.42168611697045649 0 0.086339066655919852 -0.42374030485233832 0 0.082072273976905211 -0.42333019606279598 0 0.078115980389577927 -0.430319001157145 0 0.082072273976905211 -0.42333019606279598 0 0.084953947867752663 -0.42670114309120638 0 0.076258270757399521 -0.42301510720026297 0 0.078115980389577927 -0.430319001157145 0 0.082072273976905211 -0.42333019606279598 0 0.075519439466956426 -0.44414390698556622 0 0.078115980389577927 -0.430319001157145 0 0.083867785047200091 -0.43549234044607821 0 0.084953947867752663 -0.42670114309120638 0 0.083867785047200091 -0.43549234044607821 0 0.088112940383161156 -0.42976667527517037 0 0.078115980389577927 -0.430319001157145 0 0.084953947867752663 -0.42670114309120638 0 0.083867785047200091 -0.43549234044607821 0 0.083867785047200091 -0.43549234044607821 0 0.088112940383161156 -0.42976667527517037 0 0.091381357529850965 -0.43080073846455691 0 0.10756772139041899 -0.44056045500808738 0 0.091381357529850965 -0.43080073846455691 0 0.1023468305347968 -0.43178095145792039 0 0.091381357529850965 -0.43080073846455691 0 0.1023468305347968 -0.43178095145792039 0 0.098944085842015903 -0.41968978869295293 0 0.10756772139041899 -0.44056045500808738 0 0.1023468305347968 -0.43178095145792039 0 0.1126421547474498 -0.43290646570082081 0 0.1330549079819319 -0.42476894690306749 0 0.1203966273334699 -0.44008063856667368 0 0.11742886150221241 -0.42353132176743741 0 0.1203966273334699 -0.44008063856667368 0 0.1126421547474498 -0.43290646570082081 0 0.11742886150221241 -0.42353132176743741 0 0.1023468305347968 -0.43178095145792039 0 0.1126421547474498 -0.43290646570082081 0 0.11742886150221241 -0.42353132176743741 0 0.1023468305347968 -0.43178095145792039 0 0.11742886150221241 -0.42353132176743741 0 0.11638502573463951 -0.40508953282460403 0 0.12574661367947601 -0.4154995545671244 0 0.11742886150221241 -0.42353132176743741 0 0.11638502573463951 -0.40508953282460403 0 0.091381357529850965 -0.43080073846455691 0 0.098944085842015903 -0.41968978869295293 0 0.095836739094833687 -0.4054701515656764 0 0.1023468305347968 -0.43178095145792039 0 0.1051374748300425 -0.41124979254713429 0 0.11638502573463951 -0.40508953282460403 0 0.1023468305347968 -0.43178095145792039 0 0.1051374748300425 -0.41124979254713429 0 0.098944085842015903 -0.41968978869295293 0 0.1023468305347968 -0.43178095145792039 0 0.11638502573463951 -0.40508953282460403 0 0.1051374748300425 -0.41124979254713429 0 0.098944085842015903 -0.41968978869295293 0 0.095836739094833687 -0.4054701515656764 0 0.093602156408125026 -0.41194159376164502 0 0.092729050361527218 -0.40809912053911013 0 0.095836739094833687 -0.4054701515656764 0 0.092729050361527218 -0.40809912053911013 0 0.095836739094833687 -0.4054701515656764 0 0.093087119392458728 -0.40567073664114689 0 0.095836739094833687 -0.4054701515656764 0 0.096916133837634935 -0.40192608356999349 0 0.093087119392458728 -0.40567073664114689 0 0.096916133837634935 -0.40192608356999349 0 0.1050722245985022 -0.39915304096526649 0 0.098827634092790342 -0.38247277613285868 0 0.096916133837634935 -0.40192608356999349 0 0.11638502573463951 -0.40508953282460403 0 0.1050722245985022 -0.39915304096526649 0 0.098827634092790342 -0.38247277613285868 0 0.1051374748300425 -0.41124979254713429 0 0.096916133837634935 -0.40192608356999349 0 0.11638502573463951 -0.40508953282460403 0 0.096916133837634935 -0.40192608356999349 0 0.1050722245985022 -0.39915304096526649 0 0.11638502573463951 -0.40508953282460403 0 0.1051374748300425 -0.41124979254713429 0 0.095836739094833687 -0.4054701515656764 0 0.096916133837634935 -0.40192608356999349 0 0.1050722245985022 -0.39915304096526649 0 0.11204456165019119 -0.39279030484274863 0 0.098827634092790342 -0.38247277613285868 0 0.11638502573463951 -0.40508953282460403 0 0.11204456165019119 -0.39279030484274863 0 0.120033300594829 -0.3981529123975216 0 0.1050722245985022 -0.39915304096526649 0 0.11638502573463951 -0.40508953282460403 0 0.11204456165019119 -0.39279030484274863 0 0.13483216801571579 -0.40808696066011851 0 0.11638502573463951 -0.40508953282460403 0 0.120033300594829 -0.3981529123975216 0 0.11204456165019119 -0.39279030484274863 0 0.120033300594829 -0.3981529123975216 0 0.11638502573463951 -0.40508953282460403 0 0.120033300594829 -0.3981529123975216 0 0.11204456165019119 -0.39279030484274863 0 0.120033300594829 -0.3981529123975216 0 0.11945212154730631 -0.38007557046755591 0 0.11287044274024299 -0.38019954863407229 0 0.098827634092790342 -0.38247277613285868 0 0.12115745367068601 -0.36545954309312878 0 0.132799474710939 -0.37388004164538879 0 0.120033300594829 -0.3981529123975216 0 0.11945212154730631 -0.38007557046755591 0 0.11945212154730631 -0.38007557046755591 0 0.11287044274024299 -0.38019954863407229 0 0.12115745367068601 -0.36545954309312878 0 0.11204456165019119 -0.39279030484274863 0 0.11945212154730631 -0.38007557046755591 0 0.11287044274024299 -0.38019954863407229 0 0.11204456165019119 -0.39279030484274863 0 0.11287044274024299 -0.38019954863407229 0 0.098827634092790342 -0.38247277613285868 0 0.098827634092790342 -0.38247277613285868 0 0.077447241940630199 -0.39876263431538489 0 0.098827634092790342 -0.38247277613285868 0 0.077447241940630199 -0.39876263431538489 0 0.072777507770734634 -0.38495136682711062 0 0.098827634092790342 -0.38247277613285868 0 0.072777507770734634 -0.38495136682711062 0 0.08003454978569044 -0.37307578383754669 0 0.096916133837634935 -0.40192608356999349 0 0.077447241940630199 -0.39876263431538489 0 0.096916133837634935 -0.40192608356999349 0 0.098827634092790342 -0.38247277613285868 0 0.077447241940630199 -0.39876263431538489 0 0.096916133837634935 -0.40192608356999349 0 0.087612219294723404 -0.40475882107017891 0 0.077447241940630199 -0.39876263431538489 0 0.096916133837634935 -0.40192608356999349 0 0.093087119392458728 -0.40567073664114689 0 0.087612219294723404 -0.40475882107017891 0 0.091199903534709983 -0.40760962196606237 0 0.093087119392458728 -0.40567073664114689 0 0.087612219294723404 -0.40475882107017891 0 0.086699966868620096 -0.40686809837984872 0 0.087612219294723404 -0.40475882107017891 0 0.084767137536350734 -0.40554612028507808 0 0.087612219294723404 -0.40475882107017891 0 0.081003421934798023 -0.40348020451073119 0 0.077447241940630199 -0.39876263431538489 0 0.087612219294723404 -0.40475882107017891 0 0.084767137536350734 -0.40554612028507808 0 0.081003421934798023 -0.40348020451073119 0 0.082311882548445348 -0.40627984796582051 0 0.084767137536350734 -0.40554612028507808 0 0.081003421934798023 -0.40348020451073119 0 0.078113197714817006 -0.40839448033305731 0 0.079866642716933778 -0.40544793974275489 0 0.077510451371998371 -0.40380438143930852 0 0.081003421934798023 -0.40348020451073119 0 0.079866642716933778 -0.40544793974275489 0 0.077510451371998371 -0.40380438143930852 0 0.082311882548445348 -0.40627984796582051 0 0.081003421934798023 -0.40348020451073119 0 0.079866642716933778 -0.40544793974275489 0 0.077447241940630199 -0.39876263431538489 0 0.068283923690796944 -0.39727371073203349 0 0.072777507770734634 -0.38495136682711062 0 0.07576374078453077 -0.40004530466529381 0 0.068283923690796944 -0.39727371073203349 0 0.05914768460240976 -0.41270518465408812 0 0.077447241940630199 -0.39876263431538489 0 0.068283923690796944 -0.39727371073203349 0 0.072902369868226319 -0.41035980402799371 0 0.077510451371998371 -0.40380438143930852 0 0.07576374078453077 -0.40004530466529381 0 0.077447241940630199 -0.39876263431538489 0 0.07576374078453077 -0.40004530466529381 0 0.068283923690796944 -0.39727371073203349 0 0.081003421934798023 -0.40348020451073119 0 0.077510451371998371 -0.40380438143930852 0 0.07576374078453077 -0.40004530466529381 0 0.081003421934798023 -0.40348020451073119 0 0.077447241940630199 -0.39876263431538489 0 0.07576374078453077 -0.40004530466529381 0 0.077447241940630199 -0.39876263431538489 0 0.07576374078453077 -0.40004530466529381 0 0.07576374078453077 -0.40004530466529381 0 0.068283923690796944 -0.39727371073203349 0 0.072777507770734634 -0.38495136682711062 0 0.08003454978569044 -0.37307578383754669 0 0.052758871425075148 -0.37248631831859091 0 0.068283923690796944 -0.39727371073203349 0 0.072777507770734634 -0.38495136682711062 0 0.05931282568942705 -0.38563697762625182 0 0.05931282568942705 -0.38563697762625182 0 0.04492512069514603 -0.38861826958158219 0 0.052758871425075148 -0.37248631831859091 0 0.072777507770734634 -0.38495136682711062 0 0.05931282568942705 -0.38563697762625182 0 0.052758871425075148 -0.37248631831859091 0 0.068283923690796944 -0.39727371073203349 0 0.05931282568942705 -0.38563697762625182 0 0.04492512069514603 -0.38861826958158219 0 0.068283923690796944 -0.39727371073203349 0 0.058008363885065917 -0.40204999877755909 0 0.0521459646542662 -0.39465149603408839 0 0.068283923690796944 -0.39727371073203349 0 0.04492512069514603 -0.38861826958158219 0 0.068283923690796944 -0.39727371073203349 0 0.0521459646542662 -0.39465149603408839 0 0.04492512069514603 -0.38861826958158219 0 0.068283923690796944 -0.39727371073203349 0 0.0521459646542662 -0.39465149603408839 0 0.068283923690796944 -0.39727371073203349 0 0.058008363885065917 -0.40204999877755909 0 0.05914768460240976 -0.41270518465408812 0 0.058008363885065917 -0.40204999877755909 0 0.050303793291460723 -0.40377838680893607 0 0.05914768460240976 -0.41270518465408812 0 0.050303793291460723 -0.40377838680893607 0 0.0521459646542662 -0.39465149603408839 0 0.041826118435083173 -0.40009467798681658 0 0.058008363885065917 -0.40204999877755909 0 0.050303793291460723 -0.40377838680893607 0 0.0521459646542662 -0.39465149603408839 0 0.0521459646542662 -0.39465149603408839 0 0.041826118435083173 -0.40009467798681658 0 0.036008005617735338 -0.39202928133614379 0 0.0521459646542662 -0.39465149603408839 0 0.036008005617735338 -0.39202928133614379 0 0.04492512069514603 -0.38861826958158219 0 0.0521459646542662 -0.39465149603408839 0 0.036008005617735338 -0.39202928133614379 0 0.050303793291460723 -0.40377838680893607 0 0.041826118435083173 -0.40009467798681658 0 0.039849159124468993 -0.41062884830204438 0 0.041826118435083173 -0.40009467798681658 0 0.03055283160947983 -0.40000451330782882 0 0.039849159124468993 -0.41062884830204438 0 0.041826118435083173 -0.40009467798681658 0 0.036008005617735338 -0.39202928133614379 0 0.03055283160947983 -0.40000451330782882 0 0.04492512069514603 -0.38861826958158219 0 0.052758871425075148 -0.37248631831859091 0 0.025483193064459741 -0.37189685279963502 0 0.036008005617735338 -0.39202928133614379 0 0.04492512069514603 -0.38861826958158219 0 0.026678801760061939 -0.38851943734855282 0 0.04492512069514603 -0.38861826958158219 0 0.021566317699495349 -0.37996282843113038 0 0.04492512069514603 -0.38861826958158219 0 0.026678801760061939 -0.38851943734855282 0 0.021566317699495349 -0.37996282843113038 0 0.04492512069514603 -0.38861826958158219 0 0.021566317699495349 -0.37996282843113038 0 0.025483193064459741 -0.37189685279963502 0 0.026678801760061939 -0.38851943734855282 0 0.021566317699495349 -0.37996282843113038 0 0.014832114194533671 -0.38870987531625301 0 0.021566317699495349 -0.37996282843113038 0 0.0075129132930262217 -0.38366991209639822 0 0.0030301478643253899 -0.37674626274827772 0 -0.0017924852961554659 -0.3713073872806788 0 0.021566317699495349 -0.37996282843113038 0 -0.0017924852961554659 -0.3713073872806788 0 0.021566317699495349 -0.37996282843113038 0 0.0030301478643253899 -0.37674626274827772 0 0.014832114194533671 -0.38870987531625301 0 0.0075129132930262217 -0.38366991209639822 0 0.0019270013280409299 -0.39265068081603111 0 0.021566317699495349 -0.37996282843113038 0 0.014832114194533671 -0.38870987531625301 0 0.0075129132930262217 -0.38366991209639822 0 -0.0033287973072917208 -0.38217907348461538 0 0.0075129132930262217 -0.38366991209639822 0 0.0019270013280409299 -0.39265068081603111 0 -0.0033287973072917208 -0.38217907348461538 0 0.0075129132930262217 -0.38366991209639822 0 0.0030301478643253899 -0.37674626274827772 0 0.0019270013280409299 -0.39265068081603111 0 0.0164755368920439 -0.39874651788915261 0 0.0040838551649926324 -0.40920466907649111 0 0.014832114194533671 -0.38870987531625301 0 0.0019270013280409299 -0.39265068081603111 0 0.0164755368920439 -0.39874651788915261 0 0.0164755368920439 -0.39874651788915261 0 0.03055283160947983 -0.40000451330782882 0 0.021082919024718941 -0.41150424164814858 0 0.026678801760061939 -0.38851943734855282 0 0.014832114194533671 -0.38870987531625301 0 0.0164755368920439 -0.39874651788915261 0 0.026678801760061939 -0.38851943734855282 0 0.0164755368920439 -0.39874651788915261 0 0.03055283160947983 -0.40000451330782882 0 0.036008005617735338 -0.39202928133614379 0 0.026678801760061939 -0.38851943734855282 0 0.03055283160947983 -0.40000451330782882 0 0.03055283160947983 -0.40000451330782882 0 0.021082919024718941 -0.41150424164814858 0 0.039849159124468993 -0.41062884830204438 0 0.021082919024718941 -0.41150424164814858 0 0.025650146043074289 -0.42709727339568643 0 0.039849159124468993 -0.41062884830204438 0 0.021082919024718941 -0.41150424164814858 0 0.003915753597516153 -0.42503506544684971 0 0.025650146043074289 -0.42709727339568643 0 0.021082919024718941 -0.41150424164814858 0 0.0040838551649926324 -0.40920466907649111 0 0.003915753597516153 -0.42503506544684971 0 0.0164755368920439 -0.39874651788915261 0 0.021082919024718941 -0.41150424164814858 0 0.0040838551649926324 -0.40920466907649111 0 -0.01293810596702415 -0.44003758409305638 0 0.003915753597516153 -0.42503506544684971 0 0.011944570912173821 -0.44136906130943487 0 0.003915753597516153 -0.42503506544684971 0 0.025650146043074289 -0.42709727339568643 0 0.011944570912173821 -0.44136906130943487 0 0.025650146043074289 -0.42709727339568643 0 0.042531628420288951 -0.4253650646428826 0 0.03457684517927892 -0.44868135902475881 0 0.025650146043074289 -0.42709727339568643 0 0.042531628420288951 -0.4253650646428826 0 0.039849159124468993 -0.41062884830204438 0 0.042531628420288951 -0.4253650646428826 0 0.039849159124468993 -0.41062884830204438 0 0.05914768460240976 -0.41270518465408812 0 0.050303793291460723 -0.40377838680893607 0 0.039849159124468993 -0.41062884830204438 0 0.05914768460240976 -0.41270518465408812 0 0.042531628420288951 -0.4253650646428826 0 0.05914768460240976 -0.41270518465408812 0 0.068116849210106439 -0.42075607456835118 0 0.05914768460240976 -0.41270518465408812 0 0.056522483661813137 -0.42810296826997479 0 0.042531628420288951 -0.4253650646428826 0 0.05914768460240976 -0.41270518465408812 0 0.056522483661813137 -0.42810296826997479 0 0.042531628420288951 -0.4253650646428826 0 0.056522483661813137 -0.42810296826997479 0 0.051262798500409747 -0.44269528586941198 0 0.068430265658369363 -0.43364829907220642 0 0.056522483661813137 -0.42810296826997479 0 0.051262798500409747 -0.44269528586941198 0 0.065640867496588096 -0.45572759305845523 0 0.068430265658369363 -0.43364829907220642 0 0.051262798500409747 -0.44269528586941198 0 0.06361055174583391 -0.48011988098768221 0 0.065640867496588096 -0.45572759305845523 0 0.048359916439712797 -0.46456733066729111 0 0.065640867496588096 -0.45572759305845523 0 0.051262798500409747 -0.44269528586941198 0 0.048359916439712797 -0.46456733066729111 0 0.048359916439712797 -0.46456733066729111 0 0.03457684517927892 -0.44868135902475881 0 0.027967662466811209 -0.47762195774886729 0 0.042531628420288951 -0.4253650646428826 0 0.051262798500409747 -0.44269528586941198 0 0.03457684517927892 -0.44868135902475881 0 0.051262798500409747 -0.44269528586941198 0 0.048359916439712797 -0.46456733066729111 0 0.03457684517927892 -0.44868135902475881 0 0.03457684517927892 -0.44868135902475881 0 0.011944570912173821 -0.44136906130943487 0 0.0081167468260517003 -0.46573914569044872 0 0.025650146043074289 -0.42709727339568643 0 0.03457684517927892 -0.44868135902475881 0 0.011944570912173821 -0.44136906130943487 0 -0.01293810596702415 -0.44003758409305638 0 0.011944570912173821 -0.44136906130943487 0 0.0081167468260517003 -0.46573914569044872 0 0.03457684517927892 -0.44868135902475881 0 0.0081167468260517003 -0.46573914569044872 0 0.027967662466811209 -0.47762195774886729 0 -0.0018920194225578999 -0.5 0 0.0081167468260517003 -0.46573914569044872 0 0.027967662466811209 -0.47762195774886729 0 -0.0018920194225578999 -0.5 0 0.027967662466811209 -0.47762195774886729 0 0.02608470479792746 -0.5 0 0.027967662466811209 -0.47762195774886729 0 0.02608470479792746 -0.5 0 0.045374339602385273 -0.48224495045183469 0 0.02608470479792746 -0.5 0 0.045374339602385273 -0.48224495045183469 0 0.054061429018413043 -0.5 0 0.048359916439712797 -0.46456733066729111 0 0.027967662466811209 -0.47762195774886729 0 0.045374339602385273 -0.48224495045183469 0 0.06361055174583391 -0.48011988098768221 0 0.048359916439712797 -0.46456733066729111 0 0.045374339602385273 -0.48224495045183469 0 0.06361055174583391 -0.48011988098768221 0 0.045374339602385273 -0.48224495045183469 0 0.054061429018413043 -0.5 0 0.093138978170622971 -0.28944385698231861 0 0.070701180784352391 -0.30734267920303371 0 0.076573250625266598 -0.27625448338923569 0 0.093138978170622971 -0.28944385698231861 0 0.070701180784352391 -0.30734267920303371 0 0.095885214313533598 -0.31167630856763118 0 0.070701180784352391 -0.30734267920303371 0 0.076573250625266598 -0.27625448338923569 0 0.055649339470710088 -0.2848634083949021 0 0.076573250625266598 -0.27625448338923569 0 0.055649339470710088 -0.2848634083949021 0 0.061730009144552823 -0.2705233096305853 0 0.076573250625266598 -0.27625448338923569 0 0.066421065785325237 -0.25772010029347731 0 0.061730009144552823 -0.2705233096305853 0 0.066421065785325237 -0.25772010029347731 0 0.082439202585018273 -0.25868810411015081 0 0.07586306690326379 -0.24921320223831089 0 0.076573250625266598 -0.27625448338923569 0 0.066421065785325237 -0.25772010029347731 0 0.082439202585018273 -0.25868810411015081 0 0.066421065785325237 -0.25772010029347731 0 0.066425357970760601 -0.24621353634943091 0 0.07586306690326379 -0.24921320223831089 0 0.082439202585018273 -0.25868810411015081 0 0.07586306690326379 -0.24921320223831089 0 0.09382556341197687 -0.24909979239876801 0 0.082439202585018273 -0.25868810411015081 0 0.093506005481896984 -0.2688720168871781 0 0.09382556341197687 -0.24909979239876801 0 0.093138978170622971 -0.28944385698231861 0 0.076573250625266598 -0.27625448338923569 0 0.093506005481896984 -0.2688720168871781 0 0.076573250625266598 -0.27625448338923569 0 0.082439202585018273 -0.25868810411015081 0 0.093506005481896984 -0.2688720168871781 0 0.093506005481896984 -0.2688720168871781 0 0.10518475520876611 -0.26203290361229581 0 0.110038551082093 -0.27715198891164111 0 0.093138978170622971 -0.28944385698231861 0 0.093506005481896984 -0.2688720168871781 0 0.110038551082093 -0.27715198891164111 0 0.093506005481896984 -0.2688720168871781 0 0.10518475520876611 -0.26203290361229581 0 0.09382556341197687 -0.24909979239876801 0 0.10518475520876611 -0.26203290361229581 0 0.1051166633252886 -0.25055568461537481 0 0.09382556341197687 -0.24909979239876801 0 0.10518475520876611 -0.26203290361229581 0 0.1051166633252886 -0.25055568461537481 0 0.1155298858098245 -0.25445834015236868 0 0.10518475520876611 -0.26203290361229581 0 0.1155298858098245 -0.25445834015236868 0 0.11600937460861289 -0.26670640986472938 0 0.1155298858098245 -0.25445834015236868 0 0.12383087915321001 -0.26110690826341221 0 0.11600937460861289 -0.26670640986472938 0 0.1155298858098245 -0.25445834015236868 0 0.12383087915321001 -0.26110690826341221 0 0.1248312630638693 -0.25185872287740718 0 0.1155298858098245 -0.25445834015236868 0 0.1248312630638693 -0.25185872287740718 0 0.1200052660768718 -0.2446973661781649 0 0.12726001490913411 -0.2735988055416349 0 0.110038551082093 -0.27715198891164111 0 0.11600937460861289 -0.26670640986472938 0 0.12595864474843599 -0.28875554883283161 0 0.12726001490913411 -0.2735988055416349 0 0.110038551082093 -0.27715198891164111 0 0.10518475520876611 -0.26203290361229581 0 0.110038551082093 -0.27715198891164111 0 0.11600937460861289 -0.26670640986472938 0 0.12726001490913411 -0.2735988055416349 0 0.12383087915321001 -0.26110690826341221 0 0.11600937460861289 -0.26670640986472938 0 0.12595864474843599 -0.28875554883283161 0 0.1098977770311549 -0.29751912438599348 0 0.12398376935326461 -0.30400211052051751 0 0.12595864474843599 -0.28875554883283161 0 0.110038551082093 -0.27715198891164111 0 0.1098977770311549 -0.29751912438599348 0 0.093138978170622971 -0.28944385698231861 0 0.110038551082093 -0.27715198891164111 0 0.1098977770311549 -0.29751912438599348 0 0.095885214313533598 -0.31167630856763118 0 0.1098977770311549 -0.29751912438599348 0 0.11334612555891679 -0.31298851280395651 0 0.093138978170622971 -0.28944385698231861 0 0.095885214313533598 -0.31167630856763118 0 0.1098977770311549 -0.29751912438599348 0 0.1098977770311549 -0.29751912438599348 0 0.12398376935326461 -0.30400211052051751 0 0.11334612555891679 -0.31298851280395651 0 0.12398376935326461 -0.30400211052051751 0 0.11334612555891679 -0.31298851280395651 0 0.1244969324359799 -0.32062488420160112 0 0.11334612555891679 -0.31298851280395651 0 0.1244969324359799 -0.32062488420160112 0 0.11246693466065109 -0.33112013634403897 0 0.12797710395461731 -0.33978322319872029 0 0.1244969324359799 -0.32062488420160112 0 0.11246693466065109 -0.33112013634403897 0 0.12797710395461731 -0.33978322319872029 0 0.11246693466065109 -0.33112013634403897 0 0.1084961277756965 -0.34966016430617242 0 0.12797710395461731 -0.33978322319872029 0 0.11246693466065109 -0.33112013634403897 0 0.11246693466065109 -0.33112013634403897 0 0.096503890205183976 -0.3376914867680742 0 0.1084961277756965 -0.34966016430617242 0 0.095885214313533598 -0.31167630856763118 0 0.11246693466065109 -0.33112013634403897 0 0.096503890205183976 -0.3376914867680742 0 0.095885214313533598 -0.31167630856763118 0 0.11334612555891679 -0.31298851280395651 0 0.11246693466065109 -0.33112013634403897 0 0.098827634092790342 -0.38247277613285868 0 0.12115745367068601 -0.36545954309312878 0 0.12115745367068601 -0.36545954309312878 0 0.1084961277756965 -0.34966016430617242 0 0.10380702852700741 -0.36548530823282782 0 0.132799474710939 -0.37388004164538879 0 0.11945212154730631 -0.38007557046755591 0 0.12115745367068601 -0.36545954309312878 0 0.12797710395461731 -0.33978322319872029 0 0.12115745367068601 -0.36545954309312878 0 0.1084961277756965 -0.34966016430617242 0 0.1084961277756965 -0.34966016430617242 0 0.10380702852700741 -0.36548530823282782 0 0.089452149656644983 -0.35742941048958338 0 0.096503890205183976 -0.3376914867680742 0 0.1084961277756965 -0.34966016430617242 0 0.089452149656644983 -0.35742941048958338 0 0.098827634092790342 -0.38247277613285868 0 0.089452149656644983 -0.35742941048958338 0 0.098827634092790342 -0.38247277613285868 0 0.12115745367068601 -0.36545954309312878 0 0.10380702852700741 -0.36548530823282782 0 0.098827634092790342 -0.38247277613285868 0 0.10380702852700741 -0.36548530823282782 0 0.089452149656644983 -0.35742941048958338 0 0.098827634092790342 -0.38247277613285868 0 0.08003454978569044 -0.37307578383754669 0 0.089452149656644983 -0.35742941048958338 0 0.08003454978569044 -0.37307578383754669 0 0.089452149656644983 -0.35742941048958338 0 0.066792909725180843 -0.35444817254514199 0 0.089452149656644983 -0.35742941048958338 0 0.066792909725180843 -0.35444817254514199 0 0.080076665220498722 -0.33238604484630863 0 0.089452149656644983 -0.35742941048958338 0 0.080076665220498722 -0.33238604484630863 0 0.08003454978569044 -0.37307578383754669 0 0.066792909725180843 -0.35444817254514199 0 0.052758871425075148 -0.37248631831859091 0 0.08003454978569044 -0.37307578383754669 0 0.052758871425075148 -0.37248631831859091 0 0.095885214313533598 -0.31167630856763118 0 0.096503890205183976 -0.3376914867680742 0 0.080076665220498722 -0.33238604484630863 0 0.070701180784352391 -0.30734267920303371 0 0.095885214313533598 -0.31167630856763118 0 0.080076665220498722 -0.33238604484630863 0 0.096503890205183976 -0.3376914867680742 0 0.089452149656644983 -0.35742941048958338 0 0.080076665220498722 -0.33238604484630863 0 0.066792909725180843 -0.35444817254514199 0 0.080076665220498722 -0.33238604484630863 0 0.05544296160846466 -0.33918943645429478 0 0.080076665220498722 -0.33238604484630863 0 0.057550849561043053 -0.32135606229706398 0 0.05544296160846466 -0.33918943645429478 0 0.070701180784352391 -0.30734267920303371 0 0.080076665220498722 -0.33238604484630863 0 0.057550849561043053 -0.32135606229706398 0 0.070701180784352391 -0.30734267920303371 0 0.080076665220498722 -0.33238604484630863 0 0.057550849561043053 -0.32135606229706398 0 0.05544296160846466 -0.33918943645429478 0 0.039219197549870938 -0.32411067671099258 0 0.039219197549870938 -0.32411067671099258 0 0.039598742097582379 -0.35008705208587432 0 0.02707152060370821 -0.33964362513049767 0 0.05544296160846466 -0.33918943645429478 0 0.039219197549870938 -0.32411067671099258 0 0.039598742097582379 -0.35008705208587432 0 0.057550849561043053 -0.32135606229706398 0 0.039219197549870938 -0.32411067671099258 0 0.042314242642028529 -0.30375147427069049 0 0.066792909725180843 -0.35444817254514199 0 0.052758871425075148 -0.37248631831859091 0 0.051324778933081072 -0.35697714397232821 0 0.052758871425075148 -0.37248631831859091 0 0.051324778933081072 -0.35697714397232821 0 0.03974837795902416 -0.36384195288086268 0 0.066792909725180843 -0.35444817254514199 0 0.05544296160846466 -0.33918943645429478 0 0.051324778933081072 -0.35697714397232821 0 0.05544296160846466 -0.33918943645429478 0 0.051324778933081072 -0.35697714397232821 0 0.039598742097582379 -0.35008705208587432 0 0.039598742097582379 -0.35008705208587432 0 0.03974837795902416 -0.36384195288086268 0 0.030032525077826219 -0.3611819451573749 0 0.051324778933081072 -0.35697714397232821 0 0.039598742097582379 -0.35008705208587432 0 0.03974837795902416 -0.36384195288086268 0 0.052758871425075148 -0.37248631831859091 0 0.025483193064459741 -0.37189685279963502 0 0.052758871425075148 -0.37248631831859091 0 0.03974837795902416 -0.36384195288086268 0 0.025483193064459741 -0.37189685279963502 0 0.03974837795902416 -0.36384195288086268 0 0.025483193064459741 -0.37189685279963502 0 0.030032525077826219 -0.3611819451573749 0 0.025483193064459741 -0.37189685279963502 0 0.01414940015819326 -0.36442825155316638 0 0.0074257077828567804 -0.36672408181223271 0 0.025483193064459741 -0.37189685279963502 0 0.030032525077826219 -0.3611819451573749 0 0.021340437409558891 -0.36198256911594179 0 0.021340437409558891 -0.36198256911594179 0 0.013072372698965291 -0.35686924578234641 0 0.01414940015819326 -0.36442825155316638 0 0.025483193064459741 -0.37189685279963502 0 0.021340437409558891 -0.36198256911594179 0 0.01414940015819326 -0.36442825155316638 0 0.039598742097582379 -0.35008705208587432 0 0.02393751723819398 -0.35297180166981212 0 0.02707152060370821 -0.33964362513049767 0 0.039598742097582379 -0.35008705208587432 0 0.030032525077826219 -0.3611819451573749 0 0.02393751723819398 -0.35297180166981212 0 0.021340437409558891 -0.36198256911594179 0 0.02393751723819398 -0.35297180166981212 0 0.013072372698965291 -0.35686924578234641 0 0.030032525077826219 -0.3611819451573749 0 0.021340437409558891 -0.36198256911594179 0 0.02393751723819398 -0.35297180166981212 0 0.02393751723819398 -0.35297180166981212 0 0.013072372698965291 -0.35686924578234641 0 0.012455359075845079 -0.34337603238640962 0 0.02393751723819398 -0.35297180166981212 0 0.02707152060370821 -0.33964362513049767 0 0.012455359075845079 -0.34337603238640962 0 -0.0040002244658034706 -0.3400820810183236 0 0.00073220869437371828 -0.3547654393227937 0 0.012455359075845079 -0.34337603238640962 0 0.00073220869437371828 -0.3547654393227937 0 0.013072372698965291 -0.35686924578234641 0 0.0066494843994886321 -0.36149140179456007 0 0.00073220869437371828 -0.3547654393227937 0 0.013072372698965291 -0.35686924578234641 0 0.012455359075845079 -0.34337603238640962 0 -0.0017924852961554659 -0.3713073872806788 0 0.021566317699495349 -0.37996282843113038 0 0.025483193064459741 -0.37189685279963502 0 -0.0017924852961554659 -0.3713073872806788 0 0.025483193064459741 -0.37189685279963502 0 0.0074257077828567804 -0.36672408181223271 0 -0.0017924852961554659 -0.3713073872806788 0 0.025483193064459741 -0.37189685279963502 0 0.01414940015819326 -0.36442825155316638 0 0.0066494843994886321 -0.36149140179456007 0 0.0074257077828567804 -0.36672408181223271 0 0.013072372698965291 -0.35686924578234641 0 0.01414940015819326 -0.36442825155316638 0 0.0066494843994886321 -0.36149140179456007 0 -0.00032887885909539032 -0.36340970159860808 0 0.00073220869437371828 -0.3547654393227937 0 0.0066494843994886321 -0.36149140179456007 0 -0.00032887885909539032 -0.36340970159860808 0 0.0074257077828567804 -0.36672408181223271 0 0.00077806585478472975 -0.36746979302991051 0 -0.00032887885909539032 -0.36340970159860808 0 0.0066494843994886321 -0.36149140179456007 0 0.0074257077828567804 -0.36672408181223271 0 -0.0017924852961554659 -0.3713073872806788 0 0.0074257077828567804 -0.36672408181223271 0 0.00077806585478472975 -0.36746979302991051 0 0.039219197549870938 -0.32411067671099258 0 0.02014678705704866 -0.32767256279939988 0 0.018588825439092939 -0.3056458956970588 0 0.039219197549870938 -0.32411067671099258 0 0.018588825439092939 -0.3056458956970588 0 0.02014678705704866 -0.32767256279939988 0 0.02707152060370821 -0.33964362513049767 0 0.012455359075845079 -0.34337603238640962 0 0.039219197549870938 -0.32411067671099258 0 0.02014678705704866 -0.32767256279939988 0 0.02707152060370821 -0.33964362513049767 0 0.02014678705704866 -0.32767256279939988 0 0.012455359075845079 -0.34337603238640962 0 0.0028960786952263351 -0.32475737615524147 0 -0.0040002244658034706 -0.3400820810183236 0 0.012455359075845079 -0.34337603238640962 0 0.0028960786952263351 -0.32475737615524147 0 -0.0036628431567857921 -0.30790438005404319 0 0.0028960786952263351 -0.32475737615524147 0 0.018588825439092939 -0.3056458956970588 0 0.02014678705704866 -0.32767256279939988 0 0.0028960786952263351 -0.32475737615524147 0 0.018588825439092939 -0.3056458956970588 0 -0.0036628431567857921 -0.30790438005404319 0 -0.0020415466716850409 -0.28718111468312502 0 0.018588825439092939 -0.3056458956970588 0 0.023031434734173298 -0.28898267336212191 0 0.003748626826318064 -0.27421387245355328 0 -0.0020415466716850409 -0.28718111468312502 0 0.023031434734173298 -0.28898267336212191 0 0.018588825439092939 -0.3056458956970588 0 -0.0020415466716850409 -0.28718111468312502 0 0.023031434734173298 -0.28898267336212191 0 0.003748626826318064 -0.27421387245355328 0 -0.0020415466716850409 -0.28718111468312502 0 0.018588825439092939 -0.3056458956970588 0 0.023031434734173298 -0.28898267336212191 0 0.018588825439092939 -0.3056458956970588 0 0.042314242642028529 -0.30375147427069049 0 0.039219197549870938 -0.32411067671099258 0 0.018588825439092939 -0.3056458956970588 0 0.042314242642028529 -0.30375147427069049 0 0.023031434734173298 -0.28898267336212191 0 0.040424812781492361 -0.28901816834153982 0 0.036433012935091887 -0.27666282194708081 0 0.042314242642028529 -0.30375147427069049 0 0.040424812781492361 -0.28901816834153982 0 0.055649339470710088 -0.2848634083949021 0 0.040424812781492361 -0.28901816834153982 0 0.055649339470710088 -0.2848634083949021 0 0.036433012935091887 -0.27666282194708081 0 0.023031434734173298 -0.28898267336212191 0 0.042314242642028529 -0.30375147427069049 0 0.040424812781492361 -0.28901816834153982 0 0.023031434734173298 -0.28898267336212191 0 0.042314242642028529 -0.30375147427069049 0 0.070701180784352391 -0.30734267920303371 0 0.042314242642028529 -0.30375147427069049 0 0.055649339470710088 -0.2848634083949021 0 0.070701180784352391 -0.30734267920303371 0 0.057550849561043053 -0.32135606229706398 0 0.042314242642028529 -0.30375147427069049 0 0.066421065785325237 -0.25772010029347731 0 0.048082828149872851 -0.26301548523524942 0 0.061730009144552823 -0.2705233096305853 0 0.066421065785325237 -0.25772010029347731 0 0.048082828149872851 -0.26301548523524942 0 0.053739637151281869 -0.24409807423520441 0 0.055649339470710088 -0.2848634083949021 0 0.048082828149872851 -0.26301548523524942 0 0.061730009144552823 -0.2705233096305853 0 0.055649339470710088 -0.2848634083949021 0 0.048082828149872851 -0.26301548523524942 0 0.036433012935091887 -0.27666282194708081 0 0.048082828149872851 -0.26301548523524942 0 0.036433012935091887 -0.27666282194708081 0 0.036325322236390338 -0.26135161377547561 0 0.036433012935091887 -0.27666282194708081 0 0.036325322236390338 -0.26135161377547561 0 0.024884371821047031 -0.26453156143760409 0 0.036325322236390338 -0.26135161377547561 0 0.024884371821047031 -0.26453156143760409 0 0.035550936280495569 -0.24950223657954079 0 0.048082828149872851 -0.26301548523524942 0 0.035550936280495569 -0.24950223657954079 0 0.053739637151281869 -0.24409807423520441 0 0.048082828149872851 -0.26301548523524942 0 0.036325322236390338 -0.26135161377547561 0 0.035550936280495569 -0.24950223657954079 0 0.024884371821047031 -0.26453156143760409 0 0.016658201389616701 -0.25336290922023108 0 0.035550936280495569 -0.24950223657954079 0 0.024884371821047031 -0.26453156143760409 0 0.016658201389616701 -0.25336290922023108 0 0.01206301648672764 -0.26445353613085171 0 0.036433012935091887 -0.27666282194708081 0 0.024884371821047031 -0.26453156143760409 0 0.019301271230151639 -0.27448228798536251 0 0.023031434734173298 -0.28898267336212191 0 0.036433012935091887 -0.27666282194708081 0 0.019301271230151639 -0.27448228798536251 0 0.024884371821047031 -0.26453156143760409 0 0.019301271230151639 -0.27448228798536251 0 0.01206301648672764 -0.26445353613085171 0 0.023031434734173298 -0.28898267336212191 0 0.019301271230151639 -0.27448228798536251 0 0.003748626826318064 -0.27421387245355328 0 0.019301271230151639 -0.27448228798536251 0 0.003748626826318064 -0.27421387245355328 0 0.01206301648672764 -0.26445353613085171 0 0.003748626826318064 -0.27421387245355328 0 0.01206301648672764 -0.26445353613085171 0 0.00156694213917784 -0.257089728430478 0 0.016658201389616701 -0.25336290922023108 0 0.00156694213917784 -0.257089728430478 0 0.0056956609450451471 -0.2455021219393467 0 0.016658201389616701 -0.25336290922023108 0 0.01206301648672764 -0.26445353613085171 0 0.00156694213917784 -0.257089728430478 0 -0.0056769124435055267 -0.2498402483549487 0 0.00156694213917784 -0.257089728430478 0 0.0056956609450451471 -0.2455021219393467 0 0.0056956609450451471 -0.2455021219393467 0 0.0011048952862743721 -0.2301488496309107 0 0.020188280665207031 -0.23909827080356549 0 0.016658201389616701 -0.25336290922023108 0 0.0056956609450451471 -0.2455021219393467 0 0.020188280665207031 -0.23909827080356549 0 -0.0051559884870187138 -0.2407307696715815 0 0.0056956609450451471 -0.2455021219393467 0 0.0011048952862743721 -0.2301488496309107 0 0.0011048952862743721 -0.2301488496309107 0 0.01270465227956703 -0.22202949956774429 0 0.020188280665207031 -0.23909827080356549 0 -0.0059761213381229446 -0.2188067746504132 0 0.0011048952862743721 -0.2301488496309107 0 0.01270465227956703 -0.22202949956774429 0 0.03001467872053588 -0.2263163548150661 0 0.020188280665207031 -0.23909827080356549 0 0.039324224753687041 -0.23631051779401679 0 0.01270465227956703 -0.22202949956774429 0 0.03001467872053588 -0.2263163548150661 0 0.020188280665207031 -0.23909827080356549 0 0.016658201389616701 -0.25336290922023108 0 0.020188280665207031 -0.23909827080356549 0 0.035550936280495569 -0.24950223657954079 0 0.0057136835058208182 -0.19152004318334401 0 0.01804900831253092 -0.19300775811554979 0 0.0080086473810049609 -0.17968149299165809 0 -0.0036762998895434121 -0.19595119679920611 0 0.0057136835058208182 -0.19152004318334401 0 0.00624130957561369 -0.20495453016200471 0 0.0057136835058208182 -0.19152004318334401 0 0.00624130957561369 -0.20495453016200471 0 0.01804900831253092 -0.19300775811554979 0 0.01270465227956703 -0.22202949956774429 0 0.00624130957561369 -0.20495453016200471 0 0.0255937210660915 -0.20744239636662981 0 -0.0059761213381229446 -0.2188067746504132 0 0.01270465227956703 -0.22202949956774429 0 0.00624130957561369 -0.20495453016200471 0 0.01270465227956703 -0.22202949956774429 0 0.03001467872053588 -0.2263163548150661 0 0.0255937210660915 -0.20744239636662981 0 0.00624130957561369 -0.20495453016200471 0 0.0255937210660915 -0.20744239636662981 0 0.01804900831253092 -0.19300775811554979 0 0.0255937210660915 -0.20744239636662981 0 0.03082963319012565 -0.19427700566890399 0 0.01804900831253092 -0.19300775811554979 0 0.03082963319012565 -0.19427700566890399 0 0.01804900831253092 -0.19300775811554979 0 0.03078592753196982 -0.18180353024477111 0 0.0255937210660915 -0.20744239636662981 0 0.03082963319012565 -0.19427700566890399 0 0.048889875849910377 -0.19485433794866519 0 0.03082963319012565 -0.19427700566890399 0 0.048889875849910377 -0.19485433794866519 0 0.03078592753196982 -0.18180353024477111 0 0.0255937210660915 -0.20744239636662981 0 0.048889875849910377 -0.19485433794866519 0 0.048337668514720003 -0.22132819504400919 0 0.03001467872053588 -0.2263163548150661 0 0.0255937210660915 -0.20744239636662981 0 0.048337668514720003 -0.22132819504400919 0 0.0255937210660915 -0.20744239636662981 0 0.048337668514720003 -0.22132819504400919 0 0.048337668514720003 -0.22132819504400919 0 0.069488195190435059 -0.22052463214119589 0 0.064485075730433411 -0.20596370521464261 0 0.048889875849910377 -0.19485433794866519 0 0.048337668514720003 -0.22132819504400919 0 0.064485075730433411 -0.20596370521464261 0 0.020188280665207031 -0.23909827080356549 0 0.039324224753687041 -0.23631051779401679 0 0.035550936280495569 -0.24950223657954079 0 0.039324224753687041 -0.23631051779401679 0 0.035550936280495569 -0.24950223657954079 0 0.053739637151281869 -0.24409807423520441 0 0.03001467872053588 -0.2263163548150661 0 0.039324224753687041 -0.23631051779401679 0 0.048337668514720003 -0.22132819504400919 0 0.048337668514720003 -0.22132819504400919 0 0.053739637151281869 -0.24409807423520441 0 0.071081615963348485 -0.2352139937213886 0 0.048337668514720003 -0.22132819504400919 0 0.071081615963348485 -0.2352139937213886 0 0.039324224753687041 -0.23631051779401679 0 0.048337668514720003 -0.22132819504400919 0 0.053739637151281869 -0.24409807423520441 0 0.066421065785325237 -0.25772010029347731 0 0.053739637151281869 -0.24409807423520441 0 0.066425357970760601 -0.24621353634943091 0 0.053739637151281869 -0.24409807423520441 0 0.066425357970760601 -0.24621353634943091 0 0.071081615963348485 -0.2352139937213886 0 0.066425357970760601 -0.24621353634943091 0 0.071081615963348485 -0.2352139937213886 0 0.07586306690326379 -0.24921320223831089 0 0.071081615963348485 -0.2352139937213886 0 0.09382556341197687 -0.24909979239876801 0 0.084132892389972652 -0.2316588821370523 0 0.09382556341197687 -0.24909979239876801 0 0.099623246078296146 -0.23642935744378149 0 0.071081615963348485 -0.2352139937213886 0 0.084132892389972652 -0.2316588821370523 0 0.09382556341197687 -0.24909979239876801 0 0.071081615963348485 -0.2352139937213886 0 0.07586306690326379 -0.24921320223831089 0 0.09382556341197687 -0.24909979239876801 0 0.084132892389972652 -0.2316588821370523 0 0.069488195190435059 -0.22052463214119589 0 0.08103508477967282 -0.2078534738986216 0 0.084132892389972652 -0.2316588821370523 0 0.08103508477967282 -0.2078534738986216 0 0.09667332885664949 -0.2201664528031704 0 0.084132892389972652 -0.2316588821370523 0 0.08103508477967282 -0.2078534738986216 0 0.084132892389972652 -0.2316588821370523 0 0.099623246078296146 -0.23642935744378149 0 0.09667332885664949 -0.2201664528031704 0 0.048337668514720003 -0.22132819504400919 0 0.071081615963348485 -0.2352139937213886 0 0.069488195190435059 -0.22052463214119589 0 0.071081615963348485 -0.2352139937213886 0 0.084132892389972652 -0.2316588821370523 0 0.069488195190435059 -0.22052463214119589 0 0.069488195190435059 -0.22052463214119589 0 0.064485075730433411 -0.20596370521464261 0 0.08103508477967282 -0.2078534738986216 0 0.048889875849910377 -0.19485433794866519 0 0.064485075730433411 -0.20596370521464261 0 0.077937277169373001 -0.184048065660191 0 0.064485075730433411 -0.20596370521464261 0 0.08103508477967282 -0.2078534738986216 0 0.077937277169373001 -0.184048065660191 0 0.08103508477967282 -0.2078534738986216 0 0.100579454953428 -0.20446134909981081 0 0.098646552287984468 -0.1871449832760296 0 0.08103508477967282 -0.2078534738986216 0 0.077937277169373001 -0.184048065660191 0 0.08103508477967282 -0.2078534738986216 0 0.098646552287984468 -0.1871449832760296 0 0.077937277169373001 -0.184048065660191 0 0.08103508477967282 -0.2078534738986216 0 0.100579454953428 -0.20446134909981081 0 0.09667332885664949 -0.2201664528031704 0 0.100579454953428 -0.20446134909981081 0 0.110574087556307 -0.21210728566887979 0 0.09667332885664949 -0.2201664528031704 0 0.100579454953428 -0.20446134909981081 0 0.1111973242424532 -0.1977776213940331 0 0.110574087556307 -0.21210728566887979 0 0.100579454953428 -0.20446134909981081 0 0.1111973242424532 -0.1977776213940331 0 0.098646552287984468 -0.1871449832760296 0 0.1205952761010651 -0.17971544103377821 0 0.12559125031348151 -0.2054590478916673 0 0.1111973242424532 -0.1977776213940331 0 0.1205952761010651 -0.17971544103377821 0 0.098646552287984468 -0.1871449832760296 0 0.1111973242424532 -0.1977776213940331 0 0.1205952761010651 -0.17971544103377821 0 0.12559125031348151 -0.2054590478916673 0 0.110574087556307 -0.21210728566887979 0 0.1184344571780005 -0.221831843401089 0 0.12559125031348151 -0.2054590478916673 0 0.1111973242424532 -0.1977776213940331 0 0.110574087556307 -0.21210728566887979 0 0.12559125031348151 -0.2054590478916673 0 0.1184344571780005 -0.221831843401089 0 0.13058722452589869 -0.2312026547495564 0 0.12559125031348151 -0.2054590478916673 0 0.110574087556307 -0.21210728566887979 0 0.1184344571780005 -0.221831843401089 0 0.10731201464071 -0.22653881433522649 0 0.1189971638902782 -0.23326468930093289 0 0.11067901384517929 -0.24055651837309741 0 0.10731201464071 -0.22653881433522649 0 0.1184344571780005 -0.221831843401089 0 0.1189971638902782 -0.23326468930093289 0 0.10731201464071 -0.22653881433522649 0 0.1184344571780005 -0.221831843401089 0 0.1189971638902782 -0.23326468930093289 0 0.13058722452589869 -0.2312026547495564 0 0.1189971638902782 -0.23326468930093289 0 0.1200052660768718 -0.2446973661781649 0 0.12718437250906139 -0.2395225039249424 0 0.1248312630638693 -0.25185872287740718 0 0.1200052660768718 -0.2446973661781649 0 0.12718437250906139 -0.2395225039249424 0 0.1155298858098245 -0.25445834015236868 0 0.1200052660768718 -0.2446973661781649 0 0.11067901384517929 -0.24055651837309741 0 0.1051166633252886 -0.25055568461537481 0 0.1155298858098245 -0.25445834015236868 0 0.11067901384517929 -0.24055651837309741 0 0.1189971638902782 -0.23326468930093289 0 0.1200052660768718 -0.2446973661781649 0 0.11067901384517929 -0.24055651837309741 0 0.11067901384517929 -0.24055651837309741 0 0.099623246078296146 -0.23642935744378149 0 0.10731201464071 -0.22653881433522649 0 0.1051166633252886 -0.25055568461537481 0 0.11067901384517929 -0.24055651837309741 0 0.099623246078296146 -0.23642935744378149 0 0.1051166633252886 -0.25055568461537481 0 0.09382556341197687 -0.24909979239876801 0 0.099623246078296146 -0.23642935744378149 0 0.099623246078296146 -0.23642935744378149 0 0.09667332885664949 -0.2201664528031704 0 0.10731201464071 -0.22653881433522649 0 0.110574087556307 -0.21210728566887979 0 0.09667332885664949 -0.2201664528031704 0 0.10731201464071 -0.22653881433522649 0 0.10575589752173049 -0.14252553088826189 0 0.1109357018492097 -0.1575702320050939 0 0.091338681898991747 -0.14700374059421151 0 0.1109357018492097 -0.1575702320050939 0 0.096290168617584021 -0.15977041220972049 0 0.091338681898991747 -0.14700374059421151 0 0.1109357018492097 -0.1575702320050939 0 0.091338681898991747 -0.14700374059421151 0 0.10575589752173049 -0.14252553088826189 0 0.091338681898991747 -0.14700374059421151 0 0.091654332423878201 -0.12963424345288041 0 0.10575589752173049 -0.14252553088826189 0 0.11060332767623229 -0.12822822731799971 0 0.091654332423878201 -0.12963424345288041 0 0.11060332767623229 -0.12822822731799971 0 0.12502682387673331 -0.14148298094118911 0 0.12907740542747331 -0.1295625291261383 0 0.11060332767623229 -0.12822822731799971 0 0.1155993018886487 -0.15397183417588889 0 0.11060332767623229 -0.12822822731799971 0 0.1155993018886487 -0.15397183417588889 0 0.12502682387673331 -0.14148298094118911 0 0.10575589752173049 -0.14252553088826189 0 0.11060332767623229 -0.12822822731799971 0 0.1155993018886487 -0.15397183417588889 0 0.10575589752173049 -0.14252553088826189 0 0.1155993018886487 -0.15397183417588889 0 0.1109357018492097 -0.1575702320050939 0 0.1155993018886487 -0.15397183417588889 0 0.12591696316659029 -0.1624906702203526 0 0.1291580076185154 -0.15190862650104869 0 0.1155993018886487 -0.15397183417588889 0 0.1291580076185154 -0.15190862650104869 0 0.12502682387673331 -0.14148298094118911 0 0.1155993018886487 -0.15397183417588889 0 0.1205952761010651 -0.17971544103377821 0 0.1155993018886487 -0.15397183417588889 0 0.1205952761010651 -0.17971544103377821 0 0.12591696316659029 -0.1624906702203526 0 0.1109357018492097 -0.1575702320050939 0 0.1205952761010651 -0.17971544103377821 0 0.1039706447104199 -0.17091006827324809 0 0.1155993018886487 -0.15397183417588889 0 0.1109357018492097 -0.1575702320050939 0 0.1205952761010651 -0.17971544103377821 0 0.098646552287984468 -0.1871449832760296 0 0.1039706447104199 -0.17091006827324809 0 0.091548466703106554 -0.17225030181196829 0 0.1205952761010651 -0.17971544103377821 0 0.098646552287984468 -0.1871449832760296 0 0.1039706447104199 -0.17091006827324809 0 0.1109357018492097 -0.1575702320050939 0 0.1039706447104199 -0.17091006827324809 0 0.096290168617584021 -0.15977041220972049 0 0.1039706447104199 -0.17091006827324809 0 0.096290168617584021 -0.15977041220972049 0 0.091548466703106554 -0.17225030181196829 0 0.096290168617584021 -0.15977041220972049 0 0.091548466703106554 -0.17225030181196829 0 0.074839469559073168 -0.1602426574217603 0 0.098646552287984468 -0.1871449832760296 0 0.091548466703106554 -0.17225030181196829 0 0.077937277169373001 -0.184048065660191 0 0.091548466703106554 -0.17225030181196829 0 0.077937277169373001 -0.184048065660191 0 0.074839469559073168 -0.1602426574217603 0 0.048889875849910377 -0.19485433794866519 0 0.077937277169373001 -0.184048065660191 0 0.060697534869351033 -0.17419066888397941 0 0.077937277169373001 -0.184048065660191 0 0.074839469559073168 -0.1602426574217603 0 0.077937277169373001 -0.184048065660191 0 0.074839469559073168 -0.1602426574217603 0 0.060697534869351033 -0.17419066888397941 0 0.074839469559073168 -0.1602426574217603 0 0.060697534869351033 -0.17419066888397941 0 0.054151063715936032 -0.16198838436728469 0 0.074839469559073168 -0.1602426574217603 0 0.071741661948773627 -0.1364372491833297 0 0.053973449323654381 -0.14877178477940289 0 0.074839469559073168 -0.1602426574217603 0 0.071741661948773627 -0.1364372491833297 0 0.074839469559073168 -0.1602426574217603 0 0.091338681898991747 -0.14700374059421151 0 0.071741661948773627 -0.1364372491833297 0 0.091338681898991747 -0.14700374059421151 0 0.071741661948773627 -0.1364372491833297 0 0.096290168617584021 -0.15977041220972049 0 0.074839469559073168 -0.1602426574217603 0 0.091338681898991747 -0.14700374059421151 0 0.091338681898991747 -0.14700374059421151 0 0.091654332423878201 -0.12963424345288041 0 0.071741661948773627 -0.1364372491833297 0 0.091654332423878201 -0.12963424345288041 0 0.071741661948773627 -0.1364372491833297 0 0.081314192721475609 -0.1213420062060075 0 0.071741661948773627 -0.1364372491833297 0 0.069173629841333045 -0.1167029530689571 0 0.071741661948773627 -0.1364372491833297 0 0.047697664500285522 -0.13793480044497361 0 0.046491140040491152 -0.1228224534877623 0 0.071741661948773627 -0.1364372491833297 0 0.046491140040491152 -0.1228224534877623 0 0.069173629841333045 -0.1167029530689571 0 0.071741661948773627 -0.1364372491833297 0 0.046491140040491152 -0.1228224534877623 0 0.053973449323654381 -0.14877178477940289 0 0.034817011568570991 -0.15152394239063741 0 0.054151063715936032 -0.16198838436728469 0 0.071741661948773627 -0.1364372491833297 0 0.047697664500285522 -0.13793480044497361 0 0.053973449323654381 -0.14877178477940289 0 0.047697664500285522 -0.13793480044497361 0 0.053973449323654381 -0.14877178477940289 0 0.034817011568570991 -0.15152394239063741 0 0.047697664500285522 -0.13793480044497361 0 0.034817011568570991 -0.15152394239063741 0 0.033591810338202938 -0.13391885344244481 0 0.047697664500285522 -0.13793480044497361 0 0.033591810338202938 -0.13391885344244481 0 0.046491140040491152 -0.1228224534877623 0 0.048889875849910377 -0.19485433794866519 0 0.060697534869351033 -0.17419066888397941 0 0.041969727003717101 -0.1706107230216686 0 0.074839469559073168 -0.1602426574217603 0 0.053973449323654381 -0.14877178477940289 0 0.054151063715936032 -0.16198838436728469 0 0.060697534869351033 -0.17419066888397941 0 0.054151063715936032 -0.16198838436728469 0 0.041969727003717101 -0.1706107230216686 0 0.034817011568570991 -0.15152394239063741 0 0.041969727003717101 -0.1706107230216686 0 0.02292403062392194 -0.1668062279374902 0 0.034817011568570991 -0.15152394239063741 0 0.054151063715936032 -0.16198838436728469 0 0.041969727003717101 -0.1706107230216686 0 0.048889875849910377 -0.19485433794866519 0 0.041969727003717101 -0.1706107230216686 0 0.03078592753196982 -0.18180353024477111 0 0.041969727003717101 -0.1706107230216686 0 0.03078592753196982 -0.18180353024477111 0 0.02292403062392194 -0.1668062279374902 0 0.03078592753196982 -0.18180353024477111 0 0.02292403062392194 -0.1668062279374902 0 0.0080086473810049609 -0.17968149299165809 0 0.01804900831253092 -0.19300775811554979 0 0.03078592753196982 -0.18180353024477111 0 0.0080086473810049609 -0.17968149299165809 0 0.02292403062392194 -0.1668062279374902 0 0.01100858143369484 -0.16542279744287169 0 0.015133361280372881 -0.14884824097457261 0 -0.0020317135505204132 -0.1663552278677661 0 0.015133361280372881 -0.14884824097457261 0 -0.0020317135505204132 -0.1663552278677661 0 0.01100858143369484 -0.16542279744287169 0 0.015133361280372881 -0.14884824097457261 0 -0.0020317135505204132 -0.1663552278677661 0 -0.0093425470342544496 -0.15665178135371241 0 0.015133361280372881 -0.14884824097457261 0 -0.0020317135505204132 -0.1663552278677661 0 0.01100858143369484 -0.16542279744287169 0 0.0080086473810049609 -0.17968149299165809 0 0.02292403062392194 -0.1668062279374902 0 0.01100858143369484 -0.16542279744287169 0 0.0080086473810049609 -0.17968149299165809 0 -0.0020317135505204132 -0.1663552278677661 0 -0.0046190280866550953 -0.18583163642080541 0 0.0080086473810049609 -0.17968149299165809 0 -0.0020317135505204132 -0.1663552278677661 0 0.0080086473810049609 -0.17968149299165809 0 -0.0046190280866550953 -0.18583163642080541 0 0.0057136835058208182 -0.19152004318334401 0 0.0080086473810049609 -0.17968149299165809 0 0.01804900831253092 -0.19300775811554979 0 0.0080086473810049609 -0.17968149299165809 0 0.033591810338202938 -0.13391885344244481 0 0.016354383869269219 -0.1342441131405421 0 0.01410020702646618 -0.1177317224203961 0 0.033591810338202938 -0.13391885344244481 0 0.016354383869269219 -0.1342441131405421 0 0.024904981642401191 -0.1420541564905812 0 0.033591810338202938 -0.13391885344244481 0 0.01410020702646618 -0.1177317224203961 0 0.034817011568570991 -0.15152394239063741 0 0.033591810338202938 -0.13391885344244481 0 0.024904981642401191 -0.1420541564905812 0 0.034817011568570991 -0.15152394239063741 0 0.024904981642401191 -0.1420541564905812 0 0.015133361280372881 -0.14884824097457261 0 0.034817011568570991 -0.15152394239063741 0 0.02292403062392194 -0.1668062279374902 0 0.015133361280372881 -0.14884824097457261 0 0.016354383869269219 -0.1342441131405421 0 0.024904981642401191 -0.1420541564905812 0 0.015133361280372881 -0.14884824097457261 0 -0.0093425470342544496 -0.15665178135371241 0 0.015133361280372881 -0.14884824097457261 0 0.005150969619539144 -0.13736195048391431 0 0.016354383869269219 -0.1342441131405421 0 0.0058983520323871962 -0.12805413721014969 0 0.01410020702646618 -0.1177317224203961 0 0.016354383869269219 -0.1342441131405421 0 0.005150969619539144 -0.13736195048391431 0 0.0058983520323871962 -0.12805413721014969 0 0.016354383869269219 -0.1342441131405421 0 0.015133361280372881 -0.14884824097457261 0 0.005150969619539144 -0.13736195048391431 0 -0.0052513643059792347 -0.13137269496406631 0 0.005150969619539144 -0.13736195048391431 0 0.0058983520323871962 -0.12805413721014969 0 -0.0053913962852711796 -0.101544591398348 0 -0.00086243604735932301 -0.1195602050418297 0 0.01410020702646618 -0.1177317224203961 0 -0.00086243604735932301 -0.1195602050418297 0 0.0058983520323871962 -0.12805413721014969 0 0.01410020702646618 -0.1177317224203961 0 -0.0053913962852711796 -0.101544591398348 0 0.01410020702646618 -0.1177317224203961 0 0.01410020702646618 -0.1177317224203961 0 0.021240618132208611 -0.1092076577921955 0 0.01109832212582604 -0.1053549280280956 0 0.033591810338202938 -0.13391885344244481 0 0.01410020702646618 -0.1177317224203961 0 0.021240618132208611 -0.1092076577921955 0 0.027948326588398579 -0.09809463805416832 0 0.021240618132208611 -0.1092076577921955 0 0.036586673784428293 -0.1070476346197187 0 0.021240618132208611 -0.1092076577921955 0 0.017000895981454139 -0.098883473709876504 0 0.01109832212582604 -0.1053549280280956 0 0.027948326588398579 -0.09809463805416832 0 0.021240618132208611 -0.1092076577921955 0 0.017000895981454139 -0.098883473709876504 0 0.027948326588398579 -0.09809463805416832 0 0.017000895981454139 -0.098883473709876504 0 0.020079534027638079 -0.088260772500432086 0 0.017000895981454139 -0.098883473709876504 0 0.01109832212582604 -0.1053549280280956 0 0.0068631438924836143 -0.09802575688397823 0 -0.0053913962852711796 -0.101544591398348 0 0.01410020702646618 -0.1177317224203961 0 0.01109832212582604 -0.1053549280280956 0 0.017000895981454139 -0.098883473709876504 0 0.0068631438924836143 -0.09802575688397823 0 0.01074789060587805 -0.091041637954746568 0 -0.0053913962852711796 -0.101544591398348 0 0.01109832212582604 -0.1053549280280956 0 0.0068631438924836143 -0.09802575688397823 0 -0.00085598893660233238 -0.0896113271783123 0 -0.0053913962852711796 -0.101544591398348 0 0.0068631438924836143 -0.09802575688397823 0 -0.00085598893660233238 -0.0896113271783123 0 0.0089737261826284814 -0.079045421565449248 0 0.01074789060587805 -0.091041637954746568 0 -0.00085598893660233238 -0.0896113271783123 0 0.0068631438924836143 -0.09802575688397823 0 0.01074789060587805 -0.091041637954746568 0 0.0089737261826284814 -0.079045421565449248 0 0.01074789060587805 -0.091041637954746568 0 0.020079534027638079 -0.088260772500432086 0 -0.0096631587059269278 -0.072401477112145576 0 0.0089737261826284814 -0.079045421565449248 0 0.008044693004705103 -0.064644082804782468 0 0.0089737261826284814 -0.079045421565449248 0 0.008044693004705103 -0.064644082804782468 0 0.024306168680990451 -0.071215569827560748 0 0.024306168680990451 -0.071215569827560748 0 0.040416584136413268 -0.066092035543420136 0 0.022868359227832692 -0.052357636544413673 0 0.008044693004705103 -0.064644082804782468 0 0.024306168680990451 -0.071215569827560748 0 0.022868359227832692 -0.052357636544413673 0 0.0089737261826284814 -0.079045421565449248 0 0.024306168680990451 -0.071215569827560748 0 0.020079534027638079 -0.088260772500432086 0 0.024306168680990451 -0.071215569827560748 0 0.020079534027638079 -0.088260772500432086 0 0.033299539652290322 -0.083082826192702575 0 0.017000895981454139 -0.098883473709876504 0 0.01074789060587805 -0.091041637954746568 0 0.020079534027638079 -0.088260772500432086 0 0.027948326588398579 -0.09809463805416832 0 0.020079534027638079 -0.088260772500432086 0 0.033299539652290322 -0.083082826192702575 0 0.027948326588398579 -0.09809463805416832 0 0.033299539652290322 -0.083082826192702575 0 0.040935765947773997 -0.097068406043750791 0 0.033299539652290322 -0.083082826192702575 0 0.048937259655501948 -0.083911979953538898 0 0.040935765947773997 -0.097068406043750791 0 0.024306168680990451 -0.071215569827560748 0 0.033299539652290322 -0.083082826192702575 0 0.040416584136413268 -0.066092035543420136 0 0.033299539652290322 -0.083082826192702575 0 0.040416584136413268 -0.066092035543420136 0 0.048937259655501948 -0.083911979953538898 0 0.040416584136413268 -0.066092035543420136 0 0.059841780919460699 -0.070443624430956878 0 0.05226921997622698 -0.056304689717245782 0 0.040416584136413268 -0.066092035543420136 0 0.059841780919460699 -0.070443624430956878 0 0.048937259655501948 -0.083911979953538898 0 0.048937259655501948 -0.083911979953538898 0 0.052998218113266257 -0.09939925504561449 0 0.066131669163807194 -0.087385732464788604 0 0.059841780919460699 -0.070443624430956878 0 0.048937259655501948 -0.083911979953538898 0 0.066131669163807194 -0.087385732464788604 0 0.048937259655501948 -0.083911979953538898 0 0.052998218113266257 -0.09939925504561449 0 0.040935765947773997 -0.097068406043750791 0 0.052998218113266257 -0.09939925504561449 0 0.065834408464996066 -0.10120102896755891 0 0.066131669163807194 -0.087385732464788604 0 0.052998218113266257 -0.09939925504561449 0 0.054647353049548208 -0.11336481163595349 0 0.046485849959418603 -0.1078000971317037 0 0.052998218113266257 -0.09939925504561449 0 0.054647353049548208 -0.11336481163595349 0 0.065834408464996066 -0.10120102896755891 0 0.054647353049548208 -0.11336481163595349 0 0.046491140040491152 -0.1228224534877623 0 0.069173629841333045 -0.1167029530689571 0 0.054647353049548208 -0.11336481163595349 0 0.046491140040491152 -0.1228224534877623 0 0.046485849959418603 -0.1078000971317037 0 0.021240618132208611 -0.1092076577921955 0 0.046491140040491152 -0.1228224534877623 0 0.033591810338202938 -0.13391885344244481 0 0.021240618132208611 -0.1092076577921955 0 0.046491140040491152 -0.1228224534877623 0 0.021240618132208611 -0.1092076577921955 0 0.046491140040491152 -0.1228224534877623 0 0.036586673784428293 -0.1070476346197187 0 0.046491140040491152 -0.1228224534877623 0 0.036586673784428293 -0.1070476346197187 0 0.046485849959418603 -0.1078000971317037 0 0.027948326588398579 -0.09809463805416832 0 0.036586673784428293 -0.1070476346197187 0 0.040935765947773997 -0.097068406043750791 0 0.052998218113266257 -0.09939925504561449 0 0.040935765947773997 -0.097068406043750791 0 0.046485849959418603 -0.1078000971317037 0 0.036586673784428293 -0.1070476346197187 0 0.040935765947773997 -0.097068406043750791 0 0.046485849959418603 -0.1078000971317037 0 0.013560617637746009 -0.010546814510073379 0 0.029083891214417481 -0.02772314882666372 0 0.036730620827910967 -0.0085450903031558736 0 0.02842268352822833 0.0042313109911599374 0 0.013560617637746009 -0.010546814510073379 0 0.036730620827910967 -0.0085450903031558736 0 -0.01129150054699473 -0.0013760759300521341 0 0.0034452991329774578 0.0051537710705144932 0 0.013560617637746009 -0.010546814510073379 0 -0.015846618624544149 -0.02523918063224059 0 0.013560617637746009 -0.010546814510073379 0 0.01152460235589255 -0.038367179228915853 0 0.013560617637746009 -0.010546814510073379 0 0.01152460235589255 -0.038367179228915853 0 0.013560617637746009 -0.010546814510073379 0 0.029083891214417481 -0.02772314882666372 0 0.01152460235589255 -0.038367179228915853 0 0.029083891214417481 -0.02772314882666372 0 0.022868359227832692 -0.052357636544413673 0 0.040125762515575397 -0.04503502586498196 0 0.029083891214417481 -0.02772314882666372 0 0.01152460235589255 -0.038367179228915853 0 0.022868359227832692 -0.052357636544413673 0 -0.0020087529434394289 -0.049943804487541543 0 0.008044693004705103 -0.064644082804782468 0 0.022868359227832692 -0.052357636544413673 0 -0.0020087529434394289 -0.049943804487541543 0 0.01152460235589255 -0.038367179228915853 0 0.022868359227832692 -0.052357636544413673 0 0.040416584136413268 -0.066092035543420136 0 0.022868359227832692 -0.052357636544413673 0 0.040125762515575397 -0.04503502586498196 0 0.040416584136413268 -0.066092035543420136 0 0.05226921997622698 -0.056304689717245782 0 0.040125762515575397 -0.04503502586498196 0 0.059841780919460699 -0.070443624430956878 0 0.05226921997622698 -0.056304689717245782 0 0.065903159925837132 -0.050625763080663633 0 0.05226921997622698 -0.056304689717245782 0 0.055234485932000553 -0.040098650930135142 0 0.065903159925837132 -0.050625763080663633 0 0.05226921997622698 -0.056304689717245782 0 0.055234485932000553 -0.040098650930135142 0 0.040125762515575397 -0.04503502586498196 0 0.055234485932000553 -0.040098650930135142 0 0.040125762515575397 -0.04503502586498196 0 0.048560449234672627 -0.021220249772793961 0 0.029083891214417481 -0.02772314882666372 0 0.040125762515575397 -0.04503502586498196 0 0.048560449234672627 -0.021220249772793961 0 0.029083891214417481 -0.02772314882666372 0 0.048560449234672627 -0.021220249772793961 0 0.036730620827910967 -0.0085450903031558736 0 0.055234485932000553 -0.040098650930135142 0 0.048560449234672627 -0.021220249772793961 0 0.069313838007690559 -0.02730752621499034 0 0.048560449234672627 -0.021220249772793961 0 0.061894708431368711 -0.01268121364353801 0 0.069313838007690559 -0.02730752621499034 0 0.065069697678856273 0.0043599765667019456 0 0.061894708431368711 -0.01268121364353801 0 0.051971399160469382 -0.001712778288651375 0 0.048560449234672627 -0.021220249772793961 0 0.061894708431368711 -0.01268121364353801 0 0.051971399160469382 -0.001712778288651375 0 0.048560449234672627 -0.021220249772793961 0 0.051971399160469382 -0.001712778288651375 0 0.048560449234672627 -0.021220249772793961 0 0.051971399160469382 -0.001712778288651375 0 0.036730620827910967 -0.0085450903031558736 0 0.044516681068846077 0.0085253256890689064 0 0.051971399160469382 -0.001712778288651375 0 0.036730620827910967 -0.0085450903031558736 0 0.092790705774556365 0.007637089620086213 0 0.076769895714656561 -0.0062810663660294828 0 0.1014456400804002 -0.009727969571319571 0 0.076769895714656561 -0.0062810663660294828 0 0.091380854119256547 -0.029177315314270869 0 0.1014456400804002 -0.009727969571319571 0 0.065069697678856273 0.0043599765667019456 0 0.061894708431368711 -0.01268121364353801 0 0.076769895714656561 -0.0062810663660294828 0 0.061894708431368711 -0.01268121364353801 0 0.076769895714656561 -0.0062810663660294828 0 0.069313838007690559 -0.02730752621499034 0 0.076769895714656561 -0.0062810663660294828 0 0.069313838007690559 -0.02730752621499034 0 0.091380854119256547 -0.029177315314270869 0 0.091380854119256547 -0.029177315314270869 0 0.081542594750818542 -0.044209486922296051 0 0.096123020567443013 -0.053613083696217492 0 0.069313838007690559 -0.02730752621499034 0 0.091380854119256547 -0.029177315314270869 0 0.081542594750818542 -0.044209486922296051 0 0.055234485932000553 -0.040098650930135142 0 0.069313838007690559 -0.02730752621499034 0 0.065903159925837132 -0.050625763080663633 0 0.069313838007690559 -0.02730752621499034 0 0.081542594750818542 -0.044209486922296051 0 0.065903159925837132 -0.050625763080663633 0 0.081542594750818542 -0.044209486922296051 0 0.065903159925837132 -0.050625763080663633 0 0.078594255548835298 -0.067885951342672252 0 0.081542594750818542 -0.044209486922296051 0 0.096123020567443013 -0.053613083696217492 0 0.078594255548835298 -0.067885951342672252 0 0.096123020567443013 -0.053613083696217492 0 0.1160194853611181 -0.046293273440479447 0 0.112813277950965 -0.065733908131412278 0 0.1160194853611181 -0.046293273440479447 0 0.112813277950965 -0.065733908131412278 0 0.13031128571248901 -0.063730079363301106 0 0.1160194853611181 -0.046293273440479447 0 0.1147093503048433 -0.02490081752715104 0 0.13902995669558471 -0.033841648077852962 0 0.091380854119256547 -0.029177315314270869 0 0.1160194853611181 -0.046293273440479447 0 0.1147093503048433 -0.02490081752715104 0 0.091380854119256547 -0.029177315314270869 0 0.096123020567443013 -0.053613083696217492 0 0.091380854119256547 -0.029177315314270869 0 0.096123020567443013 -0.053613083696217492 0 0.1160194853611181 -0.046293273440479447 0 0.091380854119256547 -0.029177315314270869 0 0.1147093503048433 -0.02490081752715104 0 0.1014456400804002 -0.009727969571319571 0 0.1147093503048433 -0.02490081752715104 0 0.1014456400804002 -0.009727969571319571 0 0.1253528781060689 -0.0035925746653820922 0 0.1118443090855482 0.01244278967355154 0 0.1014456400804002 -0.009727969571319571 0 0.1253528781060689 -0.0035925746653820922 0 0.080127353256681494 -0.1079247160480321 0 0.1056073534638149 -0.1024846204601106 0 0.093873986136711635 -0.1160108692768383 0 0.080127353256681494 -0.1079247160480321 0 0.088451760580886996 -0.095435820424731449 0 0.1056073534638149 -0.1024846204601106 0 0.080127353256681494 -0.1079247160480321 0 0.1056073534638149 -0.1024846204601106 0 0.080127353256681494 -0.1079247160480321 0 0.088451760580886996 -0.095435820424731449 0 0.076225052457102649 -0.096226955720249557 0 0.091654332423878201 -0.12963424345288041 0 0.081314192721475609 -0.1213420062060075 0 0.093873986136711635 -0.1160108692768383 0 0.080127353256681494 -0.1079247160480321 0 0.081314192721475609 -0.1213420062060075 0 0.093873986136711635 -0.1160108692768383 0 0.071741661948773627 -0.1364372491833297 0 0.081314192721475609 -0.1213420062060075 0 0.069173629841333045 -0.1167029530689571 0 0.054647353049548208 -0.11336481163595349 0 0.080127353256681494 -0.1079247160480321 0 0.069173629841333045 -0.1167029530689571 0 0.054647353049548208 -0.11336481163595349 0 0.080127353256681494 -0.1079247160480321 0 0.080127353256681494 -0.1079247160480321 0 0.081314192721475609 -0.1213420062060075 0 0.069173629841333045 -0.1167029530689571 0 0.054647353049548208 -0.11336481163595349 0 0.080127353256681494 -0.1079247160480321 0 0.065834408464996066 -0.10120102896755891 0 0.080127353256681494 -0.1079247160480321 0 0.076225052457102649 -0.096226955720249557 0 0.065834408464996066 -0.10120102896755891 0 0.076225052457102649 -0.096226955720249557 0 0.065834408464996066 -0.10120102896755891 0 0.066131669163807194 -0.087385732464788604 0 0.066131669163807194 -0.087385732464788604 0 0.078594255548835298 -0.067885951342672252 0 0.081726284927076509 -0.085881003575172574 0 0.076225052457102649 -0.096226955720249557 0 0.066131669163807194 -0.087385732464788604 0 0.081726284927076509 -0.085881003575172574 0 0.059841780919460699 -0.070443624430956878 0 0.066131669163807194 -0.087385732464788604 0 0.078594255548835298 -0.067885951342672252 0 0.059841780919460699 -0.070443624430956878 0 0.065903159925837132 -0.050625763080663633 0 0.078594255548835298 -0.067885951342672252 0 0.096123020567443013 -0.053613083696217492 0 0.078594255548835298 -0.067885951342672252 0 0.10086518701562951 -0.078048852078163949 0 0.078594255548835298 -0.067885951342672252 0 0.081726284927076509 -0.085881003575172574 0 0.10086518701562951 -0.078048852078163949 0 0.088451760580886996 -0.095435820424731449 0 0.081726284927076509 -0.085881003575172574 0 0.10086518701562951 -0.078048852078163949 0 0.088451760580886996 -0.095435820424731449 0 0.076225052457102649 -0.096226955720249557 0 0.081726284927076509 -0.085881003575172574 0 0.088451760580886996 -0.095435820424731449 0 0.10086518701562951 -0.078048852078163949 0 0.1056073534638149 -0.1024846204601106 0 0.10086518701562951 -0.078048852078163949 0 0.1056073534638149 -0.1024846204601106 0 0.10086518701562951 -0.078048852078163949 0 0.1133687160559943 -0.085316860340329481 0 0.1056073534638149 -0.1024846204601106 0 0.096123020567443013 -0.053613083696217492 0 0.10086518701562951 -0.078048852078163949 0 0.112813277950965 -0.065733908131412278 0 0.10086518701562951 -0.078048852078163949 0 0.112813277950965 -0.065733908131412278 0 0.1133687160559943 -0.085316860340329481 0 0.096123020567443013 -0.053613083696217492 0 0.10086518701562951 -0.078048852078163949 0 0.112813277950965 -0.065733908131412278 0 0.1133687160559943 -0.085316860340329481 0 0.12628821811977251 -0.081176249216687868 0 0.112813277950965 -0.065733908131412278 0 0.12628821811977251 -0.081176249216687868 0 0.13031128571248901 -0.063730079363301106 0 0.1133687160559943 -0.085316860340329481 0 0.1212695437297895 -0.099140671815272668 0 0.12628821811977251 -0.081176249216687868 0 0.1212695437297895 -0.099140671815272668 0 0.1056073534638149 -0.1024846204601106 0 0.12229217821838879 -0.114365139258049 0 0.1133687160559943 -0.085316860340329481 0 0.1212695437297895 -0.099140671815272668 0 0.1056073534638149 -0.1024846204601106 0 0.1212695437297895 -0.099140671815272668 0 0.1056073534638149 -0.1024846204601106 0 0.1212695437297895 -0.099140671815272668 0 0.12229217821838879 -0.114365139258049 0 0.13120309480453859 -0.1074240985221952 0 0.11060332767623229 -0.12822822731799971 0 0.1056073534638149 -0.1024846204601106 0 0.11060332767623229 -0.12822822731799971 0 0.1056073534638149 -0.1024846204601106 0 0.093873986136711635 -0.1160108692768383 0 0.11060332767623229 -0.12822822731799971 0 0.091654332423878201 -0.12963424345288041 0 0.093873986136711635 -0.1160108692768383 0 0.11060332767623229 -0.12822822731799971 0 0.1056073534638149 -0.1024846204601106 0 0.12229217821838879 -0.114365139258049 0 0.11060332767623229 -0.12822822731799971 0 0.12229217821838879 -0.114365139258049 0 0.12907740542747331 -0.1295625291261383 0 0.12229217821838879 -0.114365139258049 0 0.1353253269056639 -0.1189354891747306 0 0.12907740542747331 -0.1295625291261383 0 0.12229217821838879 -0.114365139258049 0 0.1353253269056639 -0.1189354891747306 0 0.13120309480453859 -0.1074240985221952 0 0.1353253269056639 -0.1189354891747306 0 0.14528740180249061 -0.1090992799783964 0 0.13120309480453859 -0.1074240985221952 0 0.1353253269056639 -0.1189354891747306 0 0.14667408107618121 -0.1203417034652623 0 0.1407751965703094 -0.13061285813672649 0 0.1353253269056639 -0.1189354891747306 0 0.14667408107618121 -0.1203417034652623 0 0.14528740180249061 -0.1090992799783964 0 0.14667408107618121 -0.1203417034652623 0 0.14528740180249061 -0.1090992799783964 0 0.1593373482653975 -0.1153796185376879 0 0.14667408107618121 -0.1203417034652623 0 0.1593373482653975 -0.1153796185376879 0 0.15264513183704451 -0.12768127149877009 0 0.14528740180249061 -0.1090992799783964 0 0.15431378502070689 -0.093378350342309457 0 0.1593373482653975 -0.1153796185376879 0 0.14528740180249061 -0.1090992799783964 0 0.136931733995764 -0.095796723170434708 0 0.15431378502070689 -0.093378350342309457 0 0.1212695437297895 -0.099140671815272668 0 0.136931733995764 -0.095796723170434708 0 0.1212695437297895 -0.099140671815272668 0 0.136931733995764 -0.095796723170434708 0 0.13120309480453859 -0.1074240985221952 0 0.14528740180249061 -0.1090992799783964 0 0.136931733995764 -0.095796723170434708 0 0.13120309480453859 -0.1074240985221952 0 0.136931733995764 -0.095796723170434708 0 0.12628821811977251 -0.081176249216687868 0 0.14465714835351609 -0.07669868465352489 0 0.1212695437297895 -0.099140671815272668 0 0.136931733995764 -0.095796723170434708 0 0.12628821811977251 -0.081176249216687868 0 0.12628821811977251 -0.081176249216687868 0 0.13031128571248901 -0.063730079363301106 0 0.14465714835351609 -0.07669868465352489 0 0.14465714835351609 -0.07669868465352489 0 0.17166096945557779 -0.070339931242238057 0 0.14942290776855099 -0.055798198503494677 0 0.13031128571248901 -0.063730079363301106 0 0.14465714835351609 -0.07669868465352489 0 0.14942290776855099 -0.055798198503494677 0 0.136931733995764 -0.095796723170434708 0 0.14465714835351609 -0.07669868465352489 0 0.15431378502070689 -0.093378350342309457 0 0.15431378502070689 -0.093378350342309457 0 0.17166096945557779 -0.070339931242238057 0 0.17270266594603981 -0.096047101998707918 0 0.14465714835351609 -0.07669868465352489 0 0.15431378502070689 -0.093378350342309457 0 0.17166096945557779 -0.070339931242238057 0 0.17166096945557779 -0.070339931242238057 0 0.18113134422928071 -0.053715810521056277 0 0.1942983247448026 -0.06578196438765975 0 0.17166096945557779 -0.070339931242238057 0 0.19176427562024589 -0.08605420768081827 0 0.1942983247448026 -0.06578196438765975 0 0.17166096945557779 -0.070339931242238057 0 0.17270266594603981 -0.096047101998707918 0 0.17166096945557779 -0.070339931242238057 0 0.17270266594603981 -0.096047101998707918 0 0.19176427562024589 -0.08605420768081827 0 0.17270266594603981 -0.096047101998707918 0 0.17374436243650171 -0.1217542727551779 0 0.17270266594603981 -0.096047101998707918 0 0.18673773143744901 -0.1056403381826083 0 0.19176427562024589 -0.08605420768081827 0 0.17270266594603981 -0.096047101998707918 0 0.18673773143744901 -0.1056403381826083 0 0.17374436243650171 -0.1217542727551779 0 0.18673773143744901 -0.1056403381826083 0 0.17374436243650171 -0.1217542727551779 0 0.19230394039212739 -0.1190040137305175 0 0.17374436243650171 -0.1217542727551779 0 0.19230394039212739 -0.1190040137305175 0 0.18690088777785041 -0.13169298809281629 0 0.17270266594603981 -0.096047101998707918 0 0.17374436243650171 -0.1217542727551779 0 0.1593373482653975 -0.1153796185376879 0 0.17374436243650171 -0.1217542727551779 0 0.1593373482653975 -0.1153796185376879 0 0.1616500134161791 -0.12977646666149911 0 0.1593373482653975 -0.1153796185376879 0 0.15264513183704451 -0.12768127149877009 0 0.1616500134161791 -0.12977646666149911 0 0.15431378502070689 -0.093378350342309457 0 0.17270266594603981 -0.096047101998707918 0 0.1593373482653975 -0.1153796185376879 0 0.14911197860261319 -0.0064425923122114707 0 0.1253528781060689 -0.0035925746653820922 0 0.13902995669558471 -0.033841648077852962 0 0.1147093503048433 -0.02490081752715104 0 0.1253528781060689 -0.0035925746653820922 0 0.13902995669558471 -0.033841648077852962 0 0.14911197860261319 -0.0064425923122114707 0 0.13902995669558471 -0.033841648077852962 0 0.16155965392210431 -0.024478940327194051 0 0.13902995669558471 -0.033841648077852962 0 0.1650162427414596 -0.043380706741798628 0 0.16155965392210431 -0.024478940327194051 0 0.13902995669558471 -0.033841648077852962 0 0.14942290776855099 -0.055798198503494677 0 0.1650162427414596 -0.043380706741798628 0 0.13031128571248901 -0.063730079363301106 0 0.13902995669558471 -0.033841648077852962 0 0.14942290776855099 -0.055798198503494677 0 0.1160194853611181 -0.046293273440479447 0 0.13031128571248901 -0.063730079363301106 0 0.13902995669558471 -0.033841648077852962 0 0.17166096945557779 -0.070339931242238057 0 0.14942290776855099 -0.055798198503494677 0 0.1650162427414596 -0.043380706741798628 0 0.17166096945557779 -0.070339931242238057 0 0.18113134422928071 -0.053715810521056277 0 0.1650162427414596 -0.043380706741798628 0 0.18113134422928071 -0.053715810521056277 0 0.1650162427414596 -0.043380706741798628 0 0.1791202841616365 -0.030530847851912641 0 0.18113134422928071 -0.053715810521056277 0 0.1791202841616365 -0.030530847851912641 0 0.1974180517293441 -0.042196548870349182 0 0.1650162427414596 -0.043380706741798628 0 0.16155965392210431 -0.024478940327194051 0 0.1791202841616365 -0.030530847851912641 0 0.14911197860261319 -0.0064425923122114707 0 0.16155965392210431 -0.024478940327194051 0 0.1809045251758529 -0.0061777897114907443 0 0.1791202841616365 -0.030530847851912641 0 0.1809045251758529 -0.0061777897114907443 0 0.19402948544216589 -0.0220493542343011 0 0.16155965392210431 -0.024478940327194051 0 0.1791202841616365 -0.030530847851912641 0 0.1809045251758529 -0.0061777897114907443 0 0.20327883938983121 -0.0069456637936660091 0 0.20942572675416449 -0.024395920944086921 0 0.22332785412054751 -0.0047917593234988306 0 0.1809045251758529 -0.0061777897114907443 0 0.20327883938983121 -0.0069456637936660091 0 0.19402948544216589 -0.0220493542343011 0 0.20327883938983121 -0.0069456637936660091 0 0.19402948544216589 -0.0220493542343011 0 0.20942572675416449 -0.024395920944086921 0 0.19402948544216589 -0.0220493542343011 0 0.20942572675416449 -0.024395920944086921 0 0.1974180517293441 -0.042196548870349182 0 0.20942572675416449 -0.024395920944086921 0 0.21200058478462289 -0.045733028061670122 0 0.22468262319242441 -0.027822565117598601 0 0.20942572675416449 -0.024395920944086921 0 0.21200058478462289 -0.045733028061670122 0 0.1974180517293441 -0.042196548870349182 0 0.1791202841616365 -0.030530847851912641 0 0.19402948544216589 -0.0220493542343011 0 0.1974180517293441 -0.042196548870349182 0 0.1974180517293441 -0.042196548870349182 0 0.2084992274919584 -0.058262776296756212 0 0.1942983247448026 -0.06578196438765975 0 0.18113134422928071 -0.053715810521056277 0 0.1974180517293441 -0.042196548870349182 0 0.1942983247448026 -0.06578196438765975 0 0.21200058478462289 -0.045733028061670122 0 0.1974180517293441 -0.042196548870349182 0 0.2084992274919584 -0.058262776296756212 0 0.21200058478462289 -0.045733028061670122 0 0.2084992274919584 -0.058262776296756212 0 0.22042908193859931 -0.062946919186833247 0 0.2290569165117339 -0.041749331406339879 0 0.22042908193859931 -0.062946919186833247 0 0.21200058478462289 -0.045733028061670122 0 0.2290569165117339 -0.041749331406339879 0 0.22042908193859931 -0.062946919186833247 0 0.23176051573990211 -0.060090179544963013 0 0.2290569165117339 -0.041749331406339879 0 0.22042908193859931 -0.062946919186833247 0 0.23176051573990211 -0.060090179544963013 0 0.24541873300142519 -0.054290412664607282 0 0.2438609853148884 -0.067640948374130455 0 0.23176051573990211 -0.060090179544963013 0 0.24541873300142519 -0.054290412664607282 0 0.24547466515520511 -0.039451913204634308 0 0.23176051573990211 -0.060090179544963013 0 0.24547466515520511 -0.039451913204634308 0 0.2290569165117339 -0.041749331406339879 0 0.23176051573990211 -0.060090179544963013 0 0.24547466515520511 -0.039451913204634308 0 0.25813908861264689 -0.061930880435202097 0 0.24541873300142519 -0.054290412664607282 0 0.2438609853148884 -0.067640948374130455 0 0.24547466515520511 -0.039451913204634308 0 0.2290569165117339 -0.041749331406339879 0 0.2376847510848685 -0.020551743625846521 0 0.21200058478462289 -0.045733028061670122 0 0.2290569165117339 -0.041749331406339879 0 0.22468262319242441 -0.027822565117598601 0 0.20942572675416449 -0.024395920944086921 0 0.22468262319242441 -0.027822565117598601 0 0.22332785412054751 -0.0047917593234988306 0 0.2290569165117339 -0.041749331406339879 0 0.22468262319242441 -0.027822565117598601 0 0.2376847510848685 -0.020551743625846521 0 0.2290569165117339 -0.041749331406339879 0 0.2376847510848685 -0.020551743625846521 0 0.22468262319242441 -0.027822565117598601 0 0.2376847510848685 -0.020551743625846521 0 0.22332785412054751 -0.0047917593234988306 0 0.25918881457050802 -0.01881364686430571 0 0.24547466515520511 -0.039451913204634308 0 0.2376847510848685 -0.020551743625846521 0 0.25918881457050802 -0.01881364686430571 0 0.2376847510848685 -0.020551743625846521 0 0.2485653326959707 -0.01183239388210067 0 0.24063459591653041 0.0074870902855560884 0 0.24154719768573521 -0.0062511183016129646 0 0.22332785412054751 -0.0047917593234988306 0 0.2376847510848685 -0.020551743625846521 0 0.2485653326959707 -0.01183239388210067 0 0.24154719768573521 -0.0062511183016129646 0 0.25584056744277112 -0.0017130667366374939 0 0.2485653326959707 -0.01183239388210067 0 0.24154719768573521 -0.0062511183016129646 0 0.24063459591653041 0.0074870902855560884 0 0.25584056744277112 -0.0017130667366374939 0 0.24154719768573521 -0.0062511183016129646 0 0.2376847510848685 -0.020551743625846521 0 0.24154719768573521 -0.0062511183016129646 0 0.22332785412054751 -0.0047917593234988306 0 0.20317341279233009 -0.10534209474782 0 0.21180124736546471 -0.084144506967326615 0 0.22018342784753381 -0.092051924760452652 0 0.20317341279233009 -0.10534209474782 0 0.21180124736546471 -0.084144506967326615 0 0.20317341279233009 -0.10534209474782 0 0.2181960674465668 -0.1147187987922746 0 0.22571343520910281 -0.1021616836284979 0 0.20317341279233009 -0.10534209474782 0 0.22018342784753381 -0.092051924760452652 0 0.22571343520910281 -0.1021616836284979 0 0.20317341279233009 -0.10534209474782 0 0.2181960674465668 -0.1147187987922746 0 0.20801658061820411 -0.1231501390478832 0 0.2181960674465668 -0.1147187987922746 0 0.20801658061820411 -0.1231501390478832 0 0.2225359133420553 -0.12837575015092739 0 0.20317341279233009 -0.10534209474782 0 0.20801658061820411 -0.1231501390478832 0 0.19230394039212739 -0.1190040137305175 0 0.18673773143744901 -0.1056403381826083 0 0.20317341279233009 -0.10534209474782 0 0.19230394039212739 -0.1190040137305175 0 0.18673773143744901 -0.1056403381826083 0 0.20317341279233009 -0.10534209474782 0 0.19176427562024589 -0.08605420768081827 0 0.19176427562024589 -0.08605420768081827 0 0.20120431709183309 -0.077367859445654774 0 0.21180124736546471 -0.084144506967326615 0 0.20317341279233009 -0.10534209474782 0 0.19176427562024589 -0.08605420768081827 0 0.21180124736546471 -0.084144506967326615 0 0.19176427562024589 -0.08605420768081827 0 0.1942983247448026 -0.06578196438765975 0 0.20120431709183309 -0.077367859445654774 0 0.1942983247448026 -0.06578196438765975 0 0.20120431709183309 -0.077367859445654774 0 0.20735150207229591 -0.070177935789611096 0 0.20735150207229591 -0.070177935789611096 0 0.21180124736546471 -0.084144506967326615 0 0.22042908193859931 -0.062946919186833247 0 0.21180124736546471 -0.084144506967326615 0 0.22042908193859931 -0.062946919186833247 0 0.21180124736546471 -0.084144506967326615 0 0.21804636632459909 -0.080728445885291669 0 0.22042908193859931 -0.062946919186833247 0 0.2084992274919584 -0.058262776296756212 0 0.1942983247448026 -0.06578196438765975 0 0.20735150207229591 -0.070177935789611096 0 0.20120431709183309 -0.077367859445654774 0 0.20735150207229591 -0.070177935789611096 0 0.21180124736546471 -0.084144506967326615 0 0.2084992274919584 -0.058262776296756212 0 0.20735150207229591 -0.070177935789611096 0 0.22042908193859931 -0.062946919186833247 0 0.21180124736546471 -0.084144506967326615 0 0.21804636632459909 -0.080728445885291669 0 0.22018342784753381 -0.092051924760452652 0 0.21804636632459909 -0.080728445885291669 0 0.22802555599593621 -0.088239049549012266 0 0.23662918355679449 -0.078201080799481168 0 0.22802555599593621 -0.088239049549012266 0 0.23662918355679449 -0.078201080799481168 0 0.23778976004888691 -0.096648422815295287 0 0.21804636632459909 -0.080728445885291669 0 0.22018342784753381 -0.092051924760452652 0 0.22802555599593621 -0.088239049549012266 0 0.23176051573990211 -0.060090179544963013 0 0.21804636632459909 -0.080728445885291669 0 0.23662918355679449 -0.078201080799481168 0 0.23176051573990211 -0.060090179544963013 0 0.21804636632459909 -0.080728445885291669 0 0.23176051573990211 -0.060090179544963013 0 0.21804636632459909 -0.080728445885291669 0 0.22042908193859931 -0.062946919186833247 0 0.25294995541228588 -0.08743910421378126 0 0.2438609853148884 -0.067640948374130455 0 0.23662918355679449 -0.078201080799481168 0 0.23176051573990211 -0.060090179544963013 0 0.2438609853148884 -0.067640948374130455 0 0.23662918355679449 -0.078201080799481168 0 0.25294995541228588 -0.08743910421378126 0 0.23662918355679449 -0.078201080799481168 0 0.23778976004888691 -0.096648422815295287 0 0.25294995541228588 -0.08743910421378126 0 0.23778976004888691 -0.096648422815295287 0 0.24776082221192491 -0.1129473279923605 0 0.23778976004888691 -0.096648422815295287 0 0.23154099527114161 -0.1145643263862446 0 0.24776082221192491 -0.1129473279923605 0 0.23778976004888691 -0.096648422815295287 0 0.22571343520910281 -0.1021616836284979 0 0.23154099527114161 -0.1145643263862446 0 0.22802555599593621 -0.088239049549012266 0 0.23778976004888691 -0.096648422815295287 0 0.22571343520910281 -0.1021616836284979 0 0.22018342784753381 -0.092051924760452652 0 0.22802555599593621 -0.088239049549012266 0 0.22571343520910281 -0.1021616836284979 0 0.23154099527114161 -0.1145643263862446 0 0.2351269573115036 -0.13077989469631829 0 0.2225359133420553 -0.12837575015092739 0 0.2181960674465668 -0.1147187987922746 0 0.23154099527114161 -0.1145643263862446 0 0.2225359133420553 -0.12837575015092739 0 0.2181960674465668 -0.1147187987922746 0 0.22571343520910281 -0.1021616836284979 0 0.23154099527114161 -0.1145643263862446 0 0.23154099527114161 -0.1145643263862446 0 0.24776082221192491 -0.1129473279923605 0 0.2351269573115036 -0.13077989469631829 0 0.24776082221192491 -0.1129473279923605 0 0.24954864782920069 -0.1339614403992159 0 0.2351269573115036 -0.13077989469631829 0 0.24954864782920069 -0.1339614403992159 0 0.2351269573115036 -0.13077989469631829 0 0.23556748537143521 -0.1449002901197271 0 0.24954864782920069 -0.1339614403992159 0 0.24580873852321239 -0.15139799092491929 0 0.23556748537143521 -0.1449002901197271 0 0.24580873852321239 -0.15139799092491929 0 0.23556748537143521 -0.1449002901197271 0 0.2340135689188455 -0.15520440163206459 0 0.2340135689188455 -0.15520440163206459 0 0.2277092775845081 -0.15061707382528061 0 0.2257842085614781 -0.1589049495117798 0 0.23556748537143521 -0.1449002901197271 0 0.2340135689188455 -0.15520440163206459 0 0.2277092775845081 -0.15061707382528061 0 0.23556748537143521 -0.1449002901197271 0 0.2277092775845081 -0.15061707382528061 0 0.22504990657023979 -0.1420882294638264 0 0.2277092775845081 -0.15061707382528061 0 0.22504990657023979 -0.1420882294638264 0 0.21813121850054179 -0.15198749839900499 0 0.22504990657023979 -0.1420882294638264 0 0.21332876944025281 -0.1383061699982939 0 0.21813121850054179 -0.15198749839900499 0 0.2277092775845081 -0.15061707382528061 0 0.21813121850054179 -0.15198749839900499 0 0.2257842085614781 -0.1589049495117798 0 0.2351269573115036 -0.13077989469631829 0 0.23556748537143521 -0.1449002901197271 0 0.22504990657023979 -0.1420882294638264 0 0.2351269573115036 -0.13077989469631829 0 0.22504990657023979 -0.1420882294638264 0 0.2225359133420553 -0.12837575015092739 0 0.22504990657023979 -0.1420882294638264 0 0.2225359133420553 -0.12837575015092739 0 0.21332876944025281 -0.1383061699982939 0 0.20801658061820411 -0.1231501390478832 0 0.2225359133420553 -0.12837575015092739 0 0.21332876944025281 -0.1383061699982939 0 0.20801658061820411 -0.1231501390478832 0 0.21332876944025281 -0.1383061699982939 0 0.1990061789554857 -0.1341579687035335 0 0.21332876944025281 -0.1383061699982939 0 0.20411402318923141 -0.1477748308854667 0 0.1990061789554857 -0.1341579687035335 0 0.21332876944025281 -0.1383061699982939 0 0.21813121850054179 -0.15198749839900499 0 0.20411402318923141 -0.1477748308854667 0 0.21813121850054179 -0.15198749839900499 0 0.20411402318923141 -0.1477748308854667 0 0.2091047959714033 -0.16022922183871621 0 0.20411402318923141 -0.1477748308854667 0 0.18902586800178781 -0.14422410044399481 0 0.1990061789554857 -0.1341579687035335 0 0.20411402318923141 -0.1477748308854667 0 0.196087308265917 -0.15774402592925671 0 0.2091047959714033 -0.16022922183871621 0 0.20411402318923141 -0.1477748308854667 0 0.18902586800178781 -0.14422410044399481 0 0.196087308265917 -0.15774402592925671 0 0.18902586800178781 -0.14422410044399481 0 0.196087308265917 -0.15774402592925671 0 0.1849194570976064 -0.1579497596047906 0 0.18902586800178781 -0.14422410044399481 0 0.1990061789554857 -0.1341579687035335 0 0.18690088777785041 -0.13169298809281629 0 0.20801658061820411 -0.1231501390478832 0 0.19230394039212739 -0.1190040137305175 0 0.1990061789554857 -0.1341579687035335 0 0.19230394039212739 -0.1190040137305175 0 0.1990061789554857 -0.1341579687035335 0 0.18690088777785041 -0.13169298809281629 0 0.19947717539053569 -0.18596992250038319 0 0.18990218793477581 -0.17048346133235701 0 0.18385105217801731 -0.18561139683218569 0 0.19947717539053569 -0.18596992250038319 0 0.18990218793477581 -0.17048346133235701 0 0.2028251528999892 -0.17059051926084251 0 0.18990218793477581 -0.17048346133235701 0 0.196087308265917 -0.15774402592925671 0 0.1849194570976064 -0.1579497596047906 0 0.196087308265917 -0.15774402592925671 0 0.2028251528999892 -0.17059051926084251 0 0.2091047959714033 -0.16022922183871621 0 0.18990218793477581 -0.17048346133235701 0 0.196087308265917 -0.15774402592925671 0 0.2028251528999892 -0.17059051926084251 0 0.2028251528999892 -0.17059051926084251 0 0.2091047959714033 -0.16022922183871621 0 0.21425029966587689 -0.17040619026259651 0 0.21813121850054179 -0.15198749839900499 0 0.2091047959714033 -0.16022922183871621 0 0.2182448621791313 -0.16259331046090941 0 0.2091047959714033 -0.16022922183871621 0 0.2182448621791313 -0.16259331046090941 0 0.21425029966587689 -0.17040619026259651 0 0.21425029966587689 -0.17040619026259651 0 0.21226941986921269 -0.1810625799440638 0 0.22361473729946879 -0.1781149134234073 0 0.19947717539053569 -0.18596992250038319 0 0.2028251528999892 -0.17059051926084251 0 0.21226941986921269 -0.1810625799440638 0 0.2028251528999892 -0.17059051926084251 0 0.21425029966587689 -0.17040619026259651 0 0.21226941986921269 -0.1810625799440638 0 0.19947717539053569 -0.18596992250038319 0 0.21226941986921269 -0.1810625799440638 0 0.21240243776051199 -0.1916727753860096 0 0.21226941986921269 -0.1810625799440638 0 0.2212578730489688 -0.1888614350105631 0 0.21240243776051199 -0.1916727753860096 0 0.22361473729946879 -0.1781149134234073 0 0.22880917533686509 -0.1859602445359568 0 0.2212578730489688 -0.1888614350105631 0 0.21226941986921269 -0.1810625799440638 0 0.22361473729946879 -0.1781149134234073 0 0.2212578730489688 -0.1888614350105631 0 0.21425029966587689 -0.17040619026259651 0 0.22361473729946879 -0.1781149134234073 0 0.22561373428249901 -0.16794658525115741 0 0.22361473729946879 -0.1781149134234073 0 0.23045373284152851 -0.17404563013137689 0 0.22561373428249901 -0.16794658525115741 0 0.22361473729946879 -0.1781149134234073 0 0.23045373284152851 -0.17404563013137689 0 0.23346732389910821 -0.18001571083645751 0 0.23045373284152851 -0.17404563013137689 0 0.2346192801875791 -0.16958074084712679 0 0.23536841848986539 -0.1751026676649885 0 0.23045373284152851 -0.17404563013137689 0 0.23346732389910821 -0.18001571083645751 0 0.23536841848986539 -0.1751026676649885 0 0.22361473729946879 -0.1781149134234073 0 0.23346732389910821 -0.18001571083645751 0 0.22880917533686509 -0.1859602445359568 0 0.23346732389910821 -0.18001571083645751 0 0.22880917533686509 -0.1859602445359568 0 0.23644750965400521 -0.1878082281836109 0 0.2182448621791313 -0.16259331046090941 0 0.2257842085614781 -0.1589049495117798 0 0.22561373428249901 -0.16794658525115741 0 0.21813121850054179 -0.15198749839900499 0 0.2182448621791313 -0.16259331046090941 0 0.2257842085614781 -0.1589049495117798 0 0.2182448621791313 -0.16259331046090941 0 0.21425029966587689 -0.17040619026259651 0 0.22561373428249901 -0.16794658525115741 0 0.22561373428249901 -0.16794658525115741 0 0.23203269497871681 -0.16257989640547449 0 0.2346192801875791 -0.16958074084712679 0 0.23045373284152851 -0.17404563013137689 0 0.22561373428249901 -0.16794658525115741 0 0.2346192801875791 -0.16958074084712679 0 0.2257842085614781 -0.1589049495117798 0 0.22561373428249901 -0.16794658525115741 0 0.23203269497871681 -0.16257989640547449 0 0.2340135689188455 -0.15520440163206459 0 0.2257842085614781 -0.1589049495117798 0 0.23203269497871681 -0.16257989640547449 0 0.2340135689188455 -0.15520440163206459 0 0.23203269497871681 -0.16257989640547449 0 0.23935432925636371 -0.16317305589830761 0 0.24580873852321239 -0.15139799092491929 0 0.2340135689188455 -0.15520440163206459 0 0.23935432925636371 -0.16317305589830761 0 0.23935432925636371 -0.16317305589830761 0 0.2398355912407443 -0.1699996922189535 0 0.24413068339179531 -0.1685166429868013 0 0.23935432925636371 -0.16317305589830761 0 0.2346192801875791 -0.16958074084712679 0 0.2398355912407443 -0.1699996922189535 0 0.23203269497871681 -0.16257989640547449 0 0.23935432925636371 -0.16317305589830761 0 0.2346192801875791 -0.16958074084712679 0 0.2346192801875791 -0.16958074084712679 0 0.2398355912407443 -0.1699996922189535 0 0.23947196236381879 -0.17396879967433701 0 0.23935432925636371 -0.16317305589830761 0 0.24413068339179531 -0.1685166429868013 0 0.24827657619030499 -0.16329531176010531 0 0.24413068339179531 -0.1685166429868013 0 0.2429022544564835 -0.17272561178668969 0 0.24553772461356671 -0.1721258789287913 0 0.2398355912407443 -0.1699996922189535 0 0.24413068339179531 -0.1685166429868013 0 0.2429022544564835 -0.17272561178668969 0 0.24413068339179531 -0.1685166429868013 0 0.24887762459330839 -0.16978030732796051 0 0.24553772461356671 -0.1721258789287913 0 0.24413068339179531 -0.1685166429868013 0 0.24887762459330839 -0.16978030732796051 0 0.24827657619030499 -0.16329531176010531 0 0.25505816379881491 -0.15574787727149389 0 0.24580873852321239 -0.15139799092491929 0 0.24827657619030499 -0.16329531176010531 0 0.24580873852321239 -0.15139799092491929 0 0.23935432925636371 -0.16317305589830761 0 0.24827657619030499 -0.16329531176010531 0 0.23852670449137431 -0.1824320985573713 0 0.2426158349828248 -0.17987938399190589 0 0.2427620466801233 -0.1845862220753974 0 0.23852670449137431 -0.1824320985573713 0 0.2388297931572928 -0.17790245683564429 0 0.2426158349828248 -0.17987938399190589 0 0.23852670449137431 -0.1824320985573713 0 0.2427620466801233 -0.1845862220753974 0 0.23644750965400521 -0.1878082281836109 0 0.23346732389910821 -0.18001571083645751 0 0.23852670449137431 -0.1824320985573713 0 0.23644750965400521 -0.1878082281836109 0 0.23346732389910821 -0.18001571083645751 0 0.23852670449137431 -0.1824320985573713 0 0.2388297931572928 -0.17790245683564429 0 0.23346732389910821 -0.18001571083645751 0 0.23536841848986539 -0.1751026676649885 0 0.2388297931572928 -0.17790245683564429 0 0.23536841848986539 -0.1751026676649885 0 0.23947196236381879 -0.17396879967433701 0 0.2388297931572928 -0.17790245683564429 0 0.2346192801875791 -0.16958074084712679 0 0.23536841848986539 -0.1751026676649885 0 0.23947196236381879 -0.17396879967433701 0 0.2398355912407443 -0.1699996922189535 0 0.23947196236381879 -0.17396879967433701 0 0.2429022544564835 -0.17272561178668969 0 0.23947196236381879 -0.17396879967433701 0 0.24242861830812351 -0.17593256168321739 0 0.2429022544564835 -0.17272561178668969 0 0.23947196236381879 -0.17396879967433701 0 0.2388297931572928 -0.17790245683564429 0 0.24242861830812351 -0.17593256168321739 0 0.2388297931572928 -0.17790245683564429 0 0.24242861830812351 -0.17593256168321739 0 0.2426158349828248 -0.17987938399190589 0 0.24242861830812351 -0.17593256168321739 0 0.2454608018927206 -0.17695123780916461 0 0.2426158349828248 -0.17987938399190589 0 0.2454608018927206 -0.17695123780916461 0 0.2465031377955956 -0.1822102860530769 0 0.2426158349828248 -0.17987938399190589 0 0.24242861830812351 -0.17593256168321739 0 0.2429022544564835 -0.17272561178668969 0 0.24491315331098179 -0.17440963378015359 0 0.24242861830812351 -0.17593256168321739 0 0.2454608018927206 -0.17695123780916461 0 0.24491315331098179 -0.17440963378015359 0 0.2429022544564835 -0.17272561178668969 0 0.24491315331098179 -0.17440963378015359 0 0.24553772461356671 -0.1721258789287913 0 0.24887762459330839 -0.16978030732796051 0 0.24553772461356671 -0.1721258789287913 0 0.24860364772782129 -0.17552991977987151 0 0.2454608018927206 -0.17695123780916461 0 0.24491315331098179 -0.17440963378015359 0 0.24860364772782129 -0.17552991977987151 0 0.24491315331098179 -0.17440963378015359 0 0.24553772461356671 -0.1721258789287913 0 0.24860364772782129 -0.17552991977987151 0 0.2454608018927206 -0.17695123780916461 0 0.24860364772782129 -0.17552991977987151 0 0.2465031377955956 -0.1822102860530769 0 0.2454608018927206 -0.17695123780916461 0 0.24860364772782129 -0.17552991977987151 0 0.25148260257237132 -0.1893326623892739 0 0.24860364772782129 -0.17552991977987151 0 0.2465031377955956 -0.1822102860530769 0 0.2465031377955956 -0.1822102860530769 0 0.2426158349828248 -0.17987938399190589 0 0.2427620466801233 -0.1845862220753974 0 0.2465031377955956 -0.1822102860530769 0 0.2427620466801233 -0.1845862220753974 0 0.24600794887555399 -0.186679164828674 0 0.2427620466801233 -0.1845862220753974 0 0.24600794887555399 -0.186679164828674 0 0.24328400845412579 -0.1905874887969477 0 0.25148260257237132 -0.1893326623892739 0 0.2465031377955956 -0.1822102860530769 0 0.24600794887555399 -0.186679164828674 0 0.25148260257237132 -0.1893326623892739 0 0.24328400845412579 -0.1905874887969477 0 0.24268963472839261 -0.20343292269963939 0 0.25148260257237132 -0.1893326623892739 0 0.24600794887555399 -0.186679164828674 0 0.24328400845412579 -0.1905874887969477 0 0.2427620466801233 -0.1845862220753974 0 0.24328400845412579 -0.1905874887969477 0 0.23644750965400521 -0.1878082281836109 0 0.24328400845412579 -0.1905874887969477 0 0.23644750965400521 -0.1878082281836109 0 0.23672052152502551 -0.195523237285226 0 0.24328400845412579 -0.1905874887969477 0 0.23672052152502551 -0.195523237285226 0 0.24268963472839261 -0.20343292269963939 0 0.23672052152502551 -0.195523237285226 0 0.24268963472839261 -0.20343292269963939 0 0.231273793991539 -0.20192922319356391 0 0.25071913866524609 -0.2088259921999813 0 0.24268963472839261 -0.20343292269963939 0 0.24014694916641691 -0.21487500446011959 0 0.24268963472839261 -0.20343292269963939 0 0.24014694916641691 -0.21487500446011959 0 0.22349142216324569 -0.21499113264991079 0 0.25071913866524609 -0.2088259921999813 0 0.24014694916641691 -0.21487500446011959 0 0.24991292453773681 -0.2209327593510462 0 0.24268963472839261 -0.20343292269963939 0 0.22349142216324569 -0.21499113264991079 0 0.24268963472839261 -0.20343292269963939 0 0.22349142216324569 -0.21499113264991079 0 0.231273793991539 -0.20192922319356391 0 0.24014694916641691 -0.21487500446011959 0 0.22349142216324569 -0.21499113264991079 0 0.22349142216324569 -0.21499113264991079 0 0.22157999034247239 -0.20071753397181211 0 0.231273793991539 -0.20192922319356391 0 0.22157999034247239 -0.20071753397181211 0 0.2212578730489688 -0.1888614350105631 0 0.22990766079706509 -0.19385832355236809 0 0.22880917533686509 -0.1859602445359568 0 0.23644750965400521 -0.1878082281836109 0 0.22990766079706509 -0.19385832355236809 0 0.22880917533686509 -0.1859602445359568 0 0.2212578730489688 -0.1888614350105631 0 0.22990766079706509 -0.19385832355236809 0 0.23644750965400521 -0.1878082281836109 0 0.23672052152502551 -0.195523237285226 0 0.22990766079706509 -0.19385832355236809 0 0.23672052152502551 -0.195523237285226 0 0.22990766079706509 -0.19385832355236809 0 0.231273793991539 -0.20192922319356391 0 0.22157999034247239 -0.20071753397181211 0 0.22990766079706509 -0.19385832355236809 0 0.231273793991539 -0.20192922319356391 0 0.25130844721976531 -0.23249202155761681 0 0.2425869977773347 -0.2530110808549289 0 0.23611300862143469 -0.22932560238954899 0 0.2425869977773347 -0.2530110808549289 0 0.23611300862143469 -0.22932560238954899 0 0.2267389340957664 -0.2418178955646223 0 0.25130844721976531 -0.23249202155761681 0 0.23611300862143469 -0.22932560238954899 0 0.24991292453773681 -0.2209327593510462 0 0.24014694916641691 -0.21487500446011959 0 0.23611300862143469 -0.22932560238954899 0 0.24991292453773681 -0.2209327593510462 0 0.24014694916641691 -0.21487500446011959 0 0.22349142216324569 -0.21499113264991079 0 0.23611300862143469 -0.22932560238954899 0 0.22349142216324569 -0.21499113264991079 0 0.23611300862143469 -0.22932560238954899 0 0.22025625292974249 -0.23097685964495079 0 0.23611300862143469 -0.22932560238954899 0 0.22025625292974249 -0.23097685964495079 0 0.2267389340957664 -0.2418178955646223 0 0.22625439958297691 -0.25656269544022259 0 0.2267389340957664 -0.2418178955646223 0 0.2097396511237111 -0.24274520029346891 0 0.22025625292974249 -0.23097685964495079 0 0.2267389340957664 -0.2418178955646223 0 0.2097396511237111 -0.24274520029346891 0 0.22349142216324569 -0.21499113264991079 0 0.2051982486445548 -0.22600446732720331 0 0.22349142216324569 -0.21499113264991079 0 0.22025625292974249 -0.23097685964495079 0 0.2051982486445548 -0.22600446732720331 0 0.22025625292974249 -0.23097685964495079 0 0.2097396511237111 -0.24274520029346891 0 0.2051982486445548 -0.22600446732720331 0 0.2097396511237111 -0.24274520029346891 0 0.2051982486445548 -0.22600446732720331 0 0.19362850567749271 -0.23236121979251051 0 0.19362850567749271 -0.23236121979251051 0 0.1937284392785848 -0.21519865063025079 0 0.17897791021978951 -0.2284252563611264 0 0.2051982486445548 -0.22600446732720331 0 0.19362850567749271 -0.23236121979251051 0 0.1937284392785848 -0.21519865063025079 0 0.2097396511237111 -0.24274520029346891 0 0.19362850567749271 -0.23236121979251051 0 0.19479421355439899 -0.24532330472355049 0 0.19362850567749271 -0.23236121979251051 0 0.19479421355439899 -0.24532330472355049 0 0.18108999837583681 -0.24278436805804121 0 0.18993780220987239 -0.25497306796996289 0 0.19479421355439899 -0.24532330472355049 0 0.18108999837583681 -0.24278436805804121 0 0.200656609462492 -0.25555746859197959 0 0.2097396511237111 -0.24274520029346891 0 0.19479421355439899 -0.24532330472355049 0 0.19947717539053569 -0.18596992250038319 0 0.20742773015137031 -0.2017524055032256 0 0.21240243776051199 -0.1916727753860096 0 0.22157999034247239 -0.20071753397181211 0 0.2212578730489688 -0.1888614350105631 0 0.21240243776051199 -0.1916727753860096 0 0.22157999034247239 -0.20071753397181211 0 0.20742773015137031 -0.2017524055032256 0 0.21240243776051199 -0.1916727753860096 0 0.22349142216324569 -0.21499113264991079 0 0.22157999034247239 -0.20071753397181211 0 0.20742773015137031 -0.2017524055032256 0 0.22349142216324569 -0.21499113264991079 0 0.20742773015137031 -0.2017524055032256 0 0.1937284392785848 -0.21519865063025079 0 0.22349142216324569 -0.21499113264991079 0 0.2051982486445548 -0.22600446732720331 0 0.1937284392785848 -0.21519865063025079 0 0.22349142216324569 -0.21499113264991079 0 0.1937284392785848 -0.21519865063025079 0 0.1937284392785848 -0.21519865063025079 0 0.19352960038064629 -0.19983219310372269 0 0.17873338815061521 -0.1990152668170318 0 0.20742773015137031 -0.2017524055032256 0 0.1937284392785848 -0.21519865063025079 0 0.19352960038064629 -0.19983219310372269 0 0.19947717539053569 -0.18596992250038319 0 0.20742773015137031 -0.2017524055032256 0 0.19352960038064629 -0.19983219310372269 0 0.19947717539053569 -0.18596992250038319 0 0.19352960038064629 -0.19983219310372269 0 0.18385105217801731 -0.18561139683218569 0 0.19352960038064629 -0.19983219310372269 0 0.17873338815061521 -0.1990152668170318 0 0.18385105217801731 -0.18561139683218569 0 0.17873338815061521 -0.1990152668170318 0 0.18385105217801731 -0.18561139683218569 0 0.16731844536073831 -0.18493806316087849 0 0.1937284392785848 -0.21519865063025079 0 0.16396545639392379 -0.21540616861059059 0 0.1937284392785848 -0.21519865063025079 0 0.17873338815061521 -0.1990152668170318 0 0.16396545639392379 -0.21540616861059059 0 0.17873338815061521 -0.1990152668170318 0 0.16396545639392379 -0.21540616861059059 0 0.15853181387168669 -0.20138808479676529 0 0.16396545639392379 -0.21540616861059059 0 0.15853181387168669 -0.20138808479676529 0 0.15157030302364541 -0.21315588924546541 0 0.15853181387168669 -0.20138808479676529 0 0.14890410992385389 -0.1864185374503794 0 0.16731844536073831 -0.18493806316087849 0 0.17873338815061521 -0.1990152668170318 0 0.15853181387168669 -0.20138808479676529 0 0.16731844536073831 -0.18493806316087849 0 0.18108999837583681 -0.24278436805804121 0 0.17897791021978951 -0.2284252563611264 0 0.16043537309553171 -0.2324118736573979 0 0.19362850567749271 -0.23236121979251051 0 0.18108999837583681 -0.24278436805804121 0 0.17897791021978951 -0.2284252563611264 0 0.1937284392785848 -0.21519865063025079 0 0.16396545639392379 -0.21540616861059059 0 0.17897791021978951 -0.2284252563611264 0 0.16396545639392379 -0.21540616861059059 0 0.16043537309553171 -0.2324118736573979 0 0.14581296076521941 -0.22436109314424249 0 0.16396545639392379 -0.21540616861059059 0 0.17897791021978951 -0.2284252563611264 0 0.16043537309553171 -0.2324118736573979 0 0.17171055168490701 -0.25543532470283709 0 0.16043537309553171 -0.2324118736573979 0 0.15382594782826181 -0.2456638197013967 0 0.17171055168490701 -0.25543532470283709 0 0.18108999837583681 -0.24278436805804121 0 0.16043537309553171 -0.2324118736573979 0 0.17171055168490701 -0.25543532470283709 0 0.16043537309553171 -0.2324118736573979 0 0.14586321943159419 -0.25281070489990048 0 0.14326640903758939 -0.2423350284972916 0 0.15382594782826181 -0.2456638197013967 0 0.14326640903758939 -0.2423350284972916 0 0.15382594782826181 -0.2456638197013967 0 0.14957517560554151 -0.23509083052070109 0 0.16043537309553171 -0.2324118736573979 0 0.15382594782826181 -0.2456638197013967 0 0.14957517560554151 -0.23509083052070109 0 0.14326640903758939 -0.2423350284972916 0 0.14957517560554151 -0.23509083052070109 0 0.14255763635217811 -0.2329623946029733 0 0.14957517560554151 -0.23509083052070109 0 0.14255763635217811 -0.2329623946029733 0 0.14581296076521941 -0.22436109314424249 0 0.16043537309553171 -0.2324118736573979 0 0.14957517560554151 -0.23509083052070109 0 0.14581296076521941 -0.22436109314424249 0 0.14581296076521941 -0.22436109314424249 0 0.13058722452589869 -0.2312026547495564 0 0.13974566722487661 -0.20881059609996799 0 0.13058722452589869 -0.2312026547495564 0 0.13974566722487661 -0.20881059609996799 0 0.14255763635217811 -0.2329623946029733 0 0.14581296076521941 -0.22436109314424249 0 0.13058722452589869 -0.2312026547495564 0 0.13579275332020729 -0.25802606917693138 0 0.1248312630638693 -0.25185872287740718 0 0.12718437250906139 -0.2395225039249424 0 0.13579275332020729 -0.25802606917693138 0 0.14326640903758939 -0.2423350284972916 0 0.13058722452589869 -0.2312026547495564 0 0.13579275332020729 -0.25802606917693138 0 0.13058722452589869 -0.2312026547495564 0 0.12718437250906139 -0.2395225039249424 0 0.13579275332020729 -0.25802606917693138 0 0.13058722452589869 -0.2312026547495564 0 0.14326640903758939 -0.2423350284972916 0 0.14255763635217811 -0.2329623946029733 0 0.13058722452589869 -0.2312026547495564 0 0.1189971638902782 -0.23326468930093289 0 0.13058722452589869 -0.2312026547495564 0 0.12718437250906139 -0.2395225039249424 0 0.13058722452589869 -0.2312026547495564 0 0.12718437250906139 -0.2395225039249424 0 0.13974566722487661 -0.20881059609996799 0 0.13471011939963179 -0.19461486745552789 0 0.14890410992385389 -0.1864185374503794 0 0.13974566722487661 -0.20881059609996799 0 0.14890410992385389 -0.1864185374503794 0 0.15853181387168669 -0.20138808479676529 0 0.13974566722487661 -0.20881059609996799 0 0.14890410992385389 -0.1864185374503794 0 0.16396545639392379 -0.21540616861059059 0 0.14581296076521941 -0.22436109314424249 0 0.15157030302364541 -0.21315588924546541 0 0.15853181387168669 -0.20138808479676529 0 0.15157030302364541 -0.21315588924546541 0 0.13974566722487661 -0.20881059609996799 0 0.14581296076521941 -0.22436109314424249 0 0.15157030302364541 -0.21315588924546541 0 0.13974566722487661 -0.20881059609996799 0 0.13058722452589869 -0.2312026547495564 0 0.12559125031348151 -0.2054590478916673 0 0.13058722452589869 -0.2312026547495564 0 0.13974566722487661 -0.20881059609996799 0 0.12559125031348151 -0.2054590478916673 0 0.1205952761010651 -0.17971544103377821 0 0.12559125031348151 -0.2054590478916673 0 0.13471011939963179 -0.19461486745552789 0 0.13974566722487661 -0.20881059609996799 0 0.12559125031348151 -0.2054590478916673 0 0.13471011939963179 -0.19461486745552789 0 0.1205952761010651 -0.17971544103377821 0 0.14890410992385389 -0.1864185374503794 0 0.13831526705813191 -0.16436677917069459 0 0.1205952761010651 -0.17971544103377821 0 0.13471011939963179 -0.19461486745552789 0 0.14890410992385389 -0.1864185374503794 0 0.14890410992385389 -0.1864185374503794 0 0.15806255262283131 -0.1640264788007908 0 0.13831526705813191 -0.16436677917069459 0 0.1493360391655458 -0.15323560870747799 0 0.15806255262283131 -0.1640264788007908 0 0.14890410992385389 -0.1864185374503794 0 0.13831526705813191 -0.16436677917069459 0 0.15806255262283131 -0.1640264788007908 0 0.13831526705813191 -0.16436677917069459 0 0.1390919372741333 -0.15368590146124189 0 0.1493360391655458 -0.15323560870747799 0 0.13831526705813191 -0.16436677917069459 0 0.1291580076185154 -0.15190862650104869 0 0.1390919372741333 -0.15368590146124189 0 0.1205952761010651 -0.17971544103377821 0 0.13831526705813191 -0.16436677917069459 0 0.12591696316659029 -0.1624906702203526 0 0.13831526705813191 -0.16436677917069459 0 0.12591696316659029 -0.1624906702203526 0 0.1291580076185154 -0.15190862650104869 0 0.1291580076185154 -0.15190862650104869 0 0.12502682387673331 -0.14148298094118911 0 0.14044157931751239 -0.14375047992813481 0 0.1291580076185154 -0.15190862650104869 0 0.14044157931751239 -0.14375047992813481 0 0.1390919372741333 -0.15368590146124189 0 0.12502682387673331 -0.14148298094118911 0 0.14044157931751239 -0.14375047992813481 0 0.12907740542747331 -0.1295625291261383 0 0.14044157931751239 -0.14375047992813481 0 0.12907740542747331 -0.1295625291261383 0 0.1407751965703094 -0.13061285813672649 0 0.1353253269056639 -0.1189354891747306 0 0.12907740542747331 -0.1295625291261383 0 0.1407751965703094 -0.13061285813672649 0 0.1407751965703094 -0.13061285813672649 0 0.1464973314016132 -0.13657585301362191 0 0.15264513183704451 -0.12768127149877009 0 0.14667408107618121 -0.1203417034652623 0 0.1407751965703094 -0.13061285813672649 0 0.15264513183704451 -0.12768127149877009 0 0.14044157931751239 -0.14375047992813481 0 0.1464973314016132 -0.13657585301362191 0 0.15371008163108679 -0.14115855312816111 0 0.14044157931751239 -0.14375047992813481 0 0.1407751965703094 -0.13061285813672649 0 0.1464973314016132 -0.13657585301362191 0 0.15264513183704451 -0.12768127149877009 0 0.15371008163108679 -0.14115855312816111 0 0.1616500134161791 -0.12977646666149911 0 0.1464973314016132 -0.13657585301362191 0 0.15264513183704451 -0.12768127149877009 0 0.15371008163108679 -0.14115855312816111 0 0.14044157931751239 -0.14375047992813481 0 0.1390919372741333 -0.15368590146124189 0 0.1493360391655458 -0.15323560870747799 0 0.14044157931751239 -0.14375047992813481 0 0.15371008163108679 -0.14115855312816111 0 0.1493360391655458 -0.15323560870747799 0 0.15371008163108679 -0.14115855312816111 0 0.1493360391655458 -0.15323560870747799 0 0.16722099532180859 -0.14163442015120209 0 0.16722099532180859 -0.14163442015120209 0 0.15806255262283131 -0.1640264788007908 0 0.16722099532180859 -0.14163442015120209 0 0.17478605892696361 -0.14746144351164789 0 0.15806255262283131 -0.1640264788007908 0 0.1493360391655458 -0.15323560870747799 0 0.16722099532180859 -0.14163442015120209 0 0.15806255262283131 -0.1640264788007908 0 0.17374436243650171 -0.1217542727551779 0 0.16722099532180859 -0.14163442015120209 0 0.1616500134161791 -0.12977646666149911 0 0.15371008163108679 -0.14115855312816111 0 0.16722099532180859 -0.14163442015120209 0 0.1616500134161791 -0.12977646666149911 0 0.17374436243650171 -0.1217542727551779 0 0.16722099532180859 -0.14163442015120209 0 0.17478605892696361 -0.14746144351164789 0 0.17374436243650171 -0.1217542727551779 0 0.18111429428577591 -0.1362832012009092 0 0.17478605892696361 -0.14746144351164789 0 0.17374436243650171 -0.1217542727551779 0 0.17478605892696361 -0.14746144351164789 0 0.18902586800178781 -0.14422410044399481 0 0.18111429428577591 -0.1362832012009092 0 0.18690088777785041 -0.13169298809281629 0 0.17374436243650171 -0.1217542727551779 0 0.18111429428577591 -0.1362832012009092 0 0.18690088777785041 -0.13169298809281629 0 0.18902586800178781 -0.14422410044399481 0 0.18111429428577591 -0.1362832012009092 0 0.17478605892696361 -0.14746144351164789 0 0.18902586800178781 -0.14422410044399481 0 0.17478605892696361 -0.14746144351164789 0 0.1849194570976064 -0.1579497596047906 0 0.17478605892696361 -0.14746144351164789 0 0.1758277554174256 -0.173168614268118 0 0.17478605892696361 -0.14746144351164789 0 0.1849194570976064 -0.1579497596047906 0 0.1758277554174256 -0.173168614268118 0 0.18990218793477581 -0.17048346133235701 0 0.1849194570976064 -0.1579497596047906 0 0.1758277554174256 -0.173168614268118 0 0.18990218793477581 -0.17048346133235701 0 0.18385105217801731 -0.18561139683218569 0 0.1758277554174256 -0.173168614268118 0 0.18385105217801731 -0.18561139683218569 0 0.1758277554174256 -0.173168614268118 0 0.16731844536073831 -0.18493806316087849 0 0.14890410992385389 -0.1864185374503794 0 0.16731844536073831 -0.18493806316087849 0 0.15806255262283131 -0.1640264788007908 0 0.1758277554174256 -0.173168614268118 0 0.16731844536073831 -0.18493806316087849 0 0.15806255262283131 -0.1640264788007908 0 0.17478605892696361 -0.14746144351164789 0 0.1758277554174256 -0.173168614268118 0 0.15806255262283131 -0.1640264788007908 0 
</DataArray>
</Points>
<Cells>
<DataArray type="UInt32" Name="connectivity" format="ascii">
0 1 2 3 4 5 6 7 8 9 10 11 12 13 14 15 16 17 18 19 20 21 22 23 24 25 26 27 28 29 30 31 32 33 34 35 36 37 38 39 40 41 42 43 44 45 46 47 48 49 50 51 52 53 54 55 56 57 58 59 60 61 62 63 64 65 66 67 68 69 70 71 72 73 74 75 76 77 78 79 80 81 82 83 84 85 86 87 88 89 90 91 92 93 94 95 96 97 98 99 100 101 102 103 104 105 106 107 108 109 110 111 112 113 114 115 116 117 118 119 120 121 122 123 124 125 126 127 128 129 130 131 132 133 134 135 136 137 138 139 140 141 142 143 144 145 146 147 148 149 150 151 152 153 154 155 156 157 158 159 160 161 162 163 164 165 166 167 168 169 170 171 172 173 174 175 176 177 178 179 180 181 182 183 184 185 186 187 188 189 190 191 192 193 194 195 196 197 198 199 200 201 202 203 204 205 206 207 208 209 210 211 212 213 214 215 216 217 218 219 220 221 222 223 224 225 226 227 228 229 230 231 232 233 234 235 236 237 238 239 240 241 242 243 244 245 246 247 248 249 250 251 252 253 254 255 256 257 258 259 260 261 262 263 264 265 266 267 268 269 270 271 272 273 274 275 276 277 278 279 280 281 282 283 284 285 286 287 288 289 290 291 292 293 294 295 296 297 298 299 300 301 302 303 304 305 306 307 308 309 310 311 312 313 314 315 316 317 318 319 320 321 322 323 324 325 326 327 328 329 330 331 332 333 334 335 336 337 338 339 340 341 342 343 344 345 346 347 348 349 350 351 352 353 354 355 356 357 358 359 360 361 362 363 364 365 366 367 368 369 370 371 372 373 374 375 376 377 378 379 380 381 382 383 384 385 386 387 388 389 390 391 392 393 394 395 396 397 398 399 400 401 402 403 404 405 406 407 408 409 410 411 412 413 414 415 416 417 418 419 420 421 422 423 424 425 426 427 428 429 430 431 432 433 434 435 436 437 438 439 440 441 442 443 444 445 446 447 448 449 450 451 452 453 454 455 456 457 458 459 460 461 462 463 464 465 466 467 468 469 470 471 472 473 474 475 476 477 478 479 480 481 482 483 484 485 486 487 488 489 490 491 492 493 494 495 496 497 498 499 500 501 502 503 504 505 506 507 508 509 510 511 512 513 514 515 516 517 518 519 520 521 522 523 524 525 526 527 528 529 530 531 532 533 534 535 536 537 538 539 540 541 542 543 544 545 546 547 548 549 550 551 552 553 554 555 556 557 558 559 560 561 562 563 564 565 566 567 568 569 570 571 572 573 574 575 576 577 578 579 580 581 582 583 584 585 586 587 588 589 590 591 592 593 594 595 596 597 598 599 600 601 602 603 604 605 606 607 608 609 610 611 612 613 614 615 616 617 618 619 620 621 622 623 624 625 626 627 628 629 630 631 632 633 634 635 636 637 638 639 640 641 642 643 644 645 646 647 648 649 650 651 652 653 654 655 656 657 658 659 660 661 662 663 664 665 666 667 668 669 670 671 672 673 674 675 676 677 678 679 680 681 682 683 684 685 686 687 688 689 690 691 692 693 694 695 696 697 698 699 700 701 702 703 704 705 706 707 708 709 710 711 712 713 714 715 716 717 718 719 720 721 722 723 724 725 726 727 728 729 730 731 732 733 734 735 736 737 738 739 740 741 742 743 744 745 746 747 748 749 750 751 752 753 754 755 756 757 758 759 760 761 762 763 764 765 766 767 768 769 770 771 772 773 774 775 776 777 778 779 780 781 782 783 784 785 786 787 788 789 790 791 792 793 794 795 796 797 798 799 800 801 802 803 804 805 806 807 808 809 810 811 812 813 814 815 816 817 818 819 820 821 822 823 824 825 826 827 828 829 830 831 832 833 834 835 836 837 838 839 840 841 842 843 844 845 846 847 848 849 850 851 852 853 854 855 856 857 858 859 860 861 862 863 864 865 866 867 868 869 870 871 872 873 874 875 876 877 878 879 880 881 882 883 884 885 886 887 888 889 890 891 892 893 894 895 896 897 898 899 900 901 902 903 904 905 906 907 908 909 910 911 912 913 914 915 916 917 918 919 920 921 922 923 924 925 926 927 928 929 930 931 932 933 934 935 936 937 938 939 940 941 942 943 944 945 946 947 948 949 950 951 952 953 954 955 956 957 958 959 960 961 962 963 964 965 966 967 968 969 970 971 972 973 974 975 976 977 978 979 980 981 982 983 984 985 986 987 988 989 990 991 992 993 994 995 996 997 998 999 1000 1001 1002 1003 1004 1005 1006 1007 1008 1009 1010 1011 1012 1013 1014 1015 1016 1017 1018 1019 1020 1021 1022 1023 1024 1025 1026 1027 1028 1029 1030 1031 1032 1033 1034 1035 1036 1037 1038 1039 1040 1041 1042 1043 1044 1045 1046 1047 1048 1049 1050 1051 1052 1053 1054 1055 1056 1057 1058 1059 1060 1061 1062 1063 1064 1065 1066 1067 1068 1069 1070 1071 1072 1073 1074 1075 1076 1077 1078 1079 1080 1081 1082 1083 1084 1085 1086 1087 1088 1089 1090 1091 1092 1093 1094 1095 1096 1097 1098 1099 1100 1101 1102 1103 1104 1105 1106 1107 1108 1109 1110 1111 1112 1113 1114 1115 1116 1117 1118 1119 1120 1121 1122 1123 1124 1125 1126 1127 1128 1129 1130 1131 1132 1133 1134 1135 1136 1137 1138 1139 1140 1141 1142 1143 1144 1145 1146 1147 1148 1149 1150 1151 1152 1153 1154 1155 1156 1157 1158 1159 1160 1161 1162 1163 1164 1165 1166 1167 1168 1169 1170 1171 1172 1173 1174 1175 1176 1177 1178 1179 1180 1181 1182 1183 1184 1185 1186 1187 1188 1189 1190 1191 1192 1193 1194 1195 1196 1197 1198 1199 1200 1201 1202 1203 1204 1205 1206 1207 1208 1209 1210 1211 1212 1213 1214 1215 1216 1217 1218 1219 1220 1221 1222 1223 1224 1225 1226 1227 1228 1229 1230 1231 1232 1233 1234 1235 1236 1237 1238 1239 1240 1241 1242 1243 1244 1245 1246 1247 1248 1249 1250 1251 1252 1253 1254 1255 1256 1257 1258 1259 1260 1261 1262 1263 1264 1265 1266 1267 1268 1269 1270 1271 1272 1273 1274 1275 1276 1277 1278 1279 1280 1281 1282 1283 1284 1285 1286 1287 1288 1289 1290 1291 1292 1293 1294 1295 1296 1297 1298 1299 1300 1301 1302 1303 1304 1305 1306 1307 1308 1309 1310 1311 1312 1313 1314 1315 1316 1317 1318 1319 1320 1321 1322 1323 1324 1325 1326 1327 1328 1329 1330 1331 1332 1333 1334 1335 1336 1337 1338 1339 1340 1341 1342 1343 1344 1345 1346 1347 1348 1349 1350 1351 1352 1353 1354 1355 1356 1357 1358 1359 1360 1361 1362 1363 1364 1365 1366 1367 1368 1369 1370 1371 1372 1373 1374 1375 1376 1377 1378 1379 1380 1381 1382 1383 1384 1385 1386 1387 1388 1389 1390 1391 1392 1393 1394 1395 1396 1397 1398 1399 1400 1401 1402 1403 1404 1405 1406 1407 1408 1409 1410 1411 1412 1413 1414 1415 1416 1417 1418 1419 1420 1421 1422 1423 1424 1425 1426 1427 1428 1429 1430 1431 1432 1433 1434 1435 1436 1437 1438 1439 1440 1441 1442 1443 1444 1445 1446 1447 1448 1449 1450 1451 1452 1453 1454 1455 1456 1457 1458 1459 1460 1461 1462 1463 1464 1465 1466 1467 1468 1469 1470 1471 1472 1473 1474 1475 1476 1477 1478 1479 1480 1481 1482 1483 1484 1485 1486 1487 1488 1489 1490 1491 1492 1493 1494 1495 1496 1497 1498 1499 1500 1501 1502 1503 1504 1505 1506 1507 1508 1509 1510 1511 1512 1513 1514 1515 1516 1517 1518 1519 1520 1521 1522 1523 1524 1525 1526 1527 1528 1529 1530 1531 1532 1533 1534 1535 1536 1537 1538 1539 1540 1541 1542 1543 1544 1545 1546 1547 1548 1549 1550 1551 1552 1553 1554 1555 1556 1557 1558 1559 1560 1561 1562 1563 1564 1565 1566 1567 1568 1569 1570 1571 1572 1573 1574 1575 1576 1577 1578 1579 1580 1581 1582 1583 1584 1585 1586 1587 1588 1589 1590 1591 1592 1593 1594 1595 1596 1597 1598 1599 1600 1601 1602 1603 1604 1605 1606 1607 1608 1609 1610 1611 1612 1613 1614 1615 1616 1617 1618 1619 1620 1621 1622 1623 1624 1625 1626 1627 1628 1629 1630 1631 1632 1633 1634 1635 1636 1637 1638 1639 1640 1641 1642 1643 1644 1645 1646 1647 1648 1649 1650 1651 1652 1653 1654 1655 1656 1657 1658 1659 1660 1661 1662 1663 1664 1665 1666 1667 1668 1669 1670 1671 1672 1673 1674 1675 1676 1677 1678 1679 1680 1681 1682 1683 1684 1685 1686 1687 1688 1689 1690 1691 1692 1693 1694 1695 1696 1697 1698 1699 1700 1701 1702 1703 1704 1705 1706 1707 1708 1709 1710 1711 1712 1713 1714 1715 1716 1717 1718 1719 1720 1721 1722 1723 1724 1725 1726 1727 1728 1729 1730 1731 1732 1733 1734 1735 1736 1737 1738 1739 1740 1741 1742 1743 1744 1745 1746 1747 1748 1749 1750 1751 1752 1753 1754 1755 1756 1757 1758 1759 1760 1761 1762 1763 1764 1765 1766 1767 1768 1769 1770 1771 1772 1773 1774 1775 1776 1777 1778 1779 1780 1781 1782 1783 1784 1785 1786 1787 1788 1789 1790 1791 1792 1793 1794 1795 1796 1797 1798 1799 1800 1801 1802 1803 1804 1805 1806 1807 1808 1809 1810 1811 1812 1813 1814 1815 1816 1817 1818 1819 1820 1821 1822 1823 1824 1825 1826 1827 1828 1829 1830 1831 1832 1833 1834 1835 1836 1837 1838 1839 1840 1841 1842 1843 1844 1845 1846 1847 1848 1849 1850 1851 1852 1853 1854 1855 1856 1857 1858 1859 1860 1861 1862 1863 1864 1865 1866 1867 1868 1869 1870 1871 1872 1873 1874 1875 1876 1877 1878 1879 1880 1881 1882 1883 1884 1885 1886 1887 1888 1889 1890 1891 1892 1893 1894 1895 1896 1897 1898 1899 1900 1901 1902 1903 1904 1905 1906 1907 1908 1909 1910 1911 1912 1913 1914 1915 1916 1917 1918 1919 1920 1921 1922 1923 1924 1925 1926 1927 1928 1929 1930 1931 1932 1933 1934 1935 1936 1937 1938 1939 1940 1941 1942 1943 1944 1945 1946 1947 1948 1949 1950 1951 1952 1953 1954 1955 1956 1957 1958 1959 1960 1961 1962 1963 1964 1965 1966 1967 1968 1969 1970 1971 1972 1973 1974 1975 1976 1977 1978 1979 1980 1981 1982 1983 1984 1985 1986 1987 1988 1989 1990 1991 1992 1993 1994 1995 1996 1997 1998 1999 2000 2001 2002 2003 2004 2005 2006 2007 2008 2009 2010 2011 2012 2013 2014 2015 2016 2017 2018 2019 2020 2021 2022 2023 2024 2025 2026 2027 2028 2029 2030 2031 2032 2033 2034 2035 2036 2037 2038 2039 2040 2041 2042 2043 2044 2045 2046 2047 2048 2049 2050 2051 2052 2053 2054 2055 2056 2057 2058 2059 2060 2061 2062 2063 2064 2065 2066 2067 2068 2069 2070 2071 2072 2073 2074 2075 2076 2077 2078 2079 2080 2081 2082 2083 2084 2085 2086 2087 2088 2089 2090 2091 2092 2093 2094 2095 2096 2097 2098 2099 2100 2101 2102 2103 2104 2105 2106 2107 2108 2109 2110 2111 2112 2113 2114 2115 2116 2117 2118 2119 2120 2121 2122 2123 2124 2125 2126 2127 2128 2129 2130 2131 2132 2133 2134 2135 2136 2137 2138 2139 2140 2141 2142 2143 2144 2145 2146 2147 2148 2149 2150 2151 2152 2153 2154 2155 2156 2157 2158 2159 2160 2161 2162 2163 2164 2165 2166 2167 2168 2169 2170 2171 2172 2173 2174 2175 2176 2177 2178 2179 2180 2181 2182 2183 2184 2185 2186 2187 2188 2189 2190 2191 2192 2193 2194 2195 2196 2197 2198 2199 2200 2201 2202 2203 2204 2205 2206 2207 2208 2209 2210 2211 2212 2213 2214 2215 2216 2217 2218 2219 2220 2221 2222 2223 2224 2225 2226 2227 2228 2229 2230 2231 2232 2233 2234 2235 2236 2237 2238 2239 2240 2241 2242 2243 2244 2245 2246 2247 2248 2249 2250 2251 2252 2253 2254 2255 2256 2257 2258 2259 2260 2261 2262 2263 2264 2265 2266 2267 2268 2269 2270 2271 2272 2273 2274 2275 2276 2277 2278 2279 2280 2281 2282 2283 2284 2285 2286 2287 2288 2289 2290 2291 2292 2293 2294 2295 2296 2297 2298 2299 2300 2301 2302 2303 2304 2305 2306 2307 2308 2309 2310 2311 2312 2313 2314 2315 2316 2317 2318 2319 2320 2321 2322 2323 2324 2325 2326 2327 2328 2329 2330 2331 2332 2333 2334 2335 2336 2337 2338 2339 2340 2341 2342 2343 2344 2345 2346 2347 2348 2349 2350 2351 2352 2353 2354 2355 2356 2357 2358 2359 2360 2361 2362 2363 2364 2365 2366 2367 2368 2369 2370 2371 2372 2373 2374 2375 2376 2377 2378 2379 2380 2381 2382 2383 2384 2385 2386 2387 2388 2389 2390 2391 2392 2393 2394 2395 2396 2397 2398 2399 2400 2401 2402 2403 2404 2405 2406 2407 2408 2409 2410 2411 2412 2413 2414 2415 2416 2417 2418 2419 2420 2421 2422 2423 2424 2425 2426 2427 2428 2429 2430 2431 2432 2433 2434 2435 2436 2437 2438 2439 2440 2441 2442 2443 2444 2445 2446 2447 2448 2449 2450 2451 2452 2453 2454 2455 2456 2457 2458 2459 2460 2461 2462 2463 2464 2465 2466 2467 2468 2469 2470 2471 2472 2473 2474 2475 2476 2477 2478 2479 2480 2481 2482 2483 2484 2485 2486 2487 2488 2489 2490 2491 2492 2493 2494 2495 2496 2497 2498 2499 2500 2501 2502 2503 2504 2505 2506 2507 2508 2509 2510 2511 2512 2513 2514 2515 2516 2517 2518 2519 2520 2521 2522 2523 2524 2525 2526 2527 2528 2529 2530 2531 2532 2533 2534 2535 2536 2537 2538 2539 2540 2541 2542 2543 2544 2545 2546 2547 2548 2549 2550 2551 2552 2553 2554 2555 2556 2557 2558 2559 2560 2561 2562 2563 2564 2565 2566 2567 2568 2569 2570 2571 2572 2573 2574 2575 2576 2577 2578 2579 2580 2581 2582 2583 2584 2585 2586 2587 2588 2589 2590 2591 2592 2593 2594 2595 2596 2597 2598 2599 2600 2601 2602 2603 2604 2605 2606 2607 2608 2609 2610 2611 2612 2613 2614 2615 2616 2617 2618 2619 2620 2621 2622 2623 2624 2625 2626 2627 2628 2629 2630 2631 2632 2633 2634 2635 2636 2637 2638 2639 2640 2641 2642 2643 2644 2645 2646 2647 2648 2649 2650 2651 2652 2653 2654 2655 2656 2657 2658 2659 2660 2661 2662 2663 2664 2665 2666 2667 2668 2669 2670 2671 2672 2673 2674 2675 2676 2677 2678 2679 2680 2681 2682 2683 2684 2685 2686 2687 2688 2689 2690 2691 2692 2693 2694 2695 2696 2697 2698 2699 2700 2701 2702 2703 2704 2705 2706 2707 2708 2709 2710 2711 2712 2713 2714 2715 2716 2717 2718 2719 2720 2721 2722 2723 2724 2725 2726 2727 2728 2729 2730 2731 2732 2733 2734 2735 2736 2737 2738 2739 2740 2741 2742 2743 2744 2745 2746 2747 2748 2749 2750 2751 2752 2753 2754 2755 2756 2757 2758 2759 2760 2761 2762 2763 2764 2765 2766 2767 2768 2769 2770 2771 2772 2773 2774 2775 2776 2777 2778 2779 2780 2781 2782 2783 2784 2785 2786 2787 2788 2789 2790 2791 2792 2793 2794 2795 2796 2797 2798 2799 2800 2801 2802 2803 2804 2805 2806 2807 2808 2809 2810 2811 2812 2813 2814 2815 2816 2817 2818 2819 2820 2821 2822 2823 2824 2825 2826 2827 2828 2829 2830 2831 2832 2833 2834 2835 2836 2837 2838 2839 2840 2841 2842 2843 2844 2845 2846 2847 2848 2849 2850 2851 2852 2853 2854 2855 2856 2857 2858 2859 2860 2861 2862 2863 2864 2865 2866 2867 2868 2869 2870 2871 2872 2873 2874 2875 2876 2877 2878 2879 2880 2881 2882 2883 2884 2885 2886 2887 2888 2889 2890 2891 2892 2893 2894 2895 2896 2897 2898 2899 2900 2901 2902 2903 2904 2905 2906 2907 2908 2909 2910 2911 2912 2913 2914 2915 2916 2917 2918 2919 2920 2921 2922 2923 2924 2925 2926 2927 2928 2929 2930 2931 2932 2933 2934 2935 2936 2937 2938 2939 2940 2941 2942 2943 2944 2945 2946 2947 2948 2949 2950 2951 2952 2953 2954 2955 2956 2957 2958 2959 2960 2961 2962 2963 2964 2965 2966 2967 2968 2969 2970 2971 2972 2973 2974 2975 2976 2977 2978 2979 2980 2981 2982 2983 2984 2985 2986 2987 2988 2989 2990 2991 2992 2993 2994 2995 2996 2997 2998 2999 3000 3001 3002 3003 3004 3005 3006 3007 3008 3009 3010 3011 3012 3013 3014 3015 3016 3017 3018 3019 3020 3021 3022 3023 3024 3025 3026 3027 3028 3029 3030 3031 3032 3033 3034 3035 3036 3037 3038 3039 3040 3041 3042 3043 3044 3045 3046 3047 3048 3049 3050 3051 3052 3053 3054 3055 3056 3057 3058 3059 3060 3061 3062 3063 3064 3065 3066 3067 3068 3069 3070 3071 3072 3073 3074 3075 3076 3077 3078 3079 3080 3081 3082 3083 3084 3085 3086 3087 3088 3089 3090 3091 3092 3093 3094 3095 3096 3097 3098 3099 3100 3101 3102 3103 3104 3105 3106 3107 3108 3109 3110 3111 3112 3113 3114 3115 3116 3117 3118 3119 3120 3121 3122 3123 3124 3125 3126 3127 3128 3129 3130 3131 3132 3133 3134 3135 3136 3137 3138 3139 3140 3141 3142 3143 3144 3145 3146 3147 3148 3149 3150 3151 3152 3153 3154 3155 3156 3157 3158 3159 3160 3161 3162 3163 3164 3165 3166 3167 3168 3169 3170 3171 3172 3173 3174 3175 3176 3177 3178 3179 3180 3181 3182 3183 3184 3185 3186 3187 3188 3189 3190 3191 3192 3193 3194 3195 3196 3197 3198 3199 3200 3201 3202 3203 3204 3205 3206 3207 3208 3209 3210 3211 3212 3213 3214 3215 3216 3217 3218 3219 3220 3221 3222 3223 3224 3225 3226 3227 3228 3229 3230 3231 3232 3233 3234 3235 3236 3237 3238 3239 3240 3241 3242 3243 3244 3245 3246 3247 3248 3249 3250 3251 3252 3253 3254 3255 3256 3257 3258 3259 3260 3261 3262 3263 3264 3265 3266 3267 3268 3269 3270 3271 3272 3273 3274 3275 3276 3277 3278 3279 3280 3281 3282 3283 3284 3285 3286 3287 3288 3289 3290 3291 3292 3293 3294 3295 3296 3297 3298 3299 3300 3301 3302 3303 3304 3305 3306 3307 3308 3309 3310 3311 3312 3313 3314 3315 3316 3317 3318 3319 3320 3321 3322 3323 3324 3325 3326 3327 3328 3329 3330 3331 3332 3333 3334 3335 3336 3337 3338 3339 3340 3341 3342 3343 3344 3345 3346 3347 3348 3349 3350 3351 3352 3353 3354 3355 3356 3357 3358 3359 3360 3361 3362 3363 3364 3365 3366 3367 3368 3369 3370 3371 3372 3373 3374 3375 3376 3377 3378 3379 3380 3381 3382 3383 3384 3385 3386 3387 3388 3389 3390 3391 3392 3393 3394 3395 3396 3397 3398 3399 3400 3401 3402 3403 3404 3405 3406 3407 3408 3409 3410 3411 3412 3413 3414 3415 3416 3417 3418 3419 3420 3421 3422 3423 3424 3425 3426 3427 3428 3429 3430 3431 3432 3433 3434 3435 3436 3437 3438 3439 3440 3441 3442 3443 3444 3445 3446 3447 3448 3449 3450 3451 3452 3453 3454 3455 3456 3457 3458 3459 3460 3461 3462 3463 3464 3465 3466 3467 3468 3469 3470 3471 3472 3473 3474 3475 3476 3477 3478 3479 3480 3481 3482 3483 3484 3485 3486 3487 3488 3489 3490 3491 3492 3493 3494 3495 3496 3497 3498 3499 3500 3501 3502 3503 3504 3505 3506 3507 3508 3509 3510 3511 3512 3513 3514 3515 3516 3517 3518 3519 3520 3521 3522 3523 3524 3525 3526 3527 3528 3529 3530 3531 3532 3533 3534 3535 3536 3537 3538 3539 3540 3541 3542 3543 3544 3545 3546 3547 3548 3549 3550 3551 3552 3553 3554 3555 3556 3557 3558 3559 3560 3561 3562 3563 3564 3565 3566 3567 3568 3569 3570 3571 3572 3573 3574 3575 3576 3577 3578 3579 3580 3581 3582 3583 3584 3585 3586 3587 3588 3589 3590 3591 3592 3593 3594 3595 3596 3597 3598 3599 3600 3601 3602 3603 3604 3605 3606 3607 3608 3609 3610 3611 3612 3613 3614 3615 3616 3617 3618 3619 3620 3621 3622 3623 3624 3625 3626 3627 3628 3629 3630 3631 3632 3633 3634 3635 3636 3637 3638 3639 3640 3641 3642 3643 3644 3645 3646 3647 3648 3649 3650 3651 3652 3653 3654 3655 3656 3657 3658 3659 3660 3661 3662 3663 3664 3665 3666 3667 3668 3669 3670 3671 3672 3673 3674 3675 3676 3677 3678 3679 3680 3681 3682 3683 3684 3685 3686 3687 3688 3689 3690 3691 3692 3693 3694 3695 3696 3697 3698 3699 3700 3701 3702 3703 3704 3705 3706 3707 3708 3709 3710 3711 3712 3713 3714 3715 3716 3717 3718 3719 3720 3721 3722 3723 3724 3725 3726 3727 3728 3729 3730 3731 3732 3733 3734 3735 3736 3737 3738 3739 3740 3741 3742 3743 3744 3745 3746 3747 3748 3749 3750 3751 3752 3753 3754 3755 3756 3757 3758 3759 3760 3761 3762 3763 3764 3765 3766 3767 3768 3769 3770 3771 3772 3773 3774 3775 3776 3777 3778 3779 3780 3781 3782 3783 3784 3785 3786 3787 3788 3789 3790 3791 3792 3793 3794 3795 3796 3797 3798 3799 3800 3801 3802 3803 3804 3805 3806 3807 3808 3809 3810 3811 3812 3813 3814 3815 3816 3817 3818 3819 3820 3821 3822 3823 3824 3825 3826 3827 3828 3829 3830 3831 3832 3833 3834 3835 3836 3837 3838 3839 3840 3841 3842 3843 3844 3845 3846 3847 3848 3849 3850 3851 3852 3853 3854 3855 3856 3857 3858 3859 3860 3861 3862 3863 3864 3865 3866 3867 3868 3869 3870 3871 3872 3873 3874 3875 3876 3877 3878 3879 3880 3881 3882 3883 3884 3885 3886 3887 3888 3889 3890 3891 3892 3893 3894 3895 3896 3897 3898 3899 3900 3901 3902 3903 3904 3905 3906 3907 3908 3909 3910 3911 3912 3913 3914 3915 3916 3917 3918 3919 3920 3921 3922 3923 3924 3925 3926 3927 3928 3929 3930 3931 3932 3933 3934 3935 3936 3937 3938 3939 3940 3941 3942 3943 3944 3945 3946 3947 3948 3949 3950 3951 3952 3953 3954 3955 3956 3957 3958 3959 3960 3961 3962 3963 3964 3965 3966 3967 3968 3969 3970 3971 3972 3973 3974 3975 3976 3977 3978 3979 3980 3981 3982 3983 3984 3985 3986 3987 3988 3989 3990 3991 3992 3993 3994 3995 3996 3997 3998 3999 4000 4001 4002 4003 4004 4005 4006 4007 4008 4009 4010 4011 4012 4013 4014 4015 4016 4017 4018 4019 4020 4021 4022 4023 4024 4025 4026 4027 4028 4029 4030 4031 4032 4033 4034 4035 4036 4037 4038 4039 4040 4041 4042 4043 4044 4045 4046 4047 4048 4049 4050 4051 4052 4053 4054 4055 4056 4057 4058 4059 4060 4061 4062 4063 4064 4065 4066 4067 4068 4069 4070 4071 4072 4073 4074 4075 4076 4077 4078 4079 4080 4081 4082 4083 4084 4085 4086 4087 4088 4089 4090 4091 4092 4093 4094 4095 4096 4097 4098 4099 4100 4101 4102 4103 4104 4105 4106 4107 4108 4109 4110 4111 4112 4113 4114 4115 4116 4117 4118 4119 4120 4121 4122 4123 4124 4125 4126 4127 4128 4129 4130 4131 4132 4133 4134 4135 4136 4137 4138 4139 4140 4141 4142 4143 4144 4145 4146 4147 4148 4149 4150 4151 4152 4153 4154 4155 4156 4157 4158 4159 4160 4161 4162 4163 4164 4165 4166 4167 4168 4169 4170 4171 4172 4173 4174 4175 4176 4177 4178 4179 4180 4181 4182 4183 4184 4185 4186 4187 4188 4189 4190 4191 4192 4193 4194 4195 4196 4197 4198 4199 4200 4201 4202 4203 4204 4205 4206 4207 4208 4209 4210 4211 4212 4213 4214 4215 4216 4217 4218 4219 4220 4221 4222 4223 4224 4225 4226 4227 4228 4229 4230 4231 4232 4233 4234 4235 4236 4237 4238 4239 4240 4241 4242 4243 4244 4245 4246 4247 4248 4249 4250 4251 4252 4253 4254 4255 4256 4257 4258 4259 4260 4261 4262 4263 4264 4265 4266 4267 4268 4269 4270 4271 4272 4273 4274 4275 4276 4277 4278 4279 4280 4281 4282 4283 4284 4285 4286 4287 4288 4289 4290 4291 4292 4293 4294 4295 4296 4297 4298 4299 4300 4301 4302 4303 4304 4305 4306 4307 4308 4309 4310 4311 4312 4313 4314 4315 4316 4317 4318 4319 4320 4321 4322 4323 4324 4325 4326 4327 4328 4329 4330 4331 4332 4333 4334 4335 4336 4337 4338 4339 4340 4341 4342 4343 4344 4345 4346 4347 4348 4349 4350 4351 4352 4353 4354 4355 4356 4357 4358 4359 4360 4361 4362 4363 4364 4365 4366 4367 4368 4369 4370 4371 4372 4373 4374 4375 4376 4377 4378 4379 4380 4381 4382 4383 4384 4385 4386 4387 4388 4389 4390 4391 4392 4393 4394 4395 4396 4397 4398 4399 4400 4401 4402 4403 4404 4405 4406 4407 4408 4409 4410 4411 4412 4413 4414 4415 4416 4417 4418 4419 4420 4421 4422 4423 4424 4425 4426 4427 4428 4429 4430 4431 4432 4433 4434 4435 4436 4437 4438 4439 4440 4441 4442 4443 4444 4445 4446 4447 4448 4449 4450 4451 4452 4453 4454 4455 4456 4457 4458 4459 4460 4461 4462 4463 4464 4465 4466 4467 4468 4469 4470 4471 4472 4473 4474 4475 4476 4477 4478 4479 4480 4481 4482 4483 4484 4485 4486 4487 4488 4489 4490 4491 4492 4493 4494 4495 4496 4497 4498 4499 4500 4501 4502 4503 4504 4505 4506 4507 4508 4509 4510 4511 4512 4513 4514 4515 4516 4517 4518 4519 4520 4521 4522 4523 4524 4525 4526 4527 4528 4529 4530 4531 4532 4533 4534 4535 4536 4537 4538 4539 4540 4541 4542 4543 4544 4545 4546 4547 4548 4549 4550 4551 4552 4553 4554 4555 4556 4557 4558 4559 4560 4561 4562 4563 4564 4565 4566 4567 4568 4569 4570 4571 4572 4573 4574 4575 4576 4577 4578 4579 4580 4581 4582 4583 4584 4585 4586 4587 4588 4589 4590 4591 4592 4593 4594 4595 4596 4597 4598 4599 4600 4601 4602 4603 4604 4605 4606 4607 4608 4609 4610 4611 4612 4613 4614 4615 4616 4617 4618 4619 4620 4621 4622 4623 4624 4625 4626 4627 4628 4629 4630 4631 4632 4633 4634 4635 4636 4637 4638 4639 4640 4641 4642 4643 4644 4645 4646 4647 4648 4649 4650 4651 4652 4653 4654 4655 4656 4657 4658 4659 4660 4661 4662 4663 4664 4665 4666 4667 4668 4669 4670 4671 4672 4673 4674 4675 4676 4677 4678 4679 4680 4681 4682 4683 4684 4685 4686 4687 4688 4689 4690 4691 4692 4693 4694 4695 4696 4697 4698 4699 4700 4701 4702 4703 4704 4705 4706 4707 4708 4709 4710 4711 4712 4713 4714 4715 4716 4717 4718 4719 4720 4721 4722 4723 4724 4725 4726 4727 4728 4729 4730 4731 4732 4733 4734 4735 4736 4737 4738 4739 4740 4741 4742 4743 4744 4745 4746 4747 4748 4749 4750 4751 4752 4753 4754 4755 4756 4757 4758 4759 4760 4761 4762 4763 4764 4765 4766 4767 4768 4769 4770 4771 4772 4773 4774 4775 4776 4777 4778 4779 4780 4781 4782 4783 4784 4785 4786 4787 4788 4789 4790 4791 4792 4793 4794 4795 4796 4797 4798 4799 4800 4801 4802 4803 4804 4805 4806 4807 4808 4809 4810 4811 4812 4813 4814 4815 4816 4817 4818 4819 4820 4821 4822 4823 4824 4825 4826 4827 4828 4829 4830 4831 4832 4833 4834 4835 4836 4837 4838 4839 4840 4841 4842 4843 4844 4845 4846 4847 4848 4849 4850 4851 4852 4853 4854 4855 4856 4857 4858 4859 4860 4861 4862 4863 4864 4865 4866 4867 4868 4869 4870 4871 4872 4873 4874 4875 4876 4877 4878 4879 4880 4881 4882 4883 4884 4885 4886 4887 4888 4889 4890 4891 4892 4893 4894 4895 4896 4897 4898 4899 4900 4901 4902 4903 4904 4905 4906 4907 4908 4909 4910 4911 4912 4913 4914 4915 4916 4917 4918 4919 4920 4921 4922 4923 4924 4925 4926 4927 4928 4929 4930 4931 4932 4933 4934 4935 4936 4937 4938 4939 4940 4941 4942 4943 4944 4945 4946 4947 4948 4949 4950 4951 4952 4953 4954 4955 4956 4957 4958 4959 4960 4961 4962 4963 4964 4965 4966 4967 4968 4969 4970 4971 4972 4973 4974 4975 4976 4977 4978 4979 4980 4981 4982 4983 4984 4985 4986 4987 4988 4989 4990 4991 4992 4993 4994 4995 4996 4997 4998 4999 5000 5001 5002 5003 5004 5005 5006 5007 5008 5009 5010 5011 5012 5013 5014 5015 5016 5017 5018 5019 5020 5021 5022 5023 5024 5025 5026 5027 5028 5029 5030 5031 5032 5033 5034 5035 5036 5037 5038 5039 5040 5041 5042 5043 5044 5045 5046 5047 5048 5049 5050 5051 5052 5053 5054 5055 5056 5057 5058 5059 5060 5061 5062 5063 5064 5065 5066 5067 5068 5069 5070 5071 5072 5073 5074 5075 5076 5077 5078 5079 5080 5081 5082 5083 5084 5085 5086 5087 5088 5089 5090 5091 5092 5093 5094 5095 5096 5097 5098 5099 5100 5101 5102 5103 5104 5105 5106 5107 5108 5109 5110 5111 5112 5113 5114 5115 5116 5117 5118 5119 5120 5121 5122 5123 5124 5125 5126 5127 5128 5129 5130 5131 5132 5133 5134 5135 5136 5137 5138 5139 5140 5141 5142 5143 5144 5145 5146 5147 5148 5149 5150 5151 5152 5153 5154 5155 5156 5157 5158 5159 5160 5161 5162 5163 5164 5165 5166 5167 5168 5169 5170 5171 5172 5173 5174 5175 5176 5177 5178 5179 5180 5181 5182 5183 5184 5185 5186 5187 5188 5189 5190 5191 5192 5193 5194 5195 5196 5197 5198 5199 5200 5201 5202 5203 5204 5205 5206 5207 5208 5209 5210 5211 5212 5213 5214 5215 5216 5217 5218 5219 5220 5221 5222 5223 5224 5225 5226 5227 5228 5229 5230 5231 5232 5233 5234 5235 5236 5237 5238 5239 5240 5241 5242 5243 5244 5245 5246 5247 5248 5249 5250 5251 5252 5253 5254 5255 5256 5257 5258 5259 5260 5261 5262 5263 5264 5265 5266 5267 5268 5269 5270 5271 5272 5273 5274 5275 5276 5277 5278 5279 5280 5281 5282 5283 5284 5285 5286 5287 5288 5289 5290 5291 5292 5293 5294 5295 5296 5297 5298 5299 5300 5301 5302 5303 5304 5305 5306 5307 5308 5309 5310 5311 5312 5313 5314 5315 5316 5317 5318 5319 5320 5321 5322 5323 5324 5325 5326 5327 5328 5329 5330 5331 5332 5333 5334 5335 5336 5337 5338 5339 5340 5341 5342 5343 5344 5345 5346 5347 5348 5349 5350 5351 5352 5353 5354 5355 5356 5357 5358 5359 5360 5361 5362 5363 5364 5365 5366 5367 5368 5369 5370 5371 5372 5373 5374 5375 5376 5377 5378 5379 5380 5381 5382 5383 5384 5385 5386 5387 5388 5389 5390 5391 5392 5393 5394 5395 5396 5397 5398 5399 5400 5401 5402 5403 5404 5405 5406 5407 5408 5409 5410 5411 5412 5413 5414 5415 5416 5417 5418 5419 5420 5421 5422 5423 5424 5425 5426 5427 5428 5429 5430 5431 5432 5433 5434 5435 5436 5437 5438 5439 5440 5441 5442 5443 5444 5445 5446 5447 5448 5449 5450 5451 5452 5453 5454 5455 5456 5457 5458 5459 5460 5461 5462 5463 5464 5465 5466 5467 5468 5469 5470 5471 5472 5473 5474 5475 5476 5477 5478 5479 5480 5481 5482 5483 5484 5485 5486 5487 5488 5489 5490 5491 5492 5493 5494 5495 5496 5497 5498 5499 5500 5501 5502 5503 5504 5505 5506 5507 5508 5509 5510 5511 5512 5513 5514 5515 5516 5517 5518 5519 5520 5521 5522 5523 5524 5525 5526 5527 5528 5529 5530 5531 5532 5533 5534 5535 5536 5537 5538 5539 5540 5541 5542 5543 5544 5545 5546 5547 5548 5549 5550 5551 5552 5553 5554 5555 5556 5557 5558 5559 5560 5561 5562 5563 5564 5565 5566 5567 5568 5569 5570 5571 5572 5573 5574 5575 5576 5577 5578 5579 5580 5581 5582 5583 5584 5585 5586 5587 5588 5589 5590 5591 5592 5593 5594 5595 5596 5597 5598 5599 5600 5601 5602 5603 5604 5605 5606 5607 5608 5609 5610 5611 5612 5613 5614 5615 5616 5617 5618 5619 5620 5621 5622 5623 5624 5625 5626 5627 5628 5629 5630 5631 5632 5633 5634 5635 5636 5637 5638 5639 5640 5641 5642 5643 5644 5645 5646 5647 5648 5649 5650 5651 5652 5653 5654 5655 5656 5657 5658 5659 5660 5661 5662 5663 5664 5665 5666 5667 5668 5669 5670 5671 5672 5673 5674 5675 5676 5677 5678 5679 5680 5681 5682 5683 5684 5685 5686 5687 5688 5689 5690 5691 5692 5693 5694 5695 5696 5697 5698 5699 5700 5701 5702 5703 5704 5705 5706 5707 5708 5709 5710 5711 5712 5713 5714 5715 5716 5717 5718 5719 5720 5721 5722 5723 5724 5725 5726 5727 5728 5729 5730 5731 5732 5733 5734 5735 5736 5737 5738 5739 5740 5741 5742 5743 5744 5745 5746 5747 5748 5749 5750 5751 5752 5753 5754 5755 5756 5757 5758 5759 5760 5761 5762 5763 5764 5765 5766 5767 5768 5769 5770 5771 5772 5773 5774 5775 5776 5777 5778 5779 5780 5781 5782 5783 5784 5785 5786 5787 5788 5789 5790 5791 5792 5793 5794 5795 5796 5797 5798 5799 5800 5801 5802 5803 5804 5805 5806 5807 5808 5809 5810 5811 5812 5813 5814 5815 5816 5817 5818 5819 5820 5821 5822 5823 5824 5825 5826 5827 5828 5829 5830 5831 5832 5833 5834 5835 5836 5837 5838 5839 5840 5841 5842 5843 5844 5845 5846 5847 5848 5849 5850 5851 5852 5853 5854 5855 5856 5857 5858 5859 5860 5861 5862 5863 5864 5865 5866 5867 5868 5869 5870 5871 5872 5873 5874 5875 5876 5877 5878 5879 5880 5881 5882 5883 5884 5885 5886 5887 5888 5889 5890 5891 5892 5893 5894 5895 5896 5897 5898 5899 5900 5901 5902 5903 5904 5905 5906 5907 5908 5909 5910 5911 5912 5913 5914 5915 5916 5917 5918 5919 5920 5921 5922 5923 5924 5925 5926 5927 5928 5929 5930 5931 5932 5933 5934 5935 5936 5937 5938 5939 5940 5941 5942 5943 5944 5945 5946 5947 5948 5949 5950 5951 5952 5953 5954 5955 5956 5957 5958 5959 5960 5961 5962 5963 5964 5965 5966 5967 5968 5969 5970 5971 5972 5973 5974 5975 5976 5977 5978 5979 5980 5981 5982 5983 5984 5985 5986 5987 5988 5989 5990 5991 5992 5993 5994 5995 5996 5997 5998 5999 6000 6001 6002 6003 6004 6005 6006 6007 6008 6009 6010 6011 6012 6013 6014 6015 6016 6017 6018 6019 6020 6021 6022 6023 6024 6025 6026 6027 6028 6029 6030 6031 6032 6033 6034 6035 6036 6037 6038 6039 6040 6041 6042 6043 6044 6045 6046 6047 6048 6049 6050 6051 6052 6053 6054 6055 6056 6057 6058 6059 6060 6061 6062 6063 6064 6065 6066 6067 6068 6069 6070 6071 6072 6073 6074 6075 6076 6077 6078 6079 6080 6081 6082 6083 6084 6085 6086 6087 6088 6089 6090 6091 6092 6093 6094 6095 6096 6097 6098 6099 6100 6101 6102 6103 6104 6105 6106 6107 6108 6109 6110 6111 6112 6113 6114 6115 6116 6117 6118 6119 6120 6121 6122 6123 6124 6125 6126 6127 6128 6129 6130 6131 6132 6133 6134 6135 6136 6137 6138 6139 6140 6141 6142 6143 6144 6145 6146 6147 6148 6149 6150 6151 6152 6153 6154 6155 6156 6157 6158 6159 6160 6161 6162 6163 6164 6165 6166 6167 6168 6169 6170 6171 6172 6173 6174 6175 6176 6177 6178 6179 6180 6181 6182 6183 6184 6185 6186 6187 6188 6189 6190 6191 6192 6193 6194 6195 6196 6197 6198 6199 6200 6201 6202 6203 6204 6205 6206 6207 6208 6209 6210 6211 6212 6213 6214 6215 6216 6217 6218 6219 6220 6221 6222 6223 6224 6225 6226 6227 6228 6229 6230 6231 6232 6233 6234 6235 6236 6237 6238 6239 6240 6241 6242 6243 6244 6245 6246 6247 6248 6249 6250 6251 6252 6253 6254 6255 6256 6257 6258 6259 6260 6261 6262 6263 6264 6265 6266 6267 6268 6269 6270 6271 6272 6273 6274 6275 6276 6277 6278 6279 6280 6281 6282 6283 6284 6285 6286 6287 6288 6289 6290 6291 6292 6293 6294 6295 6296 6297 6298 6299 6300 6301 6302 6303 6304 6305 6306 6307 6308 6309 6310 6311 6312 6313 6314 6315 6316 6317 6318 6319 6320 6321 6322 6323 6324 6325 6326 6327 6328 6329 6330 6331 6332 6333 6334 6335 6336 6337 6338 6339 6340 6341 6342 6343 6344 6345 6346 6347 6348 6349 6350 6351 6352 6353 6354 6355 6356 6357 6358 6359 6360 6361 6362 6363 6364 6365 6366 6367 6368 6369 6370 6371 6372 6373 6374 6375 6376 6377 6378 6379 6380 6381 6382 6383 6384 6385 6386 6387 6388 6389 6390 6391 6392 6393 6394 6395 6396 6397 6398 6399 6400 6401 6402 6403 6404 6405 6406 6407 6408 6409 6410 6411 6412 6413 6414 6415 6416 6417 6418 6419 6420 6421 6422 6423 6424 6425 6426 6427 6428 6429 6430 6431 6432 6433 6434 6435 6436 6437 6438 6439 6440 6441 6442 6443 6444 6445 6446 6447 6448 6449 6450 6451 6452 6453 6454 6455 6456 6457 6458 6459 6460 6461 6462 6463 6464 6465 6466 6467 6468 6469 6470 6471 6472 6473 6474 6475 6476 6477 6478 6479 6480 6481 6482 6483 6484 6485 6486 6487 6488 6489 6490 6491 6492 6493 6494 6495 6496 6497 6498 6499 6500 6501 6502 6503 6504 6505 6506 6507 6508 6509 6510 6511 6512 6513 6514 6515 6516 6517 6518 6519 6520 6521 6522 6523 6524 6525 6526 6527 6528 6529 6530 6531 6532 6533 6534 6535 6536 6537 6538 6539 6540 6541 6542 6543 6544 6545 6546 6547 6548 6549 6550 6551 6552 6553 6554 6555 6556 6557 6558 6559 6560 6561 6562 6563 6564 6565 6566 6567 6568 6569 6570 6571 6572 6573 6574 6575 6576 6577 6578 6579 6580 6581 6582 6583 6584 6585 6586 6587 6588 6589 6590 6591 6592 6593 6594 6595 6596 6597 6598 6599 6600 6601 6602 6603 6604 6605 6606 6607 6608 6609 6610 6611 6612 6613 6614 6615 6616 6617 6618 6619 6620 6621 6622 6623 6624 6625 6626 6627 6628 6629 6630 6631 6632 6633 6634 6635 6636 6637 6638 6639 6640 6641 6642 6643 6644 6645 6646 6647 6648 6649 6650 6651 6652 6653 6654 6655 6656 6657 6658 6659 6660 6661 6662 6663 6664 6665 6666 6667 6668 6669 6670 6671 6672 6673 6674 6675 6676 6677 6678 6679 6680 6681 6682 6683 6684 6685 6686 6687 6688 6689 6690 6691 6692 6693 6694 6695 6696 6697 6698 6699 6700 6701 6702 6703 6704 6705 6706 6707 6708 6709 6710 6711 6712 6713 6714 6715 6716 6717 6718 6719 6720 6721 6722 6723 6724 6725 6726 6727 6728 6729 6730 6731 6732 6733 6734 6735 6736 6737 6738 6739 6740 6741 6742 6743 6744 6745 6746 6747 6748 6749 6750 6751 6752 6753 6754 6755 6756 6757 6758 6759 6760 6761 6762 6763 6764 6765 6766 6767 6768 6769 6770 6771 6772 6773 6774 6775 6776 6777 6778 6779 6780 6781 6782 6783 6784 6785 6786 6787 6788 6789 6790 6791 6792 6793 6794 6795 6796 6797 6798 6799 6800 6801 6802 6803 6804 6805 6806 6807 6808 6809 6810 6811 6812 6813 6814 6815 6816 6817 6818 6819 6820 6821 6822 6823 6824 6825 6826 6827 6828 6829 6830 6831 6832 6833 6834 6835 6836 6837 6838 6839 6840 6841 6842 6843 6844 6845 6846 6847 6848 6849 6850 6851 6852 6853 6854 6855 6856 6857 6858 6859 6860 6861 6862 6863 6864 6865 6866 6867 6868 6869 6870 6871 6872 6873 6874 6875 6876 6877 6878 6879 6880 6881 6882 6883 6884 6885 6886 6887 6888 6889 6890 6891 6892 6893 6894 6895 6896 6897 6898 6899 6900 6901 6902 6903 6904 6905 6906 6907 6908 6909 6910 6911 6912 6913 6914 6915 6916 6917 6918 6919 6920 6921 6922 6923 6924 6925 6926 6927 6928 6929 6930 6931 6932 6933 6934 6935 6936 6937 6938 6939 6940 6941 6942 6943 6944 6945 6946 6947 6948 6949 6950 6951 6952 6953 6954 6955 6956 6957 6958 6959 6960 6961 6962 6963 6964 6965 6966 6967 6968 6969 6970 6971 6972 6973 6974 6975 6976 6977 6978 6979 6980 6981 6982 6983 6984 6985 6986 6987 6988 6989 6990 6991 6992 6993 6994 6995 6996 6997 6998 6999 7000 7001 7002 7003 7004 7005 7006 7007 7008 7009 7010 7011 7012 7013 7014 7015 7016 7017 7018 7019 7020 7021 7022 7023 7024 7025 7026 7027 7028 7029 7030 7031 7032 7033 7034 7035 7036 7037 7038 7039 7040 7041 7042 7043 7044 7045 7046 7047 7048 7049 7050 7051 7052 7053 7054 7055 7056 7057 7058 7059 7060 7061 7062 7063 7064 7065 7066 7067 7068 7069 7070 7071 7072 7073 7074 7075 7076 7077 7078 7079 7080 7081 7082 7083 7084 7085 7086 7087 7088 7089 7090 7091 7092 7093 7094 7095 7096 7097 7098 7099 7100 7101 7102 7103 7104 7105 7106 7107 7108 7109 7110 7111 7112 7113 7114 7115 7116 7117 7118 7119 7120 7121 7122 7123 7124 7125 7126 7127 7128 7129 7130 7131 7132 7133 7134 7135 7136 7137 7138 7139 7140 7141 7142 7143 7144 7145 7146 7147 7148 7149 7150 7151 7152 7153 7154 7155 7156 7157 7158 7159 7160 7161 7162 7163 7164 7165 7166 7167 7168 7169 7170 7171 7172 7173 7174 7175 7176 7177 7178 7179 7180 7181 7182 7183 7184 7185 7186 7187 7188 7189 7190 7191 7192 7193 7194 7195 7196 7197 7198 7199 7200 7201 7202 7203 7204 7205 7206 7207 7208 7209 7210 7211 7212 7213 7214 7215 7216 7217 7218 7219 7220 7221 7222 7223 7224 7225 7226 7227 7228 7229 7230 7231 7232 7233 7234 7235 7236 7237 7238 7239 7240 7241 7242 7243 7244 7245 7246 7247 7248 7249 7250 7251 7252 7253 7254 7255 7256 7257 7258 7259 7260 7261 7262 7263 7264 7265 7266 7267 7268 7269 7270 7271 7272 7273 7274 7275 7276 7277 7278 7279 7280 7281 7282 7283 7284 7285 7286 7287 7288 7289 7290 7291 7292 7293 7294 7295 7296 7297 7298 7299 7300 7301 7302 7303 7304 7305 7306 7307 7308 7309 7310 7311 7312 7313 7314 7315 7316 7317 7318 7319 7320 7321 7322 7323 7324 7325 7326 7327 7328 7329 7330 7331 7332 7333 7334 7335 7336 7337 7338 7339 7340 7341 7342 7343 7344 7345 7346 7347 7348 7349 7350 7351 7352 7353 7354 7355 7356 7357 7358 7359 7360 7361 7362 7363 7364 7365 7366 7367 7368 7369 7370 7371 7372 7373 7374 7375 7376 7377 7378 7379 7380 7381 7382 7383 7384 7385 7386 7387 7388 7389 7390 7391 7392 7393 7394 7395 7396 7397 7398 7399 7400 7401 7402 7403 7404 7405 7406 7407 7408 7409 7410 7411 7412 7413 7414 7415 7416 7417 7418 7419 7420 7421 7422 7423 7424 7425 7426 7427 7428 7429 7430 7431 7432 7433 7434 7435 7436 7437 7438 7439 7440 7441 7442 7443 7444 7445 7446 7447 7448 7449 7450 7451 7452 7453 7454 7455 7456 7457 7458 7459 7460 7461 7462 7463 7464 7465 7466 7467 7468 7469 7470 7471 7472 7473 7474 7475 7476 7477 7478 7479 7480 7481 7482 7483 7484 7485 7486 7487 7488 7489 7490 7491 7492 7493 7494 7495 7496 7497 7498 7499 7500 7501 7502 7503 7504 7505 7506 7507 7508 7509 7510 7511 7512 7513 7514 7515 7516 7517 7518 7519 7520 7521 7522 7523 7524 7525 7526 7527 7528 7529 7530 7531 7532 7533 7534 7535 7536 7537 7538 7539 7540 7541 7542 7543 7544 7545 7546 7547 7548 7549 7550 7551 7552 7553 7554 7555 7556 7557 7558 7559 7560 7561 7562 7563 7564 7565 7566 7567 7568 7569 7570 7571 7572 7573 7574 7575 7576 7577 7578 7579 7580 7581 7582 7583 7584 7585 7586 7587 7588 7589 7590 7591 7592 7593 7594 7595 7596 7597 7598 7599 7600 7601 7602 7603 7604 7605 7606 7607 7608 7609 7610 7611 7612 7613 7614 7615 7616 7617 7618 7619 7620 7621 7622 7623 7624 7625 7626 7627 7628 7629 7630 7631 7632 7633 7634 7635 7636 7637 7638 7639 7640 7641 7642 7643 7644 7645 7646 7647 7648 7649 7650 7651 7652 7653 7654 7655 7656 7657 7658 7659 7660 7661 7662 7663 7664 7665 7666 7667 7668 7669 7670 7671 7672 7673 7674 7675 7676 7677 7678 7679 7680 7681 7682 7683 7684 7685 7686 7687 7688 7689 7690 7691 7692 7693 7694 7695 7696 7697 7698 7699 7700 7701 7702 7703 7704 7705 7706 7707 7708 7709 7710 7711 7712 7713 7714 7715 7716 7717 7718 7719 7720 7721 7722 7723 7724 7725 7726 7727 7728 7729 7730 7731 7732 7733 7734 7735 7736 7737 7738 7739 7740 7741 7742 7743 7744 7745 7746 7747 7748 7749 7750 7751 7752 7753 7754 7755 7756 7757 7758 7759 7760 7761 7762 7763 7764 7765 7766 7767 7768 7769 7770 7771 7772 7773 7774 7775 7776 7777 7778 7779 7780 7781 7782 7783 7784 7785 7786 7787 7788 7789 7790 7791 7792 7793 7794 7795 7796 7797 7798 7799 7800 7801 7802 7803 7804 7805 7806 7807 7808 7809 7810 7811 7812 7813 7814 7815 7816 7817 7818 7819 7820 7821 7822 7823 7824 7825 7826 7827 7828 7829 7830 7831 7832 7833 7834 7835 7836 7837 7838 7839 7840 7841 7842 7843 7844 7845 7846 7847 7848 7849 7850 7851 7852 7853 7854 7855 7856 7857 7858 7859 7860 7861 7862 7863 7864 7865 7866 7867 7868 7869 7870 7871 7872 7873 7874 7875 7876 7877 7878 7879 7880 7881 7882 7883 7884 7885 7886 7887 7888 7889 7890 7891 7892 7893 7894 7895 7896 7897 7898 7899 7900 7901 7902 7903 7904 7905 7906 7907 7908 7909 7910 7911 7912 7913 7914 7915 7916 7917 7918 7919 7920 7921 7922 7923 7924 7925 7926 7927 7928 7929 7930 7931 7932 7933 7934 7935 7936 7937 7938 7939 7940 7941 7942 7943 7944 7945 7946 7947 7948 7949 7950 7951 7952 7953 7954 7955 7956 7957 7958 7959 7960 7961 7962 7963 7964 7965 7966 7967 7968 7969 7970 7971 7972 7973 7974 7975 7976 7977 7978 7979 7980 7981 7982 7983 7984 7985 7986 7987 7988 7989 7990 7991 7992 7993 7994 7995 7996 7997 7998 7999 8000 8001 8002 8003 8004 8005 8006 8007 8008 8009 8010 8011 8012 8013 8014 8015 8016 8017 8018 8019 8020 8021 8022 8023 8024 8025 8026 8027 8028 8029 8030 8031 8032 8033 8034 8035 8036 8037 8038 8039 8040 8041 8042 8043 8044 8045 8046 8047 8048 8049 8050 8051 8052 8053 8054 8055 8056 8057 8058 8059 8060 8061 8062 8063 8064 8065 8066 8067 8068 8069 8070 8071 8072 8073 8074 8075 8076 8077 8078 8079 8080 8081 8082 8083 8084 8085 8086 8087 8088 8089 8090 8091 8092 8093 8094 8095 8096 8097 8098 8099 8100 8101 8102 8103 8104 8105 8106 8107 8108 8109 8110 8111 8112 8113 8114 8115 8116 8117 8118 8119 8120 8121 8122 8123 8124 8125 8126 8127 8128 8129 8130 8131 8132 8133 8134 8135 8136 8137 8138 8139 8140 8141 8142 8143 8144 8145 8146 8147 8148 8149 8150 8151 8152 8153 8154 8155 8156 8157 8158 8159 8160 8161 8162 8163 8164 8165 8166 8167 8168 8169 8170 8171 8172 8173 8174 8175 8176 8177 8178 8179 8180 8181 8182 8183 8184 8185 8186 8187 8188 8189 8190 8191 8192 8193 8194 8195 8196 8197 8198 8199 8200 8201 8202 8203 8204 8205 8206 8207 8208 8209 8210 8211 8212 8213 8214 8215 8216 8217 8218 8219 8220 8221 8222 8223 8224 8225 8226 8227 8228 8229 8230 8231 8232 8233 8234 8235 8236 8237 8238 8239 8240 8241 8242 8243 8244 8245 8246 8247 8248 8249 8250 8251 8252 8253 8254 8255 8256 8257 8258 8259 8260 8261 8262 8263 8264 8265 8266 8267 8268 8269 8270 8271 8272 8273 8274 8275 8276 8277 8278 8279 8280 8281 8282 8283 8284 8285 8286 8287 8288 8289 8290 8291 8292 8293 8294 8295 8296 8297 8298 8299 8300 8301 8302 8303 8304 8305 8306 8307 8308 8309 8310 8311 8312 8313 8314 8315 8316 8317 8318 8319 8320 8321 8322 8323 8324 8325 8326 8327 8328 8329 8330 8331 8332 8333 8334 8335 8336 8337 8338 8339 8340 8341 8342 8343 8344 8345 8346 8347 8348 8349 8350 8351 8352 8353 8354 8355 8356 8357 8358 8359 8360 8361 8362 8363 8364 8365 8366 8367 8368 8369 8370 8371 8372 8373 8374 8375 8376 8377 8378 8379 8380 8381 8382 8383 8384 8385 8386 8387 8388 8389 8390 8391 8392 8393 8394 8395 8396 8397 8398 8399 8400 8401 8402 8403 8404 8405 8406 8407 8408 8409 8410 8411 8412 8413 8414 8415 8416 8417 8418 8419 8420 8421 8422 8423 8424 8425 8426 8427 8428 8429 8430 8431 8432 8433 8434 8435 8436 8437 8438 8439 8440 8441 8442 8443 8444 8445 8446 8447 8448 8449 8450 8451 8452 8453 8454 8455 8456 8457 8458 8459 8460 8461 8462 8463 8464 8465 8466 8467 8468 8469 8470 8471 8472 8473 8474 8475 8476 8477 8478 8479 8480 8481 8482 8483 8484 8485 8486 8487 8488 8489 8490 8491 8492 8493 8494 8495 8496 8497 8498 8499 8500 8501 8502 8503 8504 8505 8506 8507 8508 8509 8510 8511 8512 8513 8514 8515 8516 8517 8518 8519 8520 8521 8522 8523 8524 8525 8526 8527 8528 8529 8530 8531 8532 8533 8534 8535 8536 8537 8538 8539 8540 8541 8542 8543 8544 8545 8546 8547 8548 8549 8550 8551 8552 8553 8554 8555 8556 8557 8558 8559 8560 8561 8562 8563 8564 8565 8566 8567 8568 8569 8570 8571 8572 8573 8574 8575 8576 8577 8578 8579 8580 8581 8582 8583 8584 8585 8586 8587 8588 8589 8590 8591 8592 8593 8594 8595 8596 8597 8598 8599 8600 8601 8602 8603 8604 8605 8606 8607 8608 8609 8610 8611 8612 8613 8614 8615 8616 8617 8618 8619 8620 8621 8622 8623 8624 8625 8626 8627 8628 8629 8630 8631 8632 8633 8634 8635 8636 8637 8638 8639 8640 8641 8642 8643 8644 8645 8646 8647 8648 8649 8650 8651 8652 8653 8654 8655 8656 8657 8658 8659 8660 8661 8662 8663 8664 8665 8666 8667 8668 8669 8670 8671 8672 8673 8674 8675 8676 8677 8678 8679 8680 8681 8682 8683 8684 8685 8686 8687 8688 8689 8690 8691 8692 8693 8694 8695 8696 8697 8698 8699 8700 8701 8702 8703 8704 8705 8706 8707 8708 8709 8710 8711 8712 8713 8714 8715 8716 8717 8718 8719 8720 8721 8722 8723 8724 8725 8726 8727 8728 8729 8730 8731 8732 8733 8734 8735 8736 8737 8738 8739 8740 8741 8742 8743 8744 8745 8746 8747 8748 8749 8750 8751 8752 8753 8754 8755 8756 8757 8758 8759 8760 8761 8762 8763 8764 8765 8766 8767 8768 8769 8770 8771 8772 8773 8774 8775 8776 8777 8778 8779 8780 8781 8782 8783 8784 8785 8786 8787 8788 8789 8790 8791 8792 8793 8794 8795 8796 8797 8798 8799 8800 8801 8802 8803 8804 8805 8806 8807 8808 8809 8810 8811 8812 8813 8814 8815 8816 8817 8818 8819 8820 8821 8822 8823 8824 8825 8826 8827 8828 8829 8830 8831 8832 8833 8834 8835 8836 8837 8838 8839 8840 8841 8842 8843 8844 8845 8846 8847 8848 8849 8850 8851 8852 8853 8854 8855 8856 8857 8858 8859 8860 8861 8862 8863 8864 8865 8866 8867 8868 8869 8870 8871 8872 8873 8874 8875 8876 8877 8878 8879 8880 8881 8882 8883 8884 8885 8886 8887 8888 8889 8890 8891 8892 8893 8894 8895 8896 8897 8898 8899 8900 8901 8902 8903 8904 8905 8906 8907 8908 8909 8910 8911 8912 8913 8914 8915 8916 8917 8918 8919 8920 8921 8922 8923 8924 8925 8926 8927 8928 8929 8930 8931 8932 8933 8934 8935 8936 8937 8938 8939 8940 8941 8942 8943 8944 8945 8946 8947 8948 8949 8950 8951 8952 8953 8954 8955 8956 8957 8958 8959 8960 8961 8962 8963 8964 8965 8966 8967 8968 8969 8970 8971 8972 8973 8974 8975 8976 8977 8978 8979 8980 8981 8982 8983 8984 8985 8986 8987 8988 8989 8990 8991 8992 8993 8994 8995 8996 8997 8998 8999 9000 9001 9002 9003 9004 9005 9006 9007 9008 9009 9010 9011 9012 9013 9014 9015 9016 9017 9018 9019 9020 9021 9022 9023 9024 9025 9026 9027 9028 9029 9030 9031 9032 9033 9034 9035 9036 9037 9038 9039 9040 9041 9042 9043 9044 9045 9046 9047 9048 9049 9050 9051 9052 9053 9054 9055 9056 9057 9058 9059 9060 9061 9062 9063 9064 9065 9066 9067 9068 9069 9070 9071 9072 9073 9074 9075 9076 9077 9078 9079 9080 9081 9082 9083 9084 9085 9086 9087 9088 9089 9090 9091 9092 9093 9094 9095 9096 9097 9098 9099 9100 9101 9102 9103 9104 9105 9106 9107 9108 9109 9110 9111 9112 9113 9114 9115 9116 9117 9118 9119 9120 9121 9122 9123 9124 9125 9126 9127 9128 9129 9130 9131 9132 9133 9134 9135 9136 9137 9138 9139 9140 9141 9142 9143 9144 9145 9146 9147 9148 9149 9150 9151 9152 9153 9154 9155 9156 9157 9158 9159 9160 9161 9162 9163 9164 9165 9166 9167 9168 9169 9170 9171 9172 9173 9174 9175 9176 9177 9178 9179 9180 9181 9182 9183 9184 9185 9186 9187 9188 9189 9190 9191 9192 9193 9194 9195 9196 9197 9198 9199 9200 9201 9202 9203 9204 9205 9206 9207 9208 9209 9210 9211 9212 9213 9214 9215 9216 9217 9218 9219 9220 9221 9222 9223 9224 9225 9226 9227 9228 9229 9230 9231 9232 9233 9234 9235 9236 9237 9238 9239 9240 9241 9242 9243 9244 9245 9246 9247 9248 9249 9250 9251 9252 9253 9254 9255 9256 9257 9258 9259 9260 9261 9262 9263 9264 9265 9266 9267 9268 9269 9270 9271 9272 9273 9274 9275 9276 9277 9278 9279 9280 9281 9282 9283 9284 9285 9286 9287 9288 9289 9290 9291 9292 9293 9294 9295 9296 9297 9298 9299 9300 9301 9302 9303 9304 9305 9306 9307 9308 9309 9310 9311 9312 9313 9314 9315 9316 9317 9318 9319 9320 9321 9322 9323 9324 9325 9326 9327 9328 9329 9330 9331 9332 9333 9334 9335 9336 9337 9338 9339 9340 9341 9342 9343 9344 9345 9346 9347 9348 9349 9350 9351 9352 9353 9354 9355 9356 9357 9358 9359 9360 9361 9362 9363 9364 9365 9366 9367 9368 9369 9370 9371 9372 9373 9374 9375 9376 9377 9378 9379 9380 9381 9382 9383 9384 9385 9386 9387 9388 9389 9390 9391 9392 9393 9394 9395 9396 9397 9398 9399 9400 9401 9402 9403 9404 9405 9406 9407 9408 9409 9410 9411 9412 9413 9414 9415 9416 9417 9418 9419 9420 9421 9422 9423 9424 9425 9426 9427 9428 9429 9430 9431 9432 9433 9434 9435 9436 9437 9438 9439 9440 9441 9442 9443 9444 9445 9446 9447 9448 9449 9450 9451 9452 9453 9454 9455 9456 9457 9458 9459 9460 9461 9462 9463 9464 9465 9466 9467 9468 9469 9470 9471 9472 9473 9474 9475 9476 9477 9478 9479 9480 9481 9482 9483 9484 9485 9486 9487 9488 9489 9490 9491 9492 9493 9494 9495 9496 9497 9498 9499 9500 9501 9502 9503 9504 9505 9506 9507 9508 9509 9510 9511 9512 9513 9514 9515 9516 9517 9518 9519 9520 9521 9522 9523 9524 9525 9526 9527 9528 9529 9530 9531 9532 9533 9534 9535 9536 9537 9538 9539 9540 9541 9542 9543 9544 9545 9546 9547 9548 9549 9550 9551 9552 9553 9554 9555 9556 9557 9558 9559 9560 9561 9562 9563 9564 9565 9566 9567 9568 9569 9570 9571 9572 9573 9574 9575 9576 9577 9578 9579 9580 9581 9582 9583 9584 9585 9586 9587 9588 9589 9590 9591 9592 9593 9594 9595 9596 9597 9598 9599 9600 9601 9602 9603 9604 9605 9606 9607 9608 9609 9610 9611 9612 9613 9614 9615 9616 9617 9618 9619 9620 9621 9622 9623 9624 9625 9626 9627 9628 9629 9630 9631 9632 9633 9634 9635 9636 9637 9638 9639 9640 9641 9642 9643 9644 9645 9646 9647 9648 9649 9650 9651 9652 9653 9654 9655 9656 9657 9658 9659 9660 9661 9662 9663 9664 9665 9666 9667 9668 9669 9670 9671 9672 9673 9674 9675 9676 9677 9678 9679 9680 9681 9682 9683 9684 9685 9686 9687 9688 9689 9690 9691 9692 9693 9694 9695 9696 9697 9698 9699 9700 9701 9702 9703 9704 9705 9706 9707 9708 9709 9710 9711 9712 9713 9714 9715 9716 9717 9718 9719 9720 9721 9722 9723 9724 9725 9726 9727 9728 9729 9730 9731 9732 9733 9734 9735 9736 9737 9738 9739 9740 9741 9742 9743 9744 9745 9746 9747 9748 9749 9750 9751 9752 9753 9754 9755 9756 9757 9758 9759 9760 9761 9762 9763 9764 9765 9766 9767 9768 9769 9770 9771 9772 9773 9774 9775 9776 9777 9778 9779 9780 9781 9782 9783 9784 9785 9786 9787 9788 9789 9790 9791 9792 9793 9794 9795 9796 9797 9798 9799 9800 9801 9802 9803 9804 9805 9806 9807 9808 9809 9810 9811 9812 9813 9814 9815 9816 9817 9818 9819 9820 9821 9822 9823 9824 9825 9826 9827 9828 9829 9830 9831 9832 9833 9834 9835 9836 9837 9838 9839 9840 9841 9842 9843 9844 9845 9846 9847 9848 9849 9850 9851 9852 9853 9854 9855 9856 9857 9858 9859 9860 9861 9862 9863 9864 9865 9866 9867 9868 9869 9870 9871 9872 9873 9874 9875 9876 9877 9878 9879 9880 9881 9882 9883 9884 9885 9886 9887 9888 9889 9890 9891 9892 9893 9894 9895 9896 9897 9898 9899 9900 9901 9902 9903 9904 9905 9906 9907 9908 9909 9910 9911 9912 9913 9914 9915 9916 9917 9918 9919 9920 9921 9922 9923 9924 9925 9926 9927 9928 9929 9930 9931 9932 9933 9934 9935 9936 9937 9938 9939 9940 9941 9942 9943 9944 9945 9946 9947 9948 9949 9950 9951 9952 9953 9954 9955 9956 9957 9958 9959 9960 9961 9962 9963 9964 9965 9966 9967 9968 9969 9970 9971 9972 9973 9974 9975 9976 9977 9978 9979 9980 9981 9982 9983 9984 9985 9986 9987 9988 9989 9990 9991 9992 9993 9994 9995 9996 9997 9998 9999 10000 10001 10002 10003 10004 10005 10006 10007 10008 10009 10010 10011 10012 10013 10014 10015 10016 10017 10018 10019 10020 10021 10022 10023 10024 10025 10026 10027 10028 10029 10030 10031 10032 10033 10034 10035 10036 10037 10038 10039 10040 10041 10042 10043 10044 10045 10046 10047 10048 10049 10050 10051 10052 10053 10054 10055 10056 10057 10058 10059 10060 10061 10062 10063 10064 10065 10066 10067 10068 10069 10070 10071 10072 10073 10074 10075 10076 10077 10078 10079 10080 10081 10082 10083 10084 10085 10086 10087 10088 10089 10090 10091 10092 10093 10094 10095 10096 10097 10098 10099 10100 10101 10102 10103 10104 10105 10106 10107 10108 10109 10110 10111 10112 10113 10114 10115 10116 10117 10118 10119 10120 10121 10122 10123 10124 10125 10126 10127 10128 10129 10130 10131 10132 10133 10134 10135 10136 10137 10138 10139 10140 10141 10142 10143 10144 10145 10146 10147 10148 10149 10150 10151 10152 10153 10154 10155 10156 10157 10158 10159 10160 10161 10162 10163 10164 10165 10166 10167 10168 10169 10170 10171 10172 10173 10174 10175 10176 10177 10178 10179 10180 10181 10182 10183 10184 10185 10186 10187 10188 10189 10190 10191 10192 10193 10194 10195 10196 10197 10198 10199 10200 10201 10202 10203 10204 10205 10206 10207 10208 10209 10210 10211 10212 10213 10214 10215 10216 10217 10218 10219 10220 10221 10222 10223 10224 10225 10226 10227 10228 10229 10230 10231 10232 10233 10234 10235 10236 10237 10238 10239 10240 10241 10242 10243 10244 10245 10246 10247 10248 10249 10250 10251 10252 10253 10254 10255 10256 10257 10258 10259 10260 10261 10262 10263 10264 10265 10266 10267 10268 10269 10270 10271 10272 10273 10274 10275 10276 10277 10278 10279 10280 10281 10282 10283 10284 10285 10286 10287 10288 10289 10290 10291 10292 10293 10294 10295 10296 10297 10298 10299 10300 10301 10302 10303 10304 10305 10306 10307 10308 10309 10310 10311 10312 10313 10314 10315 10316 10317 10318 10319 10320 10321 10322 10323 10324 10325 10326 10327 10328 10329 10330 10331 10332 10333 10334 10335 10336 10337 10338 10339 10340 10341 10342 10343 10344 10345 10346 10347 10348 10349 10350 10351 10352 10353 10354 10355 10356 10357 10358 10359 10360 10361 10362 10363 10364 10365 10366 10367 10368 10369 10370 10371 10372 10373 10374 10375 10376 10377 10378 10379 10380 10381 10382 10383 10384 10385 10386 10387 10388 10389 10390 10391 10392 10393 10394 10395 10396 10397 10398 10399 10400 10401 10402 10403 10404 10405 10406 10407 10408 10409 10410 10411 10412 10413 10414 10415 10416 10417 10418 10419 10420 10421 10422 10423 10424 10425 10426 10427 10428 10429 10430 10431 10432 10433 10434 10435 10436 10437 10438 10439 10440 10441 10442 10443 10444 10445 10446 10447 10448 10449 10450 10451 10452 10453 10454 10455 10456 10457 10458 10459 10460 10461 10462 10463 10464 10465 10466 10467 10468 10469 10470 10471 10472 10473 10474 10475 10476 10477 10478 10479 10480 10481 10482 10483 10484 10485 10486 10487 10488 10489 10490 10491 10492 10493 10494 10495 10496 10497 10498 10499 10500 10501 10502 10503 10504 10505 10506 10507 10508 10509 10510 10511 10512 10513 10514 10515 10516 10517 10518 10519 10520 10521 10522 10523 10524 10525 10526 10527 10528 10529 10530 10531 10532 10533 10534 10535 10536 10537 10538 10539 10540 10541 10542 10543 10544 10545 10546 10547 10548 10549 10550 10551 10552 10553 10554 10555 10556 10557 10558 10559 10560 10561 10562 10563 10564 10565 10566 10567 10568 10569 10570 10571 10572 10573 10574 10575 10576 10577 10578 10579 10580 10581 10582 10583 10584 10585 10586 10587 10588 10589 10590 10591 10592 10593 10594 10595 10596 10597 10598 10599 10600 10601 10602 10603 10604 10605 10606 10607 10608 10609 10610 10611 10612 10613 10614 10615 10616 10617 10618 10619 10620 10621 10622 10623 10624 10625 10626 10627 10628 10629 10630 10631 10632 10633 10634 10635 10636 10637 10638 10639 10640 10641 10642 10643 10644 10645 10646 10647 10648 10649 10650 10651 10652 10653 10654 10655 10656 10657 10658 10659 10660 10661 10662 10663 10664 10665 10666 10667 10668 10669 10670 10671 10672 10673 10674 10675 10676 10677 10678 10679 10680 10681 10682 10683 10684 10685 10686 10687 10688 10689 10690 10691 10692 10693 10694 10695 10696 10697 10698 10699 10700 10701 10702 10703 10704 10705 10706 10707 10708 10709 10710 10711 10712 10713 10714 10715 10716 10717 10718 10719 10720 10721 10722 10723 10724 10725 10726 10727 10728 10729 10730 10731 10732 10733 10734 10735 10736 10737 10738 10739 10740 10741 10742 10743 10744 10745 10746 10747 10748 10749 10750 10751 10752 10753 10754 10755 10756 10757 10758 10759 10760 10761 10762 10763 10764 10765 10766 10767 10768 10769 10770 10771 10772 10773 10774 10775 10776 10777 10778 10779 10780 10781 10782 10783 10784 10785 10786 10787 10788 10789 10790 10791 10792 10793 10794 10795 10796 10797 10798 10799 10800 10801 10802 10803 10804 10805 10806 10807 10808 10809 10810 10811 10812 10813 10814 10815 10816 10817 10818 10819 10820 10821 10822 10823 10824 10825 10826 10827 10828 10829 10830 10831 10832 10833 10834 10835 10836 10837 10838 10839 10840 10841 10842 10843 10844 10845 10846 10847 10848 10849 10850 10851 10852 10853 10854 10855 10856 10857 10858 10859 10860 10861 10862 10863 10864 10865 10866 10867 10868 10869 10870 10871 10872 10873 10874 10875 10876 10877 10878 10879 10880 10881 10882 10883 10884 10885 10886 10887 10888 10889 10890 10891 10892 10893 10894 10895 10896 10897 10898 10899 10900 10901 10902 10903 10904 10905 10906 10907 10908 10909 10910 10911 10912 10913 10914 10915 10916 10917 10918 10919 10920 10921 10922 10923 10924 10925 10926 10927 10928 10929 10930 10931 10932 10933 10934 10935 10936 10937 10938 10939 10940 10941 10942 10943 10944 10945 10946 10947 10948 10949 10950 10951 10952 10953 10954 10955 10956 10957 10958 10959 10960 10961 10962 10963 10964 10965 10966 10967 10968 10969 10970 10971 10972 10973 10974 10975 10976 10977 10978 10979 10980 10981 10982 10983 10984 10985 10986 10987 10988 10989 10990 10991 10992 10993 10994 10995 10996 10997 10998 10999 11000 11001 11002 11003 11004 11005 11006 11007 11008 11009 11010 11011 11012 11013 11014 11015 11016 11017 11018 11019 11020 11021 11022 11023 11024 11025 11026 11027 11028 11029 11030 11031 11032 11033 11034 11035 11036 11037 11038 11039 11040 11041 11042 11043 11044 11045 11046 11047 11048 11049 11050 11051 11052 11053 11054 11055 11056 11057 11058 11059 11060 11061 11062 11063 11064 11065 11066 11067 11068 11069 11070 11071 11072 11073 11074 11075 11076 11077 11078 11079 11080 11081 11082 11083 11084 11085 11086 11087 11088 11089 11090 11091 11092 11093 11094 11095 11096 11097 11098 11099 11100 11101 11102 11103 11104 11105 11106 11107 11108 11109 11110 11111 11112 11113 11114 11115 11116 11117 11118 11119 11120 11121 11122 11123 11124 11125 11126 11127 11128 11129 11130 11131 11132 11133 11134 11135 11136 11137 11138 11139 11140 11141 11142 11143 11144 11145 11146 11147 11148 11149 11150 11151 11152 11153 11154 11155 11156 11157 11158 11159 11160 11161 11162 11163 11164 11165 11166 11167 11168 11169 11170 11171 11172 11173 11174 11175 11176 11177 11178 11179 11180 11181 11182 11183 11184 11185 11186 11187 11188 11189 11190 11191 11192 11193 11194 11195 11196 11197 11198 11199 11200 11201 11202 11203 11204 11205 11206 11207 11208 11209 11210 11211 11212 11213 11214 11215 11216 11217 11218 11219 11220 11221 11222 11223 11224 11225 11226 11227 11228 11229 11230 11231 11232 11233 11234 11235 11236 11237 11238 11239 11240 11241 11242 11243 11244 11245 11246 11247 11248 11249 11250 11251 11252 11253 11254 11255 11256 11257 11258 11259 11260 11261 11262 11263 11264 11265 11266 11267 11268 11269 11270 11271 11272 11273 11274 11275 11276 11277 11278 11279 11280 11281 11282 11283 11284 11285 11286 11287 11288 11289 11290 11291 11292 11293 11294 11295 11296 11297 11298 11299 11300 11301 11302 11303 11304 11305 11306 11307 11308 11309 11310 11311 11312 11313 11314 11315 11316 11317 11318 11319 11320 11321 11322 11323 11324 11325 11326 11327 11328 11329 11330 11331 11332 11333 11334 11335 11336 11337 11338 11339 11340 11341 11342 11343 11344 11345 11346 11347 11348 11349 11350 11351 11352 11353 11354 11355 11356 11357 11358 11359 11360 11361 11362 11363 11364 11365 11366 11367 11368 11369 11370 11371 11372 11373 11374 11375 11376 11377 11378 11379 11380 11381 11382 11383 11384 11385 11386 11387 11388 11389 11390 11391 11392 11393 11394 11395 11396 11397 11398 11399 11400 11401 11402 11403 11404 11405 11406 11407 11408 11409 11410 11411 11412 11413 11414 11415 11416 11417 11418 11419 11420 11421 11422 11423 11424 11425 11426 11427 11428 11429 11430 11431 11432 11433 11434 11435 11436 11437 11438 11439 11440 11441 11442 11443 11444 11445 11446 11447 11448 11449 11450 11451 11452 11453 11454 11455 11456 11457 11458 11459 11460 11461 11462 11463 11464 11465 11466 11467 11468 11469 11470 11471 11472 11473 11474 11475 11476 11477 11478 11479 11480 11481 11482 11483 11484 11485 11486 11487 11488 11489 11490 11491 11492 11493 11494 11495 11496 11497 11498 11499 11500 11501 11502 11503 11504 11505 11506 11507 11508 11509 11510 11511 11512 11513 11514 11515 11516 11517 11518 11519 11520 11521 11522 11523 11524 11525 11526 11527 11528 11529 11530 11531 11532 11533 11534 11535 11536 11537 11538 11539 11540 11541 11542 11543 11544 11545 11546 11547 11548 11549 11550 11551 11552 11553 11554 11555 11556 11557 11558 11559 11560 11561 11562 11563 11564 11565 11566 11567 11568 11569 11570 11571 11572 11573 11574 11575 11576 11577 11578 11579 11580 11581 11582 11583 11584 11585 11586 11587 11588 11589 11590 11591 11592 11593 11594 11595 11596 11597 11598 11599 11600 11601 11602 11603 11604 11605 11606 11607 11608 11609 11610 11611 11612 11613 11614 11615 11616 11617 11618 11619 11620 11621 11622 11623 11624 11625 11626 11627 11628 11629 11630 11631 11632 11633 11634 11635 11636 11637 11638 11639 11640 11641 11642 11643 11644 11645 11646 11647 11648 11649 11650 11651 11652 11653 11654 11655 11656 11657 11658 11659 11660 11661 11662 11663 11664 11665 11666 11667 11668 11669 11670 11671 11672 11673 11674 11675 11676 11677 11678 11679 11680 11681 11682 11683 11684 11685 11686 11687 11688 11689 11690 11691 11692 11693 11694 11695 11696 11697 11698 11699 11700 11701 11702 11703 11704 11705 11706 11707 11708 11709 11710 11711 11712 11713 11714 11715 11716 11717 11718 11719 11720 11721 11722 11723 11724 11725 11726 11727 11728 11729 11730 11731 11732 11733 11734 11735 11736 11737 11738 11739 11740 11741 11742 11743 11744 11745 11746 11747 11748 11749 11750 11751 11752 11753 11754 11755 11756 11757 11758 11759 11760 11761 11762 11763 11764 11765 11766 11767 11768 11769 11770 11771 11772 11773 11774 11775 11776 11777 11778 11779 11780 11781 11782 11783 11784 11785 11786 11787 11788 11789 11790 11791 11792 11793 11794 11795 11796 11797 11798 11799 11800 11801 11802 11803 11804 11805 11806 11807 11808 11809 11810 11811 11812 11813 11814 11815 11816 11817 11818 11819 11820 11821 11822 11823 11824 11825 11826 11827 11828 11829 11830 11831 11832 11833 11834 11835 11836 11837 11838 11839 11840 11841 11842 11843 11844 11845 11846 11847 11848 11849 11850 11851 11852 11853 11854 11855 11856 11857 11858 11859 11860 11861 11862 11863 11864 11865 11866 11867 11868 11869 11870 11871 11872 11873 11874 11875 11876 11877 11878 11879 11880 11881 11882 11883 11884 11885 11886 11887 11888 11889 11890 11891 11892 11893 11894 11895 11896 11897 11898 11899 11900 11901 11902 11903 11904 11905 11906 11907 11908 11909 11910 11911 11912 11913 11914 11915 11916 11917 11918 11919 11920 11921 11922 11923 11924 11925 11926 11927 11928 11929 11930 11931 11932 11933 11934 11935 11936 11937 11938 11939 11940 11941 11942 11943 11944 11945 11946 11947 11948 11949 11950 11951 11952 11953 11954 11955 11956 11957 11958 11959 11960 11961 11962 11963 11964 11965 11966 11967 11968 11969 11970 11971 11972 11973 11974 11975 11976 11977 11978 11979 11980 11981 11982 11983 11984 11985 11986 11987 11988 11989 11990 11991 11992 11993 11994 11995 11996 11997 11998 11999 12000 12001 12002 12003 12004 12005 12006 12007 12008 12009 12010 12011 12012 12013 12014 12015 12016 12017 12018 12019 12020 12021 12022 12023 12024 12025 12026 12027 12028 12029 12030 12031 12032 12033 12034 12035 12036 12037 12038 12039 12040 12041 12042 12043 12044 12045 12046 12047 12048 12049 12050 12051 12052 12053 12054 12055 12056 12057 12058 12059 12060 12061 12062 12063 12064 12065 12066 12067 12068 12069 12070 12071 12072 12073 12074 12075 12076 12077 12078 12079 12080 12081 12082 12083 12084 12085 12086 12087 12088 12089 12090 12091 12092 12093 12094 12095 12096 12097 12098 12099 12100 12101 12102 12103 12104 12105 12106 12107 12108 12109 12110 12111 12112 12113 12114 12115 12116 12117 12118 12119 12120 12121 12122 12123 12124 12125 12126 12127 12128 12129 12130 12131 12132 12133 12134 12135 12136 12137 12138 12139 12140 12141 12142 12143 12144 12145 12146 12147 12148 12149 12150 12151 12152 12153 12154 12155 12156 12157 12158 12159 12160 12161 12162 12163 12164 12165 12166 12167 12168 12169 12170 12171 12172 12173 12174 12175 12176 12177 12178 12179 12180 12181 12182 12183 12184 12185 12186 12187 12188 12189 12190 12191 12192 12193 12194 12195 12196 12197 12198 12199 12200 12201 12202 12203 12204 12205 12206 12207 12208 12209 12210 12211 12212 12213 12214 12215 12216 12217 12218 12219 12220 12221 12222 12223 12224 12225 12226 12227 12228 12229 12230 12231 12232 12233 12234 12235 12236 12237 12238 12239 12240 12241 12242 12243 12244 12245 12246 12247 12248 12249 12250 12251 12252 12253 12254 12255 12256 12257 12258 12259 12260 12261 12262 12263 12264 12265 12266 12267 12268 12269 12270 12271 12272 12273 12274 12275 12276 12277 12278 12279 12280 12281 12282 12283 12284 12285 12286 12287 12288 12289 12290 12291 12292 12293 12294 12295 12296 12297 12298 12299 12300 12301 12302 12303 12304 12305 12306 12307 12308 12309 12310 12311 12312 12313 12314 12315 12316 12317 12318 12319 12320 12321 12322 12323 12324 12325 12326 12327 12328 12329 12330 12331 12332 12333 12334 12335 12336 12337 12338 12339 12340 12341 12342 12343 12344 12345 12346 12347 12348 12349 12350 12351 12352 12353 12354 12355 12356 12357 12358 12359 12360 12361 12362 12363 12364 12365 12366 12367 12368 12369 12370 12371 12372 12373 12374 12375 12376 12377 12378 12379 12380 12381 12382 12383 12384 12385 12386 12387 12388 12389 12390 12391 12392 12393 12394 12395 12396 12397 12398 12399 12400 12401 12402 12403 12404 12405 12406 12407 12408 12409 12410 12411 12412 12413 12414 12415 12416 12417 12418 12419 12420 12421 12422 12423 12424 12425 12426 12427 12428 12429 12430 12431 12432 12433 12434 12435 12436 12437 12438 12439 12440 12441 12442 12443 12444 12445 12446 12447 12448 12449 12450 12451 12452 12453 12454 12455 12456 12457 12458 12459 12460 12461 12462 12463 12464 12465 12466 12467 12468 12469 12470 12471 12472 12473 12474 12475 12476 12477 12478 12479 12480 12481 12482 12483 12484 12485 12486 12487 12488 12489 12490 12491 12492 12493 12494 12495 12496 12497 12498 12499 12500 12501 12502 12503 12504 12505 12506 12507 12508 12509 12510 12511 12512 12513 12514 12515 12516 12517 12518 12519 12520 12521 12522 12523 12524 12525 12526 12527 12528 12529 12530 12531 12532 12533 12534 12535 12536 12537 12538 12539 12540 12541 12542 12543 12544 12545 12546 12547 12548 12549 12550 12551 12552 12553 12554 12555 12556 12557 12558 12559 12560 12561 12562 12563 12564 12565 12566 12567 12568 12569 12570 12571 12572 12573 12574 12575 12576 12577 12578 12579 12580 12581 12582 12583 12584 12585 12586 12587 12588 12589 12590 12591 12592 12593 12594 12595 12596 12597 12598 12599 12600 12601 12602 12603 12604 12605 12606 12607 12608 12609 12610 12611 12612 12613 12614 12615 12616 12617 12618 12619 12620 12621 12622 12623 12624 12625 12626 12627 12628 12629 12630 12631 12632 12633 12634 12635 12636 12637 12638 12639 12640 12641 12642 12643 12644 12645 12646 12647 12648 12649 12650 12651 12652 12653 12654 12655 12656 12657 12658 12659 12660 12661 12662 12663 12664 12665 12666 12667 12668 12669 12670 12671 12672 12673 12674 12675 12676 12677 12678 12679 12680 12681 12682 12683 12684 12685 12686 12687 12688 12689 12690 12691 12692 12693 12694 12695 12696 12697 12698 12699 12700 12701 12702 12703 12704 12705 12706 12707 12708 12709 12710 12711 12712 12713 12714 12715 12716 12717 12718 12719 12720 12721 12722 12723 12724 12725 12726 12727 12728 12729 12730 12731 12732 12733 12734 12735 12736 12737 12738 12739 12740 12741 12742 12743 12744 12745 12746 12747 12748 12749 12750 12751 12752 12753 12754 12755 12756 12757 12758 12759 12760 12761 12762 12763 12764 12765 12766 12767 12768 12769 12770 12771 12772 12773 12774 12775 12776 12777 12778 12779 12780 12781 12782 12783 12784 12785 12786 12787 12788 12789 12790 12791 12792 12793 12794 12795 12796 12797 12798 12799 12800 12801 12802 12803 12804 12805 12806 12807 12808 12809 12810 12811 12812 12813 12814 12815 12816 12817 12818 12819 12820 12821 12822 12823 12824 12825 12826 12827 12828 12829 12830 12831 12832 12833 12834 12835 12836 12837 12838 12839 12840 12841 12842 12843 12844 12845 12846 12847 12848 12849 12850 12851 12852 12853 12854 12855 12856 12857 12858 12859 12860 12861 12862 12863 12864 12865 12866 12867 12868 12869 12870 12871 12872 12873 12874 12875 12876 12877 12878 12879 12880 12881 12882 12883 12884 12885 12886 12887 12888 12889 12890 12891 12892 12893 12894 12895 12896 12897 12898 12899 12900 12901 12902 12903 12904 12905 12906 12907 12908 12909 12910 12911 12912 12913 12914 12915 12916 12917 12918 12919 12920 12921 12922 12923 12924 12925 12926 12927 12928 12929 12930 12931 12932 12933 12934 12935 12936 12937 12938 12939 12940 12941 12942 12943 12944 12945 12946 12947 12948 12949 12950 12951 12952 12953 12954 12955 12956 12957 12958 12959 12960 12961 12962 12963 12964 12965 12966 12967 12968 12969 12970 12971 12972 12973 12974 12975 12976 12977 12978 12979 12980 12981 12982 12983 12984 12985 12986 12987 12988 12989 12990 12991 12992 12993 12994 12995 12996 12997 12998 12999 13000 13001 13002 13003 13004 13005 13006 13007 13008 13009 13010 13011 13012 13013 13014 13015 13016 13017 13018 13019 13020 13021 13022 13023 13024 13025 13026 13027 13028 13029 13030 13031 13032 13033 13034 13035 13036 13037 13038 13039 13040 13041 13042 13043 13044 13045 13046 13047 13048 13049 13050 13051 13052 13053 13054 13055 13056 13057 13058 13059 13060 13061 13062 13063 13064 13065 13066 13067 13068 13069 13070 13071 13072 13073 13074 13075 13076 13077 13078 13079 13080 13081 13082 13083 13084 13085 13086 13087 13088 13089 13090 13091 13092 13093 13094 13095 13096 13097 13098 13099 13100 13101 13102 13103 13104 13105 13106 13107 13108 13109 13110 13111 13112 13113 13114 13115 13116 13117 13118 13119 13120 13121 13122 13123 13124 13125 13126 13127 13128 13129 13130 13131 13132 13133 13134 13135 13136 13137 13138 13139 13140 13141 13142 13143 13144 13145 13146 13147 13148 13149 13150 13151 13152 13153 13154 13155 13156 13157 13158 13159 13160 13161 13162 13163 13164 13165 13166 13167 13168 13169 13170 13171 13172 13173 13174 13175 13176 13177 13178 13179 13180 13181 13182 13183 13184 13185 13186 13187 13188 13189 13190 13191 13192 13193 13194 13195 13196 13197 13198 13199 13200 13201 13202 13203 13204 13205 13206 13207 13208 13209 13210 13211 13212 13213 13214 13215 13216 13217 13218 13219 13220 13221 13222 13223 13224 13225 13226 13227 13228 13229 13230 13231 13232 13233 13234 13235 13236 13237 13238 13239 13240 13241 13242 13243 13244 13245 13246 13247 13248 13249 13250 13251 13252 13253 13254 13255 13256 13257 13258 13259 13260 13261 13262 13263 13264 13265 13266 13267 13268 13269 13270 13271 13272 13273 13274 13275 13276 13277 13278 13279 13280 13281 13282 13283 13284 13285 13286 13287 13288 13289 13290 13291 13292 13293 13294 13295 13296 13297 13298 13299 13300 13301 13302 13303 13304 13305 13306 13307 13308 13309 13310 13311 13312 13313 13314 13315 13316 13317 13318 13319 13320 13321 13322 13323 13324 13325 13326 13327 13328 13329 13330 13331 13332 13333 13334 13335 13336 13337 13338 13339 13340 13341 13342 13343 13344 13345 13346 13347 13348 13349 13350 13351 13352 13353 13354 13355 13356 13357 13358 13359 13360 13361 13362 13363 13364 13365 13366 13367 13368 13369 13370 13371 13372 13373 13374 13375 13376 13377 13378 13379 13380 13381 13382 13383 13384 13385 13386 13387 13388 13389 13390 13391 13392 13393 13394 13395 13396 13397 13398 13399 13400 13401 13402 13403 13404 13405 13406 13407 13408 13409 13410 13411 13412 13413 13414 13415 13416 13417 13418 13419 13420 13421 13422 13423 13424 13425 13426 13427 13428 13429 13430 13431 13432 13433 13434 13435 13436 13437 13438 13439 13440 13441 13442 13443 13444 13445 13446 13447 13448 13449 13450 13451 13452 13453 13454 13455 13456 13457 13458 13459 13460 13461 13462 13463 13464 13465 13466 13467 13468 13469 13470 13471 13472 13473 13474 13475 13476 13477 13478 13479 13480 13481 13482 13483 13484 13485 13486 13487 13488 13489 13490 13491 13492 13493 13494 13495 13496 13497 13498 13499 13500 13501 13502 13503 13504 13505 13506 13507 13508 13509 13510 13511 13512 13513 13514 13515 13516 13517 13518 13519 13520 13521 13522 13523 13524 13525 13526 13527 13528 13529 13530 13531 13532 13533 13534 13535 13536 13537 13538 13539 13540 13541 13542 13543 13544 13545 13546 13547 13548 13549 13550 13551 13552 13553 13554 13555 13556 13557 13558 13559 13560 13561 13562 13563 13564 13565 13566 13567 13568 13569 13570 13571 13572 13573 13574 13575 13576 13577 13578 13579 13580 13581 13582 13583 13584 13585 13586 13587 13588 13589 13590 13591 13592 13593 13594 13595 13596 13597 13598 13599 13600 13601 13602 13603 13604 13605 13606 13607 13608 13609 13610 13611 13612 13613 13614 13615 13616 13617 13618 13619 13620 13621 13622 13623 13624 13625 13626 13627 13628 13629 13630 13631 13632 13633 13634 13635 13636 13637 13638 13639 13640 13641 13642 13643 13644 13645 13646 13647 13648 13649 13650 13651 13652 13653 13654 13655 13656 13657 13658 13659 13660 13661 13662 13663 13664 13665 13666 13667 13668 13669 13670 13671 13672 13673 13674 13675 13676 13677 13678 13679 13680 13681 13682 13683 13684 13685 13686 13687 13688 13689 13690 13691 13692 13693 13694 13695 13696 13697 13698 13699 13700 13701 13702 13703 13704 13705 13706 13707 13708 13709 13710 13711 13712 13713 13714 13715 13716 13717 13718 13719 13720 13721 13722 13723 13724 13725 13726 13727 13728 13729 13730 13731 13732 13733 13734 13735 13736 13737 13738 13739 13740 13741 13742 13743 13744 13745 13746 13747 13748 13749 13750 13751 13752 13753 13754 13755 13756 13757 13758 13759 13760 13761 13762 13763 13764 13765 13766 13767 13768 13769 13770 13771 13772 13773 13774 13775 13776 13777 13778 13779 13780 13781 13782 13783 13784 13785 13786 13787 13788 13789 13790 13791 13792 13793 13794 13795 13796 13797 13798 13799 13800 13801 13802 13803 13804 13805 13806 13807 13808 13809 13810 13811 13812 13813 13814 13815 13816 13817 13818 13819 13820 13821 13822 13823 13824 13825 13826 13827 13828 13829 13830 13831 13832 13833 13834 13835 13836 13837 13838 13839 13840 13841 13842 13843 13844 13845 13846 13847 13848 13849 13850 13851 13852 13853 13854 13855 13856 13857 13858 13859 13860 13861 13862 13863 13864 13865 13866 13867 13868 13869 13870 13871 13872 13873 13874 13875 13876 13877 13878 13879 13880 13881 13882 13883 13884 13885 13886 13887 13888 13889 13890 13891 13892 13893 13894 13895 13896 13897 13898 13899 13900 13901 13902 13903 13904 13905 13906 13907 13908 13909 13910 13911 13912 13913 13914 13915 13916 13917 13918 13919 13920 13921 13922 13923 13924 13925 13926 13927 13928 13929 13930 13931 13932 13933 13934 13935 13936 13937 13938 13939 13940 13941 13942 13943 13944 13945 13946 13947 13948 13949 13950 13951 13952 13953 13954 13955 13956 13957 13958 13959 13960 13961 13962 13963 13964 13965 13966 13967 13968 13969 13970 13971 13972 13973 13974 13975 13976 13977 13978 13979 13980 13981 13982 13983 13984 13985 13986 13987 13988 13989 13990 13991 13992 13993 13994 13995 13996 13997 13998 13999 14000 14001 14002 14003 14004 14005 14006 14007 14008 14009 14010 14011 14012 14013 14014 14015 14016 14017 14018 14019 14020 14021 14022 14023 14024 14025 14026 14027 14028 14029 14030 14031 14032 14033 14034 14035 14036 14037 14038 14039 14040 14041 14042 14043 14044 14045 14046 14047 14048 14049 14050 14051 14052 14053 14054 14055 14056 14057 14058 14059 14060 14061 14062 14063 14064 14065 14066 14067 14068 14069 14070 14071 14072 14073 14074 14075 14076 14077 14078 14079 14080 14081 14082 14083 14084 14085 14086 14087 14088 14089 14090 14091 14092 14093 14094 14095 14096 14097 14098 14099 14100 14101 14102 14103 14104 14105 14106 14107 14108 14109 14110 14111 14112 14113 14114 14115 14116 14117 14118 14119 14120 14121 14122 14123 14124 14125 14126 14127 14128 14129 14130 14131 14132 14133 14134 14135 14136 14137 14138 14139 14140 14141 14142 14143 14144 14145 14146 14147 14148 14149 14150 14151 14152 14153 14154 14155 14156 14157 14158 14159 14160 14161 14162 14163 14164 14165 14166 14167 14168 14169 14170 14171 14172 14173 14174 14175 14176 14177 14178 14179 14180 14181 14182 14183 14184 14185 14186 14187 14188 14189 14190 14191 14192 14193 14194 14195 14196 14197 14198 14199 14200 14201 14202 14203 14204 14205 14206 14207 14208 14209 14210 14211 14212 14213 14214 14215 14216 14217 14218 14219 14220 14221 14222 14223 14224 14225 14226 14227 14228 14229 14230 14231 14232 14233 14234 14235 14236 14237 14238 14239 14240 14241 14242 14243 14244 14245 14246 14247 14248 14249 14250 14251 14252 14253 14254 14255 14256 14257 14258 14259 14260 14261 14262 14263 14264 14265 14266 14267 14268 14269 14270 14271 14272 14273 14274 14275 14276 14277 14278 14279 14280 14281 14282 14283 14284 14285 14286 14287 14288 14289 14290 14291 14292 14293 14294 14295 14296 14297 14298 14299 14300 14301 14302 14303 14304 14305 14306 14307 14308 14309 14310 14311 14312 14313 14314 14315 14316 14317 14318 14319 14320 14321 14322 14323 14324 14325 14326 14327 14328 14329 14330 14331 14332 14333 14334 14335 14336 14337 14338 14339 14340 14341 14342 14343 14344 14345 14346 14347 14348 14349 14350 14351 14352 14353 14354 14355 14356 14357 14358 14359 14360 14361 14362 14363 14364 14365 14366 14367 14368 14369 14370 14371 14372 14373 14374 14375 14376 14377 14378 14379 14380 14381 14382 14383 14384 14385 14386 14387 14388 14389 14390 14391 14392 14393 14394 14395 14396 14397 14398 14399 14400 14401 14402 14403 14404 14405 14406 14407 14408 14409 14410 14411 14412 14413 14414 14415 14416 14417 14418 14419 14420 14421 14422 14423 14424 14425 14426 14427 14428 14429 14430 14431 14432 14433 14434 14435 14436 14437 14438 14439 14440 14441 14442 14443 14444 14445 14446 14447 14448 14449 14450 14451 14452 14453 14454 14455 14456 14457 14458 14459 14460 14461 14462 14463 14464 14465 14466 14467 14468 14469 14470 14471 14472 14473 14474 14475 14476 14477 14478 14479 14480 14481 14482 14483 14484 14485 14486 14487 14488 14489 14490 14491 14492 14493 14494 14495 14496 14497 14498 14499 14500 14501 14502 14503 14504 14505 14506 14507 14508 14509 14510 14511 14512 14513 14514 14515 14516 14517 14518 14519 14520 14521 14522 14523 14524 14525 14526 14527 14528 14529 14530 14531 14532 14533 14534 14535 14536 14537 14538 14539 14540 14541 14542 14543 14544 14545 14546 14547 14548 14549 14550 14551 14552 14553 14554 14555 14556 14557 14558 14559 14560 14561 14562 14563 14564 14565 14566 14567 14568 14569 14570 14571 14572 14573 14574 14575 14576 14577 14578 14579 14580 14581 14582 14583 14584 14585 14586 14587 14588 14589 14590 14591 14592 14593 14594 14595 14596 14597 14598 14599 14600 14601 14602 14603 14604 14605 14606 14607 14608 14609 14610 14611 14612 14613 14614 14615 14616 14617 14618 14619 14620 14621 14622 14623 14624 14625 14626 14627 14628 14629 14630 14631 14632 14633 14634 14635 14636 14637 14638 14639 14640 14641 14642 14643 14644 14645 14646 14647 14648 14649 14650 14651 14652 14653 14654 14655 14656 14657 14658 14659 14660 14661 14662 14663 14664 14665 14666 14667 14668 14669 14670 14671 14672 14673 14674 14675 14676 14677 14678 14679 14680 14681 14682 14683 14684 14685 14686 14687 14688 14689 14690 14691 14692 14693 14694 14695 14696 14697 14698 14699 14700 14701 14702 14703 14704 14705 14706 14707 14708 14709 14710 14711 14712 14713 14714 14715 14716 14717 14718 14719 14720 14721 14722 14723 14724 14725 14726 14727 14728 14729 14730 14731 14732 14733 14734 14735 14736 14737 14738 14739 14740 14741 14742 14743 14744 14745 14746 14747 14748 14749 14750 14751 14752 14753 14754 14755 14756 14757 14758 14759 14760 14761 14762 14763 14764 14765 14766 14767 14768 14769 14770 14771 14772 14773 14774 14775 14776 14777 14778 14779 14780 14781 14782 14783 14784 14785 14786 14787 14788 14789 14790 14791 14792 14793 14794 14795 14796 14797 14798 14799 14800 14801 14802 14803 14804 14805 14806 14807 14808 14809 14810 14811 14812 14813 14814 14815 14816 14817 14818 14819 14820 14821 14822 14823 14824 14825 14826 14827 14828 14829 14830 14831 14832 14833 14834 14835 14836 14837 14838 14839 14840 14841 14842 14843 14844 14845 14846 14847 14848 14849 14850 14851 14852 14853 14854 14855 14856 14857 14858 14859 14860 14861 14862 14863 14864 14865 14866 14867 14868 14869 14870 14871 14872 14873 14874 14875 14876 14877 14878 14879 14880 14881 14882 14883 14884 14885 14886 14887 14888 14889 14890 14891 14892 14893 14894 14895 14896 14897 14898 14899 14900 14901 14902 14903 14904 14905 14906 14907 14908 14909 14910 14911 14912 14913 14914 14915 14916 14917 14918 14919 14920 14921 14922 14923 14924 14925 14926 14927 14928 14929 14930 14931 14932 14933 14934 14935 14936 14937 14938 14939 14940 14941 14942 14943 14944 14945 14946 14947 14948 14949 14950 14951 14952 14953 14954 14955 14956 14957 14958 14959 14960 14961 14962 14963 14964 14965 14966 14967 14968 14969 14970 14971 14972 14973 14974 14975 14976 14977 14978 14979 14980 14981 14982 14983 14984 14985 14986 14987 14988 14989 14990 14991 14992 14993 14994 14995 14996 14997 14998 14999 15000 15001 15002 15003 15004 15005 15006 15007 15008 15009 15010 15011 15012 15013 15014 15015 15016 15017 15018 15019 15020 15021 15022 15023 15024 15025 15026 15027 15028 15029 15030 15031 15032 15033 15034 15035 15036 15037 15038 15039 15040 15041 15042 15043 15044 15045 15046 15047 15048 15049 15050 15051 15052 15053 15054 15055 15056 15057 15058 15059 15060 15061 15062 15063 15064 15065 15066 15067 15068 15069 15070 15071 15072 15073 15074 15075 15076 15077 15078 15079 15080 15081 15082 15083 15084 15085 15086 15087 15088 15089 15090 15091 15092 15093 15094 15095 15096 15097 15098 15099 15100 15101 15102 15103 15104 15105 15106 15107 15108 15109 15110 15111 15112 15113 15114 15115 15116 15117 15118 15119 15120 15121 15122 15123 15124 15125 15126 15127 15128 15129 15130 15131 15132 15133 15134 15135 15136 15137 15138 15139 15140 15141 15142 15143 15144 15145 15146 15147 15148 15149 15150 15151 15152 15153 15154 15155 15156 15157 15158 15159 15160 15161 15162 15163 15164 15165 15166 15167 15168 15169 15170 15171 15172 15173 15174 15175 15176 15177 15178 15179 15180 15181 15182 15183 15184 15185 15186 15187 15188 15189 15190 15191 15192 15193 15194 15195 15196 15197 15198 15199 15200 15201 15202 15203 15204 15205 15206 15207 15208 15209 15210 15211 15212 15213 15214 15215 15216 15217 15218 15219 15220 15221 15222 15223 15224 15225 15226 15227 15228 15229 15230 15231 15232 15233 15234 15235 15236 15237 15238 15239 15240 15241 15242 15243 15244 15245 15246 15247 15248 15249 15250 15251 15252 15253 15254 15255 15256 15257 15258 15259 15260 15261 15262 15263 15264 15265 15266 15267 15268 15269 15270 15271 15272 15273 15274 15275 15276 15277 15278 15279 15280 15281 15282 15283 15284 15285 15286 15287 15288 15289 15290 15291 15292 15293 15294 15295 15296 15297 15298 15299 15300 15301 15302 15303 15304 15305 15306 15307 15308 15309 15310 15311 15312 15313 15314 15315 15316 15317 15318 15319 15320 15321 15322 15323 15324 15325 15326 15327 15328 15329 15330 15331 15332 15333 15334 15335 15336 15337 15338 15339 15340 15341 15342 15343 15344 15345 15346 15347 15348 15349 15350 15351 15352 15353 15354 15355 15356 15357 15358 15359 15360 15361 15362 15363 15364 15365 15366 15367 15368 15369 15370 15371 15372 15373 15374 15375 15376 15377 15378 15379 15380 15381 15382 15383 15384 15385 15386 15387 15388 15389 15390 15391 15392 15393 15394 15395 15396 15397 15398 15399 15400 15401 15402 15403 15404 15405 15406 15407 15408 15409 15410 15411 15412 15413 15414 15415 15416 15417 15418 15419 15420 15421 15422 15423 15424 15425 15426 15427 15428 15429 15430 15431 15432 15433 15434 15435 15436 15437 15438 15439 15440 15441 15442 15443 15444 15445 15446 15447 15448 15449 15450 15451 15452 15453 15454 15455 15456 15457 15458 15459 15460 15461 15462 15463 15464 15465 15466 15467 15468 15469 15470 15471 15472 15473 15474 15475 15476 15477 15478 15479 15480 15481 15482 15483 15484 15485 15486 15487 15488 15489 15490 15491 15492 15493 15494 15495 15496 15497 15498 15499 15500 15501 15502 15503 15504 15505 15506 15507 15508 15509 15510 15511 15512 15513 15514 15515 15516 15517 15518 15519 15520 15521 15522 15523 15524 15525 15526 15527 15528 15529 15530 15531 15532 15533 15534 15535 15536 15537 15538 15539 15540 15541 15542 15543 15544 15545 15546 15547 15548 15549 15550 15551 15552 15553 15554 15555 15556 15557 15558 15559 15560 15561 15562 15563 15564 15565 15566 15567 15568 15569 15570 15571 15572 15573 15574 15575 15576 15577 15578 15579 15580 15581 15582 15583 15584 15585 15586 15587 15588 15589 15590 15591 15592 15593 15594 15595 15596 15597 15598 15599 15600 15601 15602 15603 15604 15605 15606 15607 15608 15609 15610 15611 15612 15613 15614 15615 15616 15617 15618 15619 15620 15621 15622 15623 15624 15625 15626 15627 15628 15629 15630 15631 15632 15633 15634 15635 15636 15637 15638 15639 15640 15641 15642 15643 15644 15645 15646 15647 15648 15649 15650 15651 15652 15653 15654 15655 15656 15657 15658 15659 15660 15661 15662 15663 15664 15665 15666 15667 15668 15669 15670 15671 15672 15673 15674 15675 15676 15677 15678 15679 15680 15681 15682 15683 15684 15685 15686 15687 15688 15689 15690 15691 15692 15693 15694 15695 15696 15697 15698 15699 15700 15701 15702 15703 15704 15705 15706 15707 15708 15709 15710 15711 15712 15713 15714 15715 15716 15717 15718 15719 15720 15721 15722 15723 15724 15725 15726 15727 15728 15729 15730 15731 15732 15733 15734 15735 15736 15737 15738 15739 15740 15741 15742 15743 15744 15745 15746 15747 15748 15749 15750 15751 15752 15753 15754 15755 15756 15757 15758 15759 15760 15761 15762 15763 15764 15765 15766 15767 15768 15769 15770 15771 15772 15773 15774 15775 15776 15777 15778 15779 15780 15781 15782 15783 15784 15785 15786 15787 15788 15789 15790 15791 15792 15793 15794 15795 15796 15797 15798 15799 15800 15801 15802 15803 15804 15805 15806 15807 15808 15809 15810 15811 15812 15813 15814 15815 15816 15817 15818 15819 15820 15821 15822 15823 15824 15825 15826 15827 15828 15829 15830 15831 15832 15833 15834 15835 15836 15837 15838 15839 15840 15841 15842 15843 15844 15845 15846 15847 15848 15849 15850 15851 15852 15853 15854 15855 15856 15857 15858 15859 15860 15861 15862 15863 15864 15865 15866 15867 15868 15869 15870 15871 15872 15873 15874 15875 15876 15877 15878 15879 15880 15881 15882 15883 15884 15885 15886 15887 15888 15889 15890 15891 15892 15893 15894 15895 15896 15897 15898 15899 15900 15901 15902 15903 15904 15905 15906 15907 15908 15909 15910 15911 15912 15913 15914 15915 15916 15917 15918 15919 15920 15921 15922 15923 15924 15925 15926 15927 15928 15929 15930 15931 15932 15933 15934 15935 15936 15937 15938 15939 15940 15941 15942 15943 15944 15945 15946 15947 15948 15949 15950 15951 15952 15953 15954 15955 15956 15957 15958 15959 15960 15961 15962 15963 15964 15965 15966 15967 15968 15969 15970 15971 15972 15973 15974 15975 15976 15977 15978 15979 15980 15981 15982 15983 15984 15985 15986 15987 15988 15989 15990 15991 15992 15993 15994 15995 15996 15997 15998 15999 16000 16001 16002 16003 16004 16005 16006 16007 16008 16009 16010 16011 16012 16013 16014 16015 16016 16017 16018 16019 16020 16021 16022 16023 16024 16025 16026 16027 16028 16029 16030 16031 16032 16033 16034 16035 16036 16037 16038 16039 16040 16041 16042 16043 16044 16045 16046 16047 16048 16049 16050 16051 16052 16053 16054 16055 16056 16057 16058 16059 16060 16061 16062 16063 16064 16065 16066 16067 16068 16069 16070 16071 16072 16073 16074 16075 16076 16077 16078 16079 16080 16081 16082 16083 16084 16085 16086 16087 16088 16089 16090 16091 16092 16093 16094 16095 16096 16097 16098 16099 16100 16101 16102 16103 16104 16105 16106 16107 16108 16109 16110 16111 16112 16113 16114 16115 16116 16117 16118 16119 16120 16121 16122 16123 16124 16125 16126 16127 16128 16129 16130 16131 16132 16133 16134 16135 16136 16137 16138 16139 16140 16141 16142 16143 16144 16145 16146 16147 16148 16149 16150 16151 16152 16153 16154 16155 16156 16157 16158 16159 16160 16161 16162 16163 16164 16165 16166 16167 16168 16169 16170 16171 16172 16173 16174 16175 16176 16177 16178 16179 16180 16181 16182 16183 16184 16185 16186 16187 16188 16189 16190 16191 16192 16193 16194 16195 16196 16197 16198 16199 16200 16201 16202 16203 16204 16205 16206 16207 16208 16209 16210 16211 16212 16213 16214 16215 16216 16217 16218 16219 16220 16221 16222 16223 16224 16225 16226 16227 16228 16229 16230 16231 16232 16233 16234 16235 16236 16237 16238 16239 16240 16241 16242 16243 16244 16245 16246 16247 16248 16249 16250 16251 16252 16253 16254 16255 16256 16257 16258 16259 16260 16261 16262 16263 16264 16265 16266 16267 16268 16269 16270 16271 16272 16273 16274 16275 16276 16277 16278 16279 16280 16281 16282 16283 16284 16285 16286 16287 16288 16289 16290 16291 16292 16293 16294 16295 16296 16297 16298 16299 16300 16301 16302 16303 16304 16305 16306 16307 16308 16309 16310 16311 16312 16313 16314 16315 16316 16317 16318 16319 16320 16321 16322 16323 16324 16325 16326 16327 16328 16329 16330 16331 16332 16333 16334 16335 16336 16337 16338 16339 16340 16341 16342 16343 16344 16345 16346 16347 16348 16349 16350 16351 16352 16353 16354 16355 16356 16357 16358 16359 16360 16361 16362 16363 16364 16365 16366 16367 16368 16369 16370 16371 16372 16373 16374 16375 16376 16377 16378 16379 16380 16381 16382 16383 16384 16385 16386 16387 16388 16389 16390 16391 16392 16393 16394 16395 16396 16397 16398 16399 16400 16401 16402 16403 16404 16405 16406 16407 16408 16409 16410 16411 16412 16413 16414 16415 16416 16417 16418 16419 16420 16421 16422 16423 16424 16425 16426 16427 16428 16429 16430 16431 16432 16433 16434 16435 16436 16437 16438 16439 16440 16441 16442 16443 16444 16445 16446 16447 16448 16449 16450 16451 16452 16453 16454 16455 16456 16457 16458 16459 16460 16461 16462 16463 16464 16465 16466 16467 16468 16469 16470 16471 16472 16473 16474 16475 16476 16477 16478 16479 16480 16481 16482 16483 16484 16485 16486 16487 16488 16489 16490 16491 16492 16493 16494 16495 16496 16497 16498 16499 16500 16501 16502 16503 16504 16505 16506 16507 16508 16509 16510 16511 16512 16513 16514 16515 16516 16517 16518 16519 16520 16521 16522 16523 16524 16525 16526 16527 16528 16529 16530 16531 16532 16533 16534 16535 16536 16537 16538 16539 16540 16541 16542 16543 16544 16545 16546 16547 16548 16549 16550 16551 16552 16553 16554 16555 16556 16557 16558 16559 16560 16561 16562 16563 16564 16565 16566 16567 16568 16569 16570 16571 16572 16573 16574 16575 16576 16577 16578 16579 16580 16581 16582 16583 16584 16585 16586 16587 16588 16589 16590 16591 16592 16593 16594 16595 16596 16597 16598 16599 16600 16601 16602 16603 16604 16605 16606 16607 16608 16609 16610 16611 16612 16613 16614 16615 16616 16617 16618 16619 16620 16621 16622 16623 16624 16625 16626 16627 16628 16629 16630 16631 16632 16633 16634 16635 16636 16637 16638 16639 16640 16641 16642 16643 16644 16645 16646 16647 16648 16649 16650 16651 16652 16653 16654 16655 16656 16657 16658 16659 16660 16661 16662 16663 16664 16665 16666 16667 16668 16669 16670 16671 16672 16673 16674 16675 16676 16677 16678 16679 16680 16681 16682 16683 16684 16685 16686 16687 16688 16689 16690 16691 16692 16693 16694 16695 16696 16697 16698 16699 16700 16701 16702 16703 16704 16705 16706 16707 16708 16709 16710 16711 16712 16713 16714 16715 16716 16717 16718 16719 16720 16721 16722 16723 16724 16725 16726 16727 16728 16729 16730 16731 16732 16733 16734 16735 16736 16737 16738 16739 16740 16741 16742 16743 16744 16745 16746 16747 16748 16749 16750 16751 16752 16753 16754 16755 16756 16757 16758 16759 16760 16761 16762 16763 16764 16765 16766 16767 16768 16769 16770 16771 16772 16773 16774 16775 16776 16777 16778 16779 16780 16781 16782 16783 16784 16785 16786 16787 16788 16789 16790 16791 16792 16793 16794 16795 16796 16797 16798 16799 16800 16801 16802 16803 16804 16805 16806 16807 16808 16809 16810 16811 16812 16813 16814 16815 16816 16817 16818 16819 16820 16821 16822 16823 16824 16825 16826 16827 16828 16829 16830 16831 16832 16833 16834 16835 16836 16837 16838 16839 16840 16841 16842 16843 16844 16845 16846 16847 16848 16849 16850 16851 16852 16853 16854 16855 16856 16857 16858 16859 16860 16861 16862 16863 16864 16865 16866 16867 16868 16869 16870 16871 16872 16873 16874 16875 16876 16877 16878 16879 16880 16881 16882 16883 16884 16885 16886 16887 16888 16889 16890 16891 16892 16893 16894 16895 16896 16897 16898 16899 16900 16901 16902 16903 16904 16905 16906 16907 16908 16909 16910 16911 16912 16913 16914 16915 16916 16917 16918 16919 16920 16921 16922 16923 16924 16925 16926 16927 16928 16929 16930 16931 16932 16933 16934 16935 16936 16937 16938 16939 16940 16941 16942 16943 16944 16945 16946 16947 16948 16949 16950 16951 16952 16953 16954 16955 16956 16957 16958 16959 16960 16961 16962 16963 16964 16965 16966 16967 16968 16969 16970 16971 16972 16973 16974 16975 16976 16977 16978 16979 16980 16981 16982 16983 16984 16985 16986 16987 16988 16989 16990 16991 16992 16993 16994 16995 16996 16997 16998 16999 17000 17001 17002 17003 17004 17005 17006 17007 17008 17009 17010 17011 17012 17013 17014 17015 17016 17017 17018 17019 17020 17021 17022 17023 17024 17025 17026 17027 17028 17029 17030 17031 17032 17033 17034 17035 17036 17037 17038 17039 17040 17041 17042 17043 17044 17045 17046 17047 17048 17049 17050 17051 17052 17053 17054 17055 17056 17057 17058 17059 17060 17061 17062 17063 17064 17065 17066 17067 17068 17069 17070 17071 17072 17073 17074 17075 17076 17077 17078 17079 17080 17081 17082 17083 17084 17085 17086 17087 17088 17089 17090 17091 17092 17093 17094 17095 17096 17097 17098 17099 17100 17101 17102 17103 17104 17105 17106 17107 17108 17109 17110 17111 17112 17113 17114 17115 17116 17117 17118 17119 17120 17121 17122 17123 17124 17125 17126 17127 17128 17129 17130 17131 17132 17133 17134 17135 17136 17137 17138 17139 17140 17141 17142 17143 17144 17145 17146 17147 17148 17149 17150 17151 17152 17153 17154 17155 17156 17157 17158 17159 17160 17161 17162 17163 17164 17165 17166 17167 17168 17169 17170 17171 17172 17173 17174 17175 17176 17177 17178 17179 17180 17181 17182 17183 17184 17185 17186 17187 17188 17189 17190 17191 17192 17193 17194 17195 17196 17197 17198 17199 17200 17201 17202 17203 17204 17205 17206 17207 17208 17209 17210 17211 17212 17213 17214 17215 17216 17217 17218 17219 17220 17221 17222 17223 17224 17225 17226 17227 17228 17229 17230 17231 17232 17233 17234 17235 17236 17237 17238 17239 17240 17241 17242 17243 17244 17245 17246 17247 17248 17249 17250 17251 17252 17253 17254 17255 17256 17257 17258 17259 17260 17261 17262 17263 17264 17265 17266 17267 17268 17269 17270 17271 17272 17273 17274 17275 17276 17277 17278 17279 17280 17281 17282 17283 17284 17285 17286 17287 17288 17289 17290 17291 17292 17293 17294 17295 17296 17297 17298 17299 17300 17301 17302 17303 17304 17305 17306 17307 17308 17309 17310 17311 17312 17313 17314 17315 17316 17317 17318 17319 17320 17321 17322 17323 17324 17325 17326 17327 17328 17329 17330 17331 17332 17333 17334 17335 17336 17337 17338 17339 17340 17341 17342 17343 17344 17345 17346 17347 17348 17349 17350 17351 17352 17353 17354 17355 17356 17357 17358 17359 17360 17361 17362 17363 17364 17365 17366 17367 17368 17369 17370 17371 17372 17373 17374 17375 17376 17377 17378 17379 17380 17381 17382 17383 17384 17385 17386 17387 17388 17389 17390 17391 17392 17393 17394 17395 17396 17397 17398 17399 17400 17401 17402 17403 17404 17405 17406 17407 17408 17409 17410 17411 17412 17413 17414 17415 17416 17417 17418 17419 17420 17421 17422 17423 17424 17425 17426 17427 17428 17429 17430 17431 17432 17433 17434 17435 17436 17437 17438 17439 17440 17441 17442 17443 17444 17445 17446 17447 17448 17449 17450 17451 17452 17453 17454 17455 17456 17457 17458 17459 17460 17461 17462 17463 17464 17465 17466 17467 17468 17469 17470 17471 17472 17473 17474 17475 17476 17477 17478 17479 17480 17481 17482 17483 17484 17485 17486 17487 17488 17489 17490 17491 17492 17493 17494 17495 17496 17497 17498 17499 17500 17501 17502 17503 17504 17505 17506 17507 17508 17509 17510 17511 17512 17513 17514 17515 17516 17517 17518 17519 17520 17521 17522 17523 17524 17525 17526 17527 17528 17529 17530 17531 17532 17533 17534 17535 17536 17537 17538 17539 17540 17541 17542 17543 17544 17545 17546 17547 17548 17549 17550 17551 17552 17553 17554 17555 17556 17557 17558 17559 17560 17561 17562 17563 17564 17565 17566 17567 17568 17569 17570 17571 17572 17573 17574 17575 17576 17577 17578 17579 17580 17581 17582 17583 17584 17585 17586 17587 17588 17589 17590 17591 17592 17593 17594 17595 17596 17597 17598 17599 17600 17601 17602 17603 17604 17605 17606 17607 17608 17609 17610 17611 17612 17613 17614 17615 17616 17617 17618 17619 17620 17621 17622 17623 17624 17625 17626 17627 17628 17629 17630 17631 17632 17633 17634 17635 17636 17637 17638 17639 17640 17641 17642 17643 17644 17645 17646 17647 17648 17649 17650 17651 17652 17653 17654 17655 17656 17657 17658 17659 17660 17661 17662 17663 17664 17665 17666 17667 17668 17669 17670 17671 17672 17673 17674 17675 17676 17677 17678 17679 17680 17681 17682 17683 17684 17685 17686 17687 17688 17689 17690 17691 17692 17693 17694 17695 17696 17697 17698 17699 17700 17701 17702 17703 17704 17705 17706 17707 17708 17709 17710 17711 17712 17713 17714 17715 17716 17717 17718 17719 17720 17721 17722 17723 17724 17725 17726 17727 17728 17729 17730 17731 17732 17733 17734 17735 17736 17737 17738 17739 17740 17741 17742 17743 17744 17745 17746 17747 17748 17749 17750 17751 17752 17753 17754 17755 17756 17757 17758 17759 17760 17761 17762 17763 17764 17765 17766 17767 17768 17769 17770 17771 17772 17773 17774 17775 17776 17777 17778 17779 17780 17781 17782 17783 17784 17785 17786 17787 17788 17789 17790 17791 17792 17793 17794 17795 17796 17797 17798 17799 17800 17801 17802 17803 17804 17805 17806 17807 17808 17809 17810 17811 17812 17813 17814 17815 17816 17817 17818 17819 17820 17821 17822 17823 17824 17825 17826 17827 17828 17829 17830 17831 17832 17833 17834 17835 17836 17837 17838 17839 17840 17841 17842 17843 17844 17845 17846 17847 17848 17849 17850 17851 17852 17853 17854 17855 17856 17857 17858 17859 17860 17861 17862 17863 17864 17865 17866 17867 17868 17869 17870 17871 17872 17873 17874 17875 17876 17877 17878 17879 17880 17881 17882 17883 17884 17885 17886 17887 17888 17889 17890 17891 17892 17893 17894 17895 17896 17897 17898 17899 17900 17901 17902 17903 17904 17905 17906 17907 17908 17909 17910 17911 17912 17913 17914 17915 17916 17917 17918 17919 17920 17921 17922 17923 17924 17925 17926 17927 17928 17929 17930 17931 17932 17933 17934 17935 17936 17937 17938 17939 17940 17941 17942 17943 17944 17945 17946 17947 17948 17949 17950 17951 17952 17953 17954 17955 17956 17957 17958 17959 17960 17961 17962 17963 17964 17965 17966 17967 17968 17969 17970 17971 17972 17973 17974 17975 17976 17977 17978 17979 17980 17981 17982 17983 17984 17985 17986 17987 17988 17989 17990 17991 17992 17993 17994 17995 17996 17997 17998 17999 18000 18001 18002 18003 18004 18005 18006 18007 18008 18009 18010 18011 18012 18013 18014 18015 18016 18017 18018 18019 18020 18021 18022 18023 18024 18025 18026 18027 18028 18029 18030 18031 18032 18033 18034 18035 18036 18037 18038 18039 18040 18041 18042 18043 18044 18045 18046 18047 18048 18049 18050 18051 18052 18053 18054 18055 18056 18057 18058 18059 18060 18061 18062 18063 18064 18065 18066 18067 18068 18069 18070 18071 18072 18073 18074 18075 18076 18077 18078 18079 18080 18081 18082 18083 18084 18085 18086 18087 18088 18089 18090 18091 18092 18093 18094 18095 18096 18097 18098 18099 18100 18101 18102 18103 18104 18105 18106 18107 18108 18109 18110 18111 18112 18113 18114 18115 18116 18117 18118 18119 18120 18121 18122 18123 18124 18125 18126 18127 18128 18129 18130 18131 18132 18133 18134 18135 18136 18137 18138 18139 18140 18141 18142 18143 18144 18145 18146 18147 18148 18149 18150 18151 18152 18153 18154 18155 18156 18157 18158 18159 18160 18161 18162 18163 18164 18165 18166 18167 18168 18169 18170 18171 18172 18173 18174 18175 18176 18177 18178 18179 18180 18181 18182 18183 18184 18185 18186 18187 18188 18189 18190 18191 18192 18193 18194 18195 18196 18197 18198 18199 18200 18201 18202 18203 18204 18205 18206 18207 18208 18209 18210 18211 18212 18213 18214 18215 18216 18217 18218 18219 18220 18221 18222 18223 18224 18225 18226 18227 18228 18229 18230 18231 18232 18233 18234 18235 18236 18237 18238 18239 18240 18241 18242 18243 18244 18245 18246 18247 18248 18249 18250 18251 18252 18253 18254 18255 18256 18257 18258 18259 18260 18261 18262 18263 18264 18265 18266 18267 18268 18269 18270 18271 18272 18273 18274 18275 18276 18277 18278 18279 18280 18281 18282 18283 18284 18285 18286 18287 18288 18289 18290 18291 18292 18293 18294 18295 18296 18297 18298 18299 18300 18301 18302 18303 18304 18305 18306 18307 18308 18309 18310 18311 18312 18313 18314 18315 18316 18317 18318 18319 18320 18321 18322 18323 18324 18325 18326 18327 18328 18329 18330 18331 18332 18333 18334 18335 18336 18337 18338 18339 18340 18341 18342 18343 18344 18345 18346 18347 18348 18349 18350 18351 18352 18353 18354 18355 18356 18357 18358 18359 18360 18361 18362 18363 18364 18365 18366 18367 18368 18369 18370 18371 18372 18373 18374 18375 18376 18377 18378 18379 18380 18381 18382 18383 18384 18385 18386 18387 18388 18389 18390 18391 18392 18393 18394 18395 18396 18397 18398 18399 18400 18401 18402 18403 18404 18405 18406 18407 18408 18409 18410 18411 18412 18413 18414 18415 18416 18417 18418 18419 18420 18421 18422 18423 18424 18425 18426 18427 18428 18429 18430 18431 18432 18433 18434 18435 18436 18437 18438 18439 18440 18441 18442 18443 18444 18445 18446 18447 18448 18449 18450 18451 18452 18453 18454 18455 18456 18457 18458 18459 18460 18461 18462 18463 18464 18465 18466 18467 18468 18469 18470 18471 18472 18473 18474 18475 18476 18477 18478 18479 18480 18481 18482 18483 18484 18485 18486 18487 18488 18489 18490 18491 18492 18493 18494 18495 18496 18497 18498 18499 18500 18501 18502 18503 18504 18505 18506 18507 18508 18509 18510 18511 18512 18513 18514 18515 18516 18517 18518 18519 18520 18521 18522 18523 18524 18525 18526 18527 18528 18529 18530 18531 18532 18533 18534 18535 18536 18537 18538 18539 18540 18541 18542 18543 18544 18545 18546 18547 18548 18549 18550 18551 18552 18553 18554 18555 18556 18557 18558 18559 18560 18561 18562 18563 18564 18565 18566 18567 18568 18569 18570 18571 18572 18573 18574 18575 18576 18577 18578 18579 18580 18581 18582 18583 18584 18585 18586 18587 18588 18589 18590 18591 18592 18593 18594 18595 18596 18597 18598 18599 18600 18601 18602 18603 18604 18605 18606 18607 18608 18609 18610 18611 18612 18613 18614 18615 18616 18617 18618 18619 18620 18621 18622 18623 18624 18625 18626 18627 18628 18629 18630 18631 18632 18633 18634 18635 18636 18637 18638 18639 18640 18641 18642 18643 18644 18645 18646 18647 18648 18649 18650 18651 18652 18653 18654 18655 18656 18657 18658 18659 18660 18661 18662 18663 18664 18665 18666 18667 18668 18669 18670 18671 18672 18673 18674 18675 18676 18677 18678 18679 18680 18681 18682 18683 18684 18685 18686 18687 18688 18689 18690 18691 18692 18693 18694 18695 18696 18697 18698 18699 18700 18701 18702 18703 18704 18705 18706 18707 18708 18709 18710 18711 18712 18713 18714 18715 18716 18717 18718 18719 18720 18721 18722 18723 18724 18725 18726 18727 18728 18729 18730 18731 18732 18733 18734 18735 18736 18737 18738 18739 18740 18741 18742 18743 18744 18745 18746 18747 18748 18749 18750 18751 18752 18753 18754 18755 18756 18757 18758 18759 18760 18761 18762 18763 18764 18765 18766 18767 18768 18769 18770 18771 18772 18773 18774 18775 18776 18777 18778 18779 18780 18781 18782 18783 18784 18785 18786 18787 18788 18789 18790 18791 18792 18793 18794 18795 18796 18797 18798 18799 18800 18801 18802 18803 18804 18805 18806 18807 18808 18809 18810 18811 18812 18813 18814 18815 18816 18817 18818 18819 18820 18821 18822 18823 18824 18825 18826 18827 18828 18829 18830 18831 18832 18833 18834 18835 18836 18837 18838 18839 18840 18841 18842 18843 18844 18845 18846 18847 18848 18849 18850 18851 18852 18853 18854 18855 18856 18857 18858 18859 18860 18861 18862 18863 18864 18865 18866 18867 18868 18869 18870 18871 18872 18873 18874 18875 18876 18877 18878 18879 18880 18881 18882 18883 18884 18885 18886 18887 18888 18889 18890 18891 18892 18893 18894 18895 18896 18897 18898 18899 18900 18901 18902 18903 18904 18905 18906 18907 18908 18909 18910 18911 18912 18913 18914 18915 18916 18917 18918 18919 18920 18921 18922 18923 18924 18925 18926 18927 18928 18929 18930 18931 18932 18933 18934 18935 18936 18937 18938 18939 18940 18941 18942 18943 18944 18945 18946 18947 18948 18949 18950 18951 18952 18953 18954 18955 18956 18957 18958 18959 18960 18961 18962 18963 18964 18965 18966 18967 18968 18969 18970 18971 18972 18973 18974 18975 18976 18977 18978 18979 18980 18981 18982 18983 18984 18985 18986 18987 18988 18989 18990 18991 18992 18993 18994 18995 18996 18997 18998 18999 19000 19001 19002 19003 19004 19005 19006 19007 19008 19009 19010 19011 19012 19013 19014 19015 19016 19017 19018 19019 19020 19021 19022 19023 19024 19025 19026 19027 19028 19029 19030 19031 19032 19033 19034 19035 19036 19037 19038 19039 19040 19041 19042 19043 19044 19045 19046 19047 19048 19049 19050 19051 19052 19053 19054 19055 19056 19057 19058 19059 19060 19061 19062 19063 19064 19065 19066 19067 19068 19069 19070 19071 19072 19073 19074 19075 19076 19077 19078 19079 19080 19081 19082 19083 19084 19085 19086 19087 19088 19089 19090 19091 19092 19093 19094 19095 19096 19097 19098 19099 19100 19101 19102 19103 19104 19105 19106 19107 19108 19109 19110 19111 19112 19113 19114 19115 19116 19117 19118 19119 19120 19121 19122 19123 19124 19125 19126 19127 19128 19129 19130 19131 19132 19133 19134 19135 19136 19137 19138 19139 19140 19141 19142 19143 19144 19145 19146 19147 19148 19149 19150 19151 19152 19153 19154 19155 19156 19157 19158 19159 19160 19161 19162 19163 19164 19165 19166 19167 19168 19169 19170 19171 19172 19173 19174 19175 19176 19177 19178 19179 19180 19181 19182 19183 19184 19185 19186 19187 19188 19189 19190 19191 19192 19193 19194 19195 19196 19197 19198 19199 19200 19201 19202 19203 19204 19205 19206 19207 19208 19209 19210 19211 19212 19213 19214 19215 19216 19217 19218 19219 19220 19221 19222 19223 19224 19225 19226 19227 19228 19229 19230 19231 19232 19233 19234 19235 19236 19237 19238 19239 19240 19241 19242 19243 19244 19245 19246 19247 19248 19249 19250 19251 19252 19253 19254 19255 19256 19257 19258 19259 19260 19261 19262 19263 19264 19265 19266 19267 19268 19269 19270 19271 19272 19273 19274 19275 19276 19277 19278 19279 19280 19281 19282 19283 19284 19285 19286 19287 19288 19289 19290 19291 19292 19293 19294 19295 19296 19297 19298 19299 19300 19301 19302 19303 19304 19305 19306 19307 19308 19309 19310 19311 19312 19313 19314 19315 19316 19317 19318 19319 19320 19321 19322 19323 19324 19325 19326 19327 19328 19329 19330 19331 19332 19333 19334 19335 19336 19337 19338 19339 19340 19341 19342 19343 19344 19345 19346 19347 19348 19349 19350 19351 19352 19353 19354 19355 19356 19357 19358 19359 19360 19361 19362 19363 19364 19365 19366 19367 19368 19369 19370 19371 19372 19373 19374 19375 19376 19377 19378 19379 19380 19381 19382 19383 19384 19385 19386 19387 19388 19389 19390 19391 19392 19393 19394 19395 19396 19397 19398 19399 19400 19401 19402 19403 19404 19405 19406 19407 19408 19409 19410 19411 19412 19413 19414 19415 19416 19417 19418 19419 19420 19421 19422 19423 19424 19425 19426 19427 19428 19429 19430 19431 19432 19433 19434 19435 19436 19437 19438 19439 19440 19441 19442 19443 19444 19445 19446 19447 19448 19449 19450 19451 19452 19453 19454 19455 19456 19457 19458 19459 19460 19461 19462 19463 19464 19465 19466 19467 19468 19469 19470 19471 19472 19473 19474 19475 19476 19477 19478 19479 19480 19481 19482 19483 19484 19485 19486 19487 19488 19489 19490 19491 19492 19493 19494 19495 19496 19497 19498 19499 19500 19501 19502 19503 19504 19505 19506 19507 19508 19509 19510 19511 19512 19513 19514 19515 19516 19517 19518 19519 19520 19521 19522 19523 19524 19525 19526 19527 19528 19529 19530 19531 19532 19533 19534 19535 19536 19537 19538 19539 19540 19541 19542 19543 19544 19545 19546 19547 19548 19549 19550 19551 19552 19553 19554 19555 19556 19557 19558 19559 19560 19561 19562 19563 19564 19565 19566 19567 19568 19569 19570 19571 19572 19573 19574 19575 19576 19577 19578 19579 19580 19581 19582 19583 19584 19585 19586 19587 19588 19589 19590 19591 19592 19593 19594 19595 19596 19597 19598 19599 19600 19601 19602 19603 19604 19605 19606 19607 19608 19609 19610 19611 19612 19613 19614 19615 19616 19617 19618 19619 19620 19621 19622 19623 19624 19625 19626 19627 19628 19629 19630 19631 19632 19633 19634 19635 19636 19637 19638 19639 19640 19641 19642 19643 19644 19645 19646 19647 19648 19649 19650 19651 19652 19653 19654 19655 19656 19657 19658 19659 19660 19661 19662 19663 19664 19665 19666 19667 19668 19669 19670 19671 19672 19673 19674 19675 19676 19677 19678 19679 19680 19681 19682 19683 19684 19685 19686 19687 19688 19689 19690 19691 19692 19693 19694 19695 19696 19697 19698 19699 19700 19701 19702 19703 19704 19705 19706 19707 19708 19709 19710 19711 19712 19713 19714 19715 19716 19717 19718 19719 19720 19721 19722 19723 19724 19725 19726 19727 19728 19729 19730 19731 19732 19733 19734 19735 19736 19737 19738 19739 19740 19741 19742 19743 19744 19745 19746 19747 19748 19749 19750 19751 19752 19753 19754 19755 19756 19757 19758 19759 19760 19761 19762 19763 19764 19765 19766 19767 19768 19769 19770 19771 19772 19773 19774 19775 19776 19777 19778 19779 19780 19781 19782 19783 19784 19785 19786 19787 19788 19789 19790 19791 19792 19793 19794 19795 19796 19797 19798 19799 19800 19801 19802 19803 19804 19805 19806 19807 19808 19809 19810 19811 19812 19813 19814 19815 19816 19817 19818 19819 19820 19821 19822 19823 19824 19825 19826 19827 19828 19829 19830 19831 19832 19833 19834 19835 19836 19837 19838 19839 19840 19841 19842 19843 19844 19845 19846 19847 19848 19849 19850 19851 19852 19853 19854 19855 19856 19857 19858 19859 19860 19861 19862 19863 19864 19865 19866 19867 19868 19869 19870 19871 19872 19873 19874 19875 19876 19877 19878 19879 19880 19881 19882 19883 19884 19885 19886 19887 19888 19889 19890 19891 19892 19893 19894 19895 19896 19897 19898 19899 19900 19901 19902 19903 19904 19905 19906 19907 19908 19909 19910 19911 19912 19913 19914 19915 19916 19917 19918 19919 19920 19921 19922 19923 19924 19925 19926 19927 19928 19929 19930 19931 19932 19933 19934 19935 19936 19937 19938 19939 19940 19941 19942 19943 19944 19945 19946 19947 19948 19949 19950 19951 19952 19953 19954 19955 19956 19957 19958 19959 19960 19961 19962 19963 19964 19965 19966 19967 19968 19969 19970 19971 19972 19973 19974 19975 19976 19977 19978 19979 19980 19981 19982 19983 19984 19985 19986 19987 19988 19989 19990 19991 19992 19993 19994 19995 19996 19997 19998 19999 20000 20001 20002 20003 20004 20005 20006 20007 20008 20009 20010 20011 20012 20013 20014 20015 20016 20017 20018 20019 20020 20021 20022 20023 20024 20025 20026 20027 20028 20029 20030 20031 20032 20033 20034 20035 20036 20037 20038 20039 20040 20041 20042 20043 20044 20045 20046 20047 20048 20049 20050 20051 20052 20053 20054 20055 20056 20057 20058 20059 20060 20061 20062 20063 20064 20065 20066 20067 20068 20069 20070 20071 20072 20073 20074 20075 20076 20077 20078 20079 20080 20081 20082 20083 20084 20085 20086 20087 20088 20089 20090 20091 20092 20093 20094 20095 20096 20097 20098 20099 20100 20101 20102 20103 20104 20105 20106 20107 20108 20109 20110 20111 20112 20113 20114 20115 20116 20117 20118 20119 20120 20121 20122 20123 20124 20125 20126 20127 20128 20129 20130 20131 20132 20133 20134 20135 20136 20137 20138 20139 20140 20141 20142 20143 20144 20145 20146 20147 20148 20149 20150 20151 20152 20153 20154 20155 20156 20157 20158 20159 20160 20161 20162 20163 20164 20165 20166 20167 20168 20169 20170 20171 20172 20173 20174 20175 20176 20177 20178 20179 20180 20181 20182 20183 20184 20185 20186 20187 20188 20189 20190 20191 20192 20193 20194 20195 20196 20197 20198 20199 20200 20201 20202 20203 20204 20205 20206 20207 20208 20209 20210 20211 20212 20213 20214 20215 20216 20217 20218 20219 20220 20221 20222 20223 20224 20225 20226 20227 20228 20229 20230 20231 20232 20233 20234 20235 20236 20237 20238 20239 20240 20241 20242 20243 20244 20245 20246 20247 20248 20249 20250 20251 20252 20253 20254 20255 20256 20257 20258 20259 20260 20261 20262 20263 20264 20265 20266 20267 20268 20269 20270 20271 20272 20273 20274 20275 20276 20277 20278 20279 20280 20281 20282 20283 20284 20285 20286 20287 20288 20289 20290 20291 20292 20293 20294 20295 20296 20297 20298 20299 20300 20301 20302 20303 20304 20305 20306 20307 20308 20309 20310 20311 20312 20313 20314 20315 20316 20317 20318 20319 20320 20321 20322 20323 20324 20325 20326 20327 20328 20329 20330 20331 20332 20333 20334 20335 20336 20337 20338 20339 20340 20341 20342 20343 20344 20345 20346 20347 20348 20349 20350 20351 20352 20353 20354 20355 20356 20357 20358 20359 20360 20361 20362 20363 20364 20365 20366 20367 20368 20369 20370 20371 20372 20373 20374 20375 20376 20377 20378 20379 20380 20381 20382 20383 20384 20385 20386 20387 20388 20389 20390 20391 20392 20393 20394 20395 20396 20397 20398 20399 20400 20401 20402 20403 20404 20405 20406 20407 20408 20409 20410 20411 20412 20413 20414 20415 20416 20417 20418 20419 20420 20421 20422 20423 20424 20425 20426 20427 20428 20429 20430 20431 20432 20433 20434 20435 20436 20437 20438 20439 20440 20441 20442 20443 20444 20445 20446 20447 20448 20449 20450 20451 20452 20453 20454 20455 20456 20457 20458 20459 20460 20461 20462 20463 20464 20465 20466 20467 20468 20469 20470 20471 20472 20473 20474 20475 20476 20477 20478 20479 20480 20481 20482 20483 20484 20485 20486 20487 20488 20489 20490 20491 20492 20493 20494 20495 20496 20497 20498 20499 20500 20501 20502 20503 20504 20505 20506 20507 20508 20509 20510 20511 20512 20513 20514 20515 20516 20517 20518 20519 20520 20521 20522 20523 20524 20525 20526 20527 20528 20529 20530 20531 20532 20533 20534 20535 20536 20537 20538 20539 20540 20541 20542 20543 20544 20545 20546 20547 20548 20549 20550 20551 20552 20553 20554 20555 20556 20557 20558 20559 20560 20561 20562 20563 20564 20565 20566 20567 20568 20569 20570 20571 20572 20573 20574 20575 20576 20577 20578 20579 20580 20581 20582 20583 20584 20585 20586 20587 20588 20589 20590 20591 20592 20593 20594 20595 20596 20597 20598 20599 20600 20601 20602 20603 20604 20605 20606 20607 20608 20609 20610 20611 20612 20613 20614 20615 20616 20617 20618 20619 20620 20621 20622 20623 20624 20625 20626 20627 20628 20629 20630 20631 20632 20633 20634 20635 20636 20637 20638 20639 20640 20641 20642 20643 20644 20645 20646 20647 20648 20649 20650 20651 20652 20653 20654 20655 20656 20657 20658 20659 20660 20661 20662 20663 20664 20665 20666 20667 20668 20669 20670 20671 20672 20673 20674 20675 20676 20677 20678 20679 20680 20681 20682 20683 20684 20685 20686 20687 20688 20689 20690 20691 20692 20693 20694 20695 20696 20697 20698 20699 20700 20701 20702 20703 20704 20705 20706 20707 20708 20709 20710 20711 20712 20713 20714 20715 20716 20717 20718 20719 20720 20721 20722 20723 20724 20725 20726 20727 20728 20729 20730 20731 20732 20733 20734 20735 20736 20737 20738 20739 20740 20741 20742 20743 20744 20745 20746 20747 20748 20749 20750 20751 20752 20753 20754 20755 20756 20757 20758 20759 20760 20761 20762 20763 20764 20765 20766 20767 20768 20769 20770 20771 20772 20773 20774 20775 20776 20777 20778 20779 20780 20781 20782 20783 20784 20785 20786 20787 20788 20789 20790 20791 20792 20793 20794 20795 20796 20797 20798 20799 20800 20801 20802 20803 20804 20805 20806 20807 20808 20809 20810 20811 20812 20813 20814 20815 20816 20817 20818 20819 20820 20821 20822 20823 20824 20825 20826 20827 20828 20829 20830 20831 20832 20833 20834 20835 20836 20837 20838 20839 20840 20841 20842 20843 20844 20845 20846 20847 20848 20849 20850 20851 20852 20853 20854 20855 20856 20857 20858 20859 20860 20861 20862 20863 20864 20865 20866 20867 20868 20869 20870 20871 20872 20873 20874 20875 20876 20877 20878 20879 20880 20881 20882 20883 20884 20885 20886 20887 20888 20889 20890 20891 20892 20893 20894 20895 20896 20897 20898 20899 20900 20901 20902 20903 20904 20905 20906 20907 20908 20909 20910 20911 20912 20913 20914 20915 20916 20917 20918 20919 20920 20921 20922 20923 20924 20925 20926 20927 20928 20929 20930 20931 20932 20933 20934 20935 20936 20937 20938 20939 20940 20941 20942 20943 20944 20945 20946 20947 20948 20949 20950 20951 20952 20953 20954 20955 20956 20957 20958 20959 20960 20961 20962 20963 20964 20965 20966 20967 20968 20969 20970 20971 20972 20973 20974 20975 20976 20977 20978 20979 20980 20981 20982 20983 20984 20985 20986 20987 20988 20989 20990 20991 20992 20993 20994 20995 20996 20997 20998 20999 21000 21001 21002 21003 21004 21005 21006 21007 21008 21009 21010 21011 21012 21013 21014 21015 21016 21017 21018 21019 21020 21021 21022 21023 21024 21025 21026 21027 21028 21029 21030 21031 21032 21033 21034 21035 21036 21037 21038 21039 21040 21041 21042 21043 21044 21045 21046 21047 21048 21049 21050 21051 21052 21053 21054 21055 21056 21057 21058 21059 21060 21061 21062 21063 21064 21065 21066 21067 21068 21069 21070 21071 21072 21073 21074 21075 21076 21077 21078 21079 21080 21081 21082 21083 21084 21085 21086 21087 21088 21089 21090 21091 21092 21093 21094 21095 21096 21097 21098 21099 21100 21101 21102 21103 21104 21105 21106 21107 21108 21109 21110 21111 21112 21113 21114 21115 21116 21117 21118 21119 21120 21121 21122 21123 21124 21125 21126 21127 21128 21129 21130 21131 21132 21133 21134 21135 21136 21137 21138 21139 21140 21141 21142 21143 21144 21145 21146 21147 21148 21149 21150 21151 21152 21153 21154 21155 21156 21157 21158 21159 21160 21161 21162 21163 21164 21165 21166 21167 21168 21169 21170 21171 21172 21173 21174 21175 21176 21177 21178 21179 21180 21181 21182 21183 21184 21185 21186 21187 21188 21189 21190 21191 21192 21193 21194 21195 21196 21197 21198 21199 21200 21201 21202 21203 21204 21205 21206 21207 21208 21209 21210 21211 21212 21213 21214 21215 21216 21217 21218 21219 21220 21221 21222 21223 21224 21225 21226 21227 21228 21229 21230 21231 21232 21233 21234 21235 21236 21237 21238 21239 21240 21241 21242 21243 21244 21245 21246 21247 21248 21249 21250 21251 21252 21253 21254 21255 21256 21257 21258 21259 21260 21261 21262 21263 21264 21265 21266 21267 21268 21269 21270 21271 21272 21273 21274 21275 21276 21277 21278 21279 21280 21281 21282 21283 21284 21285 21286 21287 21288 21289 21290 21291 21292 21293 21294 21295 21296 21297 21298 21299 21300 21301 21302 21303 21304 21305 21306 21307 21308 21309 21310 21311 21312 21313 21314 21315 21316 21317 21318 21319 21320 21321 21322 21323 21324 21325 21326 21327 21328 21329 21330 21331 21332 21333 21334 21335 21336 21337 21338 21339 21340 21341 21342 21343 21344 21345 21346 21347 21348 21349 21350 21351 21352 21353 21354 21355 21356 21357 21358 21359 21360 21361 21362 21363 21364 21365 21366 21367 21368 21369 21370 21371 21372 21373 21374 21375 21376 21377 21378 21379 21380 21381 21382 21383 21384 21385 21386 21387 21388 21389 21390 21391 21392 21393 21394 21395 21396 21397 21398 21399 21400 21401 21402 21403 21404 21405 21406 21407 21408 21409 21410 21411 21412 21413 21414 21415 21416 21417 21418 21419 21420 21421 21422 21423 21424 21425 21426 21427 21428 21429 21430 21431 21432 21433 21434 21435 21436 21437 21438 21439 21440 21441 21442 21443 21444 21445 21446 21447 21448 21449 21450 21451 21452 21453 21454 21455 21456 21457 21458 21459 21460 21461 21462 21463 21464 21465 21466 21467 21468 21469 21470 21471 21472 21473 21474 21475 21476 21477 21478 21479 21480 21481 21482 21483 21484 21485 21486 21487 21488 21489 21490 21491 21492 21493 21494 21495 21496 21497 21498 21499 21500 21501 21502 21503 21504 21505 21506 21507 21508 21509 21510 21511 21512 21513 21514 21515 21516 21517 21518 21519 21520 21521 21522 21523 21524 21525 21526 21527 21528 21529 21530 21531 21532 21533 21534 21535 21536 21537 21538 21539 21540 21541 21542 21543 21544 21545 21546 21547 21548 21549 21550 21551 21552 21553 21554 21555 21556 21557 21558 21559 21560 21561 21562 21563 21564 21565 21566 21567 21568 21569 21570 21571 21572 21573 21574 21575 21576 21577 21578 21579 21580 21581 21582 21583 21584 21585 21586 21587 21588 21589 21590 21591 21592 21593 21594 21595 21596 21597 21598 21599 21600 21601 21602 21603 21604 21605 21606 21607 21608 21609 21610 21611 21612 21613 21614 21615 21616 21617 21618 21619 21620 21621 21622 21623 21624 21625 21626 21627 21628 21629 21630 21631 21632 21633 21634 21635 21636 21637 21638 21639 21640 21641 21642 21643 21644 21645 21646 21647 21648 21649 21650 21651 21652 21653 21654 21655 21656 21657 21658 21659 21660 21661 21662 21663 21664 21665 21666 21667 21668 21669 21670 21671 21672 21673 21674 21675 21676 21677 21678 21679 21680 21681 21682 21683 21684 21685 21686 21687 21688 21689 21690 21691 21692 21693 21694 21695 21696 21697 21698 21699 21700 21701 21702 21703 21704 21705 21706 21707 21708 21709 21710 21711 21712 21713 21714 21715 21716 21717 21718 21719 21720 21721 21722 21723 21724 21725 21726 21727 21728 21729 21730 21731 21732 21733 21734 21735 21736 21737 21738 21739 21740 21741 21742 21743 21744 21745 21746 21747 21748 21749 21750 21751 21752 21753 21754 21755 21756 21757 21758 21759 21760 21761 21762 21763 21764 21765 21766 21767 21768 21769 21770 21771 21772 21773 21774 21775 21776 21777 21778 21779 21780 21781 21782 21783 21784 21785 21786 21787 21788 21789 21790 21791 21792 21793 21794 21795 21796 21797 21798 21799 21800 21801 21802 21803 21804 21805 21806 21807 21808 21809 21810 21811 21812 21813 21814 21815 21816 21817 21818 21819 21820 21821 21822 21823 21824 21825 21826 21827 21828 21829 21830 21831 21832 21833 21834 21835 21836 21837 21838 21839 21840 21841 21842 21843 21844 21845 21846 21847 21848 21849 21850 21851 21852 21853 21854 21855 21856 21857 21858 21859 21860 21861 21862 21863 21864 21865 21866 21867 21868 21869 21870 21871 21872 21873 21874 21875 21876 21877 21878 21879 21880 21881 21882 21883 21884 21885 21886 21887 21888 21889 21890 21891 21892 21893 21894 21895 21896 21897 21898 21899 21900 21901 21902 21903 21904 21905 21906 21907 21908 21909 21910 21911 21912 21913 21914 21915 21916 21917 21918 21919 21920 21921 21922 21923 21924 21925 21926 21927 21928 21929 21930 21931 21932 21933 21934 21935 21936 21937 21938 21939 21940 21941 21942 21943 21944 21945 21946 21947 21948 21949 21950 21951 21952 21953 21954 21955 21956 21957 21958 21959 21960 21961 21962 21963 21964 21965 21966 21967 21968 21969 21970 21971 21972 21973 21974 21975 21976 21977 21978 21979 21980 21981 21982 21983 21984 21985 21986 21987 21988 21989 21990 21991 21992 21993 21994 21995 21996 21997 21998 21999 22000 22001 22002 22003 22004 22005 22006 22007 22008 22009 22010 22011 22012 22013 22014 22015 22016 22017 22018 22019 22020 22021 22022 22023 22024 22025 22026 22027 22028 22029 22030 22031 22032 22033 22034 22035 22036 22037 22038 22039 22040 22041 22042 22043 22044 22045 22046 22047 22048 22049 22050 22051 22052 22053 22054 22055 22056 22057 22058 22059 22060 22061 22062 22063 22064 22065 22066 22067 22068 22069 22070 22071 22072 22073 22074 22075 22076 22077 22078 22079 22080 22081 22082 22083 22084 22085 22086 22087 22088 22089 22090 22091 22092 22093 22094 22095 22096 22097 22098 22099 22100 22101 22102 22103 22104 22105 22106 22107 22108 22109 22110 22111 22112 22113 22114 22115 22116 22117 22118 22119 22120 22121 22122 22123 22124 22125 22126 22127 22128 22129 22130 22131 22132 22133 22134 22135 22136 22137 22138 22139 22140 22141 22142 22143 22144 22145 22146 22147 22148 22149 22150 22151 22152 22153 22154 22155 22156 22157 22158 22159 22160 22161 22162 22163 22164 22165 22166 22167 22168 22169 22170 22171 22172 22173 22174 22175 22176 22177 22178 22179 22180 22181 22182 22183 22184 22185 22186 22187 22188 22189 22190 22191 22192 22193 22194 22195 22196 22197 22198 22199 22200 22201 22202 22203 22204 22205 22206 22207 22208 22209 22210 22211 22212 22213 22214 22215 22216 22217 22218 22219 22220 22221 22222 22223 22224 22225 22226 22227 22228 22229 22230 22231 22232 22233 22234 22235 22236 22237 22238 22239 22240 22241 22242 22243 22244 22245 22246 22247 22248 22249 22250 22251 22252 22253 22254 22255 22256 22257 22258 22259 22260 22261 22262 22263 22264 22265 22266 22267 22268 22269 22270 22271 22272 22273 22274 22275 22276 22277 22278 22279 22280 22281 22282 22283 22284 22285 22286 22287 22288 22289 22290 22291 22292 22293 22294 22295 22296 22297 22298 22299 22300 22301 22302 22303 22304 22305 22306 22307 22308 22309 22310 22311 22312 22313 22314 22315 22316 22317 22318 22319 22320 22321 22322 22323 22324 22325 22326 22327 22328 22329 22330 22331 22332 22333 22334 22335 22336 22337 22338 22339 22340 22341 22342 22343 22344 22345 22346 22347 22348 22349 22350 22351 22352 22353 22354 22355 22356 22357 22358 22359 22360 22361 22362 22363 22364 22365 22366 22367 22368 22369 22370 22371 22372 22373 22374 22375 22376 22377 22378 22379 22380 22381 22382 22383 22384 22385 22386 22387 22388 22389 22390 22391 22392 22393 22394 22395 22396 22397 22398 22399 22400 22401 22402 22403 22404 22405 22406 22407 22408 22409 22410 22411 22412 22413 22414 22415 22416 22417 22418 22419 22420 22421 22422 22423 22424 22425 22426 22427 22428 22429 22430 22431 22432 22433 22434 22435 22436 22437 22438 22439 22440 22441 22442 22443 22444 22445 22446 22447 22448 22449 22450 22451 22452 22453 22454 22455 22456 22457 22458 22459 22460 22461 22462 22463 22464 22465 22466 22467 22468 22469 22470 22471 22472 22473 22474 22475 22476 22477 22478 22479 22480 22481 22482 22483 22484 22485 22486 22487 22488 22489 22490 22491 22492 22493 22494 22495 22496 22497 22498 22499 22500 22501 22502 22503 22504 22505 22506 22507 22508 22509 22510 22511 22512 22513 22514 22515 22516 22517 22518 22519 22520 22521 22522 22523 22524 22525 22526 22527 22528 22529 22530 22531 22532 22533 22534 22535 22536 22537 22538 22539 22540 22541 22542 22543 22544 22545 22546 22547 22548 22549 22550 22551 22552 22553 22554 22555 22556 22557 22558 22559 22560 22561 22562 22563 22564 22565 22566 22567 22568 22569 22570 22571 22572 22573 22574 22575 22576 22577 22578 22579 22580 22581 22582 22583 22584 22585 22586 22587 22588 22589 22590 22591 22592 22593 22594 22595 22596 22597 22598 22599 22600 22601 22602 22603 22604 22605 22606 22607 22608 22609 22610 22611 22612 22613 22614 22615 22616 22617 22618 22619 22620 22621 22622 22623 22624 22625 22626 22627 22628 22629 22630 22631 22632 22633 22634 22635 22636 22637 22638 22639 22640 22641 22642 22643 22644 22645 22646 22647 22648 22649 22650 22651 22652 22653 22654 22655 22656 22657 22658 22659 22660 22661 22662 22663 22664 22665 22666 22667 22668 22669 22670 22671 22672 22673 22674 22675 22676 22677 22678 22679 22680 22681 22682 22683 22684 22685 22686 22687 22688 22689 22690 22691 22692 22693 22694 22695 22696 22697 22698 22699 22700 22701 22702 22703 22704 22705 22706 22707 22708 22709 22710 22711 22712 22713 22714 22715 22716 22717 22718 22719 22720 22721 22722 22723 22724 22725 22726 22727 22728 22729 22730 22731 22732 22733 22734 22735 22736 22737 22738 22739 22740 22741 22742 22743 22744 22745 22746 22747 22748 22749 22750 22751 22752 22753 22754 22755 22756 22757 22758 22759 22760 22761 22762 22763 22764 22765 22766 22767 22768 22769 22770 22771 22772 22773 22774 22775 22776 22777 22778 22779 22780 22781 22782 22783 22784 22785 22786 22787 22788 22789 22790 22791 22792 22793 22794 22795 22796 22797 22798 22799 22800 22801 22802 22803 22804 22805 22806 22807 22808 22809 22810 22811 22812 22813 22814 22815 22816 22817 22818 22819 22820 22821 22822 22823 22824 22825 22826 22827 22828 22829 22830 22831 22832 22833 22834 22835 22836 22837 22838 22839 22840 22841 22842 22843 22844 22845 22846 22847 22848 22849 22850 22851 22852 22853 22854 22855 22856 22857 22858 22859 22860 22861 22862 22863 22864 22865 22866 22867 22868 22869 22870 22871 22872 22873 22874 22875 22876 22877 22878 22879 22880 22881 22882 22883 22884 22885 22886 22887 22888 22889 22890 22891 22892 22893 22894 22895 22896 22897 22898 22899 22900 22901 22902 22903 22904 22905 22906 22907 22908 22909 22910 22911 22912 22913 22914 22915 22916 22917 22918 22919 22920 22921 22922 22923 22924 22925 22926 22927 22928 22929 22930 22931 22932 22933 22934 22935 22936 22937 22938 22939 22940 22941 22942 22943 22944 22945 22946 22947 22948 22949 22950 22951 22952 22953 22954 22955 22956 22957 22958 22959 22960 22961 22962 22963 22964 22965 22966 22967 22968 22969 22970 22971 22972 22973 22974 22975 22976 22977 22978 22979 22980 22981 22982 22983 22984 22985 22986 22987 22988 22989 22990 22991 22992 22993 22994 22995 22996 22997 22998 22999 23000 23001 23002 23003 23004 23005 23006 23007 23008 23009 23010 23011 23012 23013 23014 23015 23016 23017 23018 23019 23020 23021 23022 23023 23024 23025 23026 23027 23028 23029 23030 23031 23032 23033 23034 23035 23036 23037 23038 23039 23040 23041 23042 23043 23044 23045 23046 23047 23048 23049 23050 23051 23052 23053 23054 23055 23056 23057 23058 23059 23060 23061 23062 23063 23064 23065 23066 23067 23068 23069 23070 23071 23072 23073 23074 23075 23076 23077 23078 23079 23080 23081 23082 23083 23084 23085 23086 23087 23088 23089 23090 23091 23092 23093 23094 23095 23096 23097 23098 23099 23100 23101 23102 23103 23104 23105 23106 23107 23108 23109 23110 23111 23112 23113 23114 23115 23116 23117 23118 23119 23120 23121 23122 23123 23124 23125 23126 23127 23128 23129 23130 23131 23132 23133 23134 23135 23136 23137 23138 23139 23140 23141 23142 23143 23144 23145 23146 23147 23148 23149 23150 23151 23152 23153 23154 23155 23156 23157 23158 23159 23160 23161 23162 23163 23164 23165 23166 23167 23168 23169 23170 23171 23172 23173 23174 23175 23176 23177 23178 23179 23180 23181 23182 23183 23184 23185 23186 23187 23188 23189 23190 23191 23192 23193 23194 23195 23196 23197 23198 23199 23200 23201 23202 23203 23204 23205 23206 23207 23208 23209 23210 23211 23212 23213 23214 23215 23216 23217 23218 23219 23220 23221 23222 23223 23224 23225 23226 23227 23228 23229 23230 23231 23232 23233 23234 23235 23236 23237 23238 23239 23240 23241 23242 23243 23244 23245 23246 23247 23248 23249 23250 23251 23252 23253 23254 23255 23256 23257 23258 23259 23260 23261 23262 23263 23264 23265 23266 23267 23268 23269 23270 23271 23272 23273 23274 23275 23276 23277 23278 23279 23280 23281 23282 23283 23284 23285 23286 23287 23288 23289 23290 23291 23292 23293 23294 23295 23296 23297 23298 23299 23300 23301 23302 23303 23304 23305 23306 23307 23308 23309 23310 23311 23312 23313 23314 23315 23316 23317 23318 23319 23320 23321 23322 23323 23324 23325 23326 23327 23328 23329 23330 23331 23332 23333 23334 23335 23336 23337 23338 23339 23340 23341 23342 23343 23344 23345 23346 23347 23348 23349 23350 23351 23352 23353 23354 23355 23356 23357 23358 23359 23360 23361 23362 23363 23364 23365 23366 23367 23368 23369 23370 23371 23372 23373 23374 23375 23376 23377 23378 23379 23380 23381 23382 23383 23384 23385 23386 23387 23388 23389 23390 23391 23392 23393 23394 23395 23396 23397 23398 23399 23400 23401 23402 23403 23404 23405 23406 23407 23408 23409 23410 23411 23412 23413 23414 23415 23416 23417 23418 23419 23420 23421 23422 23423 23424 23425 23426 23427 23428 23429 23430 23431 23432 23433 23434 23435 23436 23437 23438 23439 23440 23441 23442 23443 23444 23445 23446 23447 23448 23449 23450 23451 23452 23453 23454 23455 23456 23457 23458 23459 23460 23461 23462 23463 23464 23465 23466 23467 23468 23469 23470 23471 23472 23473 23474 23475 23476 23477 23478 23479 23480 23481 23482 23483 23484 23485 23486 23487 23488 23489 23490 23491 23492 23493 23494 23495 23496 23497 23498 23499 23500 23501 23502 23503 23504 23505 23506 23507 23508 23509 23510 23511 23512 23513 23514 23515 23516 23517 23518 23519 23520 23521 23522 23523 23524 23525 23526 23527 23528 23529 23530 23531 23532 23533 23534 23535 23536 23537 23538 23539 23540 23541 23542 23543 23544 23545 23546 23547 23548 23549 23550 23551 23552 23553 23554 23555 23556 23557 23558 23559 23560 23561 23562 23563 23564 23565 23566 23567 23568 23569 23570 23571 23572 23573 23574 23575 23576 23577 23578 23579 23580 23581 23582 23583 23584 23585 23586 23587 23588 23589 23590 23591 23592 23593 23594 23595 23596 23597 23598 23599 23600 23601 23602 23603 23604 23605 23606 23607 23608 23609 23610 23611 23612 23613 23614 23615 23616 23617 23618 23619 23620 23621 23622 23623 23624 23625 23626 23627 23628 23629 23630 23631 23632 23633 23634 23635 23636 23637 23638 23639 23640 23641 23642 23643 23644 23645 23646 23647 23648 23649 23650 23651 23652 23653 23654 23655 23656 23657 23658 23659 23660 23661 23662 23663 23664 23665 23666 23667 23668 23669 23670 23671 23672 23673 23674 23675 23676 23677 23678 23679 23680 23681 23682 23683 23684 23685 23686 23687 23688 23689 23690 23691 23692 23693 23694 23695 23696 23697 23698 23699 23700 23701 23702 23703 23704 23705 23706 23707 23708 23709 23710 23711 23712 23713 23714 23715 23716 23717 23718 23719 23720 23721 23722 23723 23724 23725 23726 23727 23728 23729 23730 23731 23732 23733 23734 23735 23736 23737 23738 23739 23740 23741 23742 23743 23744 23745 23746 23747 23748 23749 23750 23751 23752 23753 23754 23755 23756 23757 23758 23759 23760 23761 23762 23763 23764 23765 23766 23767 23768 23769 23770 23771 23772 23773 23774 23775 23776 23777 23778 23779 23780 23781 23782 23783 23784 23785 23786 23787 23788 23789 23790 23791 23792 23793 23794 23795 23796 23797 23798 23799 23800 23801 23802 23803 23804 23805 23806 23807 23808 23809 23810 23811 23812 23813 23814 23815 23816 23817 23818 23819 23820 23821 23822 23823 23824 23825 23826 23827 23828 23829 23830 23831 23832 23833 23834 23835 23836 23837 23838 23839 23840 23841 23842 23843 23844 23845 23846 23847 23848 23849 23850 23851 23852 23853 23854 23855 23856 23857 23858 23859 23860 23861 23862 23863 23864 23865 23866 23867 23868 23869 23870 23871 23872 23873 23874 23875 23876 23877 23878 23879 23880 23881 23882 23883 23884 23885 23886 23887 23888 23889 23890 23891 23892 23893 23894 23895 23896 23897 23898 23899 23900 23901 23902 23903 23904 23905 23906 23907 23908 23909 23910 23911 23912 23913 23914 23915 23916 23917 23918 23919 23920 23921 23922 23923 23924 23925 23926 23927 23928 23929 23930 23931 23932 23933 23934 23935 23936 23937 23938 23939 23940 23941 23942 23943 23944 23945 23946 23947 23948 23949 23950 23951 23952 23953 23954 23955 23956 23957 23958 23959 23960 23961 23962 23963 23964 23965 23966 23967 23968 23969 23970 23971 23972 23973 23974 23975 23976 23977 23978 23979 23980 23981 23982 23983 23984 23985 23986 23987 23988 23989 23990 23991 23992 23993 23994 23995 23996 23997 23998 23999 24000 24001 24002 24003 24004 24005 24006 24007 24008 24009 24010 24011 24012 24013 24014 24015 24016 24017 24018 24019 24020 24021 24022 24023 24024 24025 24026 24027 24028 24029 24030 24031 24032 24033 24034 24035 24036 24037 24038 24039 24040 24041 24042 24043 24044 24045 24046 24047 24048 24049 24050 24051 24052 24053 24054 24055 24056 24057 24058 24059 24060 24061 24062 24063 24064 24065 24066 24067 24068 24069 24070 24071 24072 24073 24074 24075 24076 24077 24078 24079 24080 24081 24082 24083 24084 24085 24086 24087 24088 24089 24090 24091 24092 24093 24094 24095 24096 24097 24098 24099 24100 24101 24102 24103 24104 24105 24106 24107 24108 24109 24110 24111 24112 24113 24114 24115 24116 24117 24118 24119 24120 24121 24122 24123 24124 24125 24126 24127 24128 24129 24130 24131 24132 24133 24134 24135 24136 24137 24138 24139 24140 24141 24142 24143 24144 24145 24146 24147 24148 24149 24150 24151 24152 24153 24154 24155 24156 24157 24158 24159 24160 24161 24162 24163 24164 24165 24166 24167 24168 24169 24170 24171 24172 24173 24174 24175 24176 24177 24178 24179 24180 24181 24182 24183 24184 24185 24186 24187 24188 24189 24190 24191 24192 24193 24194 24195 24196 24197 24198 24199 24200 24201 24202 24203 24204 24205 24206 24207 24208 24209 24210 24211 24212 24213 24214 24215 24216 24217 24218 24219 24220 24221 24222 24223 24224 24225 24226 24227 24228 24229 24230 24231 24232 24233 24234 24235 24236 24237 24238 24239 24240 24241 24242 24243 24244 24245 24246 24247 24248 24249 24250 24251 24252 24253 24254 24255 24256 24257 24258 24259 24260 24261 24262 24263 24264 24265 24266 24267 24268 24269 24270 24271 24272 24273 24274 24275 24276 24277 24278 24279 24280 24281 24282 24283 24284 24285 24286 24287 24288 24289 24290 24291 24292 24293 24294 24295 24296 24297 24298 24299 24300 24301 24302 24303 24304 24305 24306 24307 24308 24309 24310 24311 24312 24313 24314 24315 24316 24317 24318 24319 24320 24321 24322 24323 24324 24325 24326 24327 24328 24329 24330 24331 24332 24333 24334 24335 24336 24337 24338 24339 24340 24341 24342 24343 24344 24345 24346 24347 24348 24349 24350 24351 24352 24353 24354 24355 24356 24357 24358 24359 24360 24361 24362 24363 24364 24365 24366 24367 24368 24369 24370 24371 24372 24373 24374 24375 24376 24377 24378 24379 24380 24381 24382 24383 24384 24385 24386 24387 24388 24389 24390 24391 24392 24393 24394 24395 24396 24397 24398 24399 24400 24401 24402 24403 24404 24405 24406 24407 24408 24409 24410 24411 24412 24413 24414 24415 24416 24417 24418 24419 24420 24421 24422 24423 24424 24425 24426 24427 24428 24429 24430 24431 24432 24433 24434 24435 24436 24437 24438 24439 24440 24441 24442 24443 24444 24445 24446 24447 24448 24449 24450 24451 24452 24453 24454 24455 24456 24457 24458 24459 24460 24461 24462 24463 24464 24465 24466 24467 24468 24469 24470 24471 24472 24473 24474 24475 24476 24477 24478 24479 24480 24481 24482 24483 24484 24485 24486 24487 24488 24489 24490 24491 24492 24493 24494 24495 24496 24497 24498 24499 24500 24501 24502 24503 24504 24505 24506 24507 24508 24509 24510 24511 24512 24513 24514 24515 24516 24517 24518 24519 24520 24521 24522 24523 24524 24525 24526 24527 24528 24529 24530 24531 24532 24533 24534 24535 24536 24537 24538 24539 24540 24541 24542 24543 24544 24545 24546 24547 24548 24549 24550 24551 24552 24553 24554 24555 24556 24557 24558 24559 24560 24561 24562 24563 24564 24565 24566 24567 24568 24569 24570 24571 24572 24573 24574 24575 24576 24577 24578 24579 24580 24581 24582 24583 24584 24585 24586 24587 24588 24589 24590 24591 24592 24593 24594 24595 24596 24597 24598 24599 24600 24601 24602 24603 24604 24605 24606 24607 24608 24609 24610 24611 24612 24613 24614 24615 24616 24617 24618 24619 24620 24621 24622 24623 24624 24625 24626 24627 24628 24629 24630 24631 24632 24633 24634 24635 24636 24637 24638 24639 24640 24641 24642 24643 24644 24645 24646 24647 24648 24649 24650 24651 24652 24653 24654 24655 24656 24657 24658 24659 24660 24661 24662 24663 24664 24665 24666 24667 24668 24669 24670 24671 24672 24673 24674 24675 24676 24677 24678 24679 24680 24681 24682 24683 24684 24685 24686 24687 24688 24689 24690 24691 24692 24693 24694 24695 24696 24697 24698 24699 24700 24701 24702 24703 24704 24705 24706 24707 24708 24709 24710 24711 24712 24713 24714 24715 24716 24717 24718 24719 24720 24721 24722 24723 24724 24725 24726 24727 24728 24729 24730 24731 24732 24733 24734 24735 24736 24737 24738 24739 24740 24741 24742 24743 24744 24745 24746 24747 24748 24749 24750 24751 24752 24753 24754 24755 24756 24757 24758 24759 24760 24761 24762 24763 24764 24765 24766 24767 24768 24769 24770 24771 24772 24773 24774 24775 24776 24777 24778 24779 24780 24781 24782 24783 24784 24785 24786 24787 24788 24789 24790 24791 24792 24793 24794 24795 24796 24797 24798 24799 24800 24801 24802 24803 24804 24805 24806 24807 24808 24809 24810 24811 24812 24813 24814 24815 24816 24817 24818 24819 24820 24821 24822 24823 24824 24825 24826 24827 24828 24829 24830 24831 24832 24833 24834 24835 24836 24837 24838 24839 24840 24841 24842 24843 24844 24845 24846 24847 24848 24849 24850 24851 24852 24853 24854 24855 24856 24857 24858 24859 24860 24861 24862 24863 24864 24865 24866 24867 24868 24869 24870 24871 24872 24873 24874 24875 24876 24877 24878 24879 24880 24881 24882 24883 24884 24885 24886 24887 24888 24889 24890 24891 24892 24893 24894 24895 24896 24897 24898 24899 24900 24901 24902 24903 24904 24905 24906 24907 24908 24909 24910 24911 24912 24913 24914 24915 24916 24917 24918 24919 24920 24921 24922 24923 24924 24925 24926 24927 24928 24929 24930 24931 24932 24933 24934 24935 24936 24937 24938 24939 24940 24941 24942 24943 24944 24945 24946 24947 24948 24949 24950 24951 24952 24953 24954 24955 24956 24957 24958 24959 24960 24961 24962 24963 24964 24965 24966 24967 24968 24969 24970 24971 24972 24973 24974 24975 24976 24977 24978 24979 24980 24981 24982 24983 24984 24985 24986 24987 24988 24989 24990 24991 24992 24993 24994 24995 24996 24997 24998 24999 25000 25001 25002 25003 25004 25005 25006 25007 25008 25009 25010 25011 25012 25013 25014 25015 25016 25017 25018 25019 25020 25021 25022 25023 25024 25025 25026 25027 25028 25029 25030 25031 25032 25033 25034 25035 25036 25037 25038 25039 25040 25041 25042 25043 25044 25045 25046 25047 25048 25049 25050 25051 25052 25053 25054 25055 25056 25057 25058 25059 25060 25061 25062 25063 25064 25065 25066 25067 25068 25069 25070 25071 25072 25073 25074 25075 25076 25077 25078 25079 25080 25081 25082 25083 25084 25085 25086 25087 25088 25089 25090 25091 25092 25093 25094 25095 25096 25097 25098 25099 25100 25101 25102 25103 25104 25105 25106 25107 25108 25109 25110 25111 25112 25113 25114 25115 25116 25117 25118 25119 25120 25121 25122 25123 25124 25125 25126 25127 25128 25129 25130 25131 25132 25133 25134 25135 25136 25137 25138 25139 25140 25141 25142 25143 25144 25145 25146 25147 25148 25149 25150 25151 25152 25153 25154 25155 25156 25157 25158 25159 25160 25161 25162 25163 25164 25165 25166 25167 25168 25169 25170 25171 25172 25173 25174 25175 25176 25177 25178 25179 25180 25181 25182 25183 25184 25185 25186 25187 25188 25189 25190 25191 25192 25193 25194 25195 25196 25197 25198 25199 25200 25201 25202 25203 25204 25205 25206 25207 25208 25209 25210 25211 25212 25213 25214 25215 25216 25217 25218 25219 25220 25221 25222 25223 25224 25225 25226 25227 25228 25229 25230 25231 25232 25233 25234 25235 25236 25237 25238 25239 25240 25241 25242 25243 25244 25245 25246 25247 25248 25249 25250 25251 25252 25253 25254 25255 25256 25257 25258 25259 25260 25261 25262 25263 25264 25265 25266 25267 25268 25269 25270 25271 25272 25273 25274 25275 25276 25277 25278 25279 25280 25281 25282 25283 25284 25285 25286 25287 25288 25289 25290 25291 25292 25293 25294 25295 25296 25297 25298 25299 25300 25301 25302 25303 25304 25305 25306 25307 25308 25309 25310 25311 25312 25313 25314 25315 25316 25317 25318 25319 25320 25321 25322 25323 25324 25325 25326 25327 25328 25329 25330 25331 25332 25333 25334 25335 25336 25337 25338 25339 25340 25341 25342 25343 25344 25345 25346 25347 25348 25349 25350 25351 25352 25353 25354 25355 25356 25357 25358 25359 25360 25361 25362 25363 25364 25365 25366 25367 25368 25369 25370 25371 25372 25373 25374 25375 25376 25377 25378 25379 25380 25381 25382 25383 25384 25385 25386 25387 25388 25389 25390 25391 25392 25393 25394 25395 25396 25397 25398 25399 25400 25401 25402 25403 25404 25405 25406 25407 25408 25409 25410 25411 25412 25413 25414 25415 25416 25417 25418 25419 25420 25421 25422 25423 25424 25425 25426 25427 25428 25429 25430 25431 25432 25433 25434 25435 25436 25437 25438 25439 25440 25441 25442 25443 25444 25445 25446 25447 25448 25449 25450 25451 25452 25453 25454 25455 25456 25457 25458 25459 25460 25461 25462 25463 25464 25465 25466 25467 25468 25469 25470 25471 25472 25473 25474 25475 25476 25477 25478 25479 25480 25481 25482 25483 25484 25485 25486 25487 25488 25489 25490 25491 25492 25493 25494 25495 25496 25497 25498 25499 25500 25501 25502 25503 25504 25505 25506 25507 25508 25509 25510 25511 25512 25513 25514 25515 25516 25517 25518 25519 25520 25521 25522 25523 25524 25525 25526 25527 25528 25529 25530 25531 25532 25533 25534 25535 25536 25537 25538 25539 25540 25541 25542 25543 25544 25545 25546 25547 25548 25549 25550 25551 25552 25553 25554 25555 25556 25557 25558 25559 25560 25561 25562 25563 25564 25565 25566 25567 25568 25569 25570 25571 25572 25573 25574 25575 25576 25577 25578 25579 25580 25581 25582 25583 25584 25585 25586 25587 25588 25589 25590 25591 25592 25593 25594 25595 25596 25597 25598 25599 25600 25601 25602 25603 25604 25605 25606 25607 25608 25609 25610 25611 25612 25613 25614 25615 25616 25617 25618 25619 25620 25621 25622 25623 25624 25625 25626 25627 25628 25629 25630 25631 25632 25633 25634 25635 25636 25637 25638 25639 25640 25641 25642 25643 25644 25645 25646 25647 25648 25649 25650 25651 25652 25653 25654 25655 25656 25657 25658 25659 25660 25661 25662 25663 25664 25665 25666 25667 25668 25669 25670 25671 25672 25673 25674 25675 25676 25677 25678 25679 25680 25681 25682 25683 25684 25685 25686 25687 25688 25689 25690 25691 25692 25693 25694 25695 25696 25697 25698 25699 25700 25701 25702 25703 25704 25705 25706 25707 25708 25709 25710 25711 25712 25713 25714 25715 25716 25717 25718 25719 25720 25721 25722 25723 25724 25725 25726 25727 25728 25729 25730 25731 25732 25733 25734 25735 25736 25737 25738 25739 25740 25741 25742 25743 25744 25745 25746 25747 25748 25749 25750 25751 25752 25753 25754 25755 25756 25757 25758 25759 25760 25761 25762 25763 25764 25765 25766 25767 25768 25769 25770 25771 25772 25773 25774 25775 25776 25777 25778 25779 25780 25781 25782 25783 25784 25785 25786 25787 25788 25789 25790 25791 25792 25793 25794 25795 25796 25797 25798 25799 25800 25801 25802 25803 25804 25805 25806 25807 25808 25809 25810 25811 25812 25813 25814 25815 25816 25817 25818 25819 25820 25821 25822 25823 25824 25825 25826 25827 25828 25829 25830 25831 25832 25833 25834 25835 25836 25837 25838 25839 25840 25841 25842 25843 25844 25845 25846 25847 25848 25849 25850 25851 25852 25853 25854 25855 25856 25857 25858 25859 25860 25861 25862 25863 25864 25865 25866 25867 25868 25869 25870 25871 25872 25873 25874 25875 25876 25877 25878 25879 25880 25881 25882 25883 25884 25885 25886 25887 25888 25889 25890 25891 25892 25893 25894 25895 25896 25897 25898 25899 25900 25901 25902 25903 25904 25905 25906 25907 25908 25909 25910 25911 25912 25913 25914 25915 25916 25917 25918 25919 25920 25921 25922 25923 25924 25925 25926 25927 25928 25929 25930 25931 25932 25933 25934 25935 25936 25937 25938 25939 25940 25941 25942 25943 25944 25945 25946 25947 25948 25949 25950 25951 25952 25953 25954 25955 25956 25957 25958 25959 25960 25961 25962 25963 25964 25965 25966 25967 25968 25969 25970 25971 25972 25973 25974 25975 25976 25977 25978 25979 25980 25981 25982 25983 25984 25985 25986 25987 25988 25989 25990 25991 25992 25993 25994 25995 25996 25997 25998 25999 26000 26001 26002 26003 26004 26005 26006 26007 26008 26009 26010 26011 26012 26013 26014 26015 26016 26017 26018 26019 26020 26021 26022 26023 26024 26025 26026 26027 26028 26029 26030 26031 26032 26033 26034 26035 26036 26037 26038 26039 26040 26041 26042 26043 26044 26045 26046 26047 26048 26049 26050 26051 26052 26053 26054 26055 26056 26057 26058 26059 26060 26061 26062 26063 26064 26065 26066 26067 26068 26069 26070 26071 26072 26073 26074 26075 26076 26077 26078 26079 26080 26081 26082 26083 26084 26085 26086 26087 26088 26089 26090 26091 26092 26093 26094 26095 26096 26097 26098 26099 26100 26101 26102 26103 26104 26105 26106 26107 26108 26109 26110 26111 26112 26113 26114 26115 26116 26117 26118 26119 26120 26121 26122 26123 26124 26125 26126 26127 26128 26129 26130 26131 26132 26133 26134 26135 26136 26137 26138 26139 26140 26141 26142 26143 26144 26145 26146 26147 26148 26149 26150 26151 26152 26153 26154 26155 26156 26157 26158 26159 26160 26161 26162 26163 26164 26165 26166 26167 26168 26169 26170 26171 26172 26173 26174 26175 26176 26177 26178 26179 26180 26181 26182 26183 26184 26185 26186 26187 26188 26189 26190 26191 26192 26193 26194 26195 26196 26197 26198 26199 26200 26201 26202 26203 26204 26205 26206 26207 26208 26209 26210 26211 26212 26213 26214 26215 26216 26217 26218 26219 26220 26221 26222 26223 26224 26225 26226 26227 26228 26229 26230 26231 26232 26233 26234 26235 26236 26237 26238 26239 26240 26241 26242 26243 26244 26245 26246 26247 26248 26249 26250 26251 26252 26253 26254 26255 26256 26257 26258 26259 26260 26261 26262 26263 26264 26265 26266 26267 26268 26269 26270 26271 26272 26273 26274 26275 26276 26277 26278 26279 26280 26281 26282 26283 26284 26285 26286 26287 26288 26289 26290 26291 26292 26293 26294 26295 26296 26297 26298 26299 26300 26301 26302 26303 26304 26305 26306 26307 26308 26309 26310 26311 26312 26313 26314 26315 26316 26317 26318 26319 26320 26321 26322 26323 26324 26325 26326 26327 26328 26329 26330 26331 26332 26333 26334 26335 26336 26337 26338 26339 26340 26341 26342 26343 26344 26345 26346 26347 26348 26349 26350 26351 26352 26353 26354 26355 26356 26357 26358 26359 26360 26361 26362 26363 26364 26365 26366 26367 26368 26369 26370 26371 26372 26373 26374 26375 26376 26377 26378 26379 26380 26381 26382 26383 26384 26385 26386 26387 26388 26389 26390 26391 26392 26393 26394 26395 26396 26397 26398 26399 26400 26401 26402 26403 26404 26405 26406 26407 26408 26409 26410 26411 26412 26413 26414 26415 26416 26417 26418 26419 26420 26421 26422 26423 26424 26425 26426 26427 26428 26429 26430 26431 26432 26433 26434 26435 26436 26437 26438 26439 26440 26441 26442 26443 26444 26445 26446 26447 26448 26449 26450 26451 26452 26453 26454 26455 26456 26457 26458 26459 26460 26461 26462 26463 26464 26465 26466 26467 26468 26469 26470 26471 26472 26473 26474 26475 26476 26477 26478 26479 26480 26481 26482 26483 26484 26485 26486 26487 26488 26489 26490 26491 26492 26493 26494 26495 26496 26497 26498 26499 26500 26501 26502 26503 26504 26505 26506 26507 26508 26509 26510 26511 26512 26513 26514 26515 26516 26517 26518 26519 26520 26521 26522 26523 26524 26525 26526 26527 26528 26529 26530 26531 26532 26533 26534 26535 26536 26537 26538 26539 26540 26541 26542 26543 26544 26545 26546 26547 26548 26549 26550 26551 26552 26553 26554 26555 26556 26557 26558 26559 26560 26561 26562 26563 26564 26565 26566 26567 26568 26569 26570 26571 26572 26573 26574 26575 26576 26577 26578 26579 26580 26581 26582 26583 26584 26585 26586 26587 26588 26589 26590 26591 26592 26593 26594 26595 26596 26597 26598 26599 26600 26601 26602 26603 26604 26605 26606 26607 26608 26609 26610 26611 26612 26613 26614 26615 26616 26617 26618 26619 26620 26621 26622 26623 26624 26625 26626 26627 26628 26629 26630 26631 26632 26633 26634 26635 26636 26637 26638 26639 26640 26641 26642 26643 26644 26645 26646 26647 26648 26649 26650 26651 26652 26653 26654 26655 26656 26657 26658 26659 26660 26661 26662 26663 26664 26665 26666 26667 26668 26669 26670 26671 26672 26673 26674 26675 26676 26677 26678 26679 26680 26681 26682 26683 26684 26685 26686 26687 26688 26689 26690 26691 26692 26693 26694 26695 26696 26697 26698 26699 26700 26701 26702 26703 26704 26705 26706 26707 26708 26709 26710 26711 26712 26713 26714 26715 26716 26717 26718 26719 26720 26721 26722 26723 26724 26725 26726 26727 26728 26729 26730 26731 26732 26733 26734 26735 26736 26737 26738 26739 26740 26741 26742 26743 26744 26745 26746 26747 26748 26749 26750 26751 26752 26753 26754 26755 26756 26757 26758 26759 26760 26761 26762 26763 26764 26765 26766 26767 26768 26769 26770 26771 26772 26773 26774 26775 26776 26777 26778 26779 26780 26781 26782 26783 26784 26785 26786 26787 26788 26789 26790 26791 26792 26793 26794 26795 26796 26797 26798 26799 26800 26801 26802 26803 26804 26805 26806 26807 26808 26809 26810 26811 26812 26813 26814 26815 26816 26817 26818 26819 26820 26821 26822 26823 26824 26825 26826 26827 26828 26829 26830 26831 26832 26833 26834 26835 26836 26837 26838 26839 26840 26841 26842 26843 26844 26845 26846 26847 26848 26849 26850 26851 26852 26853 26854 26855 26856 26857 26858 26859 26860 26861 26862 26863 26864 26865 26866 26867 26868 26869 26870 26871 26872 26873 26874 26875 26876 26877 26878 26879 26880 26881 26882 26883 26884 26885 26886 26887 26888 26889 26890 26891 26892 26893 26894 26895 26896 26897 26898 26899 26900 26901 26902 26903 26904 26905 26906 26907 26908 26909 26910 26911 26912 26913 26914 26915 26916 26917 26918 26919 26920 26921 26922 26923 26924 26925 26926 26927 26928 26929 26930 26931 26932 26933 26934 26935 26936 26937 26938 26939 26940 26941 26942 26943 26944 26945 26946 26947 26948 26949 26950 26951 26952 26953 26954 26955 26956 26957 26958 26959 26960 26961 26962 26963 26964 26965 26966 26967 26968 26969 26970 26971 26972 26973 26974 26975 26976 26977 26978 26979 26980 26981 26982 26983 26984 26985 26986 26987 26988 26989 26990 26991 26992 26993 26994 26995 26996 26997 26998 26999 27000 27001 27002 27003 27004 27005 27006 27007 27008 27009 27010 27011 27012 27013 27014 27015 27016 27017 27018 27019 27020 27021 27022 27023 27024 27025 27026 27027 27028 27029 27030 27031 27032 27033 27034 27035 27036 27037 27038 27039 27040 27041 27042 27043 27044 27045 27046 27047 27048 27049 27050 27051 27052 27053 27054 27055 27056 27057 27058 27059 27060 27061 27062 27063 27064 27065 27066 27067 27068 27069 27070 27071 27072 27073 27074 27075 27076 27077 27078 27079 27080 27081 27082 27083 27084 27085 27086 27087 27088 27089 27090 27091 27092 27093 27094 27095 27096 27097 27098 27099 27100 27101 27102 27103 27104 27105 27106 27107 27108 27109 27110 27111 27112 27113 27114 27115 27116 27117 27118 27119 27120 27121 27122 27123 27124 27125 27126 27127 27128 27129 27130 27131 27132 27133 27134 27135 27136 27137 27138 27139 27140 27141 27142 27143 27144 27145 27146 27147 27148 27149 27150 27151 27152 27153 27154 27155 27156 27157 27158 27159 27160 27161 27162 27163 27164 27165 27166 27167 27168 27169 27170 27171 27172 27173 27174 27175 27176 27177 27178 27179 27180 27181 27182 27183 27184 27185 27186 27187 27188 27189 27190 27191 27192 27193 27194 27195 27196 27197 27198 27199 27200 27201 27202 27203 27204 27205 27206 27207 27208 27209 27210 27211 27212 27213 27214 27215 27216 27217 27218 27219 27220 27221 27222 27223 27224 27225 27226 27227 27228 27229 27230 27231 27232 27233 27234 27235 27236 27237 27238 27239 27240 27241 27242 27243 27244 27245 27246 27247 27248 27249 27250 27251 27252 27253 27254 27255 27256 27257 27258 27259 27260 27261 27262 27263 27264 27265 27266 27267 27268 27269 27270 27271 27272 27273 27274 27275 27276 27277 27278 27279 27280 27281 27282 27283 27284 27285 27286 27287 27288 27289 27290 27291 27292 27293 27294 27295 27296 27297 27298 27299 27300 27301 27302 27303 27304 27305 27306 27307 27308 27309 27310 27311 27312 27313 27314 27315 27316 27317 27318 27319 27320 27321 27322 27323 27324 27325 27326 27327 27328 27329 27330 27331 27332 27333 27334 27335 27336 27337 27338 27339 27340 27341 27342 27343 27344 27345 27346 27347 27348 27349 27350 27351 27352 27353 27354 27355 27356 27357 27358 27359 27360 27361 27362 27363 27364 27365 27366 27367 27368 27369 27370 27371 27372 27373 27374 27375 27376 27377 27378 27379 27380 27381 27382 27383 27384 27385 27386 27387 27388 27389 27390 27391 27392 27393 27394 27395 27396 27397 27398 27399 27400 27401 27402 27403 27404 27405 27406 27407 27408 27409 27410 27411 27412 27413 27414 27415 27416 27417 27418 27419 27420 27421 27422 27423 27424 27425 27426 27427 27428 27429 27430 27431 27432 27433 27434 27435 27436 27437 27438 27439 27440 27441 27442 27443 27444 27445 27446 27447 27448 27449 27450 27451 27452 27453 27454 27455 27456 27457 27458 27459 27460 27461 27462 27463 27464 27465 27466 27467 27468 27469 27470 27471 27472 27473 27474 27475 27476 27477 27478 27479 27480 27481 27482 27483 27484 27485 27486 27487 27488 27489 27490 27491 27492 27493 27494 27495 27496 27497 27498 27499 27500 27501 27502 27503 27504 27505 27506 27507 27508 27509 27510 27511 27512 27513 27514 27515 27516 27517 27518 27519 27520 27521 27522 27523 27524 27525 27526 27527 27528 27529 27530 27531 27532 27533 27534 27535 27536 27537 27538 27539 27540 27541 27542 27543 27544 27545 27546 27547 27548 27549 27550 27551 27552 27553 27554 27555 27556 27557 27558 27559 27560 27561 27562 27563 27564 27565 27566 27567 27568 27569 27570 27571 27572 27573 27574 27575 27576 27577 27578 27579 27580 27581 27582 27583 27584 27585 27586 27587 27588 27589 27590 27591 27592 27593 27594 27595 27596 27597 27598 27599 27600 27601 27602 27603 27604 27605 27606 27607 27608 27609 27610 27611 27612 27613 27614 27615 27616 27617 27618 27619 27620 27621 27622 27623 27624 27625 27626 27627 27628 27629 27630 27631 27632 27633 27634 27635 27636 27637 27638 27639 27640 27641 27642 27643 27644 27645 27646 27647 27648 27649 27650 27651 27652 27653 27654 27655 27656 27657 27658 27659 27660 27661 27662 27663 27664 27665 27666 27667 27668 27669 27670 27671 27672 27673 27674 27675 27676 27677 27678 27679 27680 27681 27682 27683 27684 27685 27686 27687 27688 27689 27690 27691 27692 27693 27694 27695 27696 27697 27698 27699 27700 27701 27702 27703 27704 27705 27706 27707 27708 27709 27710 27711 27712 27713 27714 27715 27716 27717 27718 27719 27720 27721 27722 27723 27724 27725 27726 27727 27728 27729 27730 27731 27732 27733 27734 27735 27736 27737 27738 27739 27740 27741 27742 27743 27744 27745 27746 27747 27748 27749 27750 27751 27752 27753 27754 27755 27756 27757 27758 27759 27760 27761 27762 27763 27764 27765 27766 27767 27768 27769 27770 27771 27772 27773 27774 27775 27776 27777 27778 27779 27780 27781 27782 27783 27784 27785 27786 27787 27788 27789 27790 27791 27792 27793 27794 27795 27796 27797 27798 27799 27800 27801 27802 27803 27804 27805 27806 27807 27808 27809 27810 27811 27812 27813 27814 27815 27816 27817 27818 27819 27820 27821 27822 27823 27824 27825 27826 27827 27828 27829 27830 27831 27832 27833 27834 27835 27836 27837 27838 27839 27840 27841 27842 27843 27844 27845 27846 27847 27848 27849 27850 27851 27852 27853 27854 27855 27856 27857 27858 27859 27860 27861 27862 27863 27864 27865 27866 27867 27868 27869 27870 27871 27872 27873 27874 27875 27876 27877 27878 27879 27880 27881 27882 27883 27884 27885 27886 27887 27888 27889 27890 27891 27892 27893 27894 27895 27896 27897 27898 27899 27900 27901 27902 27903 27904 27905 27906 27907 27908 27909 27910 27911 27912 27913 27914 27915 27916 27917 27918 27919 27920 27921 27922 27923 27924 27925 27926 27927 27928 27929 27930 27931 27932 27933 27934 27935 27936 27937 27938 27939 27940 27941 27942 27943 27944 27945 27946 27947 27948 27949 27950 27951 27952 27953 27954 27955 27956 27957 27958 27959 27960 27961 27962 27963 27964 27965 27966 27967 27968 27969 27970 27971 27972 27973 27974 27975 27976 27977 27978 27979 27980 27981 27982 27983 27984 27985 27986 27987 27988 27989 27990 27991 27992 27993 27994 27995 27996 27997 27998 27999 28000 28001 28002 28003 28004 28005 28006 28007 28008 28009 28010 28011 28012 28013 28014 28015 28016 28017 28018 28019 28020 28021 28022 28023 28024 28025 28026 28027 28028 28029 28030 28031 28032 28033 28034 28035 28036 28037 28038 28039 28040 28041 28042 28043 28044 28045 28046 28047 28048 28049 28050 28051 28052 28053 28054 28055 28056 28057 28058 28059 28060 28061 28062 28063 28064 28065 28066 28067 28068 28069 28070 28071 28072 28073 28074 28075 28076 28077 28078 28079 28080 28081 28082 28083 28084 28085 28086 28087 28088 28089 28090 28091 28092 28093 28094 28095 28096 28097 28098 28099 28100 28101 28102 28103 28104 28105 28106 28107 28108 28109 28110 28111 28112 28113 28114 28115 28116 28117 28118 28119 28120 28121 28122 28123 28124 28125 28126 28127 28128 28129 28130 28131 28132 28133 28134 28135 28136 28137 28138 28139 28140 28141 28142 28143 28144 28145 28146 28147 28148 28149 28150 28151 28152 28153 28154 28155 28156 28157 28158 28159 28160 28161 28162 28163 28164 28165 28166 28167 28168 28169 28170 28171 28172 28173 28174 28175 28176 28177 28178 28179 28180 28181 28182 28183 28184 28185 28186 28187 28188 28189 28190 28191 28192 28193 28194 28195 28196 28197 28198 28199 28200 28201 28202 28203 28204 28205 28206 28207 28208 28209 28210 28211 28212 28213 28214 28215 28216 28217 28218 28219 28220 28221 28222 28223 28224 28225 28226 28227 28228 28229 28230 28231 28232 28233 28234 28235 28236 28237 28238 28239 28240 28241 28242 28243 28244 28245 28246 28247 28248 28249 28250 28251 28252 28253 28254 28255 28256 28257 28258 28259 28260 28261 28262 28263 28264 28265 28266 28267 28268 28269 28270 28271 28272 28273 28274 28275 28276 28277 28278 28279 28280 28281 28282 28283 28284 28285 28286 28287 28288 28289 28290 28291 28292 28293 28294 28295 28296 28297 28298 28299 28300 28301 28302 28303 28304 28305 28306 28307 28308 28309 28310 28311 28312 28313 28314 28315 28316 28317 28318 28319 28320 28321 28322 28323 28324 28325 28326 28327 28328 28329 28330 28331 28332 28333 28334 28335 28336 28337 28338 28339 28340 28341 28342 28343 28344 28345 28346 28347 28348 28349 28350 28351 28352 28353 28354 28355 28356 28357 28358 28359 28360 28361 28362 28363 28364 28365 28366 28367 28368 28369 28370 28371 28372 28373 28374 28375 28376 28377 28378 28379 28380 28381 28382 28383 28384 28385 28386 28387 28388 28389 28390 28391 28392 28393 28394 28395 28396 28397 28398 28399 28400 28401 28402 28403 28404 28405 28406 28407 28408 28409 28410 28411 28412 28413 28414 28415 28416 28417 28418 28419 28420 28421 28422 28423 28424 28425 28426 28427 28428 28429 28430 28431 28432 28433 28434 28435 28436 28437 28438 28439 28440 28441 28442 28443 28444 28445 28446 28447 28448 28449 28450 28451 28452 28453 28454 28455 28456 28457 28458 28459 28460 28461 28462 28463 28464 28465 28466 28467 28468 28469 28470 28471 28472 28473 28474 28475 28476 28477 28478 28479 28480 28481 28482 28483 28484 28485 28486 28487 28488 28489 28490 28491 28492 28493 28494 28495 28496 28497 28498 28499 28500 28501 28502 28503 28504 28505 28506 28507 28508 28509 28510 28511 28512 28513 28514 28515 28516 28517 28518 28519 28520 28521 28522 28523 28524 28525 28526 28527 28528 28529 28530 28531 28532 28533 28534 28535 28536 28537 28538 28539 28540 28541 28542 28543 28544 28545 28546 28547 28548 28549 28550 28551 28552 28553 28554 28555 28556 28557 28558 28559 28560 28561 28562 28563 28564 28565 28566 28567 28568 28569 28570 28571 28572 28573 28574 28575 28576 28577 28578 28579 28580 28581 28582 28583 28584 28585 28586 28587 28588 28589 28590 28591 28592 28593 28594 28595 28596 28597 28598 28599 28600 28601 28602 28603 28604 28605 28606 28607 28608 28609 28610 28611 28612 28613 28614 28615 28616 28617 28618 28619 28620 28621 28622 28623 28624 28625 28626 28627 28628 28629 28630 28631 28632 28633 28634 28635 28636 28637 28638 28639 28640 28641 28642 28643 28644 28645 28646 28647 28648 28649 28650 28651 28652 28653 28654 28655 28656 28657 28658 28659 28660 28661 28662 28663 28664 28665 28666 28667 28668 28669 28670 28671 28672 28673 28674 28675 28676 28677 28678 28679 28680 28681 28682 28683 28684 28685 28686 28687 28688 28689 28690 28691 28692 28693 28694 28695 28696 28697 28698 28699 28700 28701 28702 28703 28704 28705 28706 28707 28708 28709 28710 28711 28712 28713 28714 28715 28716 28717 28718 28719 28720 28721 28722 28723 28724 28725 28726 28727 28728 28729 28730 28731 28732 28733 28734 28735 28736 28737 28738 28739 28740 28741 28742 28743 28744 28745 28746 28747 28748 28749 28750 28751 28752 28753 28754 28755 28756 28757 28758 28759 28760 28761 28762 28763 28764 28765 28766 28767 28768 28769 28770 28771 28772 28773 28774 28775 28776 28777 28778 28779 28780 28781 28782 28783 28784 28785 28786 28787 28788 28789 28790 28791 28792 28793 28794 28795 28796 28797 28798 28799 28800 28801 28802 28803 28804 28805 28806 28807 28808 28809 28810 28811 28812 28813 28814 28815 28816 28817 28818 28819 28820 28821 28822 28823 28824 28825 28826 28827 28828 28829 28830 28831 28832 28833 28834 28835 28836 28837 28838 28839 28840 28841 28842 28843 28844 28845 28846 28847 28848 28849 28850 28851 28852 28853 28854 28855 28856 28857 28858 28859 28860 28861 28862 28863 28864 28865 28866 28867 28868 28869 28870 28871 28872 28873 28874 28875 28876 28877 28878 28879 28880 28881 28882 28883 28884 28885 28886 28887 28888 28889 28890 28891 28892 28893 28894 28895 28896 28897 28898 28899 28900 28901 28902 28903 28904 28905 28906 28907 28908 28909 28910 28911 28912 28913 28914 28915 28916 28917 28918 28919 28920 28921 28922 28923 28924 28925 28926 28927 28928 28929 28930 28931 28932 28933 28934 28935 28936 28937 28938 28939 28940 28941 28942 28943 28944 28945 28946 28947 28948 28949 28950 28951 28952 28953 28954 28955 28956 28957 28958 28959 28960 28961 28962 28963 28964 28965 28966 28967 28968 28969 28970 28971 28972 28973 28974 28975 28976 28977 28978 28979 28980 28981 28982 28983 28984 28985 28986 28987 28988 28989 28990 28991 28992 28993 28994 28995 28996 28997 28998 28999 29000 29001 29002 29003 29004 29005 29006 29007 29008 29009 29010 29011 29012 29013 29014 29015 29016 29017 29018 29019 29020 29021 29022 29023 29024 29025 29026 29027 29028 29029 29030 29031 29032 29033 29034 29035 29036 29037 29038 29039 29040 29041 29042 29043 29044 29045 29046 29047 29048 29049 29050 29051 29052 29053 29054 29055 29056 29057 29058 29059 29060 29061 29062 29063 29064 29065 29066 29067 29068 29069 29070 29071 29072 29073 29074 29075 29076 29077 29078 29079 29080 29081 29082 29083 29084 29085 29086 29087 29088 29089 29090 29091 29092 29093 29094 29095 29096 29097 29098 29099 29100 29101 29102 29103 29104 29105 29106 29107 29108 29109 29110 29111 29112 29113 29114 29115 29116 29117 29118 29119 29120 29121 29122 29123 29124 29125 29126 29127 29128 29129 29130 29131 29132 29133 29134 29135 29136 29137 29138 29139 29140 29141 29142 29143 29144 29145 29146 29147 29148 29149 29150 29151 29152 29153 29154 29155 29156 29157 29158 29159 29160 29161 29162 29163 29164 29165 29166 29167 29168 29169 29170 29171 29172 29173 29174 29175 29176 29177 29178 29179 29180 29181 29182 29183 29184 29185 29186 29187 29188 29189 29190 29191 29192 29193 29194 29195 29196 29197 29198 29199 29200 29201 29202 29203 29204 29205 29206 29207 29208 29209 29210 29211 29212 29213 29214 29215 29216 29217 29218 29219 29220 29221 29222 29223 29224 29225 29226 29227 29228 29229 29230 29231 29232 29233 29234 29235 29236 29237 29238 29239 29240 29241 29242 29243 29244 29245 29246 29247 29248 29249 29250 29251 29252 29253 29254 29255 29256 29257 29258 29259 29260 29261 29262 29263 29264 29265 29266 29267 29268 29269 29270 29271 29272 29273 29274 29275 29276 29277 29278 29279 29280 29281 29282 29283 29284 29285 29286 29287 29288 29289 29290 29291 29292 29293 29294 29295 29296 29297 29298 29299 29300 29301 29302 29303 29304 29305 29306 29307 29308 29309 29310 29311 29312 29313 29314 29315 29316 29317 29318 29319 29320 29321 29322 29323 29324 29325 29326 29327 29328 29329 29330 29331 29332 29333 29334 29335 29336 29337 29338 29339 29340 29341 29342 29343 29344 29345 29346 29347 29348 29349 29350 29351 29352 29353 29354 29355 29356 29357 29358 29359 29360 29361 29362 29363 29364 29365 29366 29367 29368 29369 29370 29371 29372 29373 29374 29375 29376 29377 29378 29379 29380 29381 29382 29383 29384 29385 29386 29387 29388 29389 29390 29391 29392 29393 29394 29395 29396 29397 29398 
</DataArray>
<DataArray type="UInt32" Name="offsets" format="ascii">
3 6 9 12 15 18 21 24 27 30 32 35 37 40 43 46 49 52 55 58 60 63 65 68 71 74 77 79 82 85 88 91 94 97 100 103 106 109 112 115 118 121 124 127 130 133 136 139 142 145 148 151 154 157 160 163 166 169 171 174 177 180 182 185 188 191 194 197 200 203 206 209 212 215 218 221 224 227 230 233 236 238 241 244 247 250 253 256 259 262 265 268 271 273 275 278 281 284 287 290 293 296 299 302 305 308 311 314 317 320 322 325 328 331 334 337 340 342 345 348 351 354 357 360 363 366 369 372 375 378 381 384 387 389 392 395 398 401 404 407 410 413 416 419 422 425 428 430 433 436 439 442 444 447 450 452 455 457 459 462 465 468 471 474 476 479 482 485 488 491 494 497 500 503 506 509 512 515 518 520 523 526 529 532 535 538 541 543 546 549 551 554 557 560 563 566 569 572 575 578 581 584 587 590 593 596 599 602 605 608 610 613 616 619 622 624 627 630 633 636 639 642 645 648 650 653 656 659 661 664 667 670 673 676 679 682 685 688 691 694 696 699 701 704 707 710 713 716 719 722 724 727 729 732 735 738 740 743 745 748 751 754 757 760 763 765 768 771 774 777 780 782 785 788 790 793 796 799 802 805 808 811 813 816 819 822 825 828 831 834 837 840 843 846 849 852 855 858 861 864 867 870 873 875 878 881 883 886 889 892 895 898 901 904 907 910 913 916 919 922 925 928 931 934 937 940 943 946 949 952 955 958 961 964 967 970 973 976 979 982 985 988 991 994 997 1000 1003 1006 1009 1012 1015 1018 1021 1024 1027 1030 1033 1036 1039 1042 1045 1048 1051 1054 1057 1060 1063 1066 1069 1072 1074 1077 1080 1083 1086 1089 1092 1095 1098 1101 1103 1105 1108 1111 1113 1116 1119 1122 1124 1127 1130 1133 1136 1139 1142 1144 1147 1150 1153 1156 1159 1162 1165 1168 1171 1174 1177 1180 1183 1186 1189 1192 1195 1197 1200 1202 1205 1208 1211 1214 1217 1220 1223 1225 1227 1230 1233 1236 1239 1241 1244 1247 1250 1253 1256 1259 1261 1264 1267 1270 1273 1276 1279 1282 1285 1288 1291 1294 1297 1299 1302 1305 1308 1311 1313 1316 1319 1322 1325 1328 1331 1334 1337 1340 1343 1346 1349 1352 1354 1357 1359 1362 1365 1368 1371 1374 1377 1380 1383 1386 1389 1392 1395 1398 1401 1403 1406 1409 1412 1415 1418 1421 1424 1427 1430 1433 1436 1439 1442 1445 1448 1451 1454 1457 1460 1463 1466 1469 1472 1475 1478 1481 1484 1487 1490 1493 1496 1499 1502 1505 1508 1511 1514 1517 1520 1523 1526 1529 1531 1534 1537 1540 1543 1546 1548 1551 1554 1556 1559 1562 1564 1567 1570 1573 1575 1578 1581 1583 1586 1589 1592 1595 1598 1601 1604 1607 1610 1613 1616 1619 1622 1625 1628 1631 1634 1637 1640 1643 1645 1647 1650 1653 1656 1659 1661 1664 1667 1670 1672 1675 1678 1681 1684 1686 1689 1692 1694 1697 1700 1702 1705 1708 1711 1713 1716 1719 1722 1725 1728 1731 1734 1737 1740 1743 1746 1749 1752 1755 1758 1761 1764 1767 1770 1773 1776 1779 1782 1785 1788 1791 1794 1797 1799 1802 1804 1807 1809 1812 1815 1818 1821 1823 1826 1829 1832 1835 1838 1841 1843 1846 1849 1852 1854 1857 1860 1862 1864 1867 1870 1873 1876 1878 1881 1884 1887 1889 1892 1895 1898 1900 1903 1905 1908 1911 1914 1917 1919 1922 1925 1928 1931 1934 1937 1940 1943 1945 1948 1951 1954 1957 1960 1962 1965 1968 1971 1974 1977 1980 1983 1986 1989 1992 1995 1998 2000 2003 2006 2009 2012 2015 2018 2021 2024 2027 2030 2033 2036 2039 2042 2044 2047 2050 2052 2055 2058 2061 2064 2067 2069 2072 2075 2077 2080 2083 2086 2089 2092 2095 2097 2100 2103 2106 2109 2112 2115 2117 2120 2123 2125 2128 2131 2133 2135 2138 2141 2143 2146 2149 2151 2154 2156 2158 2160 2163 2166 2169 2172 2175 2177 2180 2183 2186 2188 2191 2193 2196 2199 2201 2204 2207 2210 2213 2216 2219 2222 2225 2228 2231 2234 2237 2240 2243 2246 2248 2251 2253 2256 2259 2261 2264 2267 2269 2272 2274 2277 2280 2283 2286 2289 2291 2293 2296 2299 2302 2305 2307 2310 2313 2316 2319 2322 2325 2328 2331 2334 2336 2339 2342 2345 2348 2351 2354 2357 2359 2362 2365 2367 2370 2373 2376 2378 2380 2383 2386 2388 2391 2394 2397 2399 2402 2404 2407 2410 2413 2415 2418 2421 2423 2426 2429 2432 2435 2438 2441 2444 2447 2450 2452 2455 2458 2461 2464 2467 2470 2473 2476 2479 2482 2485 2488 2491 2494 2497 2500 2502 2505 2507 2510 2513 2516 2519 2522 2525 2528 2531 2534 2537 2540 2543 2546 2549 2552 2555 2558 2561 2564 2567 2570 2573 2575 2577 2580 2583 2586 2589 2592 2595 2598 2601 2604 2607 2610 2613 2616 2619 2622 2625 2628 2631 2634 2636 2639 2642 2645 2648 2651 2654 2657 2660 2663 2666 2669 2672 2675 2678 2681 2684 2687 2690 2693 2696 2699 2702 2705 2708 2711 2714 2717 2720 2723 2726 2728 2731 2734 2737 2739 2741 2744 2747 2750 2753 2756 2759 2762 2765 2768 2771 2774 2777 2780 2782 2785 2788 2791 2794 2797 2800 2803 2805 2808 2811 2814 2817 2820 2823 2826 2829 2832 2835 2838 2841 2843 2846 2849 2852 2855 2858 2861 2864 2867 2870 2873 2876 2878 2881 2884 2887 2890 2893 2896 2899 2902 2905 2908 2911 2914 2917 2920 2922 2925 2928 2931 2934 2937 2940 2943 2946 2949 2952 2954 2956 2959 2962 2965 2968 2971 2974 2976 2979 2982 2985 2988 2991 2994 2997 3000 3003 3006 3009 3012 3014 3017 3020 3023 3026 3029 3032 3035 3037 3040 3043 3046 3049 3052 3055 3058 3061 3064 3067 3070 3073 3075 3078 3081 3084 3087 3090 3093 3096 3099 3102 3105 3108 3111 3114 3116 3119 3122 3125 3128 3131 3134 3137 3140 3143 3146 3149 3152 3155 3158 3161 3164 3167 3169 3172 3175 3178 3181 3184 3187 3190 3193 3196 3199 3202 3205 3208 3211 3214 3217 3220 3223 3226 3229 3232 3235 3238 3241 3244 3247 3250 3253 3256 3259 3262 3265 3268 3271 3274 3277 3280 3283 3286 3289 3292 3295 3298 3301 3304 3307 3310 3313 3316 3319 3322 3325 3328 3331 3334 3337 3340 3343 3346 3349 3351 3354 3357 3360 3363 3366 3369 3372 3375 3378 3381 3384 3386 3389 3392 3395 3397 3400 3403 3406 3409 3411 3414 3417 3420 3423 3426 3429 3431 3434 3437 3440 3443 3446 3448 3451 3453 3456 3459 3461 3464 3467 3470 3473 3476 3479 3482 3485 3488 3491 3494 3497 3500 3503 3505 3508 3511 3514 3517 3520 3523 3525 3528 3531 3534 3537 3540 3542 3545 3548 3551 3554 3556 3559 3561 3564 3567 3570 3573 3576 3579 3581 3583 3586 3589 3591 3593 3595 3598 3601 3604 3606 3609 3612 3614 3617 3619 3622 3625 3628 3630 3633 3636 3639 3641 3644 3647 3650 3653 3655 3658 3661 3664 3667 3670 3673 3676 3679 3682 3685 3688 3691 3694 3697 3700 3703 3706 3709 3712 3715 3718 3721 3724 3727 3730 3733 3736 3739 3742 3745 3748 3751 3754 3757 3760 3763 3766 3769 3772 3775 3778 3781 3783 3786 3789 3792 3795 3798 3801 3804 3807 3809 3811 3813 3816 3819 3822 3825 3827 3830 3833 3835 3838 3841 3844 3847 3850 3852 3855 3858 3860 3863 3866 3869 3872 3875 3877 3880 3882 3885 3888 3890 3893 3896 3899 3902 3905 3908 3911 3914 3917 3920 3923 3926 3929 3932 3934 3936 3938 3941 3944 3946 3949 3952 3955 3958 3961 3963 3965 3968 3971 3974 3977 3979 3982 3984 3987 3990 3993 3995 3997 4000 4003 4006 4009 4011 4013 4016 4019 4022 4025 4028 4031 4034 4037 4040 4043 4046 4049 4052 4055 4058 4061 4064 4067 4070 4072 4075 4078 4081 4084 4087 4090 4093 4096 4099 4102 4105 4108 4111 4114 4117 4119 4122 4124 4127 4130 4133 4136 4139 4142 4144 4147 4149 4152 4155 4158 4161 4163 4166 4168 4170 4173 4175 4178 4181 4184 4187 4190 4193 4196 4198 4201 4204 4207 4210 4213 4215 4217 4220 4222 4225 4228 4231 4234 4237 4240 4243 4246 4249 4252 4255 4258 4261 4264 4267 4270 4273 4276 4279 4281 4284 4287 4290 4293 4296 4299 4302 4305 4308 4311 4314 4317 4320 4323 4326 4329 4332 4335 4338 4341 4344 4347 4350 4353 4356 4359 4362 4364 4367 4370 4372 4375 4378 4381 4383 4386 4389 4392 4395 4398 4400 4403 4406 4408 4411 4414 4417 4420 4423 4426 4429 4432 4435 4438 4441 4444 4447 4450 4453 4456 4459 4462 4465 4468 4471 4474 4477 4480 4483 4486 4489 4492 4494 4497 4500 4503 4505 4508 4511 4514 4516 4518 4521 4524 4527 4529 4532 4535 4538 4541 4544 4547 4550 4553 4556 4559 4561 4564 4566 4569 4572 4575 4578 4581 4584 4586 4589 4591 4594 4596 4599 4602 4605 4608 4611 4613 4615 4618 4621 4624 4627 4630 4633 4636 4639 4642 4645 4648 4651 4654 4657 4660 4663 4666 4669 4672 4675 4678 4681 4684 4687 4690 4693 4696 4699 4702 4704 4707 4710 4713 4715 4718 4721 4724 4727 4730 4733 4736 4739 4742 4745 4748 4751 4754 4757 4759 4762 4765 4768 4770 4773 4776 4779 4782 4785 4788 4791 4794 4797 4800 4803 4806 4809 4812 4815 4817 4820 4823 4826 4829 4832 4835 4838 4841 4844 4847 4850 4853 4856 4859 4862 4865 4868 4871 4874 4877 4880 4883 4886 4889 4892 4895 4898 4900 4903 4906 4909 4912 4915 4918 4921 4924 4927 4930 4933 4936 4939 4942 4945 4947 4950 4952 4955 4958 4961 4963 4965 4967 4970 4973 4976 4979 4982 4985 4988 4991 4994 4997 5000 5003 5006 5009 5012 5015 5018 5021 5024 5027 5030 5033 5036 5039 5042 5045 5048 5050 5053 5056 5059 5062 5065 5068 5071 5074 5076 5079 5082 5085 5087 5090 5093 5096 5098 5101 5104 5107 5110 5113 5116 5119 5122 5124 5126 5129 5132 5135 5137 5140 5143 5146 5149 5151 5154 5157 5159 5162 5165 5167 5170 5172 5175 5178 5181 5184 5187 5190 5193 5196 5199 5202 5205 5208 5211 5214 5216 5219 5222 5224 5227 5229 5231 5234 5237 5240 5242 5245 5248 5251 5254 5257 5259 5261 5264 5266 5269 5272 5274 5277 5280 5283 5286 5289 5292 5295 5298 5301 5304 5307 5310 5313 5315 5317 5320 5323 5326 5329 5332 5335 5338 5341 5343 5346 5349 5352 5355 5358 5360 5363 5366 5369 5372 5374 5377 5380 5383 5386 5389 5392 5395 5397 5399 5402 5405 5408 5411 5414 5417 5420 5423 5426 5428 5431 5434 5437 5439 5442 5445 5448 5451 5454 5457 5460 5463 5466 5469 5472 5475 5478 5481 5484 5487 5490 5493 5496 5499 5501 5504 5507 5510 5513 5516 5518 5521 5523 5526 5529 5532 5535 5538 5541 5544 5547 5550 5552 5555 5558 5561 5564 5567 5570 5573 5575 5578 5581 5583 5586 5589 5592 5594 5597 5600 5602 5605 5608 5611 5614 5617 5620 5623 5626 5629 5632 5635 5638 5641 5644 5647 5650 5653 5656 5659 5662 5665 5668 5671 5674 5677 5680 5683 5686 5689 5691 5694 5697 5700 5703 5706 5709 5712 5715 5718 5721 5724 5727 5730 5733 5736 5739 5742 5745 5748 5751 5754 5757 5760 5763 5766 5769 5772 5775 5778 5781 5784 5786 5789 5792 5795 5798 5801 5804 5807 5810 5813 5816 5819 5822 5825 5828 5831 5834 5837 5840 5843 5846 5849 5852 5855 5858 5860 5863 5866 5869 5872 5875 5878 5881 5884 5887 5889 5892 5895 5898 5900 5903 5906 5908 5911 5914 5916 5919 5922 5925 5927 5930 5933 5936 5939 5941 5944 5947 5950 5953 5956 5959 5962 5965 5968 5970 5973 5975 5978 5981 5984 5987 5989 5992 5995 5998 6000 6003 6005 6008 6011 6014 6017 6020 6023 6026 6029 6032 6035 6038 6041 6044 6047 6050 6053 6056 6059 6062 6065 6068 6071 6074 6077 6080 6083 6086 6089 6092 6095 6098 6101 6104 6107 6110 6112 6114 6117 6120 6123 6126 6129 6132 6135 6138 6141 6144 6147 6150 6152 6155 6158 6161 6164 6167 6170 6173 6175 6177 6180 6183 6186 6189 6191 6194 6197 6200 6203 6206 6209 6212 6215 6218 6221 6224 6227 6230 6233 6236 6239 6241 6244 6247 6250 6253 6255 6258 6261 6263 6266 6268 6271 6274 6277 6279 6282 6284 6287 6290 6293 6296 6299 6302 6305 6307 6310 6313 6316 6318 6321 6324 6327 6330 6333 6336 6339 6342 6345 6348 6351 6354 6357 6359 6362 6364 6367 6370 6372 6375 6378 6381 6384 6387 6390 6393 6396 6399 6402 6405 6408 6410 6413 6416 6419 6422 6425 6428 6431 6434 6437 6440 6443 6446 6449 6452 6455 6458 6461 6464 6467 6469 6472 6475 6478 6481 6484 6487 6489 6492 6495 6498 6500 6503 6506 6509 6512 6515 6518 6521 6524 6527 6530 6533 6536 6539 6542 6545 6548 6551 6554 6557 6559 6562 6565 6568 6571 6574 6577 6580 6583 6586 6589 6592 6595 6598 6601 6604 6607 6610 6613 6616 6619 6622 6625 6628 6631 6633 6636 6639 6642 6645 6648 6651 6653 6656 6659 6662 6665 6667 6670 6673 6676 6679 6681 6683 6685 6688 6691 6694 6697 6700 6703 6705 6708 6711 6714 6716 6719 6722 6725 6728 6730 6733 6736 6738 6740 6743 6746 6749 6752 6754 6757 6760 6762 6765 6768 6771 6774 6777 6780 6783 6786 6789 6792 6795 6798 6801 6804 6806 6809 6811 6814 6816 6819 6821 6824 6827 6830 6833 6836 6839 6841 6844 6847 6850 6853 6855 6858 6861 6864 6867 6870 6872 6875 6877 6880 6883 6886 6889 6892 6895 6898 6901 6904 6906 6909 6912 6915 6918 6921 6924 6927 6930 6933 6936 6939 6942 6945 6948 6951 6954 6956 6959 6962 6965 6968 6971 6974 6977 6980 6983 6986 6989 6992 6995 6998 7001 7004 7007 7010 7013 7016 7019 7022 7025 7028 7031 7033 7036 7039 7041 7044 7047 7050 7053 7055 7058 7060 7063 7066 7069 7072 7075 7078 7081 7084 7087 7090 7093 7096 7098 7101 7104 7107 7109 7112 7115 7118 7121 7123 7126 7129 7132 7135 7138 7141 7144 7147 7149 7152 7155 7158 7161 7164 7167 7170 7173 7176 7179 7182 7185 7188 7191 7194 7197 7200 7203 7206 7209 7212 7215 7218 7221 7224 7227 7230 7233 7236 7239 7242 7245 7247 7250 7253 7255 7258 7261 7264 7267 7270 7273 7276 7279 7282 7285 7288 7291 7293 7296 7298 7301 7304 7307 7309 7312 7315 7318 7321 7323 7325 7328 7330 7332 7335 7338 7340 7343 7346 7349 7352 7355 7358 7361 7364 7367 7370 7373 7376 7378 7381 7384 7387 7390 7393 7396 7399 7402 7405 7408 7411 7414 7417 7420 7423 7425 7428 7431 7434 7437 7440 7442 7445 7448 7450 7453 7455 7458 7461 7464 7467 7470 7473 7476 7479 7482 7485 7488 7490 7493 7496 7499 7502 7504 7507 7510 7512 7515 7518 7521 7524 7527 7530 7532 7535 7537 7539 7542 7545 7548 7550 7552 7555 7558 7561 7564 7567 7569 7572 7575 7578 7581 7584 7587 7590 7593 7596 7599 7602 7605 7608 7610 7613 7615 7618 7621 7624 7627 7630 7633 7636 7638 7641 7644 7646 7649 7652 7655 7658 7661 7664 7666 7669 7671 7674 7677 7680 7683 7686 7689 7692 7695 7697 7700 7703 7706 7708 7711 7714 7717 7720 7723 7726 7729 7732 7735 7738 7741 7744 7746 7749 7752 7755 7757 7760 7762 7765 7768 7771 7774 7777 7779 7781 7784 7787 7790 7793 7796 7799 7802 7805 7808 7811 7814 7817 7820 7823 7826 7829 7832 7835 7838 7841 7844 7847 7850 7853 7856 7859 7862 7865 7868 7871 7874 7877 7880 7883 7886 7889 7892 7895 7898 7901 7904 7907 7910 7913 7916 7919 7922 7925 7927 7930 7932 7935 7938 7941 7944 7947 7950 7952 7955 7958 7961 7964 7967 7970 7973 7976 7979 7982 7985 7988 7991 7994 7997 8000 8003 8006 8009 8012 8015 8018 8021 8024 8027 8030 8033 8035 8038 8041 8044 8047 8049 8052 8055 8057 8059 8062 8065 8068 8071 8073 8076 8079 8081 8084 8087 8089 8092 8095 8098 8101 8104 8107 8110 8113 8116 8118 8121 8124 8127 8130 8133 8136 8139 8142 8145 8148 8151 8154 8157 8160 8163 8166 8169 8172 8175 8178 8181 8184 8187 8190 8193 8195 8198 8201 8204 8207 8209 8212 8214 8217 8220 8223 8226 8229 8232 8235 8238 8241 8244 8247 8250 8253 8255 8258 8260 8263 8266 8269 8272 8275 8278 8281 8284 8287 8290 8293 8296 8299 8302 8305 8308 8311 8314 8317 8320 8323 8326 8328 8331 8334 8337 8340 8343 8346 8349 8352 8355 8358 8361 8364 8367 8370 8373 8376 8379 8382 8385 8388 8391 8394 8397 8400 8403 8406 8408 8411 8414 8417 8420 8423 8426 8429 8432 8435 8438 8441 8444 8447 8450 8453 8456 8459 8462 8465 8468 8471 8474 8477 8480 8483 8486 8489 8492 8495 8498 8500 8503 8506 8509 8512 8515 8518 8521 8524 8527 8530 8533 8536 8539 8542 8545 8548 8551 8554 8557 8559 8562 8565 8568 8571 8574 8577 8580 8583 8586 8589 8592 8595 8598 8601 8604 8607 8610 8613 8616 8619 8622 8625 8628 8631 8633 8636 8638 8641 8644 8647 8650 8653 8656 8659 8662 8665 8668 8671 8674 8677 8679 8682 8685 8687 8690 8692 8695 8697 8700 8703 8706 8709 8712 8715 8718 8721 8724 8727 8730 8732 8735 8738 8741 8744 8747 8749 8752 8755 8757 8760 8763 8766 8769 8772 8775 8777 8780 8783 8786 8788 8791 8794 8797 8800 8803 8806 8809 8812 8814 8817 8820 8823 8826 8829 8832 8835 8838 8841 8844 8846 8849 8852 8855 8858 8861 8863 8866 8869 8872 8874 8877 8880 8883 8885 8888 8891 8894 8896 8898 8901 8904 8907 8909 8912 8915 8917 8920 8923 8925 8928 8931 8934 8937 8940 8943 8946 8949 8952 8955 8957 8960 8963 8965 8968 8971 8974 8977 8979 8982 8984 8987 8990 8993 8996 8998 9001 9004 9007 9010 9013 9016 9019 9021 9024 9027 9030 9033 9035 9038 9041 9043 9046 9049 9051 9054 9057 9060 9063 9066 9069 9072 9075 9078 9081 9084 9087 9090 9093 9096 9099 9102 9105 9108 9111 9114 9117 9119 9122 9125 9128 9131 9133 9136 9139 9142 9145 9148 9151 9153 9156 9159 9162 9165 9168 9171 9174 9177 9179 9182 9184 9187 9190 9193 9196 9199 9202 9205 9208 9211 9214 9217 9220 9223 9226 9229 9232 9235 9238 9241 9244 9247 9249 9252 9255 9258 9261 9264 9267 9270 9272 9275 9278 9281 9283 9286 9289 9291 9293 9296 9299 9302 9305 9308 9311 9314 9317 9320 9322 9325 9328 9331 9334 9337 9340 9343 9346 9349 9352 9355 9358 9361 9364 9367 9370 9373 9376 9379 9382 9385 9388 9391 9394 9397 9400 9403 9406 9409 9412 9414 9417 9420 9423 9426 9429 9432 9435 9438 9441 9444 9446 9449 9452 9455 9458 9461 9464 9467 9470 9473 9476 9479 9482 9485 9487 9490 9493 9496 9499 9502 9505 9508 9511 9514 9517 9520 9523 9525 9528 9530 9533 9536 9539 9541 9543 9546 9549 9552 9555 9558 9561 9564 9567 9569 9572 9575 9578 9580 9583 9586 9589 9592 9595 9598 9601 9604 9607 9610 9613 9616 9619 9622 9625 9628 9631 9634 9637 9640 9643 9646 9648 9650 9653 9656 9659 9662 9665 9667 9670 9673 9676 9679 9682 9685 9687 9690 9693 9696 9699 9702 9705 9708 9711 9714 9717 9720 9723 9726 9729 9732 9735 9738 9741 9744 9747 9750 9753 9756 9759 9762 9765 9768 9771 9774 9777 9780 9783 9786 9788 9791 9794 9797 9800 9803 9806 9809 9812 9815 9818 9821 9824 9826 9829 9832 9834 9837 9840 9842 9845 9847 9850 9853 9856 9858 9860 9863 9866 9869 9872 9875 9878 9880 9883 9886 9889 9892 9895 9898 9901 9903 9905 9908 9910 9913 9916 9919 9921 9924 9927 9930 9933 9936 9939 9942 9945 9948 9951 9954 9956 9958 9961 9964 9967 9970 9973 9975 9978 9981 9984 9987 9990 9993 9996 9999 10001 10003 10006 10009 10012 10015 10017 10020 10023 10026 10028 10031 10034 10037 10040 10043 10046 10049 10051 10054 10057 10060 10063 10066 10069 10072 10075 10078 10081 10084 10086 10089 10092 10094 10097 10100 10102 10105 10107 10110 10113 10115 10118 10120 10123 10125 10128 10131 10133 10136 10139 10141 10144 10147 10150 10153 10155 10158 10161 10164 10167 10169 10172 10175 10178 10181 10184 10186 10189 10192 10195 10198 10201 10204 10207 10210 10212 10215 10218 10221 10224 10227 10230 10233 10236 10238 10241 10244 10247 10250 10253 10256 10259 10262 10265 10268 10271 10274 10277 10280 10283 10286 10289 10292 10295 10298 10300 10303 10306 10309 10312 10315 10318 10321 10324 10327 10330 10333 10335 10338 10341 10344 10347 10350 10353 10356 10359 10362 10365 10368 10371 10374 10376 10379 10382 10385 10388 10391 10393 10396 10399 10401 10404 10407 10410 10413 10416 10419 10421 10424 10427 10429 10432 10434 10437 10440 10442 10444 10447 10450 10453 10456 10459 10462 10465 10468 10471 10474 10477 10480 10483 10486 10489 10491 10494 10497 10500 10503 10506 10509 10512 10515 10518 10521 10524 10527 10530 10533 10536 10539 10542 10545 10548 10551 10553 10556 10559 10562 10565 10568 10571 10574 10577 10580 10583 10586 10589 10592 10595 10598 10601 10604 10606 10609 10612 10615 10618 10621 10624 10627 10630 10633 10636 10639 10641 10644 10647 10650 10653 10656 10659 10662 10665 10668 10671 10674 10677 10680 10683 10685 10688 10691 10694 10697 10700 10703 10705 10708 10711 10714 10717 10720 10723 10726 10729 10732 10735 10738 10741 10744 10747 10750 10753 10756 10759 10762 10765 10768 10771 10774 10777 10780 10783 10786 10789 10792 10795 10798 10801 10804 10807 10810 10813 10816 10819 10822 10825 10828 10831 10834 10837 10840 10843 10846 10849 10852 10855 10857 10860 10863 10866 10869 10871 10874 10876 10879 10882 10885 10888 10891 10893 10896 10899 10902 10905 10908 10911 10914 10917 10920 10923 10926 10929 10932 10935 10938 10941 10944 10947 10949 10952 10955 10958 10961 10963 10966 10969 10972 10975 10977 10980 10983 10985 10987 10990 10992 10995 10998 11001 11004 11007 11009 11012 11015 11017 11020 11023 11026 11029 11032 11035 11038 11041 11044 11047 11050 11053 11056 11059 11062 11065 11068 11071 11073 11076 11079 11082 11085 11088 11091 11094 11097 11100 11103 11106 11109 11112 11114 11117 11120 11122 11124 11127 11130 11133 11135 11138 11140 11143 11145 11147 11150 11153 11156 11159 11161 11164 11167 11170 11172 11175 11178 11181 11184 11187 11190 11193 11196 11199 11202 11205 11208 11211 11214 11217 11220 11223 11226 11229 11231 11233 11236 11239 11241 11244 11246 11249 11251 11254 11257 11260 11263 11266 11269 11272 11275 11278 11281 11284 11287 11290 11292 11294 11297 11300 11303 11305 11308 11311 11313 11316 11319 11322 11324 11327 11330 11333 11336 11339 11341 11344 11347 11350 11353 11355 11357 11360 11363 11366 11369 11372 11375 11378 11381 11384 11387 11390 11392 11395 11398 11401 11404 11407 11410 11413 11416 11419 11422 11425 11428 11431 11434 11437 11440 11443 11446 11449 11451 11454 11457 11460 11463 11465 11468 11471 11474 11477 11479 11481 11484 11487 11490 11493 11496 11499 11501 11504 11507 11510 11513 11516 11519 11521 11524 11527 11530 11533 11535 11537 11540 11543 11546 11549 11552 11555 11558 11561 11563 11566 11569 11572 11575 11578 11580 11583 11586 11589 11592 11594 11597 11600 11603 11606 11609 11612 11615 11618 11621 11624 11627 11630 11633 11636 11639 11642 11645 11648 11651 11654 11657 11660 11663 11666 11669 11672 11675 11678 11681 11684 11687 11690 11693 11696 11699 11702 11704 11707 11710 11713 11715 11718 11720 11723 11726 11729 11731 11734 11737 11740 11742 11745 11748 11751 11754 11757 11760 11762 11765 11768 11771 11774 11777 11780 11783 11786 11789 11792 11795 11798 11801 11804 11807 11810 11813 11816 11819 11822 11825 11828 11831 11834 11837 11840 11843 11846 11849 11852 11855 11858 11861 11864 11867 11870 11873 11876 11879 11882 11885 11888 11891 11894 11897 11900 11903 11906 11909 11912 11915 11918 11921 11924 11927 11930 11933 11936 11939 11942 11945 11948 11951 11954 11957 11960 11963 11966 11969 11972 11975 11978 11981 11984 11987 11990 11993 11996 11999 12002 12005 12008 12011 12014 12017 12020 12023 12026 12029 12032 12035 12038 12041 12044 12047 12050 12053 12056 12059 12062 12065 12068 12071 12073 12076 12079 12082 12085 12088 12090 12093 12096 12099 12102 12105 12108 12111 12114 12117 12120 12123 12126 12129 12132 12135 12138 12141 12144 12147 12150 12153 12156 12159 12162 12165 12168 12170 12173 12176 12179 12181 12184 12187 12190 12193 12196 12198 12201 12204 12207 12210 12213 12216 12219 12222 12225 12228 12231 12234 12237 12240 12243 12246 12249 12252 12255 12258 12261 12263 12266 12269 12272 12274 12277 12280 12282 12285 12288 12291 12294 12296 12299 12302 12305 12308 12311 12314 12317 12320 12323 12326 12329 12332 12334 12337 12339 12342 12345 12348 12351 12354 12357 12360 12363 12366 12369 12372 12375 12378 12381 12383 12386 12389 12392 12395 12398 12401 12404 12406 12409 12412 12414 12417 12420 12423 12426 12429 12432 12435 12438 12441 12444 12447 12450 12453 12456 12459 12462 12465 12468 12470 12472 12475 12478 12481 12484 12487 12490 12493 12496 12499 12502 12505 12508 12511 12514 12517 12520 12523 12526 12529 12532 12534 12537 12539 12542 12545 12548 12551 12554 12557 12560 12563 12565 12568 12571 12574 12577 12580 12583 12585 12588 12591 12593 12596 12599 12602 12605 12608 12611 12613 12615 12617 12619 12622 12625 12627 12630 12633 12636 12639 12642 12645 12648 12651 12654 12657 12660 12663 12666 12669 12672 12675 12678 12681 12684 12686 12689 12692 12695 12698 12701 12704 12707 12710 12713 12716 12719 12722 12725 12728 12731 12734 12737 12740 12743 12746 12749 12752 12755 12758 12761 12764 12766 12768 12770 12773 12776 12779 12781 12784 12787 12790 12793 12796 12799 12802 12805 12808 12811 12814 12817 12820 12823 12826 12829 12832 12835 12838 12841 12844 12847 12850 12853 12856 12859 12862 12865 12868 12871 12874 12877 12880 12883 12886 12889 12892 12895 12898 12900 12903 12906 12909 12912 12914 12916 12919 12921 12924 12927 12929 12932 12935 12937 12940 12943 12946 12949 12952 12955 12957 12960 12963 12966 12969 12972 12975 12978 12980 12983 12985 12988 12990 12992 12995 12998 13001 13004 13007 13010 13013 13016 13019 13022 13025 13028 13030 13033 13036 13039 13042 13045 13048 13051 13054 13057 13060 13063 13065 13068 13071 13074 13077 13080 13083 13086 13089 13092 13095 13098 13101 13104 13107 13110 13113 13115 13118 13121 13124 13127 13130 13133 13136 13139 13142 13145 13148 13150 13153 13156 13159 13162 13165 13168 13170 13173 13176 13178 13180 13183 13186 13188 13191 13194 13197 13200 13203 13205 13208 13211 13214 13216 13219 13221 13224 13227 13230 13233 13235 13238 13241 13244 13246 13249 13252 13254 13257 13260 13263 13266 13269 13272 13274 13277 13280 13283 13286 13289 13291 13294 13296 13299 13302 13304 13306 13309 13312 13315 13318 13321 13324 13326 13329 13332 13335 13338 13341 13344 13347 13350 13353 13356 13359 13362 13365 13368 13371 13374 13376 13379 13382 13385 13388 13391 13393 13396 13399 13401 13404 13407 13410 13413 13415 13418 13421 13424 13427 13429 13432 13435 13438 13441 13444 13447 13450 13453 13455 13458 13461 13464 13467 13470 13473 13475 13478 13481 13483 13486 13489 13492 13494 13497 13500 13503 13505 13507 13510 13513 13516 13519 13522 13525 13528 13531 13533 13536 13539 13541 13544 13547 13550 13553 13556 13559 13562 13565 13568 13571 13573 13576 13579 13582 13585 13588 13591 13594 13596 13599 13602 13605 13608 13610 13613 13616 13619 13621 13624 13627 13630 13633 13635 13637 13639 13642 13644 13647 13649 13652 13655 13658 13660 13663 13665 13668 13670 13672 13674 13676 13679 13682 13685 13688 13690 13693 13695 13698 13701 13704 13706 13709 13711 13714 13716 13719 13722 13724 13727 13730 13733 13736 13739 13742 13744 13747 13750 13753 13756 13759 13762 13765 13768 13771 13774 13777 13780 13783 13786 13789 13792 13794 13797 13800 13803 13805 13808 13810 13812 13815 13818 13820 13823 13826 13828 13831 13834 13837 13840 13843 13846 13849 13851 13854 13857 13860 13863 13866 13869 13872 13874 13877 13880 13883 13885 13887 13890 13893 13896 13899 13902 13905 13908 13910 13913 13915 13917 13920 13922 13924 13927 13929 13931 13934 13937 13940 13942 13945 13948 13951 13954 13957 13960 13963 13966 13969 13972 13975 13978 13981 13984 13987 13990 13992 13995 13998 14000 14003 14006 14009 14012 14015 14018 14021 14024 14027 14030 14033 14036 14039 14042 14045 14048 14051 14054 14057 14060 14063 14066 14069 14072 14075 14078 14081 14084 14087 14090 14093 14096 14099 14102 14105 14108 14111 14114 14117 14120 14123 14126 14129 14132 14134 14137 14140 14142 14145 14148 14151 14154 14157 14160 14163 14166 14169 14172 14175 14178 14181 14184 14187 14190 14193 14196 14199 14202 14205 14208 14211 14214 14217 14220 14223 14225 14227 14230 14232 14235 14238 14241 14244 14247 14250 14253 14256 14259 14262 14265 14268 14271 14274 14277 14280 14283 14286 14289 14292 14295 14298 14301 14304 14307 14310 14313 14315 14318 14321 14324 14327 14330 14333 14335 14338 14340 14343 14346 14348 14351 14354 14357 14360 14363 14366 14369 14372 14375 14378 14381 14384 14387 14390 14393 14395 14398 14401 14404 14407 14410 14413 14416 14419 14422 14425 14428 14431 14434 14437 14440 14443 14446 14449 14452 14455 14458 14461 14464 14467 14470 14473 14476 14479 14482 14485 14488 14491 14494 14497 14500 14503 14506 14509 14512 14515 14518 14521 14524 14527 14530 14533 14536 14539 14542 14545 14548 14551 14554 14557 14560 14563 14566 14569 14572 14575 14578 14581 14584 14587 14590 14593 14596 14598 14601 14604 14606 14609 14612 14614 14616 14619 14621 14624 14626 14629 14632 14635 14638 14641 14644 14646 14649 14652 14655 14658 14661 14664 14667 14670 14672 14675 14678 14681 14683 14686 14689 14692 14695 14698 14701 14704 14707 14710 14713 14716 14718 14720 14723 14726 14729 14732 14735 14737 14739 14742 14745 14748 14751 14754 14757 14760 14763 14766 14768 14771 14774 14777 14779 14782 14784 14787 14790 14793 14796 14799 14802 14805 14808 14811 14814 14817 14820 14823 14826 14829 14832 14835 14838 14841 14844 14846 14849 14852 14855 14858 14861 14864 14867 14870 14873 14876 14879 14881 14884 14887 14890 14893 14896 14899 14901 14903 14906 14909 14912 14914 14917 14920 14923 14926 14929 14932 14934 14937 14940 14943 14946 14949 14952 14955 14958 14961 14964 14967 14970 14973 14976 14979 14982 14985 14988 14991 14994 14997 15000 15003 15006 15009 15012 15015 15018 15020 15023 15026 15029 15032 15035 15038 15040 15043 15046 15049 15052 15055 15058 15061 15064 15067 15070 15073 15076 15079 15082 15085 15088 15091 15094 15097 15100 15103 15106 15109 15112 15115 15118 15121 15124 15127 15130 15133 15136 15139 15142 15145 15148 15151 15154 15157 15160 15163 15166 15169 15171 15174 15176 15179 15182 15185 15188 15190 15193 15196 15198 15201 15204 15207 15210 15213 15216 15219 15222 15225 15227 15230 15233 15235 15237 15239 15242 15245 15248 15250 15253 15256 15259 15262 15265 15268 15271 15274 15277 15280 15283 15286 15288 15291 15294 15297 15299 15301 15303 15306 15309 15312 15314 15317 15319 15322 15325 15328 15331 15334 15336 15339 15342 15345 15348 15351 15354 15356 15359 15362 15365 15368 15371 15374 15377 15380 15383 15386 15389 15392 15395 15398 15401 15403 15405 15408 15411 15413 15416 15419 15422 15425 15428 15431 15433 15436 15439 15442 15445 15448 15450 15453 15456 15459 15462 15465 15467 15470 15473 15476 15479 15481 15484 15487 15489 15492 15495 15498 15501 15503 15506 15509 15512 15515 15518 15521 15524 15527 15529 15532 15535 15538 15541 15544 15547 15549 15552 15555 15558 15561 15564 15567 15569 15572 15575 15578 15581 15583 15586 15589 15592 15594 15596 15599 15602 15605 15607 15610 15612 15614 15616 15619 15622 15625 15628 15631 15634 15637 15640 15643 15646 15649 15652 15655 15658 15661 15664 15667 15670 15672 15674 15677 15680 15683 15685 15687 15690 15693 15696 15698 15701 15704 15707 15710 15713 15716 15719 15722 15725 15728 15731 15734 15737 15740 15743 15746 15749 15752 15755 15758 15761 15764 15767 15770 15773 15776 15779 15782 15785 15787 15790 15793 15796 15799 15802 15805 15808 15810 15813 15816 15819 15822 15825 15827 15830 15832 15835 15838 15841 15843 15846 15849 15851 15854 15857 15860 15863 15865 15868 15871 15874 15877 15880 15883 15886 15888 15890 15893 15896 15899 15902 15904 15907 15909 15912 15915 15918 15920 15923 15926 15929 15932 15934 15937 15940 15943 15946 15948 15951 15953 15955 15958 15961 15964 15967 15969 15972 15974 15976 15978 15980 15982 15985 15988 15991 15993 15996 15999 16001 16003 16006 16009 16011 16014 16017 16020 16023 16026 16028 16030 16033 16036 16039 16041 16044 16047 16049 16052 16055 16058 16061 16064 16067 16070 16073 16076 16079 16082 16085 16088 16091 16094 16097 16100 16103 16106 16109 16112 16115 16118 16121 16123 16126 16129 16132 16135 16138 16140 16143 16145 16148 16151 16154 16157 16160 16162 16165 16168 16171 16174 16177 16180 16183 16186 16189 16192 16195 16198 16201 16204 16207 16210 16213 16216 16219 16222 16225 16228 16231 16234 16237 16240 16243 16246 16249 16252 16255 16258 16261 16264 16267 16270 16273 16276 16278 16281 16284 16286 16289 16292 16295 16297 16300 16302 16305 16307 16309 16312 16314 16317 16319 16322 16325 16328 16330 16333 16336 16339 16342 16345 16348 16350 16353 16356 16359 16362 16365 16367 16370 16373 16375 16378 16381 16384 16387 16390 16392 16395 16397 16400 16403 16406 16408 16411 16414 16417 16420 16422 16425 16428 16431 16434 16436 16439 16442 16444 16447 16449 16452 16455 16458 16461 16464 16467 16470 16473 16475 16478 16481 16484 16487 16489 16492 16495 16498 16501 16504 16507 16510 16513 16516 16519 16522 16524 16527 16530 16533 16536 16539 16542 16545 16548 16551 16554 16557 16560 16562 16565 16568 16571 16574 16577 16579 16582 16584 16587 16590 16592 16595 16598 16600 16602 16605 16608 16611 16614 16617 16620 16623 16626 16629 16632 16634 16637 16640 16643 16645 16648 16651 16654 16657 16660 16663 16665 16668 16671 16674 16677 16680 16683 16686 16689 16692 16695 16698 16701 16704 16707 16710 16713 16716 16719 16722 16725 16728 16731 16734 16737 16740 16743 16746 16749 16752 16755 16758 16761 16763 16766 16769 16772 16775 16778 16781 16784 16786 16789 16792 16794 16797 16800 16803 16806 16809 16812 16815 16818 16821 16824 16827 16830 16833 16835 16838 16841 16844 16847 16850 16853 16856 16859 16862 16865 16868 16871 16874 16877 16880 16883 16886 16889 16892 16895 16897 16900 16903 16906 16908 16911 16914 16917 16920 16923 16926 16928 16931 16934 16937 16939 16942 16945 16948 16951 16954 16957 16960 16963 16966 16969 16972 16975 16978 16981 16984 16987 16990 16993 16996 16999 17001 17004 17007 17010 17013 17015 17018 17021 17024 17027 17030 17033 17036 17039 17042 17045 17048 17051 17054 17057 17060 17063 17066 17069 17072 17074 17077 17080 17083 17086 17089 17092 17095 17097 17100 17103 17106 17109 17112 17115 17118 17121 17124 17127 17130 17133 17136 17139 17142 17144 17147 17150 17153 17156 17159 17162 17165 17167 17170 17173 17175 17177 17180 17183 17185 17187 17190 17193 17196 17198 17201 17204 17207 17209 17212 17215 17218 17221 17224 17227 17230 17233 17236 17238 17241 17244 17247 17250 17253 17256 17258 17261 17264 17267 17270 17273 17276 17279 17282 17284 17286 17288 17291 17294 17296 17299 17302 17305 17308 17311 17314 17317 17320 17323 17326 17329 17332 17335 17338 17340 17343 17346 17349 17352 17354 17356 17358 17361 17364 17367 17369 17372 17375 17378 17381 17384 17387 17390 17393 17396 17399 17402 17405 17408 17411 17414 17417 17420 17423 17426 17429 17431 17433 17436 17439 17441 17443 17446 17449 17452 17455 17458 17461 17464 17467 17469 17472 17475 17477 17480 17483 17486 17489 17492 17495 17498 17501 17504 17507 17510 17513 17516 17519 17522 17525 17528 17531 17534 17536 17539 17542 17545 17548 17551 17554 17556 17559 17562 17565 17568 17571 17574 17577 17580 17583 17586 17589 17592 17595 17598 17601 17604 17607 17610 17613 17616 17619 17622 17625 17628 17631 17634 17637 17640 17643 17646 17649 17652 17655 17658 17661 17664 17667 17670 17673 17676 17679 17682 17685 17688 17691 17694 17697 17700 17703 17706 17708 17711 17714 17717 17719 17722 17725 17728 17731 17733 17736 17738 17741 17744 17747 17749 17751 17754 17757 17760 17763 17765 17768 17771 17773 17776 17779 17782 17785 17788 17791 17793 17796 17798 17801 17804 17807 17810 17813 17816 17819 17822 17825 17828 17830 17833 17835 17838 17841 17844 17847 17850 17853 17856 17859 17861 17864 17867 17870 17873 17876 17878 17881 17884 17887 17889 17892 17895 17898 17901 17904 17906 17909 17912 17915 17918 17921 17924 17927 17930 17932 17935 17938 17941 17944 17947 17950 17953 17956 17958 17961 17964 17966 17968 17971 17974 17976 17978 17981 17983 17986 17989 17992 17995 17998 18001 18004 18007 18010 18013 18016 18019 18022 18025 18028 18031 18034 18037 18040 18043 18046 18049 18052 18055 18058 18061 18064 18067 18070 18073 18076 18078 18081 18084 18087 18090 18093 18096 18099 18102 18105 18108 18111 18114 18117 18120 18123 18126 18128 18131 18134 18137 18140 18143 18146 18149 18152 18154 18157 18160 18163 18166 18169 18172 18175 18178 18181 18184 18187 18190 18192 18195 18198 18201 18204 18207 18210 18213 18216 18219 18222 18225 18228 18231 18234 18237 18240 18243 18246 18249 18252 18255 18258 18261 18264 18266 18269 18271 18274 18277 18280 18283 18286 18289 18292 18295 18298 18301 18303 18306 18309 18312 18315 18318 18320 18323 18326 18329 18332 18335 18338 18341 18344 18347 18350 18353 18356 18359 18362 18365 18368 18371 18374 18377 18380 18383 18385 18388 18391 18394 18397 18400 18403 18406 18409 18412 18415 18418 18421 18424 18426 18428 18431 18434 18437 18439 18442 18445 18448 18450 18453 18456 18458 18461 18464 18467 18470 18473 18476 18479 18481 18484 18487 18490 18493 18496 18499 18501 18503 18506 18508 18511 18514 18517 18520 18523 18526 18529 18532 18534 18537 18540 18543 18546 18549 18552 18555 18558 18561 18564 18567 18570 18573 18576 18578 18581 18584 18587 18590 18592 18595 18598 18601 18604 18607 18610 18613 18616 18619 18622 18625 18628 18631 18634 18637 18640 18643 18646 18649 18651 18654 18657 18660 18663 18666 18668 18671 18674 18677 18680 18683 18686 18688 18691 18694 18697 18700 18703 18706 18709 18712 18715 18717 18720 18723 18726 18728 18730 18733 18736 18739 18742 18745 18747 18750 18753 18756 18759 18762 18765 18768 18771 18774 18777 18780 18783 18786 18789 18792 18795 18798 18801 18804 18807 18810 18813 18816 18819 18821 18823 18826 18829 18832 18834 18837 18840 18843 18846 18849 18852 18855 18858 18861 18864 18867 18870 18873 18876 18878 18881 18884 18887 18890 18893 18895 18898 18901 18904 18906 18909 18912 18915 18918 18921 18924 18927 18930 18933 18936 18939 18942 18945 18948 18951 18954 18957 18960 18963 18966 18968 18971 18974 18977 18980 18983 18986 18989 18992 18995 18998 19000 19003 19006 19009 19012 19015 19018 19021 19024 19027 19030 19033 19036 19039 19042 19045 19048 19051 19053 19056 19058 19061 19064 19067 19070 19073 19076 19079 19082 19085 19087 19090 19093 19096 19099 19102 19105 19108 19111 19114 19117 19120 19123 19126 19129 19132 19135 19138 19141 19144 19147 19150 19153 19156 19159 19162 19165 19168 19171 19174 19177 19180 19183 19186 19188 19191 19194 19197 19200 19203 19206 19209 19212 19215 19218 19220 19223 19226 19229 19232 19235 19237 19240 19243 19246 19249 19252 19254 19257 19260 19263 19266 19268 19271 19274 19277 19280 19283 19286 19289 19292 19295 19298 19301 19304 19307 19310 19313 19315 19318 19321 19324 19327 19330 19333 19336 19338 19341 19344 19347 19350 19352 19355 19358 19361 19364 19367 19370 19373 19376 19378 19381 19384 19387 19390 19393 19396 19399 19402 19405 19408 19410 19413 19416 19419 19422 19425 19428 19431 19434 19436 19439 19442 19445 19447 19449 19452 19455 19457 19460 19463 19466 19469 19472 19475 19478 19481 19484 19487 19489 19492 19495 19498 19500 19503 19506 19509 19512 19515 19518 19521 19524 19527 19530 19533 19535 19538 19541 19544 19547 19550 19553 19556 19559 19562 19565 19568 19571 19574 19577 19580 19583 19586 19589 19592 19594 19597 19600 19603 19606 19609 19612 19615 19618 19621 19624 19627 19630 19633 19636 19639 19642 19645 19647 19650 19653 19656 19659 19661 19664 19667 19670 19673 19675 19678 19681 19684 19687 19690 19693 19696 19699 19702 19705 19708 19710 19713 19716 19719 19721 19724 19727 19730 19733 19736 19739 19742 19744 19747 19750 19753 19756 19759 19762 19765 19768 19771 19774 19776 19779 19781 19784 19787 19790 19793 19795 19797 19800 19803 19806 19809 19812 19815 19818 19821 19824 19827 19830 19833 19836 19839 19842 19845 19848 19851 19854 19857 19860 19862 19865 19868 19871 19874 19877 19879 19882 19885 19888 19891 19894 19896 19899 19902 19905 19907 19910 19913 19916 19919 19922 19925 19928 19931 19934 19937 19940 19943 19946 19949 19952 19955 19957 19960 19963 19966 19969 19972 19975 19978 19981 19984 19986 19989 19991 19994 19997 20000 20002 20004 20007 20009 20012 20015 20018 20021 20024 20027 20030 20033 20035 20038 20041 20044 20047 20049 20052 20055 20058 20060 20063 20066 20068 20071 20074 20076 20079 20082 20085 20088 20091 20094 20096 20099 20102 20105 20108 20110 20112 20115 20118 20121 20124 20127 20130 20133 20136 20139 20141 20144 20147 20150 20153 20155 20157 20160 20163 20166 20169 20171 20174 20177 20179 20182 20184 20187 20190 20193 20196 20198 20201 20204 20207 20210 20212 20215 20218 20221 20224 20227 20230 20233 20236 20239 20242 20245 20248 20251 20254 20257 20260 20263 20266 20269 20272 20274 20277 20280 20283 20286 20289 20292 20295 20297 20300 20303 20306 20309 20311 20314 20317 20320 20323 20326 20329 20332 20335 20338 20341 20344 20347 20350 20353 20356 20359 20362 20365 20368 20371 20374 20377 20380 20383 20386 20389 20392 20395 20398 20401 20404 20407 20410 20413 20416 20419 20422 20425 20428 20431 20434 20437 20440 20443 20446 20449 20452 20455 20458 20461 20464 20467 20470 20473 20476 20479 20482 20484 20487 20490 20493 20496 20498 20501 20504 20507 20510 20513 20515 20518 20521 20524 20527 20530 20533 20536 20539 20542 20545 20548 20551 20553 20556 20559 20562 20565 20567 20570 20573 20575 20578 20581 20584 20587 20589 20592 20595 20598 20601 20604 20606 20609 20612 20615 20618 20620 20623 20625 20628 20631 20634 20636 20639 20642 20645 20648 20650 20653 20655 20658 20661 20663 20665 20668 20671 20673 20676 20679 20682 20685 20688 20691 20694 20696 20699 20702 20705 20707 20710 20712 20715 20718 20721 20724 20727 20730 20732 20735 20737 20739 20742 20745 20748 20751 20754 20757 20760 20763 20766 20769 20772 20775 20777 20780 20783 20786 20789 20791 20794 20797 20800 20803 20806 20809 20812 20815 20818 20821 20823 20826 20829 20832 20835 20838 20841 20843 20846 20849 20852 20855 20858 20861 20864 20867 20870 20873 20875 20878 20881 20883 20886 20889 20892 20895 20898 20901 20904 20907 20909 20912 20915 20918 20921 20923 20926 20929 20932 20934 20937 20939 20942 20945 20948 20950 20952 20955 20958 20960 20963 20966 20968 20971 20974 20977 20980 20982 20984 20987 20989 20992 20995 20998 21001 21003 21006 21009 21012 21015 21017 21020 21023 21026 21029 21031 21034 21037 21040 21043 21045 21048 21051 21054 21057 21059 21061 21063 21066 21068 21071 21073 21076 21079 21081 21084 21087 21090 21093 21096 21099 21101 21104 21107 21110 21113 21116 21119 21121 21124 21127 21130 21133 21136 21139 21142 21145 21148 21151 21154 21157 21160 21163 21166 21168 21171 21174 21177 21179 21182 21185 21188 21191 21194 21196 21199 21202 21204 21207 21210 21213 21216 21219 21222 21225 21227 21230 21233 21236 21239 21242 21245 21248 21251 21254 21257 21260 21263 21266 21269 21272 21275 21277 21280 21283 21286 21289 21292 21294 21297 21300 21303 21306 21309 21312 21315 21318 21321 21324 21327 21330 21332 21335 21338 21341 21343 21346 21349 21351 21354 21356 21359 21362 21365 21368 21370 21372 21374 21377 21380 21383 21386 21389 21392 21395 21398 21401 21404 21407 21410 21413 21416 21419 21422 21424 21427 21430 21433 21436 21439 21442 21445 21448 21451 21454 21457 21460 21463 21466 21469 21472 21475 21478 21481 21484 21487 21490 21493 21495 21498 21500 21503 21505 21508 21511 21514 21517 21520 21523 21526 21528 21531 21534 21537 21540 21542 21545 21547 21550 21553 21556 21559 21562 21565 21568 21571 21574 21577 21580 21583 21586 21589 21591 21594 21597 21599 21602 21605 21608 21611 21614 21617 21620 21623 21626 21629 21632 21635 21638 21641 21644 21647 21650 21653 21655 21658 21661 21664 21667 21670 21672 21675 21678 21680 21683 21686 21688 21691 21694 21697 21700 21703 21706 21709 21712 21715 21718 21721 21724 21727 21729 21732 21735 21738 21741 21744 21747 21750 21753 21756 21759 21762 21765 21768 21771 21774 21777 21780 21783 21786 21789 21792 21795 21798 21801 21804 21807 21810 21813 21816 21819 21822 21825 21828 21831 21834 21837 21840 21843 21846 21849 21852 21855 21858 21861 21864 21867 21870 21873 21876 21879 21882 21884 21887 21890 21893 21896 21899 21902 21905 21908 21911 21914 21917 21920 21923 21926 21929 21932 21935 21938 21941 21944 21947 21950 21953 21956 21959 21962 21965 21968 21971 21974 21977 21980 21983 21986 21989 21992 21995 21998 22001 22004 22007 22009 22012 22015 22017 22020 22023 22025 22028 22031 22034 22037 22040 22042 22045 22048 22051 22054 22056 22059 22061 22064 22067 22070 22073 22076 22078 22081 22084 22087 22090 22093 22096 22099 22102 22105 22108 22111 22114 22117 22120 22123 22126 22129 22132 22135 22138 22141 22144 22147 22150 22153 22156 22159 22162 22165 22168 22171 22174 22177 22179 22182 22184 22187 22190 22192 22195 22198 22201 22204 22207 22209 22212 22215 22218 22221 22224 22227 22229 22232 22235 22238 22241 22244 22247 22250 22253 22256 22259 22262 22264 22267 22269 22272 22275 22278 22280 22283 22286 22289 22292 22294 22297 22300 22302 22305 22308 22311 22314 22317 22320 22323 22325 22328 22331 22334 22336 22339 22342 22345 22348 22351 22353 22356 22359 22362 22365 22368 22371 22374 22377 22380 22383 22386 22389 22392 22395 22398 22401 22404 22407 22410 22413 22416 22419 22422 22425 22428 22431 22434 22437 22440 22443 22446 22448 22451 22454 22456 22459 22462 22465 22468 22470 22473 22476 22478 22480 22483 22486 22489 22491 22494 22497 22500 22503 22506 22509 22511 22514 22517 22520 22523 22526 22529 22532 22535 22538 22541 22544 22547 22550 22553 22556 22559 22562 22565 22568 22571 22574 22577 22580 22583 22586 22589 22591 22593 22596 22599 22602 22605 22608 22610 22613 22616 22618 22621 22624 22627 22630 22633 22635 22638 22641 22644 22646 22649 22652 22655 22658 22661 22664 22667 22670 22673 22676 22679 22682 22685 22688 22691 22693 22696 22698 22701 22704 22707 22710 22713 22716 22718 22721 22724 22726 22729 22732 22735 22738 22741 22744 22747 22750 22753 22756 22759 22762 22765 22768 22771 22774 22777 22780 22783 22786 22789 22792 22795 22798 22801 22804 22806 22809 22812 22814 22817 22820 22823 22826 22828 22831 22834 22837 22840 22843 22846 22849 22852 22855 22858 22861 22864 22867 22870 22873 22876 22879 22882 22885 22888 22891 22894 22897 22900 22903 22906 22909 22912 22915 22918 22921 22924 22927 22930 22933 22936 22939 22942 22945 22948 22950 22953 22956 22959 22962 22964 22967 22970 22972 22975 22977 22980 22983 22986 22989 22992 22995 22998 23000 23003 23006 23009 23012 23015 23018 23021 23024 23027 23029 23032 23035 23038 23041 23044 23047 23050 23052 23055 23058 23061 23064 23066 23069 23072 23075 23078 23081 23084 23087 23090 23093 23096 23098 23101 23104 23107 23110 23113 23116 23119 23122 23125 23128 23131 23133 23136 23138 23141 23144 23147 23150 23153 23156 23159 23162 23165 23168 23171 23174 23177 23180 23183 23186 23189 23192 23195 23198 23201 23204 23207 23210 23212 23215 23218 23221 23224 23227 23230 23232 23235 23237 23240 23243 23246 23248 23251 23254 23257 23259 23262 23265 23268 23271 23274 23277 23280 23283 23285 23288 23291 23294 23296 23299 23302 23304 23307 23310 23313 23316 23319 23322 23325 23328 23331 23334 23337 23340 23342 23345 23348 23351 23353 23356 23359 23362 23365 23368 23371 23374 23376 23379 23382 23385 23388 23391 23394 23397 23400 23403 23406 23408 23411 23414 23417 23420 23423 23425 23427 23430 23432 23435 23438 23441 23443 23446 23449 23452 23455 23458 23461 23464 23467 23470 23472 23475 23478 23481 23484 23487 23489 23492 23495 23498 23501 23504 23507 23510 23513 23515 23518 23521 23524 23526 23529 23532 23534 23537 23540 23543 23545 23548 23551 23554 23557 23560 23563 23566 23569 23572 23575 23578 23581 23584 23587 23590 23593 23596 23599 23602 23604 23607 23610 23612 23615 23618 23621 23624 23627 23630 23633 23636 23639 23642 23645 23648 23651 23654 23657 23660 23663 23666 23668 23671 23674 23677 23680 23682 23685 23688 23691 23694 23697 23700 23703 23706 23709 23712 23714 23717 23720 23723 23726 23729 23732 23734 23737 23740 23743 23746 23749 23752 23755 23758 23761 23764 23767 23770 23773 23776 23779 23782 23785 23788 23791 23794 23797 23799 23802 23805 23808 23811 23814 23817 23819 23822 23825 23827 23830 23832 23835 23838 23840 23843 23845 23848 23851 23854 23856 23859 23862 23864 23866 23869 23872 23875 23877 23880 23883 23886 23888 23891 23894 23896 23899 23902 23905 23907 23910 23913 23916 23919 23922 23925 23928 23931 23934 23937 23940 23943 23946 23949 23952 23955 23958 23961 23964 23967 23970 23973 23976 23979 23981 23984 23986 23989 23992 23995 23997 24000 24003 24005 24008 24011 24014 24017 24020 24023 24026 24029 24032 24035 24038 24040 24043 24046 24049 24052 24054 24056 24059 24062 24064 24067 24070 24073 24076 24078 24081 24084 24087 24090 24093 24096 24099 24101 24104 24107 24109 24112 24115 24118 24120 24123 24126 24129 24131 24134 24137 24140 24143 24146 24149 24152 24155 24158 24161 24164 24167 24170 24173 24176 24179 24182 24185 24188 24190 24193 24196 24199 24202 24204 24207 24210 24212 24215 24218 24221 24223 24226 24229 24231 24234 24237 24239 24242 24245 24247 24250 24253 24256 24259 24262 24265 24268 24271 24274 24277 24280 24283 24286 24289 24292 24295 24298 24300 24302 24304 24307 24309 24311 24314 24317 24320 24322 24325 24328 24331 24334 24337 24339 24342 24344 24347 24350 24353 24356 24358 24361 24364 24367 24370 24373 24376 24379 24382 24385 24388 24391 24394 24397 24400 24403 24406 24409 24412 24414 24417 24420 24423 24426 24428 24431 24434 24436 24439 24442 24445 24448 24451 24454 24457 24459 24461 24464 24467 24470 24472 24475 24477 24480 24483 24486 24489 24492 24495 24498 24501 24504 24507 24509 24512 24515 24518 24521 24524 24527 24530 24533 24536 24539 24541 24544 24547 24550 24553 24555 24558 24561 24564 24567 24569 24572 24575 24578 24581 24583 24586 24589 24592 24594 24597 24600 24603 24605 24607 24610 24612 24615 24617 24620 24623 24626 24629 24632 24635 24638 24641 24643 24646 24649 24651 24654 24657 24660 24662 24665 24668 24671 24673 24676 24679 24682 24685 24688 24691 24694 24697 24700 24703 24706 24708 24711 24714 24717 24719 24722 24725 24728 24730 24733 24736 24739 24741 24744 24747 24750 24753 24756 24759 24762 24765 24768 24771 24774 24776 24779 24782 24785 24788 24790 24793 24796 24799 24802 24805 24808 24811 24813 24816 24819 24822 24825 24828 24831 24833 24836 24839 24842 24845 24848 24851 24854 24857 24860 24863 24865 24868 24871 24873 24876 24879 24882 24885 24888 24891 24893 24896 24898 24901 24904 24907 24910 24912 24915 24918 24921 24924 24927 24929 24932 24935 24938 24941 24944 24947 24950 24953 24956 24959 24962 24965 24968 24971 24973 24976 24979 24982 24985 24988 24991 24994 24997 25000 25003 25006 25009 25012 25015 25018 25021 25024 25027 25030 25033 25036 25039 25042 25045 25048 25050 25052 25055 25058 25061 25064 25066 25068 25071 25074 25077 25080 25082 25085 25088 25091 25094 25097 25100 25103 25106 25109 25112 25115 25118 25121 25124 25127 25129 25132 25135 25137 25140 25143 25146 25149 25152 25155 25158 25161 25164 25167 25170 25173 25176 25179 25182 25185 25188 25191 25194 25196 25199 25202 25205 25208 25211 25214 25217 25220 25223 25226 25228 25231 25234 25237 25240 25243 25246 25249 25251 25254 25257 25260 25263 25266 25269 25271 25274 25277 25280 25282 25285 25288 25291 25294 25297 25300 25303 25306 25308 25311 25314 25317 25320 25323 25326 25329 25332 25335 25338 25341 25344 25347 25350 25353 25356 25359 25362 25365 25368 25371 25374 25377 25380 25383 25386 25389 25391 25394 25397 25400 25403 25406 25409 25412 25414 25417 25420 25423 25426 25428 25431 25434 25437 25440 25443 25446 25449 25452 25454 25457 25460 25462 25465 25468 25471 25473 25476 25479 25482 25484 25487 25490 25493 25495 25498 25501 25504 25507 25510 25513 25516 25519 25522 25525 25528 25531 25534 25537 25540 25543 25546 25549 25552 25555 25558 25561 25564 25567 25570 25573 25576 25579 25582 25585 25588 25591 25594 25597 25600 25602 25605 25608 25611 25613 25616 25619 25621 25624 25627 25630 25633 25635 25638 25640 25643 25645 25648 25651 25654 25657 25660 25663 25665 25668 25671 25674 25676 25678 25681 25683 25686 25688 25691 25693 25696 25698 25700 25703 25706 25709 25711 25713 25716 25718 25721 25723 25726 25728 25730 25733 25736 25739 25742 25745 25748 25751 25754 25757 25760 25763 25766 25769 25772 25774 25776 25779 25781 25784 25787 25790 25793 25796 25799 25802 25804 25807 25810 25813 25816 25819 25822 25825 25828 25831 25834 25837 25840 25843 25846 25849 25852 25855 25858 25861 25864 25867 25870 25873 25876 25879 25882 25885 25888 25891 25894 25896 25899 25902 25904 25907 25910 25913 25915 25917 25920 25923 25926 25929 25932 25935 25938 25941 25944 25947 25950 25953 25956 25959 25962 25964 25967 25970 25973 25976 25979 25982 25985 25988 25991 25994 25997 26000 26003 26006 26009 26011 26014 26016 26019 26022 26024 26027 26030 26033 26035 26038 26041 26044 26047 26050 26053 26056 26059 26062 26065 26068 26070 26073 26076 26079 26082 26084 26087 26090 26093 26096 26099 26101 26104 26107 26110 26113 26116 26119 26122 26125 26128 26131 26133 26136 26139 26141 26144 26147 26150 26153 26156 26159 26161 26164 26167 26170 26173 26175 26178 26181 26184 26186 26189 26192 26195 26197 26200 26203 26205 26208 26211 26214 26216 26219 26222 26225 26228 26231 26233 26236 26239 26242 26245 26248 26251 26254 26257 26260 26263 26266 26269 26272 26275 26278 26280 26283 26286 26288 26291 26293 26295 26298 26301 26304 26306 26308 26311 26314 26317 26319 26322 26325 26328 26331 26334 26336 26338 26341 26343 26345 26348 26351 26354 26357 26360 26363 26365 26368 26371 26374 26377 26380 26383 26386 26389 26391 26394 26397 26400 26403 26405 26408 26411 26414 26417 26420 26422 26425 26427 26430 26433 26436 26438 26441 26444 26447 26450 26453 26456 26459 26462 26464 26467 26470 26473 26476 26479 26482 26485 26488 26490 26493 26496 26499 26502 26505 26508 26511 26514 26517 26520 26523 26526 26529 26532 26535 26538 26541 26544 26547 26550 26553 26556 26559 26562 26565 26568 26571 26574 26577 26580 26583 26586 26589 26592 26595 26598 26601 26604 26607 26610 26613 26616 26619 26622 26625 26628 26631 26634 26637 26640 26643 26646 26649 26652 26655 26658 26661 26664 26667 26670 26673 26676 26679 26682 26685 26688 26691 26694 26697 26700 26703 26706 26709 26712 26715 26718 26721 26724 26727 26730 26733 26736 26739 26742 26745 26748 26751 26754 26757 26760 26763 26766 26769 26772 26775 26778 26781 26784 26787 26790 26793 26796 26799 26802 26805 26808 26811 26814 26817 26820 26823 26826 26829 26832 26835 26838 26841 26844 26846 26849 26852 26855 26858 26861 26863 26865 26868 26871 26874 26877 26880 26883 26886 26888 26890 26893 26896 26899 26902 26905 26908 26910 26913 26916 26918 26921 26924 26927 26930 26933 26936 26939 26942 26945 26948 26951 26954 26957 26959 26962 26965 26968 26971 26973 26975 26978 26981 26984 26987 26990 26993 26995 26998 27000 27003 27006 27009 27012 27015 27018 27020 27023 27026 27029 27032 27035 27037 27040 27043 27046 27049 27051 27054 27057 27060 27063 27066 27069 27072 27075 27078 27081 27084 27087 27090 27093 27096 27099 27102 27105 27108 27111 27114 27117 27119 27122 27125 27128 27131 27134 27137 27140 27143 27146 27149 27152 27155 27158 27161 27164 27167 27170 27173 27176 27179 27182 27185 27188 27191 27194 27197 27200 27203 27206 27209 27212 27215 27218 27221 27224 27227 27230 27233 27236 27239 27242 27245 27248 27251 27254 27257 27260 27263 27266 27269 27272 27275 27278 27281 27284 27287 27289 27292 27295 27298 27300 27303 27306 27309 27312 27315 27317 27320 27323 27326 27329 27332 27334 27337 27339 27342 27345 27348 27351 27354 27357 27359 27362 27365 27368 27371 27374 27377 27380 27383 27386 27389 27391 27394 27397 27400 27403 27406 27409 27412 27415 27418 27421 27424 27427 27430 27433 27436 27439 27442 27444 27447 27450 27453 27456 27459 27462 27465 27467 27470 27473 27476 27479 27482 27485 27488 27490 27493 27496 27498 27501 27504 27507 27510 27513 27516 27518 27521 27524 27527 27530 27533 27536 27539 27542 27545 27548 27551 27554 27557 27560 27563 27566 27569 27572 27575 27578 27581 27584 27587 27590 27593 27596 27599 27602 27605 27608 27611 27614 27617 27620 27623 27626 27629 27632 27635 27638 27641 27644 27647 27649 27652 27655 27658 27661 27664 27667 27669 27672 27675 27678 27681 27683 27686 27689 27692 27695 27698 27700 27703 27706 27709 27712 27715 27718 27721 27723 27726 27729 27732 27735 27738 27740 27743 27746 27749 27752 27755 27758 27761 27764 27767 27770 27773 27776 27779 27782 27785 27788 27791 27794 27797 27800 27803 27805 27808 27811 27814 27816 27819 27822 27825 27828 27831 27833 27836 27839 27842 27845 27848 27851 27854 27857 27860 27863 27866 27868 27871 27874 27877 27879 27882 27884 27887 27890 27893 27895 27898 27901 27903 27906 27909 27912 27915 27918 27921 27924 27927 27930 27933 27936 27939 27942 27945 27948 27950 27953 27956 27959 27962 27965 27967 27970 27972 27975 27978 27980 27983 27986 27989 27992 27995 27998 28001 28004 28007 28010 28013 28015 28018 28021 28024 28027 28030 28033 28036 28039 28042 28045 28048 28051 28054 28057 28060 28063 28066 28069 28072 28075 28078 28081 28084 28087 28090 28093 28096 28099 28102 28105 28108 28111 28114 28117 28120 28123 28125 28128 28131 28134 28137 28140 28143 28146 28149 28152 28155 28157 28160 28163 28166 28169 28172 28175 28178 28181 28184 28187 28190 28193 28196 28199 28202 28205 28208 28210 28213 28216 28219 28222 28225 28228 28231 28234 28237 28240 28243 28246 28249 28252 28255 28258 28261 28263 28266 28269 28272 28275 28278 28281 28283 28286 28289 28292 28295 28298 28300 28303 28306 28309 28312 28315 28318 28321 28324 28327 28330 28333 28336 28339 28341 28344 28347 28350 28352 28355 28358 28361 28364 28367 28369 28372 28374 28377 28380 28383 28386 28389 28392 28395 28398 28401 28404 28407 28410 28413 28415 28418 28421 28424 28427 28430 28433 28436 28439 28442 28445 28448 28451 28453 28456 28458 28461 28464 28467 28470 28473 28476 28479 28482 28485 28488 28491 28494 28497 28500 28503 28506 28509 28512 28515 28518 28521 28524 28527 28530 28533 28536 28539 28542 28545 28548 28551 28554 28557 28560 28562 28565 28568 28571 28574 28577 28579 28582 28585 28588 28591 28594 28596 28599 28602 28605 28608 28611 28614 28617 28620 28623 28625 28628 28631 28634 28637 28640 28643 28646 28649 28652 28655 28658 28661 28663 28666 28669 28672 28675 28678 28681 28684 28687 28690 28692 28695 28698 28701 28704 28707 28710 28713 28716 28719 28722 28725 28728 28731 28734 28737 28740 28743 28746 28749 28752 28755 28758 28761 28764 28767 28770 28773 28776 28779 28782 28785 28788 28791 28794 28797 28800 28803 28806 28809 28812 28815 28818 28821 28824 28827 28830 28833 28836 28839 28842 28845 28848 28851 28854 28857 28860 28863 28866 28869 28872 28875 28878 28881 28884 28887 28890 28893 28896 28899 28902 28905 28908 28911 28914 28917 28920 28923 28926 28929 28932 28935 28938 28941 28944 28947 28950 28953 28956 28959 28962 28965 28968 28971 28974 28977 28980 28983 28986 28989 28992 28995 28997 29000 29003 29006 29009 29012 29015 29018 29021 29024 29027 29030 29033 29036 29039 29041 29044 29046 29049 29052 29055 29058 29061 29064 29067 29070 29073 29076 29079 29082 29085 29088 29091 29094 29096 29099 29102 29105 29108 29111 29114 29117 29120 29123 29126 29129 29132 29135 29138 29141 29143 29146 29149 29152 29155 29158 29161 29163 29166 29169 29172 29175 29178 29181 29184 29187 29190 29193 29196 29199 29201 29204 29207 29210 29213 29216 29219 29222 29224 29227 29230 29233 29236 29238 29241 29244 29246 29249 29251 29254 29257 29260 29263 29265 29268 29271 29274 29277 29280 29282 29285 29288 29291 29294 29297 29300 29303 29306 29309 29312 29315 29318 29321 29324 29327 29330 29333 29336 29339 29342 29344 29347 29350 29353 29356 29359 29362 29364 29367 29370 29373 29376 29378 29381 29384 29387 29390 29393 29396 29399 
</DataArray>
<DataArray type="UInt32" Name="types" format="ascii">
5 5 5 5 5 5 5 5 5 5 3 5 3 5 5 5 5 5 5 5 3 5 3 5 5 5 5 3 5 5 5 5 5 5 5 5 5 5 5 5 5 5 5 5 5 5 5 5 5 5 5 5 5 5 5 5 5 5 3 5 5 5 3 5 5 5 5 5 5 5 5 5 5 5 5 5 5 5 5 5 5 3 5 5 5 5 5 5 5 5 5 5 5 3 3 5 5 5 5 5 5 5 5 5 5 5 5 5 5 5 3 5 5 5 5 5 5 3 5 5 5 5 5 5 5 5 5 5 5 5 5 5 5 3 5 5 5 5 5 5 5 5 5 5 5 5 5 3 5 5 5 5 3 5 5 3 5 3 3 5 5 5 5 5 3 5 5 5 5 5 5 5 5 5 5 5 5 5 5 3 5 5 5 5 5 5 5 3 5 5 3 5 5 5 5 5 5 5 5 5 5 5 5 5 5 5 5 5 5 5 3 5 5 5 5 3 5 5 5 5 5 5 5 5 3 5 5 5 3 5 5 5 5 5 5 5 5 5 5 5 3 5 3 5 5 5 5 5 5 5 3 5 3 5 5 5 3 5 3 5 5 5 5 5 5 3 5 5 5 5 5 3 5 5 3 5 5 5 5 5 5 5 3 5 5 5 5 5 5 5 5 5 5 5 5 5 5 5 5 5 5 5 5 3 5 5 3 5 5 5 5 5 5 5 5 5 5 5 5 5 5 5 5 5 5 5 5 5 5 5 5 5 5 5 5 5 5 5 5 5 5 5 5 5 5 5 5 5 5 5 5 5 5 5 5 5 5 5 5 5 5 5 5 5 5 5 5 5 5 5 3 5 5 5 5 5 5 5 5 5 3 3 5 5 3 5 5 5 3 5 5 5 5 5 5 3 5 5 5 5 5 5 5 5 5 5 5 5 5 5 5 5 5 3 5 3 5 5 5 5 5 5 5 3 3 5 5 5 5 3 5 5 5 5 5 5 3 5 5 5 5 5 5 5 5 5 5 5 5 3 5 5 5 5 3 5 5 5 5 5 5 5 5 5 5 5 5 5 3 5 3 5 5 5 5 5 5 5 5 5 5 5 5 5 5 3 5 5 5 5 5 5 5 5 5 5 5 5 5 5 5 5 5 5 5 5 5 5 5 5 5 5 5 5 5 5 5 5 5 5 5 5 5 5 5 5 5 5 3 5 5 5 5 5 3 5 5 3 5 5 3 5 5 5 3 5 5 3 5 5 5 5 5 5 5 5 5 5 5 5 5 5 5 5 5 5 5 5 3 3 5 5 5 5 3 5 5 5 3 5 5 5 5 3 5 5 3 5 5 3 5 5 5 3 5 5 5 5 5 5 5 5 5 5 5 5 5 5 5 5 5 5 5 5 5 5 5 5 5 5 5 5 3 5 3 5 3 5 5 5 5 3 5 5 5 5 5 5 3 5 5 5 3 5 5 3 3 5 5 5 5 3 5 5 5 3 5 5 5 3 5 3 5 5 5 5 3 5 5 5 5 5 5 5 5 3 5 5 5 5 5 3 5 5 5 5 5 5 5 5 5 5 5 5 3 5 5 5 5 5 5 5 5 5 5 5 5 5 5 3 5 5 3 5 5 5 5 5 3 5 5 3 5 5 5 5 5 5 3 5 5 5 5 5 5 3 5 5 3 5 5 3 3 5 5 3 5 5 3 5 3 3 3 5 5 5 5 5 3 5 5 5 3 5 3 5 5 3 5 5 5 5 5 5 5 5 5 5 5 5 5 5 5 3 5 3 5 5 3 5 5 3 5 3 5 5 5 5 5 3 3 5 5 5 5 3 5 5 5 5 5 5 5 5 5 3 5 5 5 5 5 5 5 3 5 5 3 5 5 5 3 3 5 5 3 5 5 5 3 5 3 5 5 5 3 5 5 3 5 5 5 5 5 5 5 5 5 3 5 5 5 5 5 5 5 5 5 5 5 5 5 5 5 5 3 5 3 5 5 5 5 5 5 5 5 5 5 5 5 5 5 5 5 5 5 5 5 5 5 3 3 5 5 5 5 5 5 5 5 5 5 5 5 5 5 5 5 5 5 5 3 5 5 5 5 5 5 5 5 5 5 5 5 5 5 5 5 5 5 5 5 5 5 5 5 5 5 5 5 5 5 3 5 5 5 3 3 5 5 5 5 5 5 5 5 5 5 5 5 5 3 5 5 5 5 5 5 5 3 5 5 5 5 5 5 5 5 5 5 5 5 3 5 5 5 5 5 5 5 5 5 5 5 3 5 5 5 5 5 5 5 5 5 5 5 5 5 5 3 5 5 5 5 5 5 5 5 5 5 3 3 5 5 5 5 5 5 3 5 5 5 5 5 5 5 5 5 5 5 5 3 5 5 5 5 5 5 5 3 5 5 5 5 5 5 5 5 5 5 5 5 3 5 5 5 5 5 5 5 5 5 5 5 5 5 3 5 5 5 5 5 5 5 5 5 5 5 5 5 5 5 5 5 3 5 5 5 5 5 5 5 5 5 5 5 5 5 5 5 5 5 5 5 5 5 5 5 5 5 5 5 5 5 5 5 5 5 5 5 5 5 5 5 5 5 5 5 5 5 5 5 5 5 5 5 5 5 5 5 5 5 5 5 5 3 5 5 5 5 5 5 5 5 5 5 5 3 5 5 5 3 5 5 5 5 3 5 5 5 5 5 5 3 5 5 5 5 5 3 5 3 5 5 3 5 5 5 5 5 5 5 5 5 5 5 5 5 5 3 5 5 5 5 5 5 3 5 5 5 5 5 3 5 5 5 5 3 5 3 5 5 5 5 5 5 3 3 5 5 3 3 3 5 5 5 3 5 5 3 5 3 5 5 5 3 5 5 5 3 5 5 5 5 3 5 5 5 5 5 5 5 5 5 5 5 5 5 5 5 5 5 5 5 5 5 5 5 5 5 5 5 5 5 5 5 5 5 5 5 5 5 5 5 5 5 5 3 5 5 5 5 5 5 5 5 3 3 3 5 5 5 5 3 5 5 3 5 5 5 5 5 3 5 5 3 5 5 5 5 5 3 5 3 5 5 3 5 5 5 5 5 5 5 5 5 5 5 5 5 5 3 3 3 5 5 3 5 5 5 5 5 3 3 5 5 5 5 3 5 3 5 5 5 3 3 5 5 5 5 3 3 5 5 5 5 5 5 5 5 5 5 5 5 5 5 5 5 5 5 5 3 5 5 5 5 5 5 5 5 5 5 5 5 5 5 5 3 5 3 5 5 5 5 5 5 3 5 3 5 5 5 5 3 5 3 3 5 3 5 5 5 5 5 5 5 3 5 5 5 5 5 3 3 5 3 5 5 5 5 5 5 5 5 5 5 5 5 5 5 5 5 5 5 5 3 5 5 5 5 5 5 5 5 5 5 5 5 5 5 5 5 5 5 5 5 5 5 5 5 5 5 5 3 5 5 3 5 5 5 3 5 5 5 5 5 3 5 5 3 5 5 5 5 5 5 5 5 5 5 5 5 5 5 5 5 5 5 5 5 5 5 5 5 5 5 5 5 3 5 5 5 3 5 5 5 3 3 5 5 5 3 5 5 5 5 5 5 5 5 5 5 3 5 3 5 5 5 5 5 5 3 5 3 5 3 5 5 5 5 5 3 3 5 5 5 5 5 5 5 5 5 5 5 5 5 5 5 5 5 5 5 5 5 5 5 5 5 5 5 5 5 3 5 5 5 3 5 5 5 5 5 5 5 5 5 5 5 5 5 5 3 5 5 5 3 5 5 5 5 5 5 5 5 5 5 5 5 5 5 5 3 5 5 5 5 5 5 5 5 5 5 5 5 5 5 5 5 5 5 5 5 5 5 5 5 5 5 5 3 5 5 5 5 5 5 5 5 5 5 5 5 5 5 5 3 5 3 5 5 5 3 3 3 5 5 5 5 5 5 5 5 5 5 5 5 5 5 5 5 5 5 5 5 5 5 5 5 5 5 5 3 5 5 5 5 5 5 5 5 3 5 5 5 3 5 5 5 3 5 5 5 5 5 5 5 5 3 3 5 5 5 3 5 5 5 5 3 5 5 3 5 5 3 5 3 5 5 5 5 5 5 5 5 5 5 5 5 5 5 3 5 5 3 5 3 3 5 5 5 3 5 5 5 5 5 3 3 5 3 5 5 3 5 5 5 5 5 5 5 5 5 5 5 5 5 3 3 5 5 5 5 5 5 5 5 3 5 5 5 5 5 3 5 5 5 5 3 5 5 5 5 5 5 5 3 3 5 5 5 5 5 5 5 5 5 3 5 5 5 3 5 5 5 5 5 5 5 5 5 5 5 5 5 5 5 5 5 5 5 5 3 5 5 5 5 5 3 5 3 5 5 5 5 5 5 5 5 5 3 5 5 5 5 5 5 5 3 5 5 3 5 5 5 3 5 5 3 5 5 5 5 5 5 5 5 5 5 5 5 5 5 5 5 5 5 5 5 5 5 5 5 5 5 5 5 5 3 5 5 5 5 5 5 5 5 5 5 5 5 5 5 5 5 5 5 5 5 5 5 5 5 5 5 5 5 5 5 5 3 5 5 5 5 5 5 5 5 5 5 5 5 5 5 5 5 5 5 5 5 5 5 5 5 3 5 5 5 5 5 5 5 5 5 3 5 5 5 3 5 5 3 5 5 3 5 5 5 3 5 5 5 5 3 5 5 5 5 5 5 5 5 5 3 5 3 5 5 5 5 3 5 5 5 3 5 3 5 5 5 5 5 5 5 5 5 5 5 5 5 5 5 5 5 5 5 5 5 5 5 5 5 5 5 5 5 5 5 5 5 5 5 3 3 5 5 5 5 5 5 5 5 5 5 5 5 3 5 5 5 5 5 5 5 3 3 5 5 5 5 3 5 5 5 5 5 5 5 5 5 5 5 5 5 5 5 5 3 5 5 5 5 3 5 5 3 5 3 5 5 5 3 5 3 5 5 5 5 5 5 5 3 5 5 5 3 5 5 5 5 5 5 5 5 5 5 5 5 5 3 5 3 5 5 3 5 5 5 5 5 5 5 5 5 5 5 5 3 5 5 5 5 5 5 5 5 5 5 5 5 5 5 5 5 5 5 5 3 5 5 5 5 5 5 3 5 5 5 3 5 5 5 5 5 5 5 5 5 5 5 5 5 5 5 5 5 5 5 3 5 5 5 5 5 5 5 5 5 5 5 5 5 5 5 5 5 5 5 5 5 5 5 5 3 5 5 5 5 5 5 3 5 5 5 5 3 5 5 5 5 3 3 3 5 5 5 5 5 5 3 5 5 5 3 5 5 5 5 3 5 5 3 3 5 5 5 5 3 5 5 3 5 5 5 5 5 5 5 5 5 5 5 5 5 5 3 5 3 5 3 5 3 5 5 5 5 5 5 3 5 5 5 5 3 5 5 5 5 5 3 5 3 5 5 5 5 5 5 5 5 5 3 5 5 5 5 5 5 5 5 5 5 5 5 5 5 5 5 3 5 5 5 5 5 5 5 5 5 5 5 5 5 5 5 5 5 5 5 5 5 5 5 5 5 3 5 5 3 5 5 5 5 3 5 3 5 5 5 5 5 5 5 5 5 5 5 5 3 5 5 5 3 5 5 5 5 3 5 5 5 5 5 5 5 5 3 5 5 5 5 5 5 5 5 5 5 5 5 5 5 5 5 5 5 5 5 5 5 5 5 5 5 5 5 5 5 5 5 3 5 5 3 5 5 5 5 5 5 5 5 5 5 5 5 3 5 3 5 5 5 3 5 5 5 5 3 3 5 3 3 5 5 3 5 5 5 5 5 5 5 5 5 5 5 5 3 5 5 5 5 5 5 5 5 5 5 5 5 5 5 5 3 5 5 5 5 5 3 5 5 3 5 3 5 5 5 5 5 5 5 5 5 5 5 3 5 5 5 5 3 5 5 3 5 5 5 5 5 5 3 5 3 3 5 5 5 3 3 5 5 5 5 5 3 5 5 5 5 5 5 5 5 5 5 5 5 5 3 5 3 5 5 5 5 5 5 5 3 5 5 3 5 5 5 5 5 5 3 5 3 5 5 5 5 5 5 5 5 3 5 5 5 3 5 5 5 5 5 5 5 5 5 5 5 5 3 5 5 5 3 5 3 5 5 5 5 5 3 3 5 5 5 5 5 5 5 5 5 5 5 5 5 5 5 5 5 5 5 5 5 5 5 5 5 5 5 5 5 5 5 5 5 5 5 5 5 5 5 5 5 5 5 5 5 5 5 5 3 5 3 5 5 5 5 5 5 3 5 5 5 5 5 5 5 5 5 5 5 5 5 5 5 5 5 5 5 5 5 5 5 5 5 5 5 3 5 5 5 5 3 5 5 3 3 5 5 5 5 3 5 5 3 5 5 3 5 5 5 5 5 5 5 5 5 3 5 5 5 5 5 5 5 5 5 5 5 5 5 5 5 5 5 5 5 5 5 5 5 5 5 3 5 5 5 5 3 5 3 5 5 5 5 5 5 5 5 5 5 5 5 5 3 5 3 5 5 5 5 5 5 5 5 5 5 5 5 5 5 5 5 5 5 5 5 5 5 3 5 5 5 5 5 5 5 5 5 5 5 5 5 5 5 5 5 5 5 5 5 5 5 5 5 5 3 5 5 5 5 5 5 5 5 5 5 5 5 5 5 5 5 5 5 5 5 5 5 5 5 5 5 5 5 5 5 3 5 5 5 5 5 5 5 5 5 5 5 5 5 5 5 5 5 5 5 3 5 5 5 5 5 5 5 5 5 5 5 5 5 5 5 5 5 5 5 5 5 5 5 5 3 5 3 5 5 5 5 5 5 5 5 5 5 5 5 5 3 5 5 3 5 3 5 3 5 5 5 5 5 5 5 5 5 5 5 3 5 5 5 5 5 3 5 5 3 5 5 5 5 5 5 3 5 5 5 3 5 5 5 5 5 5 5 5 3 5 5 5 5 5 5 5 5 5 5 3 5 5 5 5 5 3 5 5 5 3 5 5 5 3 5 5 5 3 3 5 5 5 3 5 5 3 5 5 3 5 5 5 5 5 5 5 5 5 5 3 5 5 3 5 5 5 5 3 5 3 5 5 5 5 3 5 5 5 5 5 5 5 3 5 5 5 5 3 5 5 3 5 5 3 5 5 5 5 5 5 5 5 5 5 5 5 5 5 5 5 5 5 5 5 5 5 3 5 5 5 5 3 5 5 5 5 5 5 3 5 5 5 5 5 5 5 5 3 5 3 5 5 5 5 5 5 5 5 5 5 5 5 5 5 5 5 5 5 5 5 5 3 5 5 5 5 5 5 5 3 5 5 5 3 5 5 3 3 5 5 5 5 5 5 5 5 5 3 5 5 5 5 5 5 5 5 5 5 5 5 5 5 5 5 5 5 5 5 5 5 5 5 5 5 5 5 5 5 3 5 5 5 5 5 5 5 5 5 5 3 5 5 5 5 5 5 5 5 5 5 5 5 5 3 5 5 5 5 5 5 5 5 5 5 5 5 3 5 3 5 5 5 3 3 5 5 5 5 5 5 5 5 3 5 5 5 3 5 5 5 5 5 5 5 5 5 5 5 5 5 5 5 5 5 5 5 5 5 5 3 3 5 5 5 5 5 3 5 5 5 5 5 5 3 5 5 5 5 5 5 5 5 5 5 5 5 5 5 5 5 5 5 5 5 5 5 5 5 5 5 5 5 5 5 5 5 5 3 5 5 5 5 5 5 5 5 5 5 5 5 3 5 5 3 5 5 3 5 3 5 5 5 3 3 5 5 5 5 5 5 3 5 5 5 5 5 5 5 3 3 5 3 5 5 5 3 5 5 5 5 5 5 5 5 5 5 5 3 3 5 5 5 5 5 3 5 5 5 5 5 5 5 5 3 3 5 5 5 5 3 5 5 5 3 5 5 5 5 5 5 5 3 5 5 5 5 5 5 5 5 5 5 5 3 5 5 3 5 5 3 5 3 5 5 3 5 3 5 3 5 5 3 5 5 3 5 5 5 5 3 5 5 5 5 3 5 5 5 5 5 3 5 5 5 5 5 5 5 5 3 5 5 5 5 5 5 5 5 3 5 5 5 5 5 5 5 5 5 5 5 5 5 5 5 5 5 5 5 5 3 5 5 5 5 5 5 5 5 5 5 5 3 5 5 5 5 5 5 5 5 5 5 5 5 5 3 5 5 5 5 5 3 5 5 3 5 5 5 5 5 5 3 5 5 3 5 3 5 5 3 3 5 5 5 5 5 5 5 5 5 5 5 5 5 5 5 3 5 5 5 5 5 5 5 5 5 5 5 5 5 5 5 5 5 5 5 5 3 5 5 5 5 5 5 5 5 5 5 5 5 5 5 5 5 5 3 5 5 5 5 5 5 5 5 5 5 5 3 5 5 5 5 5 5 5 5 5 5 5 5 5 5 3 5 5 5 5 5 5 3 5 5 5 5 5 5 5 5 5 5 5 5 5 5 5 5 5 5 5 5 5 5 5 5 5 5 5 5 5 5 5 5 5 5 5 5 5 5 5 5 5 5 5 5 5 5 5 5 5 5 3 5 5 5 5 3 5 3 5 5 5 5 5 3 5 5 5 5 5 5 5 5 5 5 5 5 5 5 5 5 5 5 3 5 5 5 5 3 5 5 5 5 3 5 5 3 3 5 3 5 5 5 5 5 3 5 5 3 5 5 5 5 5 5 5 5 5 5 5 5 5 5 5 5 5 5 3 5 5 5 5 5 5 5 5 5 5 5 5 5 3 5 5 3 3 5 5 5 3 5 3 5 3 3 5 5 5 5 3 5 5 5 3 5 5 5 5 5 5 5 5 5 5 5 5 5 5 5 5 5 5 5 3 3 5 5 3 5 3 5 3 5 5 5 5 5 5 5 5 5 5 5 5 5 3 3 5 5 5 3 5 5 3 5 5 5 3 5 5 5 5 5 3 5 5 5 5 3 3 5 5 5 5 5 5 5 5 5 5 5 3 5 5 5 5 5 5 5 5 5 5 5 5 5 5 5 5 5 5 5 3 5 5 5 5 3 5 5 5 5 3 3 5 5 5 5 5 5 3 5 5 5 5 5 5 3 5 5 5 5 3 3 5 5 5 5 5 5 5 5 3 5 5 5 5 5 3 5 5 5 5 3 5 5 5 5 5 5 5 5 5 5 5 5 5 5 5 5 5 5 5 5 5 5 5 5 5 5 5 5 5 5 5 5 5 5 5 5 3 5 5 5 3 5 3 5 5 5 3 5 5 5 3 5 5 5 5 5 5 3 5 5 5 5 5 5 5 5 5 5 5 5 5 5 5 5 5 5 5 5 5 5 5 5 5 5 5 5 5 5 5 5 5 5 5 5 5 5 5 5 5 5 5 5 5 5 5 5 5 5 5 5 5 5 5 5 5 5 5 5 5 5 5 5 5 5 5 5 5 5 5 5 5 5 5 5 5 5 5 5 5 5 5 5 5 5 5 5 5 5 5 5 5 5 5 5 5 5 5 5 5 5 5 3 5 5 5 5 5 3 5 5 5 5 5 5 5 5 5 5 5 5 5 5 5 5 5 5 5 5 5 5 5 5 5 5 3 5 5 5 3 5 5 5 5 5 3 5 5 5 5 5 5 5 5 5 5 5 5 5 5 5 5 5 5 5 5 5 3 5 5 5 3 5 5 3 5 5 5 5 3 5 5 5 5 5 5 5 5 5 5 5 5 3 5 3 5 5 5 5 5 5 5 5 5 5 5 5 5 5 3 5 5 5 5 5 5 5 3 5 5 3 5 5 5 5 5 5 5 5 5 5 5 5 5 5 5 5 5 5 3 3 5 5 5 5 5 5 5 5 5 5 5 5 5 5 5 5 5 5 5 5 3 5 3 5 5 5 5 5 5 5 5 3 5 5 5 5 5 5 3 5 5 3 5 5 5 5 5 5 3 3 3 3 5 5 3 5 5 5 5 5 5 5 5 5 5 5 5 5 5 5 5 5 5 5 3 5 5 5 5 5 5 5 5 5 5 5 5 5 5 5 5 5 5 5 5 5 5 5 5 5 5 3 3 3 5 5 5 3 5 5 5 5 5 5 5 5 5 5 5 5 5 5 5 5 5 5 5 5 5 5 5 5 5 5 5 5 5 5 5 5 5 5 5 5 5 5 5 3 5 5 5 5 3 3 5 3 5 5 3 5 5 3 5 5 5 5 5 5 3 5 5 5 5 5 5 5 3 5 3 5 3 3 5 5 5 5 5 5 5 5 5 5 5 5 3 5 5 5 5 5 5 5 5 5 5 5 3 5 5 5 5 5 5 5 5 5 5 5 5 5 5 5 5 3 5 5 5 5 5 5 5 5 5 5 5 3 5 5 5 5 5 5 3 5 5 3 3 5 5 3 5 5 5 5 5 3 5 5 5 3 5 3 5 5 5 5 3 5 5 5 3 5 5 3 5 5 5 5 5 5 3 5 5 5 5 5 3 5 3 5 5 3 3 5 5 5 5 5 5 3 5 5 5 5 5 5 5 5 5 5 5 5 5 5 5 5 3 5 5 5 5 5 3 5 5 3 5 5 5 5 3 5 5 5 5 3 5 5 5 5 5 5 5 5 3 5 5 5 5 5 5 3 5 5 3 5 5 5 3 5 5 5 3 3 5 5 5 5 5 5 5 5 3 5 5 3 5 5 5 5 5 5 5 5 5 5 3 5 5 5 5 5 5 5 3 5 5 5 5 3 5 5 5 3 5 5 5 5 3 3 3 5 3 5 3 5 5 5 3 5 3 5 3 3 3 3 5 5 5 5 3 5 3 5 5 5 3 5 3 5 3 5 5 3 5 5 5 5 5 5 3 5 5 5 5 5 5 5 5 5 5 5 5 5 5 5 5 3 5 5 5 3 5 3 3 5 5 3 5 5 3 5 5 5 5 5 5 5 3 5 5 5 5 5 5 5 3 5 5 5 3 3 5 5 5 5 5 5 5 3 5 3 3 5 3 3 5 3 3 5 5 5 3 5 5 5 5 5 5 5 5 5 5 5 5 5 5 5 5 3 5 5 3 5 5 5 5 5 5 5 5 5 5 5 5 5 5 5 5 5 5 5 5 5 5 5 5 5 5 5 5 5 5 5 5 5 5 5 5 5 5 5 5 5 5 5 5 3 5 5 3 5 5 5 5 5 5 5 5 5 5 5 5 5 5 5 5 5 5 5 5 5 5 5 5 5 5 5 3 3 5 3 5 5 5 5 5 5 5 5 5 5 5 5 5 5 5 5 5 5 5 5 5 5 5 5 5 5 5 3 5 5 5 5 5 5 3 5 3 5 5 3 5 5 5 5 5 5 5 5 5 5 5 5 5 5 5 3 5 5 5 5 5 5 5 5 5 5 5 5 5 5 5 5 5 5 5 5 5 5 5 5 5 5 5 5 5 5 5 5 5 5 5 5 5 5 5 5 5 5 5 5 5 5 5 5 5 5 5 5 5 5 5 5 5 5 5 5 5 5 5 5 5 5 5 3 5 5 3 5 5 3 3 5 3 5 3 5 5 5 5 5 5 3 5 5 5 5 5 5 5 5 3 5 5 5 3 5 5 5 5 5 5 5 5 5 5 5 3 3 5 5 5 5 5 3 3 5 5 5 5 5 5 5 5 5 3 5 5 5 3 5 3 5 5 5 5 5 5 5 5 5 5 5 5 5 5 5 5 5 5 5 5 3 5 5 5 5 5 5 5 5 5 5 5 3 5 5 5 5 5 5 3 3 5 5 5 3 5 5 5 5 5 5 3 5 5 5 5 5 5 5 5 5 5 5 5 5 5 5 5 5 5 5 5 5 5 5 5 5 5 5 5 3 5 5 5 5 5 5 3 5 5 5 5 5 5 5 5 5 5 5 5 5 5 5 5 5 5 5 5 5 5 5 5 5 5 5 5 5 5 5 5 5 5 5 5 5 5 5 5 5 5 5 3 5 3 5 5 5 5 3 5 5 3 5 5 5 5 5 5 5 5 5 3 5 5 3 3 3 5 5 5 3 5 5 5 5 5 5 5 5 5 5 5 5 3 5 5 5 3 3 3 5 5 5 3 5 3 5 5 5 5 5 3 5 5 5 5 5 5 3 5 5 5 5 5 5 5 5 5 5 5 5 5 5 5 3 3 5 5 3 5 5 5 5 5 5 3 5 5 5 5 5 3 5 5 5 5 5 3 5 5 5 5 3 5 5 3 5 5 5 5 3 5 5 5 5 5 5 5 5 3 5 5 5 5 5 5 3 5 5 5 5 5 5 3 5 5 5 5 3 5 5 5 3 3 5 5 5 3 5 3 3 3 5 5 5 5 5 5 5 5 5 5 5 5 5 5 5 5 5 5 3 3 5 5 5 3 3 5 5 5 3 5 5 5 5 5 5 5 5 5 5 5 5 5 5 5 5 5 5 5 5 5 5 5 5 5 5 5 5 5 3 5 5 5 5 5 5 5 3 5 5 5 5 5 3 5 3 5 5 5 3 5 5 3 5 5 5 5 3 5 5 5 5 5 5 5 3 3 5 5 5 5 3 5 3 5 5 5 3 5 5 5 5 3 5 5 5 5 3 5 3 3 5 5 5 5 3 5 3 3 3 3 3 5 5 5 3 5 5 3 3 5 5 3 5 5 5 5 5 3 3 5 5 5 3 5 5 3 5 5 5 5 5 5 5 5 5 5 5 5 5 5 5 5 5 5 5 5 5 5 5 5 3 5 5 5 5 5 3 5 3 5 5 5 5 5 3 5 5 5 5 5 5 5 5 5 5 5 5 5 5 5 5 5 5 5 5 5 5 5 5 5 5 5 5 5 5 5 5 5 5 5 5 5 5 3 5 5 3 5 5 5 3 5 3 5 3 3 5 3 5 3 5 5 5 3 5 5 5 5 5 5 3 5 5 5 5 5 3 5 5 3 5 5 5 5 5 3 5 3 5 5 5 3 5 5 5 5 3 5 5 5 5 3 5 5 3 5 3 5 5 5 5 5 5 5 5 3 5 5 5 5 3 5 5 5 5 5 5 5 5 5 5 5 3 5 5 5 5 5 5 5 5 5 5 5 5 3 5 5 5 5 5 3 5 3 5 5 3 5 5 3 3 5 5 5 5 5 5 5 5 5 5 3 5 5 5 3 5 5 5 5 5 5 3 5 5 5 5 5 5 5 5 5 5 5 5 5 5 5 5 5 5 5 5 5 5 5 5 5 5 5 5 5 5 5 5 3 5 5 5 5 5 5 5 3 5 5 3 5 5 5 5 5 5 5 5 5 5 5 5 5 3 5 5 5 5 5 5 5 5 5 5 5 5 5 5 5 5 5 5 5 5 3 5 5 5 3 5 5 5 5 5 5 3 5 5 5 3 5 5 5 5 5 5 5 5 5 5 5 5 5 5 5 5 5 5 5 5 3 5 5 5 5 3 5 5 5 5 5 5 5 5 5 5 5 5 5 5 5 5 5 5 5 3 5 5 5 5 5 5 5 3 5 5 5 5 5 5 5 5 5 5 5 5 5 5 5 3 5 5 5 5 5 5 5 3 5 5 3 3 5 5 3 3 5 5 5 3 5 5 5 3 5 5 5 5 5 5 5 5 5 3 5 5 5 5 5 5 3 5 5 5 5 5 5 5 5 3 3 3 5 5 3 5 5 5 5 5 5 5 5 5 5 5 5 5 5 3 5 5 5 5 3 3 3 5 5 5 3 5 5 5 5 5 5 5 5 5 5 5 5 5 5 5 5 5 5 5 5 3 3 5 5 3 3 5 5 5 5 5 5 5 5 3 5 5 3 5 5 5 5 5 5 5 5 5 5 5 5 5 5 5 5 5 5 5 3 5 5 5 5 5 5 3 5 5 5 5 5 5 5 5 5 5 5 5 5 5 5 5 5 5 5 5 5 5 5 5 5 5 5 5 5 5 5 5 5 5 5 5 5 5 5 5 5 5 5 5 5 5 5 5 5 5 3 5 5 5 3 5 5 5 5 3 5 3 5 5 5 3 3 5 5 5 5 3 5 5 3 5 5 5 5 5 5 3 5 3 5 5 5 5 5 5 5 5 5 5 3 5 3 5 5 5 5 5 5 5 5 3 5 5 5 5 5 3 5 5 5 3 5 5 5 5 5 3 5 5 5 5 5 5 5 5 3 5 5 5 5 5 5 5 5 3 5 5 3 3 5 5 3 3 5 3 5 5 5 5 5 5 5 5 5 5 5 5 5 5 5 5 5 5 5 5 5 5 5 5 5 5 5 5 5 5 5 3 5 5 5 5 5 5 5 5 5 5 5 5 5 5 5 5 3 5 5 5 5 5 5 5 5 3 5 5 5 5 5 5 5 5 5 5 5 5 3 5 5 5 5 5 5 5 5 5 5 5 5 5 5 5 5 5 5 5 5 5 5 5 5 3 5 3 5 5 5 5 5 5 5 5 5 5 3 5 5 5 5 5 3 5 5 5 5 5 5 5 5 5 5 5 5 5 5 5 5 5 5 5 5 5 3 5 5 5 5 5 5 5 5 5 5 5 5 5 3 3 5 5 5 3 5 5 5 3 5 5 3 5 5 5 5 5 5 5 3 5 5 5 5 5 5 3 3 5 3 5 5 5 5 5 5 5 5 3 5 5 5 5 5 5 5 5 5 5 5 5 5 5 3 5 5 5 5 3 5 5 5 5 5 5 5 5 5 5 5 5 5 5 5 5 5 5 5 3 5 5 5 5 5 3 5 5 5 5 5 5 3 5 5 5 5 5 5 5 5 5 3 5 5 5 3 3 5 5 5 5 5 3 5 5 5 5 5 5 5 5 5 5 5 5 5 5 5 5 5 5 5 5 5 5 5 5 3 3 5 5 5 3 5 5 5 5 5 5 5 5 5 5 5 5 5 5 3 5 5 5 5 5 3 5 5 5 3 5 5 5 5 5 5 5 5 5 5 5 5 5 5 5 5 5 5 5 5 3 5 5 5 5 5 5 5 5 5 5 3 5 5 5 5 5 5 5 5 5 5 5 5 5 5 5 5 5 3 5 3 5 5 5 5 5 5 5 5 5 3 5 5 5 5 5 5 5 5 5 5 5 5 5 5 5 5 5 5 5 5 5 5 5 5 5 5 5 5 5 5 5 5 5 3 5 5 5 5 5 5 5 5 5 5 3 5 5 5 5 5 3 5 5 5 5 5 3 5 5 5 5 3 5 5 5 5 5 5 5 5 5 5 5 5 5 5 5 3 5 5 5 5 5 5 5 3 5 5 5 5 3 5 5 5 5 5 5 5 5 3 5 5 5 5 5 5 5 5 5 5 3 5 5 5 5 5 5 5 5 3 5 5 5 3 3 5 5 3 5 5 5 5 5 5 5 5 5 5 3 5 5 5 3 5 5 5 5 5 5 5 5 5 5 5 3 5 5 5 5 5 5 5 5 5 5 5 5 5 5 5 5 5 5 5 3 5 5 5 5 5 5 5 5 5 5 5 5 5 5 5 5 5 3 5 5 5 5 3 5 5 5 5 3 5 5 5 5 5 5 5 5 5 5 5 3 5 5 5 3 5 5 5 5 5 5 5 3 5 5 5 5 5 5 5 5 5 5 3 5 3 5 5 5 5 3 3 5 5 5 5 5 5 5 5 5 5 5 5 5 5 5 5 5 5 5 5 5 3 5 5 5 5 5 3 5 5 5 5 5 3 5 5 5 3 5 5 5 5 5 5 5 5 5 5 5 5 5 5 5 5 3 5 5 5 5 5 5 5 5 5 3 5 3 5 5 5 3 3 5 3 5 5 5 5 5 5 5 5 3 5 5 5 5 3 5 5 5 3 5 5 3 5 5 3 5 5 5 5 5 5 3 5 5 5 5 3 3 5 5 5 5 5 5 5 5 5 3 5 5 5 5 3 3 5 5 5 5 3 5 5 3 5 3 5 5 5 5 3 5 5 5 5 3 5 5 5 5 5 5 5 5 5 5 5 5 5 5 5 5 5 5 5 5 3 5 5 5 5 5 5 5 3 5 5 5 5 3 5 5 5 5 5 5 5 5 5 5 5 5 5 5 5 5 5 5 5 5 5 5 5 5 5 5 5 5 5 5 5 5 5 5 5 5 5 5 5 5 5 5 5 5 5 5 5 5 5 5 5 5 5 5 5 5 5 3 5 5 5 5 3 5 5 5 5 5 3 5 5 5 5 5 5 5 5 5 5 5 5 3 5 5 5 5 3 5 5 3 5 5 5 5 3 5 5 5 5 5 3 5 5 5 5 3 5 3 5 5 5 3 5 5 5 5 3 5 3 5 5 3 3 5 5 3 5 5 5 5 5 5 5 3 5 5 5 3 5 3 5 5 5 5 5 5 3 5 3 3 5 5 5 5 5 5 5 5 5 5 5 5 3 5 5 5 5 3 5 5 5 5 5 5 5 5 5 5 3 5 5 5 5 5 5 3 5 5 5 5 5 5 5 5 5 5 3 5 5 3 5 5 5 5 5 5 5 5 3 5 5 5 5 3 5 5 5 3 5 3 5 5 5 3 3 5 5 3 5 5 3 5 5 5 5 3 3 5 3 5 5 5 5 3 5 5 5 5 3 5 5 5 5 3 5 5 5 5 3 5 5 5 5 3 3 3 5 3 5 3 5 5 3 5 5 5 5 5 5 3 5 5 5 5 5 5 3 5 5 5 5 5 5 5 5 5 5 5 5 5 5 5 3 5 5 5 3 5 5 5 5 5 3 5 5 3 5 5 5 5 5 5 5 3 5 5 5 5 5 5 5 5 5 5 5 5 5 5 5 5 3 5 5 5 5 5 3 5 5 5 5 5 5 5 5 5 5 5 5 3 5 5 5 3 5 5 3 5 3 5 5 5 5 3 3 3 5 5 5 5 5 5 5 5 5 5 5 5 5 5 5 5 3 5 5 5 5 5 5 5 5 5 5 5 5 5 5 5 5 5 5 5 5 5 5 5 3 5 3 5 3 5 5 5 5 5 5 5 3 5 5 5 5 3 5 3 5 5 5 5 5 5 5 5 5 5 5 5 5 5 3 5 5 3 5 5 5 5 5 5 5 5 5 5 5 5 5 5 5 5 5 5 3 5 5 5 5 5 3 5 5 3 5 5 3 5 5 5 5 5 5 5 5 5 5 5 5 5 3 5 5 5 5 5 5 5 5 5 5 5 5 5 5 5 5 5 5 5 5 5 5 5 5 5 5 5 5 5 5 5 5 5 5 5 5 5 5 5 5 5 5 5 5 5 5 5 5 5 5 5 3 5 5 5 5 5 5 5 5 5 5 5 5 5 5 5 5 5 5 5 5 5 5 5 5 5 5 5 5 5 5 5 5 5 5 5 5 5 5 5 5 5 3 5 5 3 5 5 3 5 5 5 5 5 3 5 5 5 5 3 5 3 5 5 5 5 5 3 5 5 5 5 5 5 5 5 5 5 5 5 5 5 5 5 5 5 5 5 5 5 5 5 5 5 5 5 5 5 5 5 5 3 5 3 5 5 3 5 5 5 5 5 3 5 5 5 5 5 5 3 5 5 5 5 5 5 5 5 5 5 5 3 5 3 5 5 5 3 5 5 5 5 3 5 5 3 5 5 5 5 5 5 5 3 5 5 5 3 5 5 5 5 5 3 5 5 5 5 5 5 5 5 5 5 5 5 5 5 5 5 5 5 5 5 5 5 5 5 5 5 5 5 5 5 5 3 5 5 3 5 5 5 5 3 5 5 3 3 5 5 5 3 5 5 5 5 5 5 3 5 5 5 5 5 5 5 5 5 5 5 5 5 5 5 5 5 5 5 5 5 5 5 5 5 5 3 3 5 5 5 5 5 3 5 5 3 5 5 5 5 5 3 5 5 5 3 5 5 5 5 5 5 5 5 5 5 5 5 5 5 5 3 5 3 5 5 5 5 5 5 3 5 5 3 5 5 5 5 5 5 5 5 5 5 5 5 5 5 5 5 5 5 5 5 5 5 5 5 5 5 3 5 5 3 5 5 5 5 3 5 5 5 5 5 5 5 5 5 5 5 5 5 5 5 5 5 5 5 5 5 5 5 5 5 5 5 5 5 5 5 5 5 5 5 5 5 5 5 5 3 5 5 5 5 3 5 5 3 5 3 5 5 5 5 5 5 5 3 5 5 5 5 5 5 5 5 5 3 5 5 5 5 5 5 5 3 5 5 5 5 3 5 5 5 5 5 5 5 5 5 5 3 5 5 5 5 5 5 5 5 5 5 5 3 5 3 5 5 5 5 5 5 5 5 5 5 5 5 5 5 5 5 5 5 5 5 5 5 5 5 3 5 5 5 5 5 5 3 5 3 5 5 5 3 5 5 5 3 5 5 5 5 5 5 5 5 3 5 5 5 3 5 5 3 5 5 5 5 5 5 5 5 5 5 5 5 3 5 5 5 3 5 5 5 5 5 5 5 3 5 5 5 5 5 5 5 5 5 5 3 5 5 5 5 5 3 3 5 3 5 5 5 3 5 5 5 5 5 5 5 5 5 3 5 5 5 5 5 3 5 5 5 5 5 5 5 5 3 5 5 5 3 5 5 3 5 5 5 3 5 5 5 5 5 5 5 5 5 5 5 5 5 5 5 5 5 5 5 3 5 5 3 5 5 5 5 5 5 5 5 5 5 5 5 5 5 5 5 5 5 3 5 5 5 5 3 5 5 5 5 5 5 5 5 5 5 3 5 5 5 5 5 5 3 5 5 5 5 5 5 5 5 5 5 5 5 5 5 5 5 5 5 5 5 5 3 5 5 5 5 5 5 3 5 5 3 5 3 5 5 3 5 3 5 5 5 3 5 5 3 3 5 5 5 3 5 5 5 3 5 5 3 5 5 5 3 5 5 5 5 5 5 5 5 5 5 5 5 5 5 5 5 5 5 5 5 5 5 5 5 3 5 3 5 5 5 3 5 5 3 5 5 5 5 5 5 5 5 5 5 5 3 5 5 5 5 3 3 5 5 3 5 5 5 5 3 5 5 5 5 5 5 5 3 5 5 3 5 5 5 3 5 5 5 3 5 5 5 5 5 5 5 5 5 5 5 5 5 5 5 5 5 5 5 3 5 5 5 5 3 5 5 3 5 5 5 3 5 5 3 5 5 3 5 5 3 5 5 5 5 5 5 5 5 5 5 5 5 5 5 5 5 5 3 3 3 5 3 3 5 5 5 3 5 5 5 5 5 3 5 3 5 5 5 5 3 5 5 5 5 5 5 5 5 5 5 5 5 5 5 5 5 5 5 3 5 5 5 5 3 5 5 3 5 5 5 5 5 5 5 3 3 5 5 5 3 5 3 5 5 5 5 5 5 5 5 5 5 3 5 5 5 5 5 5 5 5 5 5 3 5 5 5 5 3 5 5 5 5 3 5 5 5 5 3 5 5 5 3 5 5 5 3 3 5 3 5 3 5 5 5 5 5 5 5 5 3 5 5 3 5 5 5 3 5 5 5 3 5 5 5 5 5 5 5 5 5 5 5 3 5 5 5 3 5 5 5 3 5 5 5 3 5 5 5 5 5 5 5 5 5 5 5 3 5 5 5 5 3 5 5 5 5 5 5 5 3 5 5 5 5 5 5 3 5 5 5 5 5 5 5 5 5 5 3 5 5 3 5 5 5 5 5 5 3 5 3 5 5 5 5 3 5 5 5 5 5 3 5 5 5 5 5 5 5 5 5 5 5 5 5 5 3 5 5 5 5 5 5 5 5 5 5 5 5 5 5 5 5 5 5 5 5 5 5 5 5 5 3 3 5 5 5 5 3 3 5 5 5 5 3 5 5 5 5 5 5 5 5 5 5 5 5 5 5 5 3 5 5 3 5 5 5 5 5 5 5 5 5 5 5 5 5 5 5 5 5 5 5 3 5 5 5 5 5 5 5 5 5 5 3 5 5 5 5 5 5 5 3 5 5 5 5 5 5 3 5 5 5 3 5 5 5 5 5 5 5 5 3 5 5 5 5 5 5 5 5 5 5 5 5 5 5 5 5 5 5 5 5 5 5 5 5 5 5 5 3 5 5 5 5 5 5 5 3 5 5 5 5 3 5 5 5 5 5 5 5 5 3 5 5 3 5 5 5 3 5 5 5 3 5 5 5 3 5 5 5 5 5 5 5 5 5 5 5 5 5 5 5 5 5 5 5 5 5 5 5 5 5 5 5 5 5 5 5 5 5 5 5 3 5 5 5 3 5 5 3 5 5 5 5 3 5 3 5 3 5 5 5 5 5 5 3 5 5 5 3 3 5 3 5 3 5 3 5 3 3 5 5 5 3 3 5 3 5 3 5 3 3 5 5 5 5 5 5 5 5 5 5 5 5 5 5 3 3 5 3 5 5 5 5 5 5 5 3 5 5 5 5 5 5 5 5 5 5 5 5 5 5 5 5 5 5 5 5 5 5 5 5 5 5 5 5 5 5 3 5 5 3 5 5 5 3 3 5 5 5 5 5 5 5 5 5 5 5 5 5 5 5 3 5 5 5 5 5 5 5 5 5 5 5 5 5 5 5 3 5 3 5 5 3 5 5 5 3 5 5 5 5 5 5 5 5 5 5 5 3 5 5 5 5 3 5 5 5 5 5 3 5 5 5 5 5 5 5 5 5 5 3 5 5 3 5 5 5 5 5 5 3 5 5 5 5 3 5 5 5 3 5 5 5 3 5 5 3 5 5 5 3 5 5 5 5 5 3 5 5 5 5 5 5 5 5 5 5 5 5 5 5 5 3 5 5 3 5 3 3 5 5 5 3 3 5 5 5 3 5 5 5 5 5 3 3 5 3 3 5 5 5 5 5 5 3 5 5 5 5 5 5 5 5 3 5 5 5 5 3 5 5 5 5 5 3 5 3 5 5 5 3 5 5 5 5 5 5 5 5 3 5 5 5 5 5 5 5 5 3 5 5 5 5 5 5 5 5 5 5 5 5 5 5 5 5 5 5 5 5 5 5 5 5 5 5 5 5 5 5 5 5 5 5 5 5 5 5 5 5 5 5 5 5 5 5 5 5 5 5 5 5 5 5 5 5 5 5 5 5 5 5 5 5 5 5 5 5 5 5 5 5 5 5 5 5 5 5 5 5 5 5 5 5 5 5 5 5 5 5 5 5 5 5 5 5 5 5 5 5 5 5 5 5 5 5 5 5 5 5 5 5 5 5 5 5 5 5 3 5 5 5 5 5 3 3 5 5 5 5 5 5 5 3 3 5 5 5 5 5 5 3 5 5 3 5 5 5 5 5 5 5 5 5 5 5 5 5 3 5 5 5 5 3 3 5 5 5 5 5 5 3 5 3 5 5 5 5 5 5 3 5 5 5 5 5 3 5 5 5 5 3 5 5 5 5 5 5 5 5 5 5 5 5 5 5 5 5 5 5 5 5 5 5 3 5 5 5 5 5 5 5 5 5 5 5 5 5 5 5 5 5 5 5 5 5 5 5 5 5 5 5 5 5 5 5 5 5 5 5 5 5 5 5 5 5 5 5 5 5 5 5 5 5 5 5 5 5 5 5 5 3 5 5 5 3 5 5 5 5 5 3 5 5 5 5 5 3 5 3 5 5 5 5 5 5 3 5 5 5 5 5 5 5 5 5 5 3 5 5 5 5 5 5 5 5 5 5 5 5 5 5 5 5 5 3 5 5 5 5 5 5 5 3 5 5 5 5 5 5 5 3 5 5 3 5 5 5 5 5 5 3 5 5 5 5 5 5 5 5 5 5 5 5 5 5 5 5 5 5 5 5 5 5 5 5 5 5 5 5 5 5 5 5 5 5 5 5 5 5 5 5 5 5 5 3 5 5 5 5 5 5 3 5 5 5 5 3 5 5 5 5 5 3 5 5 5 5 5 5 5 3 5 5 5 5 5 3 5 5 5 5 5 5 5 5 5 5 5 5 5 5 5 5 5 5 5 5 5 3 5 5 5 3 5 5 5 5 5 3 5 5 5 5 5 5 5 5 5 5 5 3 5 5 5 3 5 3 5 5 5 3 5 5 3 5 5 5 5 5 5 5 5 5 5 5 5 5 5 5 3 5 5 5 5 5 3 5 3 5 5 3 5 5 5 5 5 5 5 5 5 5 5 3 5 5 5 5 5 5 5 5 5 5 5 5 5 5 5 5 5 5 5 5 5 5 5 5 5 5 5 5 5 5 5 5 5 5 5 5 3 5 5 5 5 5 5 5 5 5 5 3 5 5 5 5 5 5 5 5 5 5 5 5 5 5 5 5 5 3 5 5 5 5 5 5 5 5 5 5 5 5 5 5 5 5 5 3 5 5 5 5 5 5 3 5 5 5 5 5 3 5 5 5 5 5 5 5 5 5 5 5 5 5 3 5 5 5 3 5 5 5 5 5 3 5 3 5 5 5 5 5 5 5 5 5 5 5 5 5 3 5 5 5 5 5 5 5 5 5 5 5 5 3 5 3 5 5 5 5 5 5 5 5 5 5 5 5 5 5 5 5 5 5 5 5 5 5 5 5 5 5 5 5 5 5 5 5 5 5 3 5 5 5 5 5 3 5 5 5 5 5 3 5 5 5 5 5 5 5 5 5 3 5 5 5 5 5 5 5 5 5 5 5 5 3 5 5 5 5 5 5 5 5 5 3 5 5 5 5 5 5 5 5 5 5 5 5 5 5 5 5 5 5 5 5 5 5 5 5 5 5 5 5 5 5 5 5 5 5 5 5 5 5 5 5 5 5 5 5 5 5 5 5 5 5 5 5 5 5 5 5 5 5 5 5 5 5 5 5 5 5 5 5 5 5 5 5 5 5 5 5 5 5 5 5 5 5 5 5 5 5 5 5 5 5 5 5 5 5 5 5 5 5 5 5 5 3 5 5 5 5 5 5 5 5 5 5 5 5 5 5 3 5 3 5 5 5 5 5 5 5 5 5 5 5 5 5 5 5 5 3 5 5 5 5 5 5 5 5 5 5 5 5 5 5 5 3 5 5 5 5 5 5 3 5 5 5 5 5 5 5 5 5 5 5 5 3 5 5 5 5 5 5 5 3 5 5 5 5 3 5 5 3 5 3 5 5 5 5 3 5 5 5 5 5 3 5 5 5 5 5 5 5 5 5 5 5 5 5 5 5 5 5 5 5 5 3 5 5 5 5 5 5 3 5 5 5 5 3 5 5 5 5 5 5 5 
</DataArray>
</Cells>
<PointData Scalars="" Vectors="displacement," Tensors="">
<DataArray type="Float64" Name="displacement" NumberOfComponents="3" format="ascii">
1.6022383662930131e-07 0.0049995818855205938 0 -2.5433023813499308e-06 0.0046406240647522161 0 -2.6494929892321747e-07 0.0043219568564852101 0 1.6022383662930131e-07 0.0049995818855205938 0 2.4514973888169334e-05 0.0049198599151196046 0 -4.3521376402802489e-09 0.0050000085189928862 0 1.6022383662930131e-07 0.0049995818855205938 0 2.4514973888169334e-05 0.0049198599151196046 0 -2.5433023813499308e-06 0.0046406240647522161 0 2.4514973888169334e-05 0.0049198599151196046 0 1.1095559083089581e-05 0.0049213567906287378 0 7.3583983042596464e-06 0.0048495091797982684 0 2.4514973888169334e-05 0.0049198599151196046 0 1.7537285164509266e-05 0.0049580044625156024 0 -4.3521376402802489e-09 0.0050000085189928862 0 2.4514973888169334e-05 0.0049198599151196046 0 1.1095559083089581e-05 0.0049213567906287378 0 1.7537285164509266e-05 0.0049580044625156024 0 1.7537285164509266e-05 0.0049580044625156024 0 3.5360016989509182e-07 0.0049800099686511919 0 2.3934634206035827e-05 0.004979631072896935 0 1.7537285164509266e-05 0.0049580044625156024 0 -4.3521376402802489e-09 0.0050000085189928862 0 2.3934634206035827e-05 0.004979631072896935 0 3.6237485098238196e-05 0.0039639367005160015 0 0.00018995956320089625 0.0040478266839398137 0 5.0518315379389182e-05 0.0040484115199365643 0 3.6237485098238196e-05 0.0039639367005160015 0 0.00018995956320089625 0.0040478266839398137 0 6.5362491362138981e-05 0.0039443259569403059 0 7.8489288678670215e-05 0.0047104392452235631 0 5.8009539673687469e-06 0.0042363970052682991 0 1.1095559083089581e-05 0.0049213567906287378 0 1.7537285164509266e-05 0.0049580044625156024 0 3.5360016989509182e-07 0.0049800099686511919 0 7.8489288678670215e-05 0.0047104392452235631 0 -3.1760496427779134e-05 0.0047964798284396816 0 1.1095559083089581e-05 0.0049213567906287378 0 3.5360016989509182e-07 0.0049800099686511919 0 -4.7305523466632252e-05 0.0049190806429192995 0 -9.5286971633490444e-06 0.0046575249759657324 0 -1.3314459405958276e-05 0.0046375641924233943 0 -1.954947619170517e-05 0.0046401908356711102 0 1.1095559083089581e-05 0.0049213567906287378 0 -4.7305523466632252e-05 0.0049190806429192995 0 7.3583983042596464e-06 0.0048495091797982684 0 -1.3314459405958276e-05 0.0046375641924233943 0 -1.954947619170517e-05 0.0046401908356711102 0 -2.9726057476032342e-05 0.0046220302581653459 0 6.5362491362138981e-05 0.0039443259569403059 0 9.4983692420003375e-06 0.0039529880735988971 0 -7.0594984414154585e-05 0.0040009467803518535 0 3.6237485098238196e-05 0.0039639367005160015 0 6.5362491362138981e-05 0.0039443259569403059 0 9.4983692420003375e-06 0.0039529880735988971 0 -1.3314459405958276e-05 0.0046375641924233943 0 -2.9726057476032342e-05 0.0046220302581653459 0 -2.5433023813499308e-06 0.0046406240647522161 0 5.8009539673687469e-06 0.0042363970052682991 0 -2.7678321002964676e-05 0.0043307602612283388 0 -4.7305523466632252e-05 0.0049190806429192995 0 7.3583983042596464e-06 0.0048495091797982684 0 -2.5433023813499308e-06 0.0046406240647522161 0 -3.1760496427779134e-05 0.0047964798284396816 0 -8.8575186650842905e-06 0.0046450578689099156 0 2.4514973888169334e-05 0.0049198599151196046 0 7.3583983042596464e-06 0.0048495091797982684 0 -2.5433023813499308e-06 0.0046406240647522161 0 -2.9726057476032342e-05 0.0046220302581653459 0 -2.5433023813499308e-06 0.0046406240647522161 0 -2.6494929892321747e-07 0.0043219568564852101 0 -2.2011073073669746e-07 0.004320482835474984 0 1.8650621744698927e-05 0.0039436499773609565 0 -9.0383433159750705e-06 0.0040222760579487864 0 -7.0594984414154585e-05 0.0040009467803518535 0 -2.2011073073669746e-07 0.004320482835474984 0 -9.0383433159750705e-06 0.0040222760579487864 0 -2.7678321002964676e-05 0.0043307602612283388 0 -1.7086061054417838e-08 0.0043211285949355995 0 -2.2011073073669746e-07 0.004320482835474984 0 1.8650621744698927e-05 0.0039436499773609565 0 1.1858797826800387e-07 0.004053849696304514 0 1.8650621744698927e-05 0.0039436499773609565 0 -9.0383433159750705e-06 0.0040222760579487864 0 7.693721450642036e-06 0.0039414891649033144 0 -7.0594984414154585e-05 0.0040009467803518535 0 -9.0383433159750705e-06 0.0040222760579487864 0 7.693721450642036e-06 0.0039414891649033144 0 9.4983692420003375e-06 0.0039529880735988971 0 -7.0594984414154585e-05 0.0040009467803518535 0 7.693721450642036e-06 0.0039414891649033144 0 -1.2132889447382492e-08 0.0037864478553546127 0 7.5830071816628903e-06 0.0038260609977459905 0 -4.0294948030544278e-06 0.0036516333885248022 0 -1.2132889447382492e-08 0.0037864478553546127 0 1.1858797826800387e-07 0.004053849696304514 0 7.5830071816628903e-06 0.0038260609977459905 0 1.8650621744698927e-05 0.0039436499773609565 0 1.1858797826800387e-07 0.004053849696304514 0 7.5830071816628903e-06 0.0038260609977459905 0 1.8650621744698927e-05 0.0039436499773609565 0 7.5830071816628903e-06 0.0038260609977459905 0 -4.3835270215059854e-06 0.0038399579389129159 0 7.5830071816628903e-06 0.0038260609977459905 0 -1.310490278888001e-05 0.0037410820174917101 0 -4.0294948030544278e-06 0.0036516333885248022 0 7.5830071816628903e-06 0.0038260609977459905 0 -1.310490278888001e-05 0.0037410820174917101 0 -4.3835270215059854e-06 0.0038399579389129159 0 -1.310490278888001e-05 0.0037410820174917101 0 -2.9637833991394998e-05 0.003814415861057316 0 -3.855445191963718e-05 0.0037177830990781039 0 -1.310490278888001e-05 0.0037410820174917101 0 -4.3835270215059854e-06 0.0038399579389129159 0 -2.9637833991394998e-05 0.003814415861057316 0 -4.3835270215059854e-06 0.0038399579389129159 0 -3.3502060526283786e-05 0.0039115655447113729 0 1.2834423358674733e-06 0.0039072690381914714 0 -4.3835270215059854e-06 0.0038399579389129159 0 -3.3502060526283786e-05 0.0039115655447113729 0 -2.9637833991394998e-05 0.003814415861057316 0 -3.3502060526283786e-05 0.0039115655447113729 0 -2.9637833991394998e-05 0.003814415861057316 0 -6.2071394278902681e-05 0.0038628706599880859 0 -2.9637833991394998e-05 0.003814415861057316 0 -6.2071394278902681e-05 0.0038628706599880859 0 -3.855445191963718e-05 0.0037177830990781039 0 7.693721450642036e-06 0.0039414891649033144 0 1.2834423358674733e-06 0.0039072690381914714 0 1.5927832157791485e-05 0.0039559346815516974 0 3.6237485098238196e-05 0.0039639367005160015 0 7.693721450642036e-06 0.0039414891649033144 0 1.5927832157791485e-05 0.0039559346815516974 0 3.6237485098238196e-05 0.0039639367005160015 0 9.4983692420003375e-06 0.0039529880735988971 0 7.693721450642036e-06 0.0039414891649033144 0 1.8650621744698927e-05 0.0039436499773609565 0 -4.3835270215059854e-06 0.0038399579389129159 0 1.2834423358674733e-06 0.0039072690381914714 0 1.8650621744698927e-05 0.0039436499773609565 0 7.693721450642036e-06 0.0039414891649033144 0 1.2834423358674733e-06 0.0039072690381914714 0 -3.3502060526283786e-05 0.0039115655447113729 0 1.2834423358674733e-06 0.0039072690381914714 0 -8.1046964644796133e-06 0.0039762862239546464 0 1.2834423358674733e-06 0.0039072690381914714 0 -8.1046964644796133e-06 0.0039762862239546464 0 1.5927832157791485e-05 0.0039559346815516974 0 -8.1046964644796133e-06 0.0039762862239546464 0 1.5927832157791485e-05 0.0039559346815516974 0 5.0518315379389182e-05 0.0040484115199365643 0 3.6237485098238196e-05 0.0039639367005160015 0 1.5927832157791485e-05 0.0039559346815516974 0 5.0518315379389182e-05 0.0040484115199365643 0 5.0518315379389182e-05 0.0040484115199365643 0 6.68577616565733e-06 0.0041088363069073401 0 7.7537513477841531e-05 0.0042193522064948334 0 -8.1046964644796133e-06 0.0039762862239546464 0 5.0518315379389182e-05 0.0040484115199365643 0 6.68577616565733e-06 0.0041088363069073401 0 -8.1046964644796133e-06 0.0039762862239546464 0 6.68577616565733e-06 0.0041088363069073401 0 -6.8600178515002382e-05 0.0040636941439769715 0 6.68577616565733e-06 0.0041088363069073401 0 -6.8600178515002382e-05 0.0040636941439769715 0 1.748013986798849e-05 0.0043231435857352413 0 0.00010892977318611382 0.0041828415082376964 0 3.4477125496634185e-05 0.0043071939858454434 0 1.748013986798849e-05 0.0043231435857352413 0 1.7265077714811059e-05 0.0041206966907193221 0 3.0100295326937865e-05 0.0042975645284473018 0 1.748013986798849e-05 0.0043231435857352413 0 7.9857466459004565e-05 0.0044524943555403762 0 7.7537513477841531e-05 0.0042193522064948334 0 6.68577616565733e-06 0.0041088363069073401 0 1.748013986798849e-05 0.0043231435857352413 0 7.7537513477841531e-05 0.0042193522064948334 0 3.3066778815505405e-05 0.0038113203517546788 0 5.0986089392859437e-05 0.0041812589410591596 0 -3.5252758709668192e-05 0.0038895833301979079 0 -1.5263092706727301e-05 0.0038340361766095845 0 1.7265077714811059e-05 0.0041206966907193221 0 3.3066778815505405e-05 0.0038113203517546788 0 0.00010892977318611382 0.0041828415082376964 0 5.0986089392859437e-05 0.0041812589410591596 0 -3.3502060526283786e-05 0.0039115655447113729 0 -8.1046964644796133e-06 0.0039762862239546464 0 -6.8600178515002382e-05 0.0040636941439769715 0 -3.3502060526283786e-05 0.0039115655447113729 0 -6.2071394278902681e-05 0.0038628706599880859 0 -6.8600178515002382e-05 0.0040636941439769715 0 0.00010892977318611382 0.0041828415082376964 0 5.0986089392859437e-05 0.0041812589410591596 0 3.4477125496634185e-05 0.0043071939858454434 0 5.0986089392859437e-05 0.0041812589410591596 0 3.4477125496634185e-05 0.0043071939858454434 0 6.5603093294222366e-05 0.004283379444572296 0 5.0986089392859437e-05 0.0041812589410591596 0 6.5603093294222366e-05 0.004283379444572296 0 6.6189494365006613e-05 0.0042267415628813596 0 3.4477125496634185e-05 0.0043071939858454434 0 -2.2904771110011957e-07 0.0043899967200227907 0 -4.5929376237268683e-05 0.004316210115266882 0 3.4477125496634185e-05 0.0043071939858454434 0 6.5603093294222366e-05 0.004283379444572296 0 -4.5929376237268683e-05 0.004316210115266882 0 1.748013986798849e-05 0.0043231435857352413 0 -2.2904771110011957e-07 0.0043899967200227907 0 3.0437473802354159e-05 0.0044727805316659014 0 1.748013986798849e-05 0.0043231435857352413 0 3.0437473802354159e-05 0.0044727805316659014 0 7.9857466459004565e-05 0.0044524943555403762 0 3.4477125496634185e-05 0.0043071939858454434 0 1.748013986798849e-05 0.0043231435857352413 0 -2.2904771110011957e-07 0.0043899967200227907 0 -2.2904771110011957e-07 0.0043899967200227907 0 3.0437473802354159e-05 0.0044727805316659014 0 -3.3467123329741386e-06 0.004478562681880867 0 3.0437473802354159e-05 0.0044727805316659014 0 4.5614711915556556e-05 0.0045810985329565925 0 -3.3467123329741386e-06 0.004478562681880867 0 3.0437473802354159e-05 0.0044727805316659014 0 8.8265949262789287e-05 0.0045997543241454242 0 4.5614711915556556e-05 0.0045810985329565925 0 8.8265949262789287e-05 0.0045997543241454242 0 0.00015103534656108158 0.0047142882919690978 0 8.7776965405575151e-05 0.0046767667436458547 0 3.0437473802354159e-05 0.0044727805316659014 0 8.8265949262789287e-05 0.0045997543241454242 0 7.9857466459004565e-05 0.0044524943555403762 0 8.8265949262789287e-05 0.0045997543241454242 0 7.9857466459004565e-05 0.0044524943555403762 0 0.00015103534656108158 0.0047142882919690978 0 7.9857466459004565e-05 0.0044524943555403762 0 0.00015103534656108158 0.0047142882919690978 0 0.00024573996081432516 0.0042792953710886223 0 0.00016138270251919533 0.0047068702952310108 0 0.00019933792458919444 0.0046055192898594947 0 0.00015103534656108158 0.0047142882919690978 0 5.8366721362657599e-05 0.0049466360310805304 0 0.00015247137810327598 0.0049719263414743867 0 0.00015103534656108158 0.0047142882919690978 0 7.6094589968012899e-05 0.0048002614160054368 0 8.7776965405575151e-05 0.0046767667436458547 0 2.6286261977330595e-05 0.0049133730972946736 0 2.5965655650489992e-05 0.0049208731893959834 0 7.6094589968012899e-05 0.0048002614160054368 0 3.431648041533736e-08 0.0049996865715573853 0 2.6286261977330595e-05 0.0049133730972946736 0 -4.3521376402802489e-09 0.0050000085189928862 0 3.431648041533736e-08 0.0049996865715573853 0 2.6286261977330595e-05 0.0049133730972946736 0 2.5965655650489992e-05 0.0049208731893959834 0 0.00015103534656108158 0.0047142882919690978 0 2.6286261977330595e-05 0.0049133730972946736 0 7.6094589968012899e-05 0.0048002614160054368 0 0.00015103534656108158 0.0047142882919690978 0 2.6286261977330595e-05 0.0049133730972946736 0 5.8366721362657599e-05 0.0049466360310805304 0 2.6286261977330595e-05 0.0049133730972946736 0 5.8366721362657599e-05 0.0049466360310805304 0 2.3934634206035827e-05 0.004979631072896935 0 2.6286261977330595e-05 0.0049133730972946736 0 -4.3521376402802489e-09 0.0050000085189928862 0 2.3934634206035827e-05 0.004979631072896935 0 3.5360016989509182e-07 0.0049800099686511919 0 5.8366721362657599e-05 0.0049466360310805304 0 2.3934634206035827e-05 0.004979631072896935 0 0.00018995956320089625 0.0040478266839398137 0 0.00014612419289717252 0.0041480396320185808 0 0.00024573996081432516 0.0042792953710886223 0 7.8489288678670215e-05 0.0047104392452235631 0 7.7047966116054165e-05 0.0050978046651522163 0 7.8489288678670215e-05 0.0047104392452235631 0 0.00019933792458919444 0.0046055192898594947 0 0.00018995956320089625 0.0040478266839398137 0 5.0518315379389182e-05 0.0040484115199365643 0 0.00014612419289717252 0.0041480396320185808 0 5.0518315379389182e-05 0.0040484115199365643 0 0.00014612419289717252 0.0041480396320185808 0 7.7537513477841531e-05 0.0042193522064948334 0 7.9857466459004565e-05 0.0044524943555403762 0 7.7537513477841531e-05 0.0042193522064948334 0 0.00024573996081432516 0.0042792953710886223 0 0.00014612419289717252 0.0041480396320185808 0 7.7537513477841531e-05 0.0042193522064948334 0 0.00024573996081432516 0.0042792953710886223 0 0.000166341172361176 0.0051629058836112065 0 5.8366721362657599e-05 0.0049466360310805304 0 0.00015247137810327598 0.0049719263414743867 0 -1.5140639994165976e-05 0.0027938126776801842 0 -1.1074789688920994e-05 0.002621241765681603 0 -1.7966290340158302e-05 0.0026947665836645224 0 -1.5140639994165976e-05 0.0027938126776801842 0 -1.1074789688920994e-05 0.002621241765681603 0 -9.9176217856923786e-06 0.0027981615855761591 0 -1.5140639994165976e-05 0.0027938126776801842 0 -9.9176217856923786e-06 0.0027981615855761591 0 -3.4674411615515991e-05 0.0029779471708737573 0 -1.1074789688920994e-05 0.002621241765681603 0 -1.60231084306396e-06 0.0026018367200157187 0 -9.9176217856923786e-06 0.0027981615855761591 0 -1.60231084306396e-06 0.0026018367200157187 0 1.5135884240186304e-08 0.0027339985330214578 0 -4.8902486595876744e-09 0.0024831900854606188 0 1.5135884240186304e-08 0.0027339985330214578 0 -9.9176217856923786e-06 0.0027981615855761591 0 -8.7883054911999785e-06 0.0029281443457788298 0 -1.60231084306396e-06 0.0026018367200157187 0 1.5135884240186304e-08 0.0027339985330214578 0 -9.9176217856923786e-06 0.0027981615855761591 0 -9.9176217856923786e-06 0.0027981615855761591 0 -8.7883054911999785e-06 0.0029281443457788298 0 -2.5887866297641567e-05 0.0030109590001140265 0 1.5135884240186304e-08 0.0027339985330214578 0 -8.7883054911999785e-06 0.0029281443457788298 0 -6.3907952109208438e-08 0.002984392850097644 0 -8.7883054911999785e-06 0.0029281443457788298 0 -6.3907952109208438e-08 0.002984392850097644 0 -2.5792042781303934e-05 0.0031043847883641851 0 1.0512317309051858e-08 0.0029847317527039738 0 -6.1188196854782517e-06 0.0032213364469108434 0 -6.3907952109208438e-08 0.002984392850097644 0 -2.5792042781303934e-05 0.0031043847883641851 0 -1.0261912782253296e-05 0.0031300940388720193 0 -8.7883054911999785e-06 0.0029281443457788298 0 -2.5792042781303934e-05 0.0031043847883641851 0 -2.5887866297641567e-05 0.0030109590001140265 0 -2.5887866297641567e-05 0.0030109590001140265 0 -3.042343186374619e-05 0.0031427232174099742 0 -3.4674411615515991e-05 0.0029779471708737573 0 -2.5792042781303934e-05 0.0031043847883641851 0 -2.5887866297641567e-05 0.0030109590001140265 0 -3.042343186374619e-05 0.0031427232174099742 0 -9.9176217856923786e-06 0.0027981615855761591 0 -2.5887866297641567e-05 0.0030109590001140265 0 -3.4674411615515991e-05 0.0029779471708737573 0 -1.5140639994165976e-05 0.0027938126776801842 0 -3.4674411615515991e-05 0.0029779471708737573 0 -4.5087021119835986e-05 0.003168183581626485 0 -2.7452786515151057e-06 0.0028217880935562448 0 -1.0968252215027215e-05 0.0029659516822725641 0 -3.042343186374619e-05 0.0031427232174099742 0 -2.4859136325877735e-05 0.0032914868581101933 0 -4.5087021119835986e-05 0.003168183581626485 0 -3.042343186374619e-05 0.0031427232174099742 0 -3.4674411615515991e-05 0.0029779471708737573 0 -4.5087021119835986e-05 0.003168183581626485 0 -2.4859136325877735e-05 0.0032914868581101933 0 -2.3121769676166257e-05 0.0034254605769657182 0 -1.8262197396121237e-05 0.0032809152688198055 0 -3.042343186374619e-05 0.0031427232174099742 0 -2.4859136325877735e-05 0.0032914868581101933 0 -1.8262197396121237e-05 0.0032809152688198055 0 -2.4859136325877735e-05 0.0032914868581101933 0 -2.3121769676166257e-05 0.0034254605769657182 0 -1.9913504381788472e-05 0.0034513783311434982 0 -1.5332937155166419e-05 0.0034450006783750312 0 -1.8262197396121237e-05 0.0032809152688198055 0 -8.8050596642658658e-06 0.0032876485940367328 0 -2.3121769676166257e-05 0.0034254605769657182 0 -1.5332937155166419e-05 0.0034450006783750312 0 -1.8262197396121237e-05 0.0032809152688198055 0 -2.5792042781303934e-05 0.0031043847883641851 0 -3.042343186374619e-05 0.0031427232174099742 0 -1.8262197396121237e-05 0.0032809152688198055 0 -2.5792042781303934e-05 0.0031043847883641851 0 -1.0261912782253296e-05 0.0031300940388720193 0 -8.8050596642658658e-06 0.0032876485940367328 0 -2.5792042781303934e-05 0.0031043847883641851 0 -1.8262197396121237e-05 0.0032809152688198055 0 -8.8050596642658658e-06 0.0032876485940367328 0 -7.9159450267774185e-08 0.0029847875276649231 0 -6.4483549249514902e-06 0.0033021906938501488 0 2.7707170708619845e-08 0.0032519982578152196 0 -6.4483549249514902e-06 0.0033021906938501488 0 2.7707170708619845e-08 0.0032519982578152196 0 5.910682903194707e-06 0.0033879485101924404 0 -6.4483549249514902e-06 0.0033021906938501488 0 5.910682903194707e-06 0.0033879485101924404 0 1.8413477635640096e-06 0.003449196044280272 0 2.7707170708619845e-08 0.0032519982578152196 0 5.910682903194707e-06 0.0033879485101924404 0 1.7741131337632275e-08 0.0035192431233374388 0 -1.5332937155166419e-05 0.0034450006783750312 0 -8.8050596642658658e-06 0.0032876485940367328 0 1.8413477635640096e-06 0.003449196044280272 0 -6.1188196854782517e-06 0.0032213364469108434 0 1.8425068236459389e-06 0.0034064346882566759 0 -1.0261912782253296e-05 0.0031300940388720193 0 -8.8050596642658658e-06 0.0032876485940367328 0 1.8413477635640096e-06 0.003449196044280272 0 1.8413477635640096e-06 0.003449196044280272 0 -4.0294948030544278e-06 0.0036516333885248022 0 -2.2228733681280214e-05 0.0036018689914114198 0 5.910682903194707e-06 0.0033879485101924404 0 1.8413477635640096e-06 0.003449196044280272 0 1.7741131337632275e-08 0.0035192431233374388 0 1.8413477635640096e-06 0.003449196044280272 0 1.7741131337632275e-08 0.0035192431233374388 0 -4.0294948030544278e-06 0.0036516333885248022 0 -1.2132889447382492e-08 0.0037864478553546127 0 1.7741131337632275e-08 0.0035192431233374388 0 -4.0294948030544278e-06 0.0036516333885248022 0 -1.310490278888001e-05 0.0037410820174917101 0 -4.0294948030544278e-06 0.0036516333885248022 0 -2.2228733681280214e-05 0.0036018689914114198 0 -1.310490278888001e-05 0.0037410820174917101 0 -2.2228733681280214e-05 0.0036018689914114198 0 -3.855445191963718e-05 0.0037177830990781039 0 -2.2228733681280214e-05 0.0036018689914114198 0 -4.8904049749989716e-05 0.0035790044995557425 0 -3.855445191963718e-05 0.0037177830990781039 0 -1.5332937155166419e-05 0.0034450006783750312 0 1.8413477635640096e-06 0.003449196044280272 0 -2.2228733681280214e-05 0.0036018689914114198 0 -1.5332937155166419e-05 0.0034450006783750312 0 -2.2228733681280214e-05 0.0036018689914114198 0 -4.8904049749989716e-05 0.0035790044995557425 0 -2.3121769676166257e-05 0.0034254605769657182 0 -4.8904049749989716e-05 0.0035790044995557425 0 -4.4267911302786374e-05 0.0035674946656085015 0 -2.3121769676166257e-05 0.0034254605769657182 0 -1.5332937155166419e-05 0.0034450006783750312 0 -4.8904049749989716e-05 0.0035790044995557425 0 -4.8904049749989716e-05 0.0035790044995557425 0 -8.8021761144927972e-05 0.0036829178224834259 0 -4.4267911302786374e-05 0.0035674946656085015 0 -1.5263092706727301e-05 0.0038340361766095845 0 -5.4203196017392282e-05 0.003615844486143301 0 3.3066778815505405e-05 0.0038113203517546788 0 -4.8904049749989716e-05 0.0035790044995557425 0 -8.8021761144927972e-05 0.0036829178224834259 0 -6.2071394278902681e-05 0.0038628706599880859 0 -4.8904049749989716e-05 0.0035790044995557425 0 -3.855445191963718e-05 0.0037177830990781039 0 3.3066778815505405e-05 0.0038113203517546788 0 -3.5252758709668192e-05 0.0038895833301979079 0 -8.8021761144927972e-05 0.0036829178224834259 0 -3.5252758709668192e-05 0.0038895833301979079 0 -8.8021761144927972e-05 0.0036829178224834259 0 -0.00016057766396982746 0.003928605063106121 0 4.911360538151704e-05 0.0036311248143149747 0 0.00013051720652079935 0.0030634768956030361 0 -4.4267911302786374e-05 0.0035674946656085015 0 -7.0212151055348173e-05 0.0036042597663497504 0 -1.9913504381788472e-05 0.0034513783311434982 0 -8.8021761144927972e-05 0.0036829178224834259 0 -4.4267911302786374e-05 0.0035674946656085015 0 -7.0212151055348173e-05 0.0036042597663497504 0 -6.6306916079667105e-05 0.0037398801883875366 0 4.911360538151704e-05 0.0036311248143149747 0 0.00048307253739223767 0.00286377022501808 0 0.00048402080259749431 0.0031066344192379044 0 0.00030469057894239808 0.0029491119808382859 0 4.911360538151704e-05 0.0036311248143149747 0 0.00032633957571006727 0.0036566628935925066 0 4.9055583744431818e-05 0.0042630125461113177 0 4.911360538151704e-05 0.0036311248143149747 0 5.0986089392859437e-05 0.0041812589410591596 0 -3.5252758709668192e-05 0.0038895833301979079 0 -0.00016057766396982746 0.003928605063106121 0 5.0986089392859437e-05 0.0041812589410591596 0 6.2503696085134351e-05 0.0042211207919320244 0 6.6189494365006613e-05 0.0042267415628813596 0 6.2503696085134351e-05 0.0042211207919320244 0 6.6189494365006613e-05 0.0042267415628813596 0 0.00010714211038761814 0.0042543332178198003 0 6.5603093294222366e-05 0.004283379444572296 0 6.6189494365006613e-05 0.0042267415628813596 0 0.00010714211038761814 0.0042543332178198003 0 6.5603093294222366e-05 0.004283379444572296 0 0.00010714211038761814 0.0042543332178198003 0 0.00024534572745650454 0.0041978986317493701 0 0.00032633957571006727 0.0036566628935925066 0 0.00035623309818176953 0.0038004507180342539 0 0.00048402080259749431 0.0031066344192379044 0 0.00024498467849625691 0.0032467713850388318 0 0.00048674868223115808 0.0034149496995000803 0 0.00048402080259749431 0.0031066344192379044 0 0.00029716945687610418 0.0030883901931397775 0 0.00030469057894239808 0.0029491119808382859 0 0.00029716945687610418 0.0030883901931397775 0 0.00024498467849625691 0.0032467713850388318 0 0.00016294912665642817 0.0030570024307608455 0 0.00029716945687610418 0.0030883901931397775 0 0.00016294912665642817 0.0030570024307608455 0 0.00030469057894239808 0.0029491119808382859 0 0.00048402080259749431 0.0031066344192379044 0 0.00029716945687610418 0.0030883901931397775 0 0.00024498467849625691 0.0032467713850388318 0 0.00024498467849625691 0.0032467713850388318 0 0.00016294912665642817 0.0030570024307608455 0 2.7375856408889895e-05 0.0031824929249675681 0 0.00016294912665642817 0.0030570024307608455 0 5.6161684855044684e-05 0.0030063558669565205 0 2.7375856408889895e-05 0.0031824929249675681 0 0.00016294912665642817 0.0030570024307608455 0 0.00014924984007338955 0.0029219791592593755 0 5.6161684855044684e-05 0.0030063558669565205 0 0.00014924984007338955 0.0029219791592593755 0 0.00021030852620425899 0.002784589385161582 0 1.5867491701158114e-05 0.0028062591473256024 0 0.00048307253739223767 0.00286377022501808 0 0.00030469057894239808 0.0029491119808382859 0 0.00021030852620425899 0.002784589385161582 0 0.00016294912665642817 0.0030570024307608455 0 0.00014924984007338955 0.0029219791592593755 0 0.00030469057894239808 0.0029491119808382859 0 0.00014924984007338955 0.0029219791592593755 0 0.00030469057894239808 0.0029491119808382859 0 0.00021030852620425899 0.002784589385161582 0 -2.3121769676166257e-05 0.0034254605769657182 0 -4.4267911302786374e-05 0.0035674946656085015 0 -1.9913504381788472e-05 0.0034513783311434982 0 -2.4859136325877735e-05 0.0032914868581101933 0 -1.9913504381788472e-05 0.0034513783311434982 0 -4.5087021119835986e-05 0.003168183581626485 0 0.00013051720652079935 0.0030634768956030361 0 -1.0968252215027215e-05 0.0029659516822725641 0 0.00021030852620425899 0.002784589385161582 0 1.5867491701158114e-05 0.0028062591473256024 0 -5.812656568362311e-06 0.002750625653465651 0 1.5867491701158114e-05 0.0028062591473256024 0 -5.812656568362311e-06 0.002750625653465651 0 -9.1380424528752669e-06 0.0027678087473911343 0 -1.5140639994165976e-05 0.0027938126776801842 0 -5.812656568362311e-06 0.002750625653465651 0 -9.1380424528752669e-06 0.0027678087473911343 0 -1.5140639994165976e-05 0.0027938126776801842 0 -9.1380424528752669e-06 0.0027678087473911343 0 -6.3022348567418634e-06 0.0027422002443126419 0 -9.1380424528752669e-06 0.0027678087473911343 0 1.1346313972168817e-05 0.0027449608786162386 0 -6.3022348567418634e-06 0.0027422002443126419 0 0.00014924984007338955 0.0029219791592593755 0 1.5867491701158114e-05 0.0028062591473256024 0 5.6161684855044684e-05 0.0030063558669565205 0 1.5867491701158114e-05 0.0028062591473256024 0 -9.1380424528752669e-06 0.0027678087473911343 0 1.1346313972168817e-05 0.0027449608786162386 0 1.6834263497320048e-05 0.0028084145258268148 0 -5.4296690501488551e-06 0.0029017888487970884 0 1.5867491701158114e-05 0.0028062591473256024 0 5.6161684855044684e-05 0.0030063558669565205 0 -3.5871324053331304e-05 0.0030678096750468083 0 5.6161684855044684e-05 0.0030063558669565205 0 2.7375856408889895e-05 0.0031824929249675681 0 -3.5871324053331304e-05 0.0030678096750468083 0 -5.4296690501488551e-06 0.0029017888487970884 0 2.4979256073245222e-05 0.0029654517960798102 0 1.1346313972168817e-05 0.0027449608786162386 0 -5.1352240600425702e-06 0.0027288939067742252 0 5.2203045666277225e-05 0.0027836764829012547 0 2.7375856408889895e-05 0.0031824929249675681 0 -3.5871324053331304e-05 0.0030678096750468083 0 1.264318170207288e-05 0.0031405258844936371 0 1.1346313972168817e-05 0.0027449608786162386 0 -5.1352240600425702e-06 0.0027288939067742252 0 -6.3022348567418634e-06 0.0027422002443126419 0 -5.1352240600425702e-06 0.0027288939067742252 0 -1.7640027364593183e-05 0.0027686901718199058 0 5.2203045666277225e-05 0.0027836764829012547 0 -5.1352240600425702e-06 0.0027288939067742252 0 -1.7640027364593183e-05 0.0027686901718199058 0 -5.2289730093825694e-05 0.002735102227813235 0 -1.7640027364593183e-05 0.0027686901718199058 0 -5.2289730093825694e-05 0.002735102227813235 0 -6.8189487504289819e-05 0.0027780734431149469 0 -5.1352240600425702e-06 0.0027288939067742252 0 -3.7090211082913917e-05 0.0027053104208542918 0 -1.3758079630576338e-05 0.0027085517666071263 0 -5.1352240600425702e-06 0.0027288939067742252 0 -5.2289730093825694e-05 0.002735102227813235 0 -3.7090211082913917e-05 0.0027053104208542918 0 -5.1352240600425702e-06 0.0027288939067742252 0 -1.3758079630576338e-05 0.0027085517666071263 0 -6.3022348567418634e-06 0.0027422002443126419 0 -1.5140639994165976e-05 0.0027938126776801842 0 -1.3758079630576338e-05 0.0027085517666071263 0 -6.3022348567418634e-06 0.0027422002443126419 0 -1.5140639994165976e-05 0.0027938126776801842 0 -1.3758079630576338e-05 0.0027085517666071263 0 -1.7966290340158302e-05 0.0026947665836645224 0 -1.3758079630576338e-05 0.0027085517666071263 0 -1.7966290340158302e-05 0.0026947665836645224 0 -4.4195841627710571e-05 0.0026709169234273179 0 -0.00019209208632175114 0.0026934033380052588 0 -0.00017076675071288951 0.0027068368560703156 0 -7.5596432653162346e-05 0.0027407082532495729 0 -0.00028692264686669948 0.0030555089463111355 0 -0.00012575556068967369 0.0032439680214026655 0 -0.00023765908869574593 0.0030405613560566852 0 -0.00017076675071288951 0.0027068368560703156 0 -0.00017557750008844359 0.0027304023312446895 0 -0.00019964169528717001 0.0027204064473816199 0 -0.00017557750008844359 0.0027304023312446895 0 -0.00016406581041271962 0.0027487007314775007 0 -0.00019116805754491856 0.0027409311061625135 0 -0.00014504597659131552 0.0027379775641648363 0 -0.00013024492827614812 0.0027663534192915811 0 -0.00016406581041271962 0.0027487007314775007 0 -0.00017557750008844359 0.0027304023312446895 0 -0.00014504597659131552 0.0027379775641648363 0 -0.00016406581041271962 0.0027487007314775007 0 -0.00017076675071288951 0.0027068368560703156 0 -0.00017557750008844359 0.0027304023312446895 0 -0.00014504597659131552 0.0027379775641648363 0 -0.00023358774054333423 0.0028775875187189979 0 -9.6938622278384663e-05 0.0029945385878337267 0 -0.00017076675071288951 0.0027068368560703156 0 -0.00014504597659131552 0.0027379775641648363 0 -7.5596432653162346e-05 0.0027407082532495729 0 -0.00014504597659131552 0.0027379775641648363 0 -7.5596432653162346e-05 0.0027407082532495729 0 -0.00013024492827614812 0.0027663534192915811 0 -0.00018208270623074619 0.0030627190093424662 0 -0.00026880770426496343 0.0029133906336203516 0 -8.5493695775227515e-05 0.0030763060184351597 0 -0.00012575556068967369 0.0032439680214026655 0 -0.00018208270623074619 0.0030627190093424662 0 -8.5493695775227515e-05 0.0030763060184351597 0 -0.00021526906712246322 0.0029857490311983145 0 -1.8669804611308411e-05 0.0031205713574429593 0 -0.00012575556068967369 0.0032439680214026655 0 -0.00018208270623074619 0.0030627190093424662 0 -0.00023765908869574593 0.0030405613560566852 0 -0.00018208270623074619 0.0030627190093424662 0 -0.00023765908869574593 0.0030405613560566852 0 -0.00026880770426496343 0.0029133906336203516 0 -0.00028692264686669948 0.0030555089463111355 0 -0.00023765908869574593 0.0030405613560566852 0 -0.00027983811728071571 0.002978281424123673 0 -0.00028692264686669948 0.0030555089463111355 0 -0.00027983811728071571 0.002978281424123673 0 -0.00031076226279639686 0.0029388450456858126 0 -0.00023765908869574593 0.0030405613560566852 0 -0.00027983811728071571 0.002978281424123673 0 -0.00026880770426496343 0.0029133906336203516 0 -0.00027983811728071571 0.002978281424123673 0 -0.00026880770426496343 0.0029133906336203516 0 -0.00031076226279639686 0.0029388450456858126 0 -8.675070953232918e-05 0.0030239615061259714 0 -6.6868480937630579e-05 0.0028640288070556756 0 -6.7027466704267313e-06 0.0030577883185057631 0 -8.675070953232918e-05 0.0030239615061259714 0 -6.6868480937630579e-05 0.0028640288070556756 0 -0.00023107494592331594 0.0028785472169848094 0 -7.0290065204503695e-05 0.0028465482178584617 0 -0.00015233400936992786 0.0028259380832408873 0 -6.6868480937630579e-05 0.0028640288070556756 0 -6.8189487504289819e-05 0.0027780734431149469 0 -7.5779976221668994e-05 0.0027727864981577665 0 -1.7640027364593183e-05 0.0027686901718199058 0 -6.6868480937630579e-05 0.0028640288070556756 0 -6.8189487504289819e-05 0.0027780734431149469 0 -1.7640027364593183e-05 0.0027686901718199058 0 -6.6868480937630579e-05 0.0028640288070556756 0 5.2203045666277225e-05 0.0027836764829012547 0 -6.4474752255943028e-06 0.0030581245713086915 0 2.4979256073245222e-05 0.0029654517960798102 0 -6.6868480937630579e-05 0.0028640288070556756 0 -6.7027466704267313e-06 0.0030577883185057631 0 5.2203045666277225e-05 0.0027836764829012547 0 -6.7027466704267313e-06 0.0030577883185057631 0 2.7659418491028792e-05 0.0031209511351856139 0 3.1741628028498868e-05 0.003162349721418514 0 -6.7027466704267313e-06 0.0030577883185057631 0 2.7659418491028792e-05 0.0031209511351856139 0 1.264318170207288e-05 0.0031405258844936371 0 -8.675070953232918e-05 0.0030239615061259714 0 -6.7027466704267313e-06 0.0030577883185057631 0 3.1741628028498868e-05 0.003162349721418514 0 2.7659418491028792e-05 0.0031209511351856139 0 7.365785912511693e-05 0.0031642414390191612 0 3.1741628028498868e-05 0.003162349721418514 0 2.7659418491028792e-05 0.0031209511351856139 0 1.264318170207288e-05 0.0031405258844936371 0 4.3911341485829028e-05 0.0031393567020449875 0 2.7375856408889895e-05 0.0031824929249675681 0 1.264318170207288e-05 0.0031405258844936371 0 4.3911341485829028e-05 0.0031393567020449875 0 2.7375856408889895e-05 0.0031824929249675681 0 4.3911341485829028e-05 0.0031393567020449875 0 0.00011659246783349515 0.0031269462674578309 0 4.3911341485829028e-05 0.0031393567020449875 0 7.365785912511693e-05 0.0031642414390191612 0 0.00011659246783349515 0.0031269462674578309 0 2.7659418491028792e-05 0.0031209511351856139 0 4.3911341485829028e-05 0.0031393567020449875 0 7.365785912511693e-05 0.0031642414390191612 0 7.365785912511693e-05 0.0031642414390191612 0 0.0001170968343407327 0.0032758976696155959 0 0.00014697844762509191 0.0032036252131244802 0 -1.8669804611308411e-05 0.0031205713574429593 0 0.00010941246967860202 0.0032594466632115096 0 7.365785912511693e-05 0.0031642414390191612 0 3.1741628028498868e-05 0.003162349721418514 0 0.0001170968343407327 0.0032758976696155959 0 -9.6938622278384663e-05 0.0029945385878337267 0 5.441586049882624e-05 0.0031267723557386194 0 -0.00012575556068967369 0.0032439680214026655 0 -7.4417723374684071e-06 0.0032556950935493465 0 6.4135432396309481e-05 0.0034269429751794811 0 -0.00012575556068967369 0.0032439680214026655 0 -8.5493695775227515e-05 0.0030763060184351597 0 -7.4417723374684071e-06 0.0032556950935493465 0 -8.5493695775227515e-05 0.0030763060184351597 0 -7.4417723374684071e-06 0.0032556950935493465 0 0.0001170968343407327 0.0032758976696155959 0 0.0001170968343407327 0.0032758976696155959 0 0.00019543245131238045 0.0034162212740543839 0 6.4135432396309481e-05 0.0034269429751794811 0 -7.4417723374684071e-06 0.0032556950935493465 0 0.0001170968343407327 0.0032758976696155959 0 6.4135432396309481e-05 0.0034269429751794811 0 0.0001170968343407327 0.0032758976696155959 0 0.00028760088907686085 0.0033850463311205776 0 0.00019543245131238045 0.0034162212740543839 0 0.00028760088907686085 0.0033850463311205776 0 0.00043887348633596352 0.0033715472237519774 0 0.00042300608544314 0.0035420615346980215 0 0.00033151466216300963 0.0033902016548835617 0 0.00044985163637511284 0.0036457897783256066 0 0.00028760088907686085 0.0033850463311205776 0 0.00026503603562040833 0.0031909687012433075 0 0.00014697844762509191 0.0032036252131244802 0 0.00023886825174202923 0.0034604188341932243 0 0.00044985163637511284 0.0036457897783256066 0 0.00028760088907686085 0.0033850463311205776 0 0.00026503603562040833 0.0031909687012433075 0 0.00039706979160520148 0.003334600725628736 0 0.0001170968343407327 0.0032758976696155959 0 0.00028760088907686085 0.0033850463311205776 0 0.00014697844762509191 0.0032036252131244802 0 7.365785912511693e-05 0.0031642414390191612 0 0.00014697844762509191 0.0032036252131244802 0 0.00011659246783349515 0.0031269462674578309 0 0.00023886825174202923 0.0034604188341932243 0 0.00011832348540398336 0.0033174971114308472 0 0.00026503603562040833 0.0031909687012433075 0 0.00014697844762509191 0.0032036252131244802 0 0.00011659246783349515 0.0031269462674578309 0 3.8433721189697652e-05 0.0032025014297513994 0 0.00011832348540398336 0.0033174971114308472 0 0.00024498467849625691 0.0032467713850388318 0 2.7375856408889895e-05 0.0031824929249675681 0 9.4369237655888313e-05 0.0034835492746472249 0 0.00024498467849625691 0.0032467713850388318 0 9.4369237655888313e-05 0.0034835492746472249 0 0.00028560777816767462 0.0035522172213262137 0 0.00024498467849625691 0.0032467713850388318 0 0.00028560777816767462 0.0035522172213262137 0 0.00048674868223115808 0.0034149496995000803 0 0.000235018665039796 0.0037655232758035256 0 0.00028560777816767462 0.0035522172213262137 0 0.00036948825374060737 0.0038352387805568261 0 0.000235018665039796 0.0037655232758035256 0 9.4369237655888313e-05 0.0034835492746472249 0 0.00028560777816767462 0.0035522172213262137 0 0.00028560777816767462 0.0035522172213262137 0 0.00048674868223115808 0.0034149496995000803 0 0.00036948825374060737 0.0038352387805568261 0 0.00035623309818176953 0.0038004507180342539 0 0.00037146913153008606 0.0038221726773986849 0 0.00024534572745650454 0.0041978986317493701 0 0.00017722806425508135 0.0040275095746776339 0 7.9397975075362953e-05 0.0042116059529020908 0 6.5603093294222366e-05 0.004283379444572296 0 0.00024534572745650454 0.0041978986317493701 0 7.9397975075362953e-05 0.0042116059529020908 0 0.00024534572745650454 0.0041978986317493701 0 0.00017722806425508135 0.0040275095746776339 0 0.00036948825374060737 0.0038352387805568261 0 0.00017722806425508135 0.0040275095746776339 0 0.00022330009724446431 0.00381566808295242 0 0.00036948825374060737 0.0038352387805568261 0 0.00022330009724446431 0.00381566808295242 0 0.00036948825374060737 0.0038352387805568261 0 0.00035418224103759096 0.0038252935932494418 0 0.00033127996009395163 0.0040357453536859576 0 0.00044985163637511284 0.0036457897783256066 0 0.000235018665039796 0.0037655232758035256 0 0.00036948825374060737 0.0038352387805568261 0 0.00035418224103759096 0.0038252935932494418 0 0.00078916277040709721 0.0040250277683387542 0 0.00052171562497765574 0.0039518351897662347 0 0.00049875280790667568 0.0036506573070113511 0 0.00044985163637511284 0.0036457897783256066 0 0.00055828722747943923 0.0036757445969824594 0 0.00043887348633596352 0.0033715472237519774 0 0.00049875280790667568 0.0036506573070113511 0 0.00042300608544314 0.0035420615346980215 0 0.00052171562497765574 0.0039518351897662347 0 0.00049875280790667568 0.0036506573070113511 0 0.00029757079660279207 0.0038956612565358255 0 0.00040882748546703539 0.0041841616606961085 0 0.00052171562497765574 0.0039518351897662347 0 0.00029757079660279207 0.0038956612565358255 0 0.00040882748546703539 0.0041841616606961085 0 0.00078916277040709721 0.0040250277683387542 0 0.00052171562497765574 0.0039518351897662347 0 0.00049875280790667568 0.0036506573070113511 0 0.00029757079660279207 0.0038956612565358255 0 0.0002953925171588624 0.0036200000410824217 0 0.00042300608544314 0.0035420615346980215 0 0.00050867178499899564 0.0035719185268657653 0 0.00031064188188801683 0.0035859813393438909 0 0.00049875280790667568 0.0036506573070113511 0 0.00042300608544314 0.0035420615346980215 0 0.00050867178499899564 0.0035719185268657653 0 0.00035064127090403136 0.0033245573296747412 0 0.00023565596802872994 0.0033120385039442273 0 0.00049875280790667568 0.0036506573070113511 0 0.00050867178499899564 0.0035719185268657653 0 0.0002953925171588624 0.0036200000410824217 0 0.00050867178499899564 0.0035719185268657653 0 0.0002953925171588624 0.0036200000410824217 0 0.00023956112820870367 0.00332254472971722 0 0.00023589731837673971 0.0030845909586115741 0 0.00023958610773731846 0.0031904234073909057 0 0.00023956112820870367 0.00332254472971722 0 0.00023958610773731846 0.0031904234073909057 0 0.00023956112820870367 0.00332254472971722 0 0.00022873076667454981 0.0032152440861677369 0 0.00023958610773731846 0.0031904234073909057 0 0.00022815937154569471 0.0031804582746939661 0 0.00021515302060026153 0.0031337001248897983 0 0.00023958610773731846 0.0031904234073909057 0 0.00022815937154569471 0.0031804582746939661 0 0.00022873076667454981 0.0032152440861677369 0 0.00022815937154569471 0.0031804582746939661 0 0.00021723509122382182 0.0031949529773980462 0 0.00021907238893328649 0.0031843600634589133 0 0.00022815937154569471 0.0031804582746939661 0 0.00021723509122382182 0.0031949529773980462 0 0.00022873076667454981 0.0032152440861677369 0 0.00022815937154569471 0.0031804582746939661 0 0.00019425576863114764 0.003137572923143751 0 0.00020551539005250792 0.0031735810798706704 0 0.00022815937154569471 0.0031804582746939661 0 0.00019425576863114764 0.003137572923143751 0 0.00021515302060026153 0.0031337001248897983 0 0.00023589731837673971 0.0030845909586115741 0 0.00023958610773731846 0.0031904234073909057 0 0.00021515302060026153 0.0031337001248897983 0 0.00019425576863114764 0.003137572923143751 0 0.00021515302060026153 0.0031337001248897983 0 0.00017520004971049356 0.0030696624312850059 0 0.00023589731837673971 0.0030845909586115741 0 0.00021515302060026153 0.0031337001248897983 0 0.00017520004971049356 0.0030696624312850059 0 0.00017520004971049356 0.0030696624312850059 0 0.00012711593083706616 0.0030915644713925211 0 9.9639969221581668e-05 0.0030132676929928966 0 0.00019425576863114764 0.003137572923143751 0 0.00012711593083706616 0.0030915644713925211 0 0.00016608360186288335 0.0031675020033570876 0 0.00019425576863114764 0.003137572923143751 0 0.00017520004971049356 0.0030696624312850059 0 0.00012711593083706616 0.0030915644713925211 0 0.00012711593083706616 0.0030915644713925211 0 9.9639969221581668e-05 0.0030132676929928966 0 4.4019632367268731e-05 0.003032285815556333 0 9.9639969221581668e-05 0.0030132676929928966 0 0.0001488320991598718 0.0029391174987407468 0 6.202941662674459e-05 0.0029328815573811773 0 0.00017520004971049356 0.0030696624312850059 0 9.9639969221581668e-05 0.0030132676929928966 0 0.0001488320991598718 0.0029391174987407468 0 0.00023589731837673971 0.0030845909586115741 0 0.00017520004971049356 0.0030696624312850059 0 0.0001488320991598718 0.0029391174987407468 0 0.00035064127090403136 0.0033245573296747412 0 0.00022822647874682332 0.0032566836826932416 0 0.00028760088907686085 0.0033850463311205776 0 0.00042300608544314 0.0035420615346980215 0 0.00031064188188801683 0.0035859813393438909 0 0.00031064188188801683 0.0035859813393438909 0 0.00019543245131238045 0.0034162212740543839 0 6.4135432396309481e-05 0.0034269429751794811 0 0.00022822647874682332 0.0032566836826932416 0 5.441586049882624e-05 0.0031267723557386194 0 0.00028760088907686085 0.0033850463311205776 0 0.00031064188188801683 0.0035859813393438909 0 0.00019543245131238045 0.0034162212740543839 0 0.0001488320991598718 0.0029391174987407468 0 4.0742333361172072e-05 0.0028249283413904415 0 6.202941662674459e-05 0.0029328815573811773 0 4.0742333361172072e-05 0.0028249283413904415 0 -4.2971471438163158e-05 0.0028359771670264334 0 -6.3280574905360035e-06 0.0029007807345626138 0 -7.5596432653162346e-05 0.0027407082532495729 0 4.0742333361172072e-05 0.0028249283413904415 0 -4.2971471438163158e-05 0.0028359771670264334 0 -4.2971471438163158e-05 0.0028359771670264334 0 -6.3280574905360035e-06 0.0029007807345626138 0 -6.7049089309910421e-05 0.0028777523440313363 0 -6.3280574905360035e-06 0.0029007807345626138 0 -4.0555432742105706e-05 0.0029287341881771662 0 -6.7049089309910421e-05 0.0028777523440313363 0 -6.3280574905360035e-06 0.0029007807345626138 0 6.202941662674459e-05 0.0029328815573811773 0 2.0865917079194131e-05 0.0029667767119544953 0 4.0742333361172072e-05 0.0028249283413904415 0 -6.3280574905360035e-06 0.0029007807345626138 0 6.202941662674459e-05 0.0029328815573811773 0 9.9639969221581668e-05 0.0030132676929928966 0 2.0865917079194131e-05 0.0029667767119544953 0 4.4019632367268731e-05 0.003032285815556333 0 9.9639969221581668e-05 0.0030132676929928966 0 6.202941662674459e-05 0.0029328815573811773 0 2.0865917079194131e-05 0.0029667767119544953 0 0.00012711593083706616 0.0030915644713925211 0 4.4019632367268731e-05 0.003032285815556333 0 5.2835408720482526e-05 0.0030795536448103679 0 4.4019632367268731e-05 0.003032285815556333 0 2.0705927741706979e-06 0.0030449101554548205 0 5.2835408720482526e-05 0.0030795536448103679 0 2.0705927741706979e-06 0.0030449101554548205 0 -3.5546128037174065e-05 0.0029867770583311619 0 -7.6574423636442633e-05 0.0030555305689980534 0 4.4019632367268731e-05 0.003032285815556333 0 2.0705927741706979e-06 0.0030449101554548205 0 -3.5546128037174065e-05 0.0029867770583311619 0 2.0865917079194131e-05 0.0029667767119544953 0 4.4019632367268731e-05 0.003032285815556333 0 -3.5546128037174065e-05 0.0029867770583311619 0 2.0865917079194131e-05 0.0029667767119544953 0 -3.5546128037174065e-05 0.0029867770583311619 0 -4.0555432742105706e-05 0.0029287341881771662 0 -6.3280574905360035e-06 0.0029007807345626138 0 2.0865917079194131e-05 0.0029667767119544953 0 -4.0555432742105706e-05 0.0029287341881771662 0 -4.0555432742105706e-05 0.0029287341881771662 0 -8.912714860471053e-05 0.0029155945827291038 0 -6.7049089309910421e-05 0.0028777523440313363 0 -8.912714860471053e-05 0.0029155945827291038 0 -0.00013228870063343361 0.0028797556989500895 0 -0.00011536139716881025 0.0028593799859049874 0 -8.912714860471053e-05 0.0029155945827291038 0 -9.1267244996696276e-05 0.0029625162096773672 0 -0.00013429965203570136 0.0029151986949889487 0 -8.912714860471053e-05 0.0029155945827291038 0 -0.00013429965203570136 0.0029151986949889487 0 -0.00013228870063343361 0.0028797556989500895 0 -3.5546128037174065e-05 0.0029867770583311619 0 -4.0555432742105706e-05 0.0029287341881771662 0 -8.912714860471053e-05 0.0029155945827291038 0 -3.5546128037174065e-05 0.0029867770583311619 0 -8.912714860471053e-05 0.0029155945827291038 0 -9.1267244996696276e-05 0.0029625162096773672 0 -9.1267244996696276e-05 0.0029625162096773672 0 -0.00012060923218337152 0.0029812897947050386 0 -7.6574423636442633e-05 0.0030555305689980534 0 -3.5546128037174065e-05 0.0029867770583311619 0 -9.1267244996696276e-05 0.0029625162096773672 0 -7.6574423636442633e-05 0.0030555305689980534 0 -9.1267244996696276e-05 0.0029625162096773672 0 -0.00012060923218337152 0.0029812897947050386 0 -0.00013429965203570136 0.0029151986949889487 0 -0.00015524625805771216 0.0029652563593469128 0 -0.00017781296461951926 0.0029752623478749175 0 -0.00019436236203726403 0.0029205288378419494 0 -0.00015524625805771216 0.0029652563593469128 0 -0.00012060923218337152 0.0029812897947050386 0 -0.00013288592107281563 0.0030091673616444133 0 -0.00015524625805771216 0.0029652563593469128 0 -0.00012060923218337152 0.0029812897947050386 0 -0.00016470902644225607 0.0029229375121764801 0 -0.00012060923218337152 0.0029812897947050386 0 -0.00016470902644225607 0.0029229375121764801 0 -0.00013429965203570136 0.0029151986949889487 0 -0.00015524625805771216 0.0029652563593469128 0 -0.00016470902644225607 0.0029229375121764801 0 -0.00019436236203726403 0.0029205288378419494 0 -0.00016707744183172356 0.0028909557385758951 0 -0.00013429965203570136 0.0029151986949889487 0 -0.00016636396615583147 0.0028643144160113774 0 -0.00016470902644225607 0.0029229375121764801 0 -0.00016707744183172356 0.0028909557385758951 0 -0.00020266100451384991 0.0028626234726494724 0 -0.00016470902644225607 0.0029229375121764801 0 -0.00016707744183172356 0.0028909557385758951 0 -0.00013429965203570136 0.0029151986949889487 0 -0.00016707744183172356 0.0028909557385758951 0 -0.00016636396615583147 0.0028643144160113774 0 -0.00020266100451384991 0.0028626234726494724 0 -0.00013429965203570136 0.0029151986949889487 0 -0.00013228870063343361 0.0028797556989500895 0 -0.00016636396615583147 0.0028643144160113774 0 -0.00013228870063343361 0.0028797556989500895 0 -0.00016636396615583147 0.0028643144160113774 0 -0.00015456211607511939 0.002845772235459192 0 -0.00016636396615583147 0.0028643144160113774 0 -0.00015456211607511939 0.002845772235459192 0 -0.00019425214047324085 0.0028341357094113766 0 -0.00018258456844255416 0.0028180743330886524 0 -0.00015456211607511939 0.002845772235459192 0 -0.00019425214047324085 0.0028341357094113766 0 -0.00018258456844255416 0.0028180743330886524 0 -0.00014875699531911534 0.0028206905188712006 0 -0.00015456211607511939 0.002845772235459192 0 -0.00018258456844255416 0.0028180743330886524 0 -0.00014875699531911534 0.0028206905188712006 0 -0.00017693618380904409 0.002785054498360908 0 -0.00014875699531911534 0.0028206905188712006 0 -0.00015456211607511939 0.002845772235459192 0 -0.00011536139716881025 0.0028593799859049874 0 -0.00013228870063343361 0.0028797556989500895 0 -0.00015456211607511939 0.002845772235459192 0 -0.00011536139716881025 0.0028593799859049874 0 -8.912714860471053e-05 0.0029155945827291038 0 -0.00011536139716881025 0.0028593799859049874 0 -6.7049089309910421e-05 0.0028777523440313363 0 -4.2971471438163158e-05 0.0028359771670264334 0 -6.7049089309910421e-05 0.0028777523440313363 0 -0.00010302624205158731 0.0028222656655425616 0 -0.00011536139716881025 0.0028593799859049874 0 -6.7049089309910421e-05 0.0028777523440313363 0 -0.00010302624205158731 0.0028222656655425616 0 -0.00014875699531911534 0.0028206905188712006 0 -0.00011536139716881025 0.0028593799859049874 0 -0.00010302624205158731 0.0028222656655425616 0 -0.00010302624205158731 0.0028222656655425616 0 -0.00013024492827614812 0.0027663534192915811 0 -0.00015162766826580987 0.0027823561374096095 0 -7.5596432653162346e-05 0.0027407082532495729 0 -4.2971471438163158e-05 0.0028359771670264334 0 -0.00010302624205158731 0.0028222656655425616 0 -7.5596432653162346e-05 0.0027407082532495729 0 -0.00010302624205158731 0.0028222656655425616 0 -0.00013024492827614812 0.0027663534192915811 0 -0.00013024492827614812 0.0027663534192915811 0 -0.00016406581041271962 0.0027487007314775007 0 -0.00015162766826580987 0.0027823561374096095 0 -0.00016406581041271962 0.0027487007314775007 0 -0.00017765948946227086 0.0027628156171018215 0 -0.00015162766826580987 0.0027823561374096095 0 -0.00016406581041271962 0.0027487007314775007 0 -0.00017765948946227086 0.0027628156171018215 0 -0.00019116805754491856 0.0027409311061625135 0 -0.00017765948946227086 0.0027628156171018215 0 -0.00017693618380904409 0.002785054498360908 0 -0.00015162766826580987 0.0027823561374096095 0 -0.00017765948946227086 0.0027628156171018215 0 -0.00017693618380904409 0.002785054498360908 0 -0.00020087824207217005 0.0027575967978393972 0 -0.00014875699531911534 0.0028206905188712006 0 -0.00010302624205158731 0.0028222656655425616 0 -0.00015162766826580987 0.0027823561374096095 0 -0.00014875699531911534 0.0028206905188712006 0 -0.00017693618380904409 0.002785054498360908 0 -0.00015162766826580987 0.0027823561374096095 0 5.8744221901953503e-05 0.0048278199484596681 0 5.9717209037678305e-05 0.0047966440545272604 0 5.1051660525846729e-05 0.0048184182450373625 0 5.8744221901953503e-05 0.0048278199484596681 0 6.6888859634746416e-05 0.0048079950845694303 0 7.2217374131549475e-05 0.0047792465897416965 0 5.8744221901953503e-05 0.0048278199484596681 0 5.9717209037678305e-05 0.0047966440545272604 0 7.2217374131549475e-05 0.0047792465897416965 0 5.9717209037678305e-05 0.0047966440545272604 0 7.2217374131549475e-05 0.0047792465897416965 0 6.3915462480803966e-05 0.0047609910625526063 0 5.9717209037678305e-05 0.0047966440545272604 0 4.9834040377685805e-05 0.0047822935193486101 0 6.3915462480803966e-05 0.0047609910625526063 0 4.9834040377685805e-05 0.0047822935193486101 0 5.1051660525846729e-05 0.0048184182450373625 0 2.040418332921718e-05 0.0047641199892139189 0 -0.00021650443430290591 0.004488127588944576 0 -0.00016820834093789376 0.0045486907610426544 0 4.9834040377685805e-05 0.0047822935193486101 0 4.5347923144661209e-05 0.0047376713795361271 0 6.3915462480803966e-05 0.0047609910625526063 0 4.9834040377685805e-05 0.0047822935193486101 0 4.5347923144661209e-05 0.0047376713795361271 0 2.040418332921718e-05 0.0047641199892139189 0 5.9717209037678305e-05 0.0047966440545272604 0 4.9834040377685805e-05 0.0047822935193486101 0 5.1051660525846729e-05 0.0048184182450373625 0 -0.00036994687362403885 0.0042526947874446793 0 -0.00041817370891825042 0.0042879393595204327 0 -0.00035705641043560197 0.0042203095419069119 0 -0.00036994687362403885 0.0042526947874446793 0 -0.00041817370891825042 0.0042879393595204327 0 -0.00027210743967262025 0.0045222662558422142 0 -0.00041817370891825042 0.0042879393595204327 0 -0.00027210743967262025 0.0045222662558422142 0 -0.00036084688747115853 0.0045617613585192986 0 -0.00036994687362403885 0.0042526947874446793 0 -0.00027210743967262025 0.0045222662558422142 0 -8.9409565590389543e-05 0.0046702919427893605 0 5.8744221901953503e-05 0.0048278199484596681 0 5.1051660525846729e-05 0.0048184182450373625 0 4.7871697653483699e-05 0.0048846126019724658 0 -9.4722247965989503e-05 0.0046583861220324202 0 -7.4608026617297221e-05 0.0047015985866099303 0 -8.9409565590389543e-05 0.0046702919427893605 0 -0.00021650443430290591 0.004488127588944576 0 2.6914244489192529e-05 0.0048411910547849621 0 -0.00021650443430290591 0.004488127588944576 0 -0.00010915028641608566 0.0046279078676173622 0 4.7871697653483699e-05 0.0048846126019724658 0 3.3442095166577881e-05 0.0049229869082809789 0 5.2646044608920762e-05 0.0048584860791854 0 4.7871697653483699e-05 0.0048846126019724658 0 3.3442095166577881e-05 0.0049229869082809789 0 -4.380144444562922e-08 0.005000072350692066 0 2.6914244489192529e-05 0.0048411910547849621 0 -9.9808333885510113e-08 0.0049998752080291945 0 1.320683585749668e-07 0.0049997734026903783 0 3.3442095166577881e-05 0.0049229869082809789 0 -4.380144444562922e-08 0.005000072350692066 0 1.320683585749668e-07 0.0049997734026903783 0 3.3442095166577881e-05 0.0049229869082809789 0 7.3693801430355633e-05 0.004825472082924059 0 -2.0935979869880737e-08 0.005000033015262785 0 1.4022369535633881e-06 0.004983759716510429 0 4.272860582374444e-08 0.0049999188880161596 0 1.2545129873409275e-09 0.0049999504746500488 0 3.7950237784128156e-05 0.0049008141220587371 0 5.8744221901953503e-05 0.0048278199484596681 0 4.7871697653483699e-05 0.0048846126019724658 0 5.2646044608920762e-05 0.0048584860791854 0 3.3442095166577881e-05 0.0049229869082809789 0 7.3693801430355633e-05 0.004825472082924059 0 5.2646044608920762e-05 0.0048584860791854 0 7.3693801430355633e-05 0.004825472082924059 0 5.2646044608920762e-05 0.0048584860791854 0 6.6888859634746416e-05 0.0048079950845694303 0 5.8744221901953503e-05 0.0048278199484596681 0 5.2646044608920762e-05 0.0048584860791854 0 6.6888859634746416e-05 0.0048079950845694303 0 1.4022369535633881e-06 0.004983759716510429 0 2.5965655650489992e-05 0.0049208731893959834 0 7.6094589968012899e-05 0.0048002614160054368 0 3.431648041533736e-08 0.0049996865715573853 0 4.272860582374444e-08 0.0049999188880161596 0 2.5965655650489992e-05 0.0049208731893959834 0 3.7950237784128156e-05 0.0049008141220587371 0 7.1154178495677294e-05 0.0048188152399392661 0 7.3693801430355633e-05 0.004825472082924059 0 6.6888859634746416e-05 0.0048079950845694303 0 7.6094589968012899e-05 0.0048002614160054368 0 1.4022369535633881e-06 0.004983759716510429 0 4.272860582374444e-08 0.0049999188880161596 0 2.5965655650489992e-05 0.0049208731893959834 0 7.6094589968012899e-05 0.0048002614160054368 0 7.7569385409865144e-05 0.00472673079968152 0 8.7776965405575151e-05 0.0046767667436458547 0 7.6094589968012899e-05 0.0048002614160054368 0 7.2217374131549475e-05 0.0047792465897416965 0 7.7569385409865144e-05 0.00472673079968152 0 6.6888859634746416e-05 0.0048079950845694303 0 7.6094589968012899e-05 0.0048002614160054368 0 7.2217374131549475e-05 0.0047792465897416965 0 4.5347923144661209e-05 0.0047376713795361271 0 6.3915462480803966e-05 0.0047609910625526063 0 5.575405325618851e-05 0.0046835542342901952 0 7.2217374131549475e-05 0.0047792465897416965 0 6.3915462480803966e-05 0.0047609910625526063 0 7.7569385409865144e-05 0.00472673079968152 0 6.3915462480803966e-05 0.0047609910625526063 0 7.7569385409865144e-05 0.00472673079968152 0 5.575405325618851e-05 0.0046835542342901952 0 5.575405325618851e-05 0.0046835542342901952 0 8.7776965405575151e-05 0.0046767667436458547 0 4.5614711915556556e-05 0.0045810985329565925 0 7.7569385409865144e-05 0.00472673079968152 0 5.575405325618851e-05 0.0046835542342901952 0 8.7776965405575151e-05 0.0046767667436458547 0 8.8265949262789287e-05 0.0045997543241454242 0 8.7776965405575151e-05 0.0046767667436458547 0 4.5614711915556556e-05 0.0045810985329565925 0 4.5614711915556556e-05 0.0045810985329565925 0 -3.3467123329741386e-06 0.004478562681880867 0 7.4458309581992251e-07 0.0045918274829864951 0 5.575405325618851e-05 0.0046835542342901952 0 4.5614711915556556e-05 0.0045810985329565925 0 7.4458309581992251e-07 0.0045918274829864951 0 -3.3467123329741386e-06 0.004478562681880867 0 -2.2800987260333555e-05 0.0045388907422459707 0 -4.5929376237268683e-05 0.004316210115266882 0 -3.3467123329741386e-06 0.004478562681880867 0 -2.2800987260333555e-05 0.0045388907422459707 0 7.4458309581992251e-07 0.0045918274829864951 0 -2.2904771110011957e-07 0.0043899967200227907 0 -3.3467123329741386e-06 0.004478562681880867 0 -4.5929376237268683e-05 0.004316210115266882 0 -0.00018147134268930174 0.0044612202233443388 0 -0.0003647836140958294 0.0042966065087955453 0 -0.0002335941959103918 0.0043206174056465785 0 -0.0001255214253446328 0.0044233611658636715 0 -2.629323855887973e-05 0.0045407444792927706 0 -0.00018147134268930174 0.0044612202233443388 0 -0.0002335941959103918 0.0043206174056465785 0 -9.2391062798464918e-05 0.004280715485311404 0 -0.0001255214253446328 0.0044233611658636715 0 -0.00016820834093789376 0.0045486907610426544 0 -0.00010000443825765742 0.0046461561288466471 0 1.6975831887214251e-05 0.0046876866966088036 0 7.4458309581992251e-07 0.0045918274829864951 0 -0.00010000443825765742 0.0046461561288466471 0 1.6975831887214251e-05 0.0046876866966088036 0 2.040418332921718e-05 0.0047641199892139189 0 4.5347923144661209e-05 0.0047376713795361271 0 1.6975831887214251e-05 0.0046876866966088036 0 2.040418332921718e-05 0.0047641199892139189 0 4.5347923144661209e-05 0.0047376713795361271 0 5.575405325618851e-05 0.0046835542342901952 0 1.6975831887214251e-05 0.0046876866966088036 0 5.575405325618851e-05 0.0046835542342901952 0 1.6975831887214251e-05 0.0046876866966088036 0 7.4458309581992251e-07 0.0045918274829864951 0 7.9397975075362953e-05 0.0042116059529020908 0 -4.5929376237268683e-05 0.004316210115266882 0 -1.9892970314306576e-05 0.0039826370053893754 0 6.5603093294222366e-05 0.004283379444572296 0 7.9397975075362953e-05 0.0042116059529020908 0 -4.5929376237268683e-05 0.004316210115266882 0 -0.0001255214253446328 0.0044233611658636715 0 -7.5234921095019815e-05 0.0043101056743008676 0 -0.0001255214253446328 0.0044233611658636715 0 2.5716538721507998e-05 0.004143589225605036 0 -0.00018147134268930174 0.0044612202233443388 0 0.00010556592268399018 0.0043393015704703813 0 -9.2391062798464918e-05 0.004280715485311404 0 -0.00029883524974929791 0.0041250754701624183 0 -4.5929376237268683e-05 0.004316210115266882 0 -1.9892970314306576e-05 0.0039826370053893754 0 0.00017722806425508135 0.0040275095746776339 0 7.9397975075362953e-05 0.0042116059529020908 0 -1.9892970314306576e-05 0.0039826370053893754 0 0.00017722806425508135 0.0040275095746776339 0 0.00022330009724446431 0.00381566808295242 0 -1.9892970314306576e-05 0.0039826370053893754 0 0.00033127996009395163 0.0040357453536859576 0 2.5716538721507998e-05 0.004143589225605036 0 0.00040882748546703539 0.0041841616606961085 0 0.00010556592268399018 0.0043393015704703813 0 0.00010907247743288008 0.0040988706497282123 0 0.00010907247743288008 0.0040988706497282123 0 -9.2391062798464918e-05 0.004280715485311404 0 -0.00010060102031411653 0.0040789448048287038 0 0.00010556592268399018 0.0043393015704703813 0 0.00010907247743288008 0.0040988706497282123 0 -9.2391062798464918e-05 0.004280715485311404 0 0.00010907247743288008 0.0040988706497282123 0 -0.00010060102031411653 0.0040789448048287038 0 8.4623298958139107e-05 0.0038136335073451896 0 0.00010907247743288008 0.0040988706497282123 0 0.00029757079660279207 0.0038956612565358255 0 8.4623298958139107e-05 0.0038136335073451896 0 0.00040882748546703539 0.0041841616606961085 0 0.00010907247743288008 0.0040988706497282123 0 0.00029757079660279207 0.0038956612565358255 0 -0.00021650443430290591 0.004488127588944576 0 -0.00039299681856319959 0.0041556841210408941 0 -0.00051092921450210556 0.0041848985423246681 0 -0.0003647836140958294 0.0042966065087955453 0 -0.00027702067795369134 0.0042409390094832198 0 -0.0003647836140958294 0.0042966065087955453 0 -0.0002335941959103918 0.0043206174056465785 0 -0.00027702067795369134 0.0042409390094832198 0 -0.0002335941959103918 0.0043206174056465785 0 -9.2391062798464918e-05 0.004280715485311404 0 -0.00027702067795369134 0.0042409390094832198 0 -9.2391062798464918e-05 0.004280715485311404 0 -0.00027702067795369134 0.0042409390094832198 0 -0.00010060102031411653 0.0040789448048287038 0 -0.00027702067795369134 0.0042409390094832198 0 -0.00010060102031411653 0.0040789448048287038 0 -0.00026016594624338608 0.0040996911116749513 0 -0.00010060102031411653 0.0040789448048287038 0 -0.00026016594624338608 0.0040996911116749513 0 -0.00014505052782597859 0.0038190550723873552 0 -0.00036994687362403885 0.0042526947874446793 0 -0.00027702067795369134 0.0042409390094832198 0 -0.00035705641043560197 0.0042203095419069119 0 -0.00026016594624338608 0.0040996911116749513 0 -0.00035705641043560197 0.0042203095419069119 0 -0.00035809294932157368 0.0041138363721839434 0 -0.00027702067795369134 0.0042409390094832198 0 -0.00026016594624338608 0.0040996911116749513 0 -0.00035705641043560197 0.0042203095419069119 0 -0.00041817370891825042 0.0042879393595204327 0 -0.00035705641043560197 0.0042203095419069119 0 -0.00035809294932157368 0.0041138363721839434 0 -0.00041817370891825042 0.0042879393595204327 0 -0.00035809294932157368 0.0041138363721839434 0 -0.00038840222124890108 0.0038056500778963324 0 -0.00026016594624338608 0.0040996911116749513 0 -0.00035809294932157368 0.0041138363721839434 0 -0.00038840222124890108 0.0038056500778963324 0 -0.00041842438797887828 0.0042673869400865353 0 -0.0004341333333541002 0.0042459535460141577 0 -0.00026016594624338608 0.0040996911116749513 0 -0.00038840222124890108 0.0038056500778963324 0 -0.00014505052782597859 0.0038190550723873552 0 -0.00038840222124890108 0.0038056500778963324 0 -0.00014505052782597859 0.0038190550723873552 0 -0.00023268848485168671 0.003446134797240037 0 -2.2512875399396622e-05 0.0036078952288138596 0 5.7897420319286949e-05 0.0033313410515521452 0 -0.00023268848485168671 0.003446134797240037 0 -0.00014505052782597859 0.0038190550723873552 0 -2.2512875399396622e-05 0.0036078952288138596 0 -0.00023268848485168671 0.003446134797240037 0 -0.0004341333333541002 0.0042459535460141577 0 -0.0004278876949855182 0.0041962145593575535 0 -0.00051936111042237456 0.004723475334868563 0 -0.00055528820801436542 0.0048959240096091254 0 -0.00038830425206770906 0.0049096607693597258 0 0.00029757079660279207 0.0038956612565358255 0 8.4623298958139107e-05 0.0038136335073451896 0 0.0002953925171588624 0.0036200000410824217 0 -0.00010060102031411653 0.0040789448048287038 0 -0.00014505052782597859 0.0038190550723873552 0 8.4623298958139107e-05 0.0038136335073451896 0 -0.00014505052782597859 0.0038190550723873552 0 8.4623298958139107e-05 0.0038136335073451896 0 -2.2512875399396622e-05 0.0036078952288138596 0 -2.2512875399396622e-05 0.0036078952288138596 0 0.00012677246544762241 0.0034753719335919586 0 5.7897420319286949e-05 0.0033313410515521452 0 8.4623298958139107e-05 0.0038136335073451896 0 -2.2512875399396622e-05 0.0036078952288138596 0 0.00012677246544762241 0.0034753719335919586 0 8.4623298958139107e-05 0.0038136335073451896 0 0.00012677246544762241 0.0034753719335919586 0 0.0002953925171588624 0.0036200000410824217 0 0.00012677246544762241 0.0034753719335919586 0 0.0002953925171588624 0.0036200000410824217 0 0.00023956112820870367 0.00332254472971722 0 0.00023956112820870367 0.00332254472971722 0 0.00018209321658290852 0.0032397289117196788 0 0.00022873076667454981 0.0032152440861677369 0 0.00012677246544762241 0.0034753719335919586 0 0.00023956112820870367 0.00332254472971722 0 0.00014704622641006983 0.0033042608266359136 0 0.00023956112820870367 0.00332254472971722 0 0.00014704622641006983 0.0033042608266359136 0 0.00018209321658290852 0.0032397289117196788 0 0.00014704622641006983 0.0033042608266359136 0 5.7897420319286949e-05 0.0033313410515521452 0 0.00012471207671752976 0.0032339963851428207 0 0.00012677246544762241 0.0034753719335919586 0 0.00014704622641006983 0.0033042608266359136 0 5.7897420319286949e-05 0.0033313410515521452 0 -7.4735745910440654e-05 0.0031568028796343088 0 -7.292698869974878e-05 0.0040256510350462765 0 7.3968899708968454e-05 0.0032273346732913325 0 0.00014027146072382289 0.0032038436294013184 0 0.00013511675318829351 0.0032016853837154953 0 -7.292698869974878e-05 0.0040256510350462765 0 0.00014571376248233769 0.0037065378941994374 0 5.7897420319286949e-05 0.0033313410515521452 0 0.00012471207671752976 0.0032339963851428207 0 7.3968899708968454e-05 0.0032273346732913325 0 0.00012471207671752976 0.0032339963851428207 0 7.3968899708968454e-05 0.0032273346732913325 0 0.00013511675318829351 0.0032016853837154953 0 0.00012471207671752976 0.0032339963851428207 0 0.00016065450951439759 0.0032109645671835009 0 0.00013511675318829351 0.0032016853837154953 0 0.00012471207671752976 0.0032339963851428207 0 0.00018209321658290852 0.0032397289117196788 0 0.00016065450951439759 0.0032109645671835009 0 0.00014704622641006983 0.0033042608266359136 0 0.00012471207671752976 0.0032339963851428207 0 0.00018209321658290852 0.0032397289117196788 0 0.00018209321658290852 0.0032397289117196788 0 0.00016065450951439759 0.0032109645671835009 0 0.00020093736785090961 0.0032097399474816349 0 0.00016065450951439759 0.0032109645671835009 0 0.00020093736785090961 0.0032097399474816349 0 0.00018821511282990575 0.0031991328835948079 0 0.00016065450951439759 0.0032109645671835009 0 0.00016587076270238287 0.0032012179150076301 0 0.00018821511282990575 0.0031991328835948079 0 0.00021723509122382182 0.0031949529773980462 0 0.00020093736785090961 0.0032097399474816349 0 0.00018821511282990575 0.0031991328835948079 0 0.00021723509122382182 0.0031949529773980462 0 0.00020093736785090961 0.0032097399474816349 0 0.00022873076667454981 0.0032152440861677369 0 0.00018209321658290852 0.0032397289117196788 0 0.00020093736785090961 0.0032097399474816349 0 0.00022873076667454981 0.0032152440861677369 0 -0.00055528820801436542 0.0048959240096091254 0 -0.00049663400699148652 0.005028231133563813 0 -0.00038830425206770906 0.0049096607693597258 0 -0.00049663400699148652 0.005028231133563813 0 -0.00035047178653819204 0.0050615934641462463 0 -0.00038830425206770906 0.0049096607693597258 0 5.7897420319286949e-05 0.0033313410515521452 0 -0.00023268848485168671 0.003446134797240037 0 -4.7953276011953107e-05 0.0031346129895350595 0 -0.0004278876949855182 0.0041962145593575535 0 -7.292698869974878e-05 0.0040256510350462765 0 -0.00055528820801436542 0.0048959240096091254 0 -0.0006296240319384848 0.0050450904641601456 0 -0.00049663400699148652 0.005028231133563813 0 -0.0006296240319384848 0.0050450904641601456 0 -0.00049663400699148652 0.005028231133563813 0 -0.00053914260363447449 0.0052182376711431798 0 -0.00043482050395895664 0.0051309945509917035 0 -0.00035047178653819204 0.0050615934641462463 0 -0.0003527262077172247 0.005214166973651204 0 -0.00043482050395895664 0.0051309945509917035 0 -0.00049663400699148652 0.005028231133563813 0 -0.00035047178653819204 0.0050615934641462463 0 -0.00043482050395895664 0.0051309945509917035 0 -0.00049663400699148652 0.005028231133563813 0 -0.00053914260363447449 0.0052182376711431798 0 -0.00035047178653819204 0.0050615934641462463 0 -0.0002154663371343459 0.0051150295267312924 0 -0.0003527262077172247 0.005214166973651204 0 -0.00035047178653819204 0.0050615934641462463 0 -0.0002154663371343459 0.0051150295267312924 0 -0.00020941830303153463 0.0049969134177750086 0 -0.0002154663371343459 0.0051150295267312924 0 -0.00020941830303153463 0.0049969134177750086 0 -7.7799976063813329e-05 0.0050315344497741752 0 -0.0002154663371343459 0.0051150295267312924 0 -7.7799976063813329e-05 0.0050315344497741752 0 -8.0479439832744132e-05 0.0051725718152776049 0 -0.00010779973222911546 0.0049788945705797165 0 -0.00020941830303153463 0.0049969134177750086 0 -0.00018881444254402867 0.004885260743292561 0 -0.00010779973222911546 0.0049788945705797165 0 -0.00018881444254402867 0.004885260743292561 0 -5.5365623908221971e-05 0.0049483203521100217 0 -0.00010779973222911546 0.0049788945705797165 0 -0.00020941830303153463 0.0049969134177750086 0 -7.7799976063813329e-05 0.0050315344497741752 0 -0.00020941830303153463 0.0049969134177750086 0 -0.00038830425206770906 0.0049096607693597258 0 -0.00018881444254402867 0.004885260743292561 0 -0.00035047178653819204 0.0050615934641462463 0 -0.00020941830303153463 0.0049969134177750086 0 -0.00038830425206770906 0.0049096607693597258 0 -0.00051936111042237456 0.004723475334868563 0 -0.00038830425206770906 0.0049096607693597258 0 -0.00032421081915386991 0.0048198582160716976 0 -0.00038830425206770906 0.0049096607693597258 0 -0.00032421081915386991 0.0048198582160716976 0 -0.00018881444254402867 0.004885260743292561 0 -0.00051936111042237456 0.004723475334868563 0 -0.00032421081915386991 0.0048198582160716976 0 -0.00026781700386584124 0.0047120216969961208 0 -0.00032421081915386991 0.0048198582160716976 0 -0.00018881444254402867 0.004885260743292561 0 -0.00026781700386584124 0.0047120216969961208 0 -0.00018881444254402867 0.004885260743292561 0 -0.000135177891691663 0.0047845952565753504 0 -8.0497143686499248e-05 0.0048718236139020802 0 -0.00018881444254402867 0.004885260743292561 0 -0.000135177891691663 0.0047845952565753504 0 -0.00026781700386584124 0.0047120216969961208 0 -0.000135177891691663 0.0047845952565753504 0 -0.0001855852664131925 0.0046767014934499728 0 -0.00026781700386584124 0.0047120216969961208 0 -0.000135177891691663 0.0047845952565753504 0 -8.9409565590389543e-05 0.0046702919427893605 0 -0.0001855852664131925 0.0046767014934499728 0 -0.00027210743967262025 0.0045222662558422142 0 -0.0001855852664131925 0.0046767014934499728 0 -0.00026781700386584124 0.0047120216969961208 0 -0.00027210743967262025 0.0045222662558422142 0 -8.9409565590389543e-05 0.0046702919427893605 0 -0.0001855852664131925 0.0046767014934499728 0 -0.00027210743967262025 0.0045222662558422142 0 -0.00036084688747115853 0.0045617613585192986 0 -0.00026781700386584124 0.0047120216969961208 0 -0.00041817370891825042 0.0042879393595204327 0 -0.00051936111042237456 0.004723475334868563 0 -0.00036084688747115853 0.0045617613585192986 0 -0.00051936111042237456 0.004723475334868563 0 -0.00036084688747115853 0.0045617613585192986 0 -0.00026781700386584124 0.0047120216969961208 0 4.6772826272023303e-08 0.0049996094401862524 0 -5.3726005234227989e-05 0.004817648115176658 0 -2.5683917682190168e-05 0.0049161958353315313 0 4.6772826272023303e-08 0.0049996094401862524 0 -4.964661672934206e-09 0.0049999580381428627 0 -2.5683917682190168e-05 0.0049161958353315313 0 -7.4608026617297221e-05 0.0047015985866099303 0 4.6772826272023303e-08 0.0049996094401862524 0 -5.3726005234227989e-05 0.004817648115176658 0 -7.4608026617297221e-05 0.0047015985866099303 0 -8.9409565590389543e-05 0.0046702919427893605 0 -5.3726005234227989e-05 0.004817648115176658 0 -0.000135177891691663 0.0047845952565753504 0 -8.9409565590389543e-05 0.0046702919427893605 0 -5.3726005234227989e-05 0.004817648115176658 0 -0.000135177891691663 0.0047845952565753504 0 -5.3726005234227989e-05 0.004817648115176658 0 -8.0497143686499248e-05 0.0048718236139020802 0 -5.3726005234227989e-05 0.004817648115176658 0 -8.0497143686499248e-05 0.0048718236139020802 0 -2.5683917682190168e-05 0.0049161958353315313 0 -8.0497143686499248e-05 0.0048718236139020802 0 -2.5683917682190168e-05 0.0049161958353315313 0 -5.5365623908221971e-05 0.0049483203521100217 0 -0.00018881444254402867 0.004885260743292561 0 -8.0497143686499248e-05 0.0048718236139020802 0 -5.5365623908221971e-05 0.0049483203521100217 0 -4.964661672934206e-09 0.0049999580381428627 0 -2.5683917682190168e-05 0.0049161958353315313 0 -5.5365623908221971e-05 0.0049483203521100217 0 -4.964661672934206e-09 0.0049999580381428627 0 -5.5365623908221971e-05 0.0049483203521100217 0 -2.9843315241328425e-05 0.0049952343139274191 0 -4.964661672934206e-09 0.0049999580381428627 0 -2.9843315241328425e-05 0.0049952343139274191 0 -1.9990464726590167e-08 0.0049999987151171559 0 -0.00010779973222911546 0.0049788945705797165 0 -5.5365623908221971e-05 0.0049483203521100217 0 -2.9843315241328425e-05 0.0049952343139274191 0 -0.00010779973222911546 0.0049788945705797165 0 -2.9843315241328425e-05 0.0049952343139274191 0 -7.7799976063813329e-05 0.0050315344497741752 0 -2.9843315241328425e-05 0.0049952343139274191 0 -7.7799976063813329e-05 0.0050315344497741752 0 -2.8442778636866856e-05 0.0050140960579532247 0 -7.3513994399073852e-05 0.0050328364068844963 0 -6.6498235634267211e-05 0.0051125753742316347 0 -7.7799976063813329e-05 0.0050315344497741752 0 -2.8442778636866856e-05 0.0050140960579532247 0 -4.8951054736315367e-05 0.0050237028142739396 0 -2.9843315241328425e-05 0.0049952343139274191 0 -1.9990464726590167e-08 0.0049999987151171559 0 -2.8442778636866856e-05 0.0050140960579532247 0 -1.9990464726590167e-08 0.0049999987151171559 0 -2.8442778636866856e-05 0.0050140960579532247 0 -2.5328166836923656e-08 0.0050000881173748206 0 -2.8442778636866856e-05 0.0050140960579532247 0 -2.5328166836923656e-08 0.0050000881173748206 0 -4.8951054736315367e-05 0.0050237028142739396 0 -2.5328166836923656e-08 0.0050000881173748206 0 -4.8951054736315367e-05 0.0050237028142739396 0 -4.7171144503290206e-05 0.005040245785310208 0 -6.6498235634267211e-05 0.0051125753742316347 0 -6.6136477463151649e-05 0.0050569237568913652 0 -0.00010575958207886661 0.0049383966244392983 0 -6.533696617000789e-05 0.0048864911417005425 0 -0.00010742738991932503 0.0048505733711342236 0 -1.0559477013780984e-06 0.0049998453263498509 0 -4.8373134305306535e-07 0.0049998482204642661 0 -6.7657072871386753e-07 0.0049993740446402715 0 -6.6136477463151649e-05 0.0050569237568913652 0 -5.6334408666430868e-05 0.0048957914258105396 0 -5.9572219162356676e-10 0.0049999994619178952 0 -4.8373134305306535e-07 0.0049998482204642661 0 -2.3832989626045259e-10 0.0049999998847515149 0 -5.9572219162356676e-10 0.0049999994619178952 0 -1.0559477013780984e-06 0.0049998453263498509 0 -4.8373134305306535e-07 0.0049998482204642661 0 7.0063880974327003e-08 0.0049999701516817629 0 -6.6136477463151649e-05 0.0050569237568913652 0 -0.0002154663371343459 0.0051150295267312924 0 -0.0003527262077172247 0.005214166973651204 0 -0.00019725416292837219 0.0052357753295700447 0 -0.0002154663371343459 0.0051150295267312924 0 -8.0479439832744132e-05 0.0051725718152776049 0 -0.00019725416292837219 0.0052357753295700447 0 -8.0479439832744132e-05 0.0051725718152776049 0 -8.0082150574035157e-05 0.0052993505928633734 0 -0.00019725416292837219 0.0052357753295700447 0 -6.6136477463151649e-05 0.0050569237568913652 0 -0.00018841212459868404 0.0051759299737945104 0 -8.0082150574035157e-05 0.0052993505928633734 0 -0.00019725416292837219 0.0052357753295700447 0 -0.00026739623772645038 0.0053467594012112643 0 -0.00010575958207886661 0.0049383966244392983 0 -1.4193081027589982e-05 0.0049118003948206415 0 -6.533696617000789e-05 0.0048864911417005425 0 -0.00018841212459868404 0.0051759299737945104 0 -3.2994052712205548e-05 0.0047377082852312737 0 -0.0003527262077172247 0.005214166973651204 0 -0.00026739623772645038 0.0053467594012112643 0 -0.00044690446833882451 0.0053900906937271904 0 -0.0003527262077172247 0.005214166973651204 0 -0.00019725416292837219 0.0052357753295700447 0 -0.00026739623772645038 0.0053467594012112643 0 -1.4193081027589982e-05 0.0049118003948206415 0 1.5885568302695126e-05 0.0048572221304932833 0 7.7643255250553822e-05 0.0048845260132801748 0 -1.4193081027589982e-05 0.0049118003948206415 0 1.5885568302695126e-05 0.0048572221304932833 0 -3.4002862404876289e-05 0.0048451003362268664 0 1.5885568302695126e-05 0.0048572221304932833 0 6.4559990054586076e-06 0.0048245898459699172 0 3.5158602047323051e-05 0.004798165818715317 0 1.5885568302695126e-05 0.0048572221304932833 0 6.4559990054586076e-06 0.0048245898459699172 0 -3.4002862404876289e-05 0.0048451003362268664 0 6.4559990054586076e-06 0.0048245898459699172 0 -3.4002862404876289e-05 0.0048451003362268664 0 -1.6122628318573036e-05 0.0048051064033614145 0 -6.533696617000789e-05 0.0048864911417005425 0 -3.4002862404876289e-05 0.0048451003362268664 0 -0.00010742738991932503 0.0048505733711342236 0 -3.4002862404876289e-05 0.0048451003362268664 0 -5.1137485331277007e-05 0.0047913905593927253 0 -0.00010742738991932503 0.0048505733711342236 0 -1.4193081027589982e-05 0.0049118003948206415 0 -6.533696617000789e-05 0.0048864911417005425 0 -3.4002862404876289e-05 0.0048451003362268664 0 -5.1137485331277007e-05 0.0047913905593927253 0 -0.00010742738991932503 0.0048505733711342236 0 -0.0001084333017352773 0.0047646487048295738 0 -5.1137485331277007e-05 0.0047913905593927253 0 -0.0001084333017352773 0.0047646487048295738 0 -1.1231131980845281e-05 0.0047322435617575655 0 -3.4002862404876289e-05 0.0048451003362268664 0 -5.1137485331277007e-05 0.0047913905593927253 0 -1.6122628318573036e-05 0.0048051064033614145 0 -5.1137485331277007e-05 0.0047913905593927253 0 -1.6122628318573036e-05 0.0048051064033614145 0 -8.4854308918927698e-06 0.0047785184515188829 0 -1.6122628318573036e-05 0.0048051064033614145 0 -8.4854308918927698e-06 0.0047785184515188829 0 1.8589212475117979e-05 0.0047950637665020463 0 6.4559990054586076e-06 0.0048245898459699172 0 -1.6122628318573036e-05 0.0048051064033614145 0 1.8589212475117979e-05 0.0047950637665020463 0 -5.1137485331277007e-05 0.0047913905593927253 0 -8.4854308918927698e-06 0.0047785184515188829 0 -1.1231131980845281e-05 0.0047322435617575655 0 -8.4854308918927698e-06 0.0047785184515188829 0 2.6801439852527769e-05 0.0047800999128373295 0 -1.1231131980845281e-05 0.0047322435617575655 0 -8.4854308918927698e-06 0.0047785184515188829 0 2.6801439852527769e-05 0.0047800999128373295 0 1.8589212475117979e-05 0.0047950637665020463 0 2.6801439852527769e-05 0.0047800999128373295 0 3.6418869627465134e-05 0.0047977229026216466 0 1.8589212475117979e-05 0.0047950637665020463 0 0.00012539977945213391 0.0046432699374393529 0 8.9015753666340613e-05 0.0046613441723545573 0 0.00012184001098224113 0.0046921435341579802 0 0.00012539977945213391 0.0046432699374393529 0 6.4559990054586076e-06 0.0048245898459699172 0 3.5158602047323051e-05 0.004798165818715317 0 1.8589212475117979e-05 0.0047950637665020463 0 -3.9168442073711879e-07 0.0049996964820702393 0 -2.3832989626045259e-10 0.0049999998847515149 0 -7.0075247124224271e-10 0.0049999994095478719 0 -4.8373134305306535e-07 0.0049998482204642661 0 -3.9168442073711879e-07 0.0049996964820702393 0 -2.3832989626045259e-10 0.0049999998847515149 0 -4.8373134305306535e-07 0.0049998482204642661 0 -3.9168442073711879e-07 0.0049996964820702393 0 -6.7657072871386753e-07 0.0049993740446402715 0 -5.6334408666430868e-05 0.0048957914258105396 0 -9.8360648113808227e-06 0.0049483449844833103 0 -3.9168442073711879e-07 0.0049996964820702393 0 -6.7657072871386753e-07 0.0049993740446402715 0 -6.0060291895919092e-07 0.0049991656689306633 0 -3.9168442073711879e-07 0.0049996964820702393 0 -6.0060291895919092e-07 0.0049991656689306633 0 -7.0075247124224271e-10 0.0049999994095478719 0 2.5454878891471025e-06 0.0050022741558258237 0 2.0993565132010327e-09 0.0050000034596572231 0 2.3730152135201358e-06 0.0050023212578721504 0 -9.8360648113808227e-06 0.0049483449844833103 0 5.8239651006816882e-10 0.0050000325999026768 0 2.0993565132010327e-09 0.0050000034596572231 0 2.3730152135201358e-06 0.0050023212578721504 0 3.1486188007591391e-09 0.0050000054650636899 0 2.3730152135201358e-06 0.0050023212578721504 0 3.1486188007591391e-09 0.0050000054650636899 0 2.5690236350119078e-06 0.0050024887220933307 0 2.3730152135201358e-06 0.0050023212578721504 0 5.8198205019635045e-06 0.0050053197657485967 0 2.5690236350119078e-06 0.0050024887220933307 0 5.8198205019635045e-06 0.0050053197657485967 0 1.2361788312099003e-05 0.0050118246902702166 0 2.5690236350119078e-06 0.0050024887220933307 0 -9.8360648113808227e-06 0.0049483449844833103 0 7.7145120051990543e-06 0.0050267817577088142 0 7.2573636975788277e-06 0.005008323622316342 0 5.8198205019635045e-06 0.0050053197657485967 0 9.8035169109297745e-06 0.0050073406144298194 0 2.5454878891471025e-06 0.0050022741558258237 0 2.3730152135201358e-06 0.0050023212578721504 0 5.8198205019635045e-06 0.0050053197657485967 0 -9.8360648113808227e-06 0.0049483449844833103 0 -1.2018700974900384e-05 0.0048630705320072444 0 7.2573636975788277e-06 0.005008323622316342 0 9.7623780563004874e-06 0.0050070192493465084 0 9.8035169109297745e-06 0.0050073406144298194 0 2.6801439852527769e-05 0.0047800999128373295 0 -1.1231131980845281e-05 0.0047322435617575655 0 7.719892592041059e-05 0.004704730699164922 0 -1.2018700974900384e-05 0.0048630705320072444 0 7.2284174029724213e-05 0.0048750079813561263 0 9.7623780563004874e-06 0.0050070192493465084 0 9.1996535895010355e-06 0.0050078011995823438 0 9.190390670321075e-06 0.0050063136189748801 0 9.7623780563004874e-06 0.0050070192493465084 0 9.1996535895010355e-06 0.0050078011995823438 0 9.8035169109297745e-06 0.0050073406144298194 0 9.1996535895010355e-06 0.0050078011995823438 0 9.8035169109297745e-06 0.0050073406144298194 0 1.2361788312099003e-05 0.0050118246902702166 0 2.9219336081022728e-05 0.0050281913818156039 0 1.1005634470024569e-05 0.0050127990002666635 0 5.8198205019635045e-06 0.0050053197657485967 0 9.8035169109297745e-06 0.0050073406144298194 0 1.2361788312099003e-05 0.0050118246902702166 0 1.2361788312099003e-05 0.0050118246902702166 0 1.9222924285672715e-05 0.0049996925153987844 0 4.9241620650798093e-06 0.0049999976704659986 0 1.2361788312099003e-05 0.0050118246902702166 0 3.079061200880968e-05 0.0050145824069137432 0 1.9222924285672715e-05 0.0049996925153987844 0 3.079061200880968e-05 0.0050145824069137432 0 1.9222924285672715e-05 0.0049996925153987844 0 4.0116704859636837e-05 0.0050024002770579466 0 3.274399601276711e-05 0.0050381641620101383 0 1.2361788312099003e-05 0.0050118246902702166 0 3.079061200880968e-05 0.0050145824069137432 0 1.9222924285672715e-05 0.0049996925153987844 0 4.0116704859636837e-05 0.0050024002770579466 0 3.3205573438016233e-05 0.0049813095901503936 0 1.9222924285672715e-05 0.0049996925153987844 0 4.9241620650798093e-06 0.0049999976704659986 0 1.1346966924757834e-05 0.0049873798727243113 0 4.9241620650798093e-06 0.0049999976704659986 0 2.1693956895245229e-06 0.0049959141150536452 0 1.1346966924757834e-05 0.0049873798727243113 0 4.9241620650798093e-06 0.0049999976704659986 0 -3.5954124781725856e-10 0.0050000027107338519 0 2.1693956895245229e-06 0.0049959141150536452 0 -3.5954124781725856e-10 0.0050000027107338519 0 2.1693956895245229e-06 0.0049959141150536452 0 1.2019121184617857e-09 0.0049999884316703691 0 4.9241620650798093e-06 0.0049999976704659986 0 2.5690236350119078e-06 0.0050024887220933307 0 -3.5954124781725856e-10 0.0050000027107338519 0 3.1486188007591391e-09 0.0050000054650636899 0 2.5690236350119078e-06 0.0050024887220933307 0 -3.5954124781725856e-10 0.0050000027107338519 0 1.2361788312099003e-05 0.0050118246902702166 0 4.9241620650798093e-06 0.0049999976704659986 0 2.5690236350119078e-06 0.0050024887220933307 0 0.00011609714436510206 0.0050244603278112119 0 0.00013642821787280082 0.0050008547537490717 0 9.2830035886093471e-05 0.0050042900779507411 0 0.00011609714436510206 0.0050244603278112119 0 0.00013642821787280082 0.0050008547537490717 0 0.00014722425202654327 0.005042059863648341 0 0.00013642821787280082 0.0050008547537490717 0 0.00014722425202654327 0.005042059863648341 0 0.00020643536433356132 0.0050236446889696217 0 0.00013642821787280082 0.0050008547537490717 0 0.00017447904017081923 0.0049808006978029765 0 0.00013731645003647267 0.0049614046316396 0 0.00013642821787280082 0.0050008547537490717 0 9.7079338627829604e-05 0.0049786833141550147 0 0.00013731645003647267 0.0049614046316396 0 0.00013642821787280082 0.0050008547537490717 0 9.2830035886093471e-05 0.0050042900779507411 0 9.7079338627829604e-05 0.0049786833141550147 0 6.4507996501942877e-05 0.004996050474558162 0 9.2830035886093471e-05 0.0050042900779507411 0 9.7079338627829604e-05 0.0049786833141550147 0 6.4507996501942877e-05 0.004996050474558162 0 4.0116704859636837e-05 0.0050024002770579466 0 3.3205573438016233e-05 0.0049813095901503936 0 6.4507996501942877e-05 0.004996050474558162 0 4.0116704859636837e-05 0.0050024002770579466 0 6.4608087335545373e-05 0.0050232002404050806 0 3.079061200880968e-05 0.0050145824069137432 0 4.0116704859636837e-05 0.0050024002770579466 0 6.4608087335545373e-05 0.0050232002404050806 0 3.274399601276711e-05 0.0050381641620101383 0 3.079061200880968e-05 0.0050145824069137432 0 6.4608087335545373e-05 0.0050232002404050806 0 6.4507996501942877e-05 0.004996050474558162 0 9.2830035886093471e-05 0.0050042900779507411 0 6.4608087335545373e-05 0.0050232002404050806 0 0.00011609714436510206 0.0050244603278112119 0 6.4608087335545373e-05 0.0050232002404050806 0 9.8223115701964541e-05 0.0050500638935366375 0 0.00011609714436510206 0.0050244603278112119 0 9.2830035886093471e-05 0.0050042900779507411 0 6.4608087335545373e-05 0.0050232002404050806 0 6.4608087335545373e-05 0.0050232002404050806 0 5.6955578976104391e-05 0.0050575126599532692 0 9.8223115701964541e-05 0.0050500638935366375 0 7.2284174029724213e-05 0.0048750079813561263 0 0.00014499685660257619 0.0048991624540435331 0 3.274399601276711e-05 0.0050381641620101383 0 6.4608087335545373e-05 0.0050232002404050806 0 5.6955578976104391e-05 0.0050575126599532692 0 2.9219336081022728e-05 0.0050281913818156039 0 7.2284174029724213e-05 0.0048750079813561263 0 2.6801439852527769e-05 0.0047800999128373295 0 7.719892592041059e-05 0.004704730699164922 0 8.0524191671073697e-05 0.0047659267606245939 0 7.2284174029724213e-05 0.0048750079813561263 0 0.0001635972647517364 0.0047446537239746803 0 0.00014689659444719235 0.0047553833945598494 0 0.00017853039091508233 0.0047732843469466503 0 0.00018119336763455082 0.004743364745459955 0 7.719892592041059e-05 0.004704730699164922 0 0.00014893056531956186 0.0047525836162974544 0 8.0524191671073697e-05 0.0047659267606245939 0 0.00017853039091508233 0.0047732843469466503 0 0.00018119336763455082 0.004743364745459955 0 0.00020722543726047857 0.0047593428365466598 0 0.00011609714436510206 0.0050244603278112119 0 9.8223115701964541e-05 0.0050500638935366375 0 0.00014722425202654327 0.005042059863648341 0 0.00014499685660257619 0.0048991624540435331 0 0.00018126524650391454 0.0048867933397592255 0 0.00018119336763455082 0.004743364745459955 0 0.0002150647963401656 0.0047328284661725672 0 0.00020722543726047857 0.0047593428365466598 0 0.0002150647963401656 0.0047328284661725672 0 0.00020722543726047857 0.0047593428365466598 0 0.00023407566773764533 0.0047480839011859307 0 0.00020722543726047857 0.0047593428365466598 0 0.00022248548452124072 0.0047742323421721506 0 0.00023407566773764533 0.0047480839011859307 0 0.00020743221848408842 0.0047906098029126647 0 0.00022248548452124072 0.0047742323421721506 0 0.00022687600353334244 0.004803711569324339 0 0.00020722543726047857 0.0047593428365466598 0 0.00020743221848408842 0.0047906098029126647 0 0.00022248548452124072 0.0047742323421721506 0 0.00017853039091508233 0.0047732843469466503 0 0.00020722543726047857 0.0047593428365466598 0 0.00020743221848408842 0.0047906098029126647 0 0.0001635972647517364 0.0047446537239746803 0 0.00020659869968032629 0.0047939542466382242 0 0.00014893056531956186 0.0047525836162974544 0 0.00020743221848408842 0.0047906098029126647 0 0.00017771122842578485 0.0048045076275775155 0 0.00010038177880872483 0.0044194632328794208 0 0.00013620944406811695 0.0044022836053819901 0 0.00011780844890782813 0.0043623014416288254 0 0.00010038177880872483 0.0044194632328794208 0 6.8479710946585707e-05 0.0043534096271779258 0 0.00011780844890782813 0.0043623014416288254 0 0.00011850192481434556 0.0046324744051716256 0 0.00027490756884571133 0.0042617130161962651 0 0.00010038177880872483 0.0044194632328794208 0 3.9974489600098806e-05 0.0044048778009123293 0 6.8479710946585707e-05 0.0043534096271779258 0 0.00020743221848408842 0.0047906098029126647 0 0.00017771122842578485 0.0048045076275775155 0 0.00022687600353334244 0.004803711569324339 0 0.00027490756884571133 0.0042617130161962651 0 0.00010036854004832289 0.0037781052500030039 0 0.00012539977945213391 0.0046432699374393529 0 0.00013950815211714025 0.004614350660404185 0 3.4557161713210654e-05 0.0047929890040484683 0 8.0524191671073697e-05 0.0047659267606245939 0 0.00011046624635614488 0.0047998527931278805 0 2.6801439852527769e-05 0.0047800999128373295 0 3.4557161713210654e-05 0.0047929890040484683 0 8.0524191671073697e-05 0.0047659267606245939 0 0.00014893056531956186 0.0047525836162974544 0 8.0524191671073697e-05 0.0047659267606245939 0 0.00011046624635614488 0.0047998527931278805 0 0.00014893056531956186 0.0047525836162974544 0 0.00017771122842578485 0.0048045076275775155 0 0.00011046624635614488 0.0047998527931278805 0 0.00011850192481434556 0.0046324744051716256 0 0.00013950815211714025 0.004614350660404185 0 0.00010038177880872483 0.0044194632328794208 0 0.00016219431548718217 0.0044341432009639865 0 0.00013620944406811695 0.0044022836053819901 0 0.00013620944406811695 0.0044022836053819901 0 0.00017077746741566858 0.0043905900926457771 0 0.00014672471657458923 0.0043680239347390548 0 0.00016219431548718217 0.0044341432009639865 0 0.00013620944406811695 0.0044022836053819901 0 0.00017077746741566858 0.0043905900926457771 0 0.00012539977945213391 0.0046432699374393529 0 -3.2994052712205548e-05 0.0047377082852312737 0 0.00022320411965051653 0.0044478442186972368 0 0.00016219431548718217 0.0044341432009639865 0 0.00019316424363041826 0.0043855634375111856 0 1.5885568302695126e-05 0.0048572221304932833 0 3.5158602047323051e-05 0.004798165818715317 0 7.7643255250553822e-05 0.0048845260132801748 0 0.00016219431548718217 0.0044341432009639865 0 0.00017077746741566858 0.0043905900926457771 0 0.00019316424363041826 0.0043855634375111856 0 0.00020552988814454001 0.0045399300518909691 0 -3.2994052712205548e-05 0.0047377082852312737 0 0.00017077746741566858 0.0043905900926457771 0 0.00019472576551826385 0.0043852083705930838 0 0.00016246705052984719 0.0043160357188976473 0 -3.2994052712205548e-05 0.0047377082852312737 0 -0.00018579275994746176 0.0048936761418219314 0 -0.0003527262077172247 0.005214166973651204 0 -0.00044690446833882451 0.0053900906937271904 0 -0.00053914260363447449 0.0052182376711431798 0 0.00017077746741566858 0.0043905900926457771 0 0.00014672471657458923 0.0043680239347390548 0 0.00016246705052984719 0.0043160357188976473 0 0.00014672471657458923 0.0043680239347390548 0 0.00016246705052984719 0.0043160357188976473 0 0.00011780844890782813 0.0043623014416288254 0 0.00013620944406811695 0.0044022836053819901 0 0.00014672471657458923 0.0043680239347390548 0 0.00011780844890782813 0.0043623014416288254 0 -7.292698869974878e-05 0.0040256510350462765 0 -0.00018579275994746176 0.0048936761418219314 0 0.00012738031777217307 0.0042436094043572514 0 0.00016246705052984719 0.0043160357188976473 0 9.6904010180450103e-05 0.0042996120555711228 0 -0.00043482050395895664 0.0051309945509917035 0 -0.0003527262077172247 0.005214166973651204 0 -0.00053914260363447449 0.0052182376711431798 0 9.613353441957112e-05 0.0033667299001235453 0 0.00013610510020026231 0.0032699702317227253 0 0.00011304192821539656 0.0032547641466515466 0 0.00013610510020026231 0.0032699702317227253 0 0.00011304192821539656 0.0032547641466515466 0 0.00014027146072382289 0.0032038436294013184 0 0.00021580339050180196 0.0031765208478854927 0 0.00020968643367717688 0.003184980027644624 0 0.00021621969291202309 0.0031857134834125857 0 6.8479710946585707e-05 0.0043534096271779258 0 0.00011780844890782813 0.0043623014416288254 0 9.6904010180450103e-05 0.0042996120555711228 0 0.00011304192821539656 0.0032547641466515466 0 0.00014027146072382289 0.0032038436294013184 0 0.00013511675318829351 0.0032016853837154953 0 0.00016246705052984719 0.0043160357188976473 0 0.00011780844890782813 0.0043623014416288254 0 9.6904010180450103e-05 0.0042996120555711228 0 0.00010036854004832289 0.0037781052500030039 0 0.00014571376248233769 0.0037065378941994374 0 0.00013511675318829351 0.0032016853837154953 0 0.00016587076270238287 0.0032012179150076301 0 0.00017737359064745365 0.0031955549845842641 0 0.00016065450951439759 0.0032109645671835009 0 0.00013511675318829351 0.0032016853837154953 0 0.00016587076270238287 0.0032012179150076301 0 0.00016587076270238287 0.0032012179150076301 0 0.00018821511282990575 0.0031991328835948079 0 0.00017737359064745365 0.0031955549845842641 0 0.00013511675318829351 0.0032016853837154953 0 0.00017737359064745365 0.0031955549845842641 0 0.000189412452192248 0.0031885818375812559 0 0.00021580339050180196 0.0031765208478854927 0 0.00013511675318829351 0.0032016853837154953 0 0.000189412452192248 0.0031885818375812559 0 0.00013964613741510536 0.0031576330912466651 0 0.00014074263303438038 0.0032224068196279325 0 0.00017737359064745365 0.0031955549845842641 0 0.000189412452192248 0.0031885818375812559 0 0.00019991713151539818 0.0031905356967152124 0 0.00018821511282990575 0.0031991328835948079 0 0.00017737359064745365 0.0031955549845842641 0 0.00019991713151539818 0.0031905356967152124 0 0.00021580339050180196 0.0031765208478854927 0 0.000189412452192248 0.0031885818375812559 0 0.00020968643367717688 0.003184980027644624 0 0.000189412452192248 0.0031885818375812559 0 0.00020968643367717688 0.003184980027644624 0 0.00019991713151539818 0.0031905356967152124 0 0.00020968643367717688 0.003184980027644624 0 0.00019991713151539818 0.0031905356967152124 0 0.00021429720486417338 0.0031870489806870516 0 0.00021723509122382182 0.0031949529773980462 0 0.00018821511282990575 0.0031991328835948079 0 0.00019991713151539818 0.0031905356967152124 0 0.00021723509122382182 0.0031949529773980462 0 0.00019991713151539818 0.0031905356967152124 0 0.00021429720486417338 0.0031870489806870516 0 0.00021723509122382182 0.0031949529773980462 0 0.00021907238893328649 0.0031843600634589133 0 0.00021429720486417338 0.0031870489806870516 0 0.00021907238893328649 0.0031843600634589133 0 0.00021621969291202309 0.0031857134834125857 0 0.0002094041799552435 0.0031904826969548711 0 0.00021907238893328649 0.0031843600634589133 0 0.00021429720486417338 0.0031870489806870516 0 0.00021621969291202309 0.0031857134834125857 0 0.00020968643367717688 0.003184980027644624 0 0.00021429720486417338 0.0031870489806870516 0 0.00021621969291202309 0.0031857134834125857 0 0.00021580339050180196 0.0031765208478854927 0 0.00021621969291202309 0.0031857134834125857 0 0.00021346858735976109 0.0031970662086983231 0 0.00013964613741510536 0.0031576330912466651 0 0.00039712563119617624 0.0037325089316240295 0 0.00021580339050180196 0.0031765208478854927 0 0.00021346858735976109 0.0031970662086983231 0 0.00021561106189260277 0.003223914032823366 0 0.00021621969291202309 0.0031857134834125857 0 0.00021346858735976109 0.0031970662086983231 0 0.0002094041799552435 0.0031904826969548711 0 0.00019994650485996544 0.0032070593232846338 0 0.00018182584539337793 0.0031964786143049945 0 0.00017145179536152749 0.0032315932624814728 0 0.00021346858735976109 0.0031970662086983231 0 0.00019994650485996544 0.0032070593232846338 0 0.00021561106189260277 0.003223914032823366 0 0.00021346858735976109 0.0031970662086983231 0 0.00019994650485996544 0.0032070593232846338 0 0.0002094041799552435 0.0031904826969548711 0 0.00019994650485996544 0.0032070593232846338 0 0.0002094041799552435 0.0031904826969548711 0 0.00018182584539337793 0.0031964786143049945 0 0.0002094041799552435 0.0031904826969548711 0 0.00020551539005250792 0.0031735810798706704 0 0.00018182584539337793 0.0031964786143049945 0 0.00021907238893328649 0.0031843600634589133 0 0.0002094041799552435 0.0031904826969548711 0 0.00020551539005250792 0.0031735810798706704 0 0.00022815937154569471 0.0031804582746939661 0 0.00021907238893328649 0.0031843600634589133 0 0.00020551539005250792 0.0031735810798706704 0 0.00019425576863114764 0.003137572923143751 0 0.00020551539005250792 0.0031735810798706704 0 0.00016608360186288335 0.0031675020033570876 0 0.00020551539005250792 0.0031735810798706704 0 0.00016608360186288335 0.0031675020033570876 0 0.00018182584539337793 0.0031964786143049945 0 0.00016608360186288335 0.0031675020033570876 0 0.00018182584539337793 0.0031964786143049945 0 0.0001474381744195974 0.0032038685167963292 0 0.00012711593083706616 0.0030915644713925211 0 0.00016608360186288335 0.0031675020033570876 0 0.00011793628902548722 0.0031771863514165727 0 0.00012711593083706616 0.0030915644713925211 0 9.7015077667039228e-05 0.0031071068032787904 0 5.2835408720482526e-05 0.0030795536448103679 0 0.00012173286051869095 0.003106676906321759 0 0.00011728861118049496 0.0031035412690670265 0 0.00016608360186288335 0.0031675020033570876 0 0.00011793628902548722 0.0031771863514165727 0 0.0001474381744195974 0.0032038685167963292 0 0.00010816141177725324 0.0032288626696224329 0 0.0001474381744195974 0.0032038685167963292 0 0.00017145179536152749 0.0032315932624814728 0 0.00011728861118049496 0.0031035412690670265 0 9.3096161208770919e-05 0.0033922983791830107 0 0.00011793628902548722 0.0031771863514165727 0 0.00010816141177725324 0.0032288626696224329 0 0.0001474381744195974 0.0032038685167963292 0 0.00018182584539337793 0.0031964786143049945 0 0.0001474381744195974 0.0032038685167963292 0 0.00017145179536152749 0.0032315932624814728 0 0.00041744356145640766 0.0041038316162661202 0 0.0003833745684491948 0.0042794046286492339 0 0.00055868359626026916 0.0043036466226517248 0 0.00041744356145640766 0.0041038316162661202 0 0.00024731689992568825 0.0041981575747710503 0 0.0003833745684491948 0.0042794046286492339 0 0.00013186348837666235 0.0040484378423802396 0 0.00041744356145640766 0.0041038316162661202 0 0.00024731689992568825 0.0041981575747710503 0 9.3096161208770919e-05 0.0033922983791830107 0 0.00031458267731180879 0.003689180898571752 0 0.00013186348837666235 0.0040484378423802396 0 0.00024731689992568825 0.0041981575747710503 0 7.3286107379359381e-05 0.0042281307443549042 0 0.00022475758427019423 0.0043306045714315766 0 0.00041060569560471492 0.0044587401868507355 0 0.00022772927058925321 0.004469154714311736 0 0.00025250155739358211 0.0043100972908835826 0 0.00012642229938496211 0.0039321012674324411 0 0.00022475758427019423 0.0043306045714315766 0 9.4843136450250106e-05 0.0042436426239971436 0 0.00013198758319614274 0.0043873180469579613 0 0.00024731689992568825 0.0041981575747710503 0 0.00022475758427019423 0.0043306045714315766 0 7.3286107379359381e-05 0.0042281307443549042 0 0.00024731689992568825 0.0041981575747710503 0 0.00022475758427019423 0.0043306045714315766 0 0.0003833745684491948 0.0042794046286492339 0 0.00022475758427019423 0.0043306045714315766 0 0.00013198758319614274 0.0043873180469579613 0 0.00022772927058925321 0.004469154714311736 0 0.00022475758427019423 0.0043306045714315766 0 0.0003833745684491948 0.0042794046286492339 0 0.00041060569560471492 0.0044587401868507355 0 0.0003833745684491948 0.0042794046286492339 0 0.00055868359626026916 0.0043036466226517248 0 0.00041060569560471492 0.0044587401868507355 0 0.00052100192556946449 0.0043476467397068619 0 0.00043180692478696014 0.0044376597352243728 0 0.00052469855849155745 0.004348452002541036 0 0.00052292045863425694 0.0044768528310798195 0 0.00041060569560471492 0.0044587401868507355 0 0.00052469855849155745 0.004348452002541036 0 0.00061741043266595817 0.0043523598872063788 0 0.00063230788100331178 0.0042365430912795635 0 0.00061741043266595817 0.0043523598872063788 0 0.00064305283550093728 0.0044592996183827772 0 0.00052292045863425694 0.0044768528310798195 0 0.00052469855849155745 0.004348452002541036 0 0.00061741043266595817 0.0043523598872063788 0 0.00052292045863425694 0.0044768528310798195 0 0.00075224797040706508 0.0042582126603567198 0 0.00061741043266595817 0.0043523598872063788 0 0.00064305283550093728 0.0044592996183827772 0 0.00022248548452124072 0.0047742323421721506 0 0.00022687600353334244 0.004803711569324339 0 0.00024318603100538709 0.0047699484398755366 0 0.00027490756884571133 0.0042617130161962651 0 0.0004595306722190442 0.0046588351152068589 0 0.00075224797040706508 0.0042582126603567198 0 0.00061741043266595817 0.0043523598872063788 0 0.00063230788100331178 0.0042365430912795635 0 9.613353441957112e-05 0.0033667299001235453 0 0.00011304192821539656 0.0032547641466515466 0 2.6603235579652888e-05 0.003356133850729557 0 0.00027490756884571133 0.0042617130161962651 0 0.00039712563119617624 0.0037325089316240295 0 0.00019994650485996544 0.0032070593232846338 0 0.00017145179536152749 0.0032315932624814728 0 0.00021561106189260277 0.003223914032823366 0 0.00041744356145640766 0.0041038316162661202 0 0.00055868359626026916 0.0043036466226517248 0 0.00069974126696940398 0.0041523661826092829 0 0.00031458267731180879 0.003689180898571752 0 0.00039712563119617624 0.0037325089316240295 0 0.00052100192556946449 0.0043476467397068619 0 0.00039712563119617624 0.0037325089316240295 0 0.00029765132433176361 0.0025048873466721644 0 0.00032280223374120994 0.0025818412801740112 0 0.00027048879811534816 0.0025477402638422928 0 -0.00013023570151326797 0.0029198717990648652 0 7.3851220600021995e-05 0.0030571046658275161 0 -9.8681601003474404e-05 0.00319078213854029 0 -5.6716094501005718e-05 0.0028460078304524661 0 0.00012359669740650127 0.0028633072328729681 0 -0.00013023570151326797 0.0029198717990648652 0 -0.00016239186302490798 0.0029264834110546306 0 -9.8681601003474404e-05 0.00319078213854029 0 -0.00015351084287797172 0.0030411909985910636 0 -0.00013288592107281563 0.0030091673616444133 0 -7.6574423636442633e-05 0.0030555305689980534 0 -0.00013123834869205537 0.0029500467777076014 0 -5.6716094501005718e-05 0.0028460078304524661 0 -9.5208122778009805e-05 0.0029545943527529051 0 -0.00014212246314810641 0.0029644056876490226 0 -0.00015409020678445898 0.0029154802746928499 0 -0.00013123834869205537 0.0029500467777076014 0 -0.00014531819087858038 0.0029039196794935283 0 -5.6716094501005718e-05 0.0028460078304524661 0 -0.00014531819087858038 0.0029039196794935283 0 -0.00014531819087858038 0.0029039196794935283 0 -0.00015014780579497282 0.0029831167405257562 0 -0.00017260004559492152 0.003029236410943026 0 -0.00015741343687386192 0.0030042218923517459 0 -0.00017781296461951926 0.0029752623478749175 0 -0.00015351084287797172 0.0030411909985910636 0 -0.00017260004559492152 0.003029236410943026 0 -0.00015741343687386192 0.0030042218923517459 0 -0.00015524625805771216 0.0029652563593469128 0 -0.00015741343687386192 0.0030042218923517459 0 -0.00017781296461951926 0.0029752623478749175 0 -0.00015351084287797172 0.0030411909985910636 0 -0.00015741343687386192 0.0030042218923517459 0 -0.00013288592107281563 0.0030091673616444133 0 -0.00015524625805771216 0.0029652563593469128 0 -0.00015741343687386192 0.0030042218923517459 0 -0.00013288592107281563 0.0030091673616444133 0 -0.00013123834869205537 0.0029500467777076014 0 -0.00010292465892896606 0.0030618843879507153 0 -0.00018352224188865763 0.0030770685002184618 0 -7.6574423636442633e-05 0.0030555305689980534 0 -7.8322123909211898e-05 0.0031518136612628399 0 -7.6574423636442633e-05 0.0030555305689980534 0 -7.8322123909211898e-05 0.0031518136612628399 0 -3.9013684418004991e-05 0.0031105694034213281 0 -0.00012060923218337152 0.0029812897947050386 0 -0.00013288592107281563 0.0030091673616444133 0 -7.6574423636442633e-05 0.0030555305689980534 0 -0.00013123834869205537 0.0029500467777076014 0 4.6436923363363689e-06 0.0031028069139200087 0 -7.8322123909211898e-05 0.0031518136612628399 0 -3.9064350043592003e-05 0.003162525424441248 0 -3.9013684418004991e-05 0.0031105694034213281 0 4.6436923363363689e-06 0.0031028069139200087 0 8.0908294849358801e-05 0.0033099108284951584 0 -7.8322123909211898e-05 0.0031518136612628399 0 -3.9064350043592003e-05 0.003162525424441248 0 4.1029318571919166e-05 0.0032406353747160997 0 -3.9064350043592003e-05 0.003162525424441248 0 3.149554260493718e-05 0.0031900394749759297 0 6.3288404892003546e-05 0.0031869077877059288 0 -2.9825061441899125e-05 0.0031639832613239607 0 4.3509514629332638e-05 0.0031822781320834373 0 -3.9064350043592003e-05 0.003162525424441248 0 -9.0663798373309427e-07 0.0031297156482448748 0 2.569246905925088e-05 0.0031643019108166812 0 -3.9064350043592003e-05 0.003162525424441248 0 3.149554260493718e-05 0.0031900394749759297 0 4.1029318571919166e-05 0.0032406353747160997 0 3.149554260493718e-05 0.0031900394749759297 0 6.3288404892003546e-05 0.0031869077877059288 0 3.9234377537365964e-05 0.0032600523742994333 0 -3.9064350043592003e-05 0.003162525424441248 0 -9.0663798373309427e-07 0.0031297156482448748 0 -3.9013684418004991e-05 0.0031105694034213281 0 -7.6574423636442633e-05 0.0030555305689980534 0 -3.9013684418004991e-05 0.0031105694034213281 0 -6.4547912791048206e-07 0.0030913327403659084 0 2.0705927741706979e-06 0.0030449101554548205 0 -7.6574423636442633e-05 0.0030555305689980534 0 -6.4547912791048206e-07 0.0030913327403659084 0 -9.0663798373309427e-07 0.0031297156482448748 0 -3.9013684418004991e-05 0.0031105694034213281 0 -6.4547912791048206e-07 0.0030913327403659084 0 2.0705927741706979e-06 0.0030449101554548205 0 -6.4547912791048206e-07 0.0030913327403659084 0 5.2835408720482526e-05 0.0030795536448103679 0 -9.0663798373309427e-07 0.0031297156482448748 0 -6.4547912791048206e-07 0.0030913327403659084 0 4.2675899435724414e-05 0.0031247464163751742 0 -6.4547912791048206e-07 0.0030913327403659084 0 5.2835408720482526e-05 0.0030795536448103679 0 4.2675899435724414e-05 0.0031247464163751742 0 9.7015077667039228e-05 0.0031071068032787904 0 5.2835408720482526e-05 0.0030795536448103679 0 4.2675899435724414e-05 0.0031247464163751742 0 9.7015077667039228e-05 0.0031071068032787904 0 7.8327193062277249e-05 0.0031717439085940024 0 4.2675899435724414e-05 0.0031247464163751742 0 -9.0663798373309427e-07 0.0031297156482448748 0 4.2675899435724414e-05 0.0031247464163751742 0 2.569246905925088e-05 0.0031643019108166812 0 7.8327193062277249e-05 0.0031717439085940024 0 4.2675899435724414e-05 0.0031247464163751742 0 2.569246905925088e-05 0.0031643019108166812 0 0.00020197516290829044 0.0032133523825918623 0 6.3288404892003546e-05 0.0031869077877059288 0 0.00012380607395828561 0.0032514607171883802 0 9.3096161208770919e-05 0.0033922983791830107 0 4.3509514629332638e-05 0.0031822781320834373 0 0.00020197516290829044 0.0032133523825918623 0 0.00012380607395828561 0.0032514607171883802 0 0.0001589792269556013 0.0033468181489658285 0 9.3096161208770919e-05 0.0033922983791830107 0 0.00012642229938496211 0.0039321012674324411 0 0.00012380607395828561 0.0032514607171883802 0 0.0001589792269556013 0.0033468181489658285 0 3.9234377537365964e-05 0.0032600523742994333 0 6.3288404892003546e-05 0.0031869077877059288 0 0.00012380607395828561 0.0032514607171883802 0 3.9234377537365964e-05 0.0032600523742994333 0 0.00012642229938496211 0.0039321012674324411 0 8.0908294849358801e-05 0.0033099108284951584 0 0.00024553174802932718 0.0036335084211699636 0 0.00010913759411278164 0.0037150014526060953 0 6.4492102984660356e-05 0.0035115108115275017 0 0.00024553174802932718 0.0036335084211699636 0 0.00010913759411278164 0.0037150014526060953 0 0.00015367500339959504 0.0039172917527944013 0 0.00012642229938496211 0.0039321012674324411 0 0.00018896467356145259 0.0039238886006773442 0 9.4843136450250106e-05 0.0042436426239971436 0 0.00013198758319614274 0.0043873180469579613 0 2.4460462998476394e-05 0.0044782036134781503 0 0.00020236812686764616 0.0035228582289255463 0 0.00018896467356145259 0.0039238886006773442 0 0.00031573050351424794 0.0033631832800681901 0 0.00026099396865462477 0.0035329182659503949 0 0.00035175617885719067 0.0035323071271597074 0 0.00031573050351424794 0.0033631832800681901 0 0.00011514203117454197 0.0032946417771276791 0 0.00015600104527779639 0.0035048334787466987 0 0.00031573050351424794 0.0033631832800681901 0 0.00015600104527779639 0.0035048334787466987 0 0.00026099396865462477 0.0035329182659503949 0 7.3851220600021995e-05 0.0030571046658275161 0 0.0002792317803510132 0.0031955365493610759 0 0.00011514203117454197 0.0032946417771276791 0 0.00031573050351424794 0.0033631832800681901 0 0.0002792317803510132 0.0031955365493610759 0 0.00011514203117454197 0.0032946417771276791 0 0.00020236812686764616 0.0035228582289255463 0 8.0908294849358801e-05 0.0033099108284951584 0 4.9125772715230955e-05 0.0032144652587518217 0 8.0908294849358801e-05 0.0033099108284951584 0 7.3851220600021995e-05 0.0030571046658275161 0 0.00011514203117454197 0.0032946417771276791 0 -9.8681601003474404e-05 0.00319078213854029 0 0.00011514203117454197 0.0032946417771276791 0 -3.4039221778600141e-05 0.0034575913815193884 0 -9.8681601003474404e-05 0.00319078213854029 0 0.00011514203117454197 0.0032946417771276791 0 -3.4039221778600141e-05 0.0034575913815193884 0 0.00015600104527779639 0.0035048334787466987 0 0.00035627583121683058 0.0026551737463804781 0 0.00030093933562163662 0.0026268887623095887 0 0.00032280223374120994 0.0025818412801740112 0 0.00016098742009762752 0.0030573697213070261 0 0.00012359669740650127 0.0028633072328729681 0 0.00035627583121683058 0.0026551737463804781 0 0.00030093933562163662 0.0026268887623095887 0 0.00033628054975321544 0.0026698818544716538 0 0.00030093933562163662 0.0026268887623095887 0 0.00032280223374120994 0.0025818412801740112 0 0.00025373290741379341 0.0025899006462177113 0 0.00029092402016088373 0.0027543458391171604 0 0.00034329582536352007 0.0027082263175978493 0 0.00042490727128592707 0.0027691303159349768 0 0.00029092402016088373 0.0027543458391171604 0 0.00033848897961363469 0.0028706805425218478 0 0.00023905951225533298 0.0028494200789099321 0 0.00029092402016088373 0.0027543458391171604 0 0.00042490727128592707 0.0027691303159349768 0 0.00033848897961363469 0.0028706805425218478 0 0.00029092402016088373 0.0027543458391171604 0 0.0003017279114185273 0.0027035462463593984 0 0.00034329582536352007 0.0027082263175978493 0 0.0003017279114185273 0.0027035462463593984 0 0.00033628054975321544 0.0026698818544716538 0 0.00025427570934016521 0.0026869696046171255 0 0.0003017279114185273 0.0027035462463593984 0 0.00033628054975321544 0.0026698818544716538 0 0.00034329582536352007 0.0027082263175978493 0 0.00035627583121683058 0.0026551737463804781 0 0.00033628054975321544 0.0026698818544716538 0 0.00034329582536352007 0.0027082263175978493 0 0.00016098742009762752 0.0030573697213070261 0 0.00023416610932372047 0.0032728072425864656 0 0.00035627583121683058 0.0026551737463804781 0 0.00034329582536352007 0.0027082263175978493 0 0.00042490727128592707 0.0027691303159349768 0 -3.4039221778600141e-05 0.0034575913815193884 0 3.2786051946136663e-05 0.0037229442010753505 0 0.00015600104527779639 0.0035048334787466987 0 3.2786051946136663e-05 0.0037229442010753505 0 0.00022829389526175499 0.0036941936173503437 0 0.00015829739168719885 0.0038409949182522641 0 0.00022829389526175499 0.0036941936173503437 0 0.00038124454488582638 0.0036838143268008274 0 0.00027150951509622329 0.0039631274734160515 0 0.00022829389526175499 0.0036941936173503437 0 0.00015600104527779639 0.0035048334787466987 0 0.00026099396865462477 0.0035329182659503949 0 3.2786051946136663e-05 0.0037229442010753505 0 0.00022829389526175499 0.0036941936173503437 0 0.00015600104527779639 0.0035048334787466987 0 0.00022829389526175499 0.0036941936173503437 0 0.00026099396865462477 0.0035329182659503949 0 0.00033179836123304002 0.0035912263158629611 0 0.00018896467356145259 0.0039238886006773442 0 0.00025306048162659244 0.0044103400409246391 0 0.00033179836123304002 0.0035912263158629611 0 0.00034938805125445913 0.0035362390843532345 0 0.00038124454488582638 0.0036838143268008274 0 0.00026099396865462477 0.0035329182659503949 0 0.00033179836123304002 0.0035912263158629611 0 0.00035175617885719067 0.0035323071271597074 0 0.00027738054373820217 0.0036800645233703204 0 0.00018896467356145259 0.0039238886006773442 0 0.00013198758319614274 0.0043873180469579613 0 2.4460462998476394e-05 0.0044782036134781503 0 0.00011046094280476228 0.0044880983571295753 0 2.4460462998476394e-05 0.0044782036134781503 0 0.00011046094280476228 0.0044880983571295753 0 5.9012278132959518e-05 0.0046172857504862544 0 0.00011046094280476228 0.0044880983571295753 0 6.2081229498087449e-05 0.0046418502039441839 0 0.00019358323160326361 0.0045962649984719502 0 9.0726527657705762e-05 0.0045822861417644826 0 0.00025306048162659244 0.0044103400409246391 0 0.00025306048162659244 0.0044103400409246391 0 0.00026407170673118887 0.0049645741220656564 0 6.2081229498087449e-05 0.0046418502039441839 0 0.00014281968056336979 0.0048651149882599541 0 0.00019785649865127823 0.0047292196927430493 0 0.00022829389526175499 0.0036941936173503437 0 0.00033179836123304002 0.0035912263158629611 0 0.00038124454488582638 0.0036838143268008274 0 0.00025306048162659244 0.0044103400409246391 0 0.00031516556195669527 0.0044847257710866045 0 0.0003612329665114797 0.0049060290758708375 0 0.00036852780248522227 0.0049364961344094153 0 0.00036251810619923039 0.0049435967081094667 0 0.00036251810619923039 0.0049435967081094667 0 0.00035560458233458228 0.0049501523151310551 0 0.00036979464481325412 0.0049416143979752834 0 0.00036852780248522227 0.0049364961344094153 0 0.00036251810619923039 0.0049435967081094667 0 0.00035560458233458228 0.0049501523151310551 0 0.00026407170673118887 0.0049645741220656564 0 0.0002968940220605613 0.0049397409864694883 0 0.00027150951509622329 0.0039631274734160515 0 0.00010007765786332601 0.003982680821044764 0 0.00016643955618276228 0.00424025533429303 0 0.00031516556195669527 0.0044847257710866045 0 0.00038640167248833062 0.004311829231921872 0 0.00036251810619923039 0.0049435967081094667 0 0.00039201728292562188 0.0049356952614895335 0 0.00036979464481325412 0.0049416143979752834 0 0.00027150951509622329 0.0039631274734160515 0 0.00015829739168719885 0.0038409949182522641 0 0.00010007765786332601 0.003982680821044764 0 0.00022829389526175499 0.0036941936173503437 0 0.00027150951509622329 0.0039631274734160515 0 0.00015829739168719885 0.0038409949182522641 0 0.00023416610932372047 0.0032728072425864656 0 0.00029807285606827045 0.0033573352926509542 0 0.00042490727128592707 0.0027691303159349768 0 0.00051971723153667639 0.00295938479037604 0 0.00033848897961363469 0.0028706805425218478 0 3.2786051946136663e-05 0.0037229442010753505 0 0.00015829739168719885 0.0038409949182522641 0 0.00010007765786332601 0.003982680821044764 0 0.00029807285606827045 0.0033573352926509542 0 0.00038640167248833062 0.004311829231921872 0 0.00051971723153667639 0.00295938479037604 0 0.00047319941497886772 0.0031205568505835502 0 0.00063651034950573345 0.0032680288372293597 0 0.00047319941497886772 0.0031205568505835502 0 0.00032522869441836769 0.0030172517314523742 0 0.00041845866491919715 0.0032475246302836121 0 0.00051971723153667639 0.00295938479037604 0 0.00047319941497886772 0.0031205568505835502 0 0.00032522869441836769 0.0030172517314523742 0 0.00032522869441836769 0.0030172517314523742 0 0.00033848897961363469 0.0028706805425218478 0 0.00023483989245279044 0.0029433591345502576 0 0.00051971723153667639 0.00295938479037604 0 0.00032522869441836769 0.0030172517314523742 0 0.00033848897961363469 0.0028706805425218478 0 0.00025928604366997683 0.0047418865724133293 0 0.00023407566773764533 0.0047480839011859307 0 0.0002470040949218313 0.0047246175054697376 0 0.0002150647963401656 0.0047328284661725672 0 0.00023407566773764533 0.0047480839011859307 0 0.0002470040949218313 0.0047246175054697376 0 0.00025928604366997683 0.0047418865724133293 0 0.00023407566773764533 0.0047480839011859307 0 0.00024318603100538709 0.0047699484398755366 0 0.00022248548452124072 0.0047742323421721506 0 0.00023407566773764533 0.0047480839011859307 0 0.00024318603100538709 0.0047699484398755366 0 0.00039521458046694769 0.0047017551670289525 0 0.0004595306722190442 0.0046588351152068589 0 0.00052260446335267662 0.0046872967198333931 0 0.00064305283550093728 0.0044592996183827772 0 0.00052292045863425694 0.0044768528310798195 0 0.00052260446335267662 0.0046872967198333931 0 0.00052292045863425694 0.0044768528310798195 0 0.00041242624311448874 0.0045806132659802264 0 0.00052292045863425694 0.0044768528310798195 0 0.00041060569560471492 0.0044587401868507355 0 0.00041242624311448874 0.0045806132659802264 0 0.00041060569560471492 0.0044587401868507355 0 0.00022772927058925321 0.004469154714311736 0 0.00030063016040560658 0.0045614555796704061 0 0.00041060569560471492 0.0044587401868507355 0 0.00041242624311448874 0.0045806132659802264 0 0.00030063016040560658 0.0045614555796704061 0 0.00041242624311448874 0.0045806132659802264 0 0.00030063016040560658 0.0045614555796704061 0 0.0002982336899689978 0.0046895402676409076 0 0.00011046094280476228 0.0044880983571295753 0 0.00022772927058925321 0.004469154714311736 0 0.00019358323160326361 0.0045962649984719502 0 0.00013198758319614274 0.0043873180469579613 0 0.00011046094280476228 0.0044880983571295753 0 0.00022772927058925321 0.004469154714311736 0 0.00022772927058925321 0.004469154714311736 0 0.00030063016040560658 0.0045614555796704061 0 0.00019358323160326361 0.0045962649984719502 0 0.00019358323160326361 0.0045962649984719502 0 0.0002982336899689978 0.0046895402676409076 0 0.00019785649865127823 0.0047292196927430493 0 6.2081229498087449e-05 0.0046418502039441839 0 0.00019358323160326361 0.0045962649984719502 0 0.00019785649865127823 0.0047292196927430493 0 0.00030063016040560658 0.0045614555796704061 0 0.00019358323160326361 0.0045962649984719502 0 0.0002982336899689978 0.0046895402676409076 0 0.0002982336899689978 0.0046895402676409076 0 0.00019785649865127823 0.0047292196927430493 0 0.00028333645748684655 0.0048356920475022954 0 0.00052260446335267662 0.0046872967198333931 0 0.00041242624311448874 0.0045806132659802264 0 0.0002982336899689978 0.0046895402676409076 0 0.00052260446335267662 0.0046872967198333931 0 0.0002982336899689978 0.0046895402676409076 0 0.00028333645748684655 0.0048356920475022954 0 0.00052260446335267662 0.0046872967198333931 0 0.00037292056306391423 0.004925060132265258 0 0.00028333645748684655 0.0048356920475022954 0 0.00039521458046694769 0.0047017551670289525 0 0.00028948957471496575 0.0048431254018967062 0 0.00037292056306391423 0.004925060132265258 0 0.00028333645748684655 0.0048356920475022954 0 0.00029902802127595312 0.0049475273549657089 0 0.00028948957471496575 0.0048431254018967062 0 0.00028400378654949005 0.0048781342699985566 0 0.00014281968056336979 0.0048651149882599541 0 0.00019785649865127823 0.0047292196927430493 0 0.00028333645748684655 0.0048356920475022954 0 0.00014281968056336979 0.0048651149882599541 0 0.00028333645748684655 0.0048356920475022954 0 0.00024205188438644184 0.0049242864074724221 0 0.00028333645748684655 0.0048356920475022954 0 0.00024205188438644184 0.0049242864074724221 0 0.00029902802127595312 0.0049475273549657089 0 0.00014281968056336979 0.0048651149882599541 0 0.00024205188438644184 0.0049242864074724221 0 0.00025044299749154051 0.0049779576409831952 0 0.00024205188438644184 0.0049242864074724221 0 0.0002720627396895209 0.0049621935053911232 0 0.00025044299749154051 0.0049779576409831952 0 0.00024205188438644184 0.0049242864074724221 0 0.0002720627396895209 0.0049621935053911232 0 0.00029902802127595312 0.0049475273549657089 0 0.0002720627396895209 0.0049621935053911232 0 0.00025044299749154051 0.0049779576409831952 0 0.00027582257568797819 0.0049644156060544 0 0.00027481954599282499 0.0049832505155549623 0 0.00026200919442302798 0.0049712669972265793 0 0.00023945989367542609 0.0049779698466482928 0 0.00027481954599282499 0.0049832505155549623 0 0.00026200919442302798 0.0049712669972265793 0 0.00028059295473636747 0.0049622398630172647 0 0.00027481954599282499 0.0049832505155549623 0 0.00029902802127595312 0.0049475273549657089 0 0.00028059295473636747 0.0049622398630172647 0 0.0002720627396895209 0.0049621935053911232 0 0.00029902802127595312 0.0049475273549657089 0 0.00028059295473636747 0.0049622398630172647 0 0.00026200919442302798 0.0049712669972265793 0 0.00028059295473636747 0.0049622398630172647 0 0.00027234573430716088 0.0049644906570474314 0 0.0002720627396895209 0.0049621935053911232 0 0.00028059295473636747 0.0049622398630172647 0 0.00027234573430716088 0.0049644906570474314 0 0.0002720627396895209 0.0049621935053911232 0 0.00027234573430716088 0.0049644906570474314 0 0.00027582257568797819 0.0049644156060544 0 0.00027234573430716088 0.0049644906570474314 0 0.00025453899621519238 0.00496500815144505 0 0.00026257326358906089 0.0049576839102206099 0 0.00026200919442302798 0.0049712669972265793 0 0.00027234573430716088 0.0049644906570474314 0 0.00025453899621519238 0.00496500815144505 0 0.00026200919442302798 0.0049712669972265793 0 0.00025453899621519238 0.00496500815144505 0 0.00023945989367542609 0.0049779698466482928 0 0.00020991316668558457 0.0049706158771960747 0 0.00023945989367542609 0.0049779698466482928 0 0.00023417962351750311 0.0049583501341875355 0 0.00025453899621519238 0.00496500815144505 0 0.00023945989367542609 0.0049779698466482928 0 0.00023417962351750311 0.0049583501341875355 0 0.00020991316668558457 0.0049706158771960747 0 0.00023945989367542609 0.0049779698466482928 0 0.00020643536433356132 0.0050236446889696217 0 0.00027481954599282499 0.0049832505155549623 0 0.00023945989367542609 0.0049779698466482928 0 0.00020643536433356132 0.0050236446889696217 0 0.00025928604366997683 0.0047418865724133293 0 0.0002748083601453765 0.0047173331368026818 0 0.0002470040949218313 0.0047246175054697376 0 0.00028948957471496575 0.0048431254018967062 0 0.00022279494811327786 0.0048747382643881017 0 0.00018126524650391454 0.0048867933397592255 0 0.00022279494811327786 0.0048747382643881017 0 0.00013642821787280082 0.0050008547537490717 0 0.00020643536433356132 0.0050236446889696217 0 0.00017447904017081923 0.0049808006978029765 0 0.00020991316668558457 0.0049706158771960747 0 0.00020643536433356132 0.0050236446889696217 0 0.00017447904017081923 0.0049808006978029765 0 0.00017447904017081923 0.0049808006978029765 0 0.00018032989944023829 0.0049519711405628455 0 0.00013731645003647267 0.0049614046316396 0 0.00020991316668558457 0.0049706158771960747 0 0.00018032989944023829 0.0049519711405628455 0 0.00021428823181900256 0.0049423130182021978 0 0.00020991316668558457 0.0049706158771960747 0 0.00017447904017081923 0.0049808006978029765 0 0.00018032989944023829 0.0049519711405628455 0 0.00018032989944023829 0.0049519711405628455 0 0.00019087510865944585 0.0049263009830864627 0 0.00015719731138025113 0.0049288372087684489 0 0.00018032989944023829 0.0049519711405628455 0 0.00019087510865944585 0.0049263009830864627 0 0.00021428823181900256 0.0049423130182021978 0 0.00019087510865944585 0.0049263009830864627 0 0.00021954669162540285 0.0049111818307768836 0 0.00018421703673782879 0.0048952574091574649 0 0.00019087510865944585 0.0049263009830864627 0 0.00018421703673782879 0.0048952574091574649 0 0.00015719731138025113 0.0049288372087684489 0 0.00021954669162540285 0.0049111818307768836 0 0.0002441136011972609 0.0049355781361952013 0 0.00025754594983499194 0.0048915299022735297 0 0.00019087510865944585 0.0049263009830864627 0 0.00021954669162540285 0.0049111818307768836 0 0.00021428823181900256 0.0049423130182021978 0 0.00021954669162540285 0.0049111818307768836 0 0.00021428823181900256 0.0049423130182021978 0 0.0002441136011972609 0.0049355781361952013 0 0.00020991316668558457 0.0049706158771960747 0 0.00021428823181900256 0.0049423130182021978 0 0.00023417962351750311 0.0049583501341875355 0 0.00021428823181900256 0.0049423130182021978 0 0.00023417962351750311 0.0049583501341875355 0 0.0002441136011972609 0.0049355781361952013 0 0.00025453899621519238 0.00496500815144505 0 0.00023417962351750311 0.0049583501341875355 0 0.00026257326358906089 0.0049576839102206099 0 0.00027234573430716088 0.0049644906570474314 0 0.00026257326358906089 0.0049576839102206099 0 0.00027582257568797819 0.0049644156060544 0 0.00026257326358906089 0.0049576839102206099 0 0.00027582257568797819 0.0049644156060544 0 0.00027644607024173405 0.0049325387163361798 0 0.00026257326358906089 0.0049576839102206099 0 0.0002441136011972609 0.0049355781361952013 0 0.00027644607024173405 0.0049325387163361798 0 0.00023417962351750311 0.0049583501341875355 0 0.00026257326358906089 0.0049576839102206099 0 0.0002441136011972609 0.0049355781361952013 0 0.0002968940220605613 0.0049397409864694883 0 0.00031321794732266434 0.0049366010108591917 0 0.00025044299749154051 0.0049779576409831952 0 0.00027582257568797819 0.0049644156060544 0 0.00031756196053241202 0.0049326517377960028 0 0.00027582257568797819 0.0049644156060544 0 0.00031756196053241202 0.0049326517377960028 0 0.00027644607024173405 0.0049325387163361798 0 0.00031756196053241202 0.0049326517377960028 0 0.00030663239692476052 0.0048973665724266081 0 0.0003590877823269193 0.0048863809517963605 0 0.00031756196053241202 0.0049326517377960028 0 0.00027644607024173405 0.0049325387163361798 0 0.00030663239692476052 0.0048973665724266081 0 0.00027644607024173405 0.0049325387163361798 0 0.00025754594983499194 0.0048915299022735297 0 0.00030663239692476052 0.0048973665724266081 0 0.0002441136011972609 0.0049355781361952013 0 0.00027644607024173405 0.0049325387163361798 0 0.00025754594983499194 0.0048915299022735297 0 0.00030663239692476052 0.0048973665724266081 0 0.0003224804100606426 0.0048261257861413288 0 0.0003590877823269193 0.0048863809517963605 0 0.00025754594983499194 0.0048915299022735297 0 0.00030663239692476052 0.0048973665724266081 0 0.0003224804100606426 0.0048261257861413288 0 0.00025754594983499194 0.0048915299022735297 0 0.0003224804100606426 0.0048261257861413288 0 0.00024466882380106927 0.0048193045047605102 0 0.00024466882380106927 0.0048193045047605102 0 0.00018595337528739538 0.0048449109405660825 0 0.00021727301646303913 0.0048732296225430499 0 0.00018595337528739538 0.0048449109405660825 0 0.00015951113652669759 0.0048778094517033044 0 0.00013185293535102391 0.0048658704735598385 0 0.00018595337528739538 0.0048449109405660825 0 0.00015951113652669759 0.0048778094517033044 0 0.00018421703673782879 0.0048952574091574649 0 0.00015951113652669759 0.0048778094517033044 0 0.00018421703673782879 0.0048952574091574649 0 0.00013394689740065655 0.0049039128295149358 0 0.00018421703673782879 0.0048952574091574649 0 0.00015719731138025113 0.0049288372087684489 0 0.00013394689740065655 0.0049039128295149358 0 0.00021954669162540285 0.0049111818307768836 0 0.00018421703673782879 0.0048952574091574649 0 0.00021727301646303913 0.0048732296225430499 0 0.00018595337528739538 0.0048449109405660825 0 0.00018421703673782879 0.0048952574091574649 0 0.00021727301646303913 0.0048732296225430499 0 0.00025754594983499194 0.0048915299022735297 0 0.00024466882380106927 0.0048193045047605102 0 0.00021727301646303913 0.0048732296225430499 0 0.00021954669162540285 0.0049111818307768836 0 0.00025754594983499194 0.0048915299022735297 0 0.00021727301646303913 0.0048732296225430499 0 0.00026965985851631934 0.0035033098578467329 0 0.00026938550859097979 0.0033075531860944172 0 4.5045049465861128e-05 0.0033235779299720311 0 0.00026965985851631934 0.0035033098578467329 0 0.00043756566548819992 0.0034886552576796808 0 0.0004911279901622166 0.0036871589471956898 0 0.00045860080969376335 0.0045287702036942365 0 0.00045385955255563821 0.0045979377962390407 0 0.00039614446933125151 0.0045682689308216935 0 0.00026965985851631934 0.0035033098578467329 0 0.00037694000947813912 0.0033822218753627805 0 0.00026938550859097979 0.0033075531860944172 0 0.00026965985851631934 0.0035033098578467329 0 0.00037694000947813912 0.0033822218753627805 0 0.00043756566548819992 0.0034886552576796808 0 0.00032522869441836769 0.0030172517314523742 0 0.00026938550859097979 0.0033075531860944172 0 4.5045049465861128e-05 0.0033235779299720311 0 0.00032522869441836769 0.0030172517314523742 0 0.00026938550859097979 0.0033075531860944172 0 0.00041845866491919715 0.0032475246302836121 0 0.00037694000947813912 0.0033822218753627805 0 0.00026938550859097979 0.0033075531860944172 0 0.00041845866491919715 0.0032475246302836121 0 0.00037694000947813912 0.0033822218753627805 0 0.00041845866491919715 0.0032475246302836121 0 0.00048906145009491484 0.0033678815495444855 0 0.00047319941497886772 0.0031205568505835502 0 0.00041845866491919715 0.0032475246302836121 0 0.00063651034950573345 0.0032680288372293597 0 0.00041845866491919715 0.0032475246302836121 0 0.00048906145009491484 0.0033678815495444855 0 0.00063651034950573345 0.0032680288372293597 0 0.00048906145009491484 0.0033678815495444855 0 0.00056955466449826674 0.00347662396122809 0 0.00063651034950573345 0.0032680288372293597 0 0.00055960269056312597 0.0040703125974954181 0 0.00038640167248833062 0.004311829231921872 0 0.00048906145009491484 0.0033678815495444855 0 0.00043756566548819992 0.0034886552576796808 0 0.00056955466449826674 0.00347662396122809 0 0.00037694000947813912 0.0033822218753627805 0 0.00048906145009491484 0.0033678815495444855 0 0.00043756566548819992 0.0034886552576796808 0 0.00043756566548819992 0.0034886552576796808 0 0.00056955466449826674 0.00347662396122809 0 0.0004911279901622166 0.0036871589471956898 0 0.00055960269056312597 0.0040703125974954181 0 0.00052630002436758081 0.0044143047022191118 0 0.00038640167248833062 0.004311829231921872 0 0.00047255155108258726 0.0049637746142073705 0 0.00049320929168714697 0.0047995269641478685 0 0.0004983322316392503 0.0047813745961570071 0 0.000495723541398546 0.0048084590862781202 0 0.00039201728292562188 0.0049356952614895335 0 0.00036948064981910363 0.0049298274819810795 0 0.00041225992868409533 0.0048923404818576287 0 0.00049320929168714697 0.0047995269641478685 0 0.000495723541398546 0.0048084590862781202 0 0.00050028629408143917 0.0048035862510707522 0 0.00039201728292562188 0.0049356952614895335 0 0.00036979464481325412 0.0049416143979752834 0 0.00036948064981910363 0.0049298274819810795 0 0.00035560458233458228 0.0049501523151310551 0 0.00031756196053241202 0.0049326517377960028 0 0.00036948064981910363 0.0049298274819810795 0 0.00035560458233458228 0.0049501523151310551 0 0.00036979464481325412 0.0049416143979752834 0 0.00036948064981910363 0.0049298274819810795 0 0.00036948064981910363 0.0049298274819810795 0 0.0003590877823269193 0.0048863809517963605 0 0.00041225992868409533 0.0048923404818576287 0 0.00031756196053241202 0.0049326517377960028 0 0.00036948064981910363 0.0049298274819810795 0 0.0003590877823269193 0.0048863809517963605 0 0.0003590877823269193 0.0048863809517963605 0 0.000434922296605265 0.0048010299317610104 0 0.00041225992868409533 0.0048923404818576287 0 0.0003224804100606426 0.0048261257861413288 0 0.000434922296605265 0.0048010299317610104 0 0.0004156290364967693 0.0047471601516309025 0 0.0003224804100606426 0.0048261257861413288 0 0.0003590877823269193 0.0048863809517963605 0 0.000434922296605265 0.0048010299317610104 0 0.000434922296605265 0.0048010299317610104 0 0.00049788713707064739 0.0047900425169978686 0 0.00049807769870190632 0.0047656838855642952 0 0.000434922296605265 0.0048010299317610104 0 0.00049027518260327644 0.0048024998643387872 0 0.00049788713707064739 0.0047900425169978686 0 0.00042587947515912097 0.0047509614075977938 0 0.00047255155108258726 0.0049637746142073705 0 0.000434922296605265 0.0048010299317610104 0 0.00049027518260327644 0.0048024998643387872 0 0.000495723541398546 0.0048084590862781202 0 0.00049027518260327644 0.0048024998643387872 0 0.000495723541398546 0.0048084590862781202 0 0.00050028629408143917 0.0048035862510707522 0 0.00049027518260327644 0.0048024998643387872 0 0.00050028629408143917 0.0048035862510707522 0 0.00050264023470249556 0.0047976238215838487 0 0.00049320929168714697 0.0047995269641478685 0 0.00050028629408143917 0.0048035862510707522 0 0.00051326582106013801 0.0048030985379940655 0 0.00050028629408143917 0.0048035862510707522 0 0.00051326582106013801 0.0048030985379940655 0 0.00050264023470249556 0.0047976238215838487 0 0.00051326582106013801 0.0048030985379940655 0 0.00051449861419389687 0.0047788250486694942 0 0.00053675441293344825 0.0047512338587948275 0 0.00058281811054935399 0.0046506960472164757 0 0.00053675441293344825 0.0047512338587948275 0 0.0005176872937451626 0.0046917573466110805 0 0.00052630002436758081 0.0044143047022191118 0 0.00048186595467741193 0.0047526923530936752 0 0.00051449861419389687 0.0047788250486694942 0 0.00050264023470249556 0.0047976238215838487 0 0.00049788713707064739 0.0047900425169978686 0 0.00049027518260327644 0.0048024998643387872 0 0.00050264023470249556 0.0047976238215838487 0 0.00049788713707064739 0.0047900425169978686 0 0.00051326582106013801 0.0048030985379940655 0 0.00051449861419389687 0.0047788250486694942 0 0.00050264023470249556 0.0047976238215838487 0 0.00051449861419389687 0.0047788250486694942 0 0.00049788713707064739 0.0047900425169978686 0 0.00052680376895032188 0.0047774072695204615 0 0.00052680376895032188 0.0047774072695204615 0 0.00054580927170274935 0.004787663460576427 0 0.00049807769870190632 0.0047656838855642952 0 0.00049788713707064739 0.0047900425169978686 0 0.00052680376895032188 0.0047774072695204615 0 0.00049807769870190632 0.0047656838855642952 0 0.00052680376895032188 0.0047774072695204615 0 0.00054580927170274935 0.004787663460576427 0 0.00053675441293344825 0.0047512338587948275 0 0.00051449861419389687 0.0047788250486694942 0 0.00052680376895032188 0.0047774072695204615 0 0.00053675441293344825 0.0047512338587948275 0 0.00054580927170274935 0.004787663460576427 0 0.00053675441293344825 0.0047512338587948275 0 0.00045383115656995478 0.0047397715165975862 0 0.00053675441293344825 0.0047512338587948275 0 0.00045383115656995478 0.0047397715165975862 0 0.00048046285659225364 0.0047009890185217736 0 0.00054580927170274935 0.004787663460576427 0 0.00045383115656995478 0.0047397715165975862 0 0.00040797424342119202 0.0048314996969378203 0 0.00045383115656995478 0.0047397715165975862 0 0.00041716929936964041 0.0046559443737843364 0 0.00048046285659225364 0.0047009890185217736 0 0.00037219003209916935 0.0040356021525145471 0 0.00052630002436758081 0.0044143047022191118 0 0.00045860080969376335 0.0045287702036942365 0 0.00058281811054935399 0.0046506960472164757 0 0.00045385955255563821 0.0045979377962390407 0 0.00058281811054935399 0.0046506960472164757 0 0.00047874613710253126 0.0046512247260494305 0 0.00045385955255563821 0.0045979377962390407 0 0.00041716929936964041 0.0046559443737843364 0 0.00048046285659225364 0.0047009890185217736 0 0.00047874613710253126 0.0046512247260494305 0 0.00058281811054935399 0.0046506960472164757 0 0.0005176872937451626 0.0046917573466110805 0 0.00047874613710253126 0.0046512247260494305 0 0.00053675441293344825 0.0047512338587948275 0 0.00048046285659225364 0.0047009890185217736 0 0.0005176872937451626 0.0046917573466110805 0 0.00048046285659225364 0.0047009890185217736 0 0.0005176872937451626 0.0046917573466110805 0 0.00047874613710253126 0.0046512247260494305 0 0.00041716929936964041 0.0046559443737843364 0 0.00045385955255563821 0.0045979377962390407 0 0.00039614446933125151 0.0045682689308216935 0 0.00041716929936964041 0.0046559443737843364 0 0.00047874613710253126 0.0046512247260494305 0 0.00045385955255563821 0.0045979377962390407 0 0.00063714755271982403 0.0045959500772886326 0 0.00062113895419089939 0.0046869652779971517 0 0.00072756520191536735 0.0046147072432635144 0 0.00063714755271982403 0.0045959500772886326 0 0.00062113895419089939 0.0046869652779971517 0 0.00056545153010687345 0.0046400509039825335 0 0.00054580927170274935 0.004787663460576427 0 0.00062113895419089939 0.0046869652779971517 0 0.00069003281447978563 0.0047612512099163918 0 0.00055776706131869906 0.004783957608789754 0 0.00052773772790451923 0.0048340687292143421 0 0.00062113895419089939 0.0046869652779971517 0 0.00069003281447978563 0.0047612512099163918 0 0.00072756520191536735 0.0046147072432635144 0 0.00054114838313550984 0.0047235236660595299 0 0.00049134936371766165 0.0046918906830937376 0 0.00049807769870190632 0.0047656838855642952 0 0.00054580927170274935 0.004787663460576427 0 0.00062113895419089939 0.0046869652779971517 0 0.00054114838313550984 0.0047235236660595299 0 0.00054580927170274935 0.004787663460576427 0 0.00054114838313550984 0.0047235236660595299 0 0.00049807769870190632 0.0047656838855642952 0 0.00056545153010687345 0.0046400509039825335 0 0.00049134936371766165 0.0046918906830937376 0 0.00050249640573983676 0.0046010061184719644 0 0.00054114838313550984 0.0047235236660595299 0 0.00056545153010687345 0.0046400509039825335 0 0.00049134936371766165 0.0046918906830937376 0 0.00062113895419089939 0.0046869652779971517 0 0.00054114838313550984 0.0047235236660595299 0 0.00056545153010687345 0.0046400509039825335 0 0.00049134936371766165 0.0046918906830937376 0 0.00040914918474405684 0.0046599004443284445 0 0.00050249640573983676 0.0046010061184719644 0 0.00049134936371766165 0.0046918906830937376 0 0.0004156290364967693 0.0047471601516309025 0 0.00040914918474405684 0.0046599004443284445 0 0.00049134936371766165 0.0046918906830937376 0 0.00049807769870190632 0.0047656838855642952 0 0.0004156290364967693 0.0047471601516309025 0 0.000434922296605265 0.0048010299317610104 0 0.00049807769870190632 0.0047656838855642952 0 0.0004156290364967693 0.0047471601516309025 0 0.0003224804100606426 0.0048261257861413288 0 0.0004156290364967693 0.0047471601516309025 0 0.00034655840035272928 0.0047253294685637272 0 0.0004156290364967693 0.0047471601516309025 0 0.00040914918474405684 0.0046599004443284445 0 0.00034655840035272928 0.0047253294685637272 0 0.00040914918474405684 0.0046599004443284445 0 0.00042811339529723785 0.0045714271497836355 0 0.00030046831622093997 0.004636543818090655 0 0.00041807339622734524 0.0045806418176009773 0 0.00019596499317434501 0.0046171659256205536 0 0.00029021831484112227 0.0044033544168380397 0 0.00042811339529723785 0.0045714271497836355 0 8.6219579874018617e-05 0.0046023027182297378 0 0.00029021831484112227 0.0044033544168380397 0 0.00050725898516302203 0.0043996558150283588 0 0.00042811339529723785 0.0045714271497836355 0 0.00050725898516302203 0.0043996558150283588 0 0.00042811339529723785 0.0045714271497836355 0 0.00050249640573983676 0.0046010061184719644 0 0.00040914918474405684 0.0046599004443284445 0 0.00042811339529723785 0.0045714271497836355 0 0.00050249640573983676 0.0046010061184719644 0 0.00050725898516302203 0.0043996558150283588 0 0.00050249640573983676 0.0046010061184719644 0 0.00059347225521408939 0.0045411656267185397 0 0.00056545153010687345 0.0046400509039825335 0 0.00050249640573983676 0.0046010061184719644 0 0.00059347225521408939 0.0045411656267185397 0 0.00063714755271982403 0.0045959500772886326 0 0.00056545153010687345 0.0046400509039825335 0 0.00059347225521408939 0.0045411656267185397 0 0.00059347225521408939 0.0045411656267185397 0 0.00057431708660153613 0.0043649359815564727 0 0.00068010150668352696 0.0044652051352202307 0 0.00057431708660153613 0.0043649359815564727 0 0.00068010150668352696 0.0044652051352202307 0 0.00056818090339885979 0.0041792722260953477 0 0.00040829614630210855 0.0042482846333676879 0 0.00057431708660153613 0.0043649359815564727 0 0.00056818090339885979 0.0041792722260953477 0 0.00046010491271844523 0.0043247465398847532 0 0.0005912874725950046 0.0045284553228342661 0 0.00054921189255653896 0.0040019232397637272 0 0.00048450640749572878 0.0038559855147728321 0 0.00040829614630210855 0.0042482846333676879 0 0.00059347225521408939 0.0045411656267185397 0 0.00057431708660153613 0.0043649359815564727 0 0.00043722506940445149 0.00356498486624089 0 0.00040714359400794553 0.003532008224862535 0 0.00044362278996453217 0.0035269104533251685 0 0.00043722506940445149 0.00356498486624089 0 0.00046198795454936205 0.0035380859701133142 0 0.00044362278996453217 0.0035269104533251685 0 0.00043722506940445149 0.00356498486624089 0 0.00047370881030557653 0.0035666180744846699 0 0.00046198795454936205 0.0035380859701133142 0 0.00063714755271982403 0.0045959500772886326 0 0.00068010150668352696 0.0044652051352202307 0 0.00072756520191536735 0.0046147072432635144 0 0.00063714755271982403 0.0045959500772886326 0 0.00059347225521408939 0.0045411656267185397 0 0.00068010150668352696 0.0044652051352202307 0 0.00054921189255653896 0.0040019232397637272 0 0.00063677511908814626 0.0041550950563756552 0 0.00021136535999234882 0.0047634773000557748 0 0.00016294375011544264 0.00476172076767998 0 0.00015310628178680853 0.0048102369378892305 0 0.00018595337528739538 0.0048449109405660825 0 0.00015310628178680853 0.0048102369378892305 0 0.00013185293535102391 0.0048658704735598385 0 0.00018595337528739538 0.0048449109405660825 0 0.00021136535999234882 0.0047634773000557748 0 0.00015310628178680853 0.0048102369378892305 0 0.00024466882380106927 0.0048193045047605102 0 0.00018595337528739538 0.0048449109405660825 0 0.00021136535999234882 0.0047634773000557748 0 0.0003224804100606426 0.0048261257861413288 0 0.00024466882380106927 0.0048193045047605102 0 0.00027410787337634672 0.0047515244604907601 0 0.00024466882380106927 0.0048193045047605102 0 0.00021136535999234882 0.0047634773000557748 0 0.00027410787337634672 0.0047515244604907601 0 0.0003224804100606426 0.0048261257861413288 0 0.00034655840035272928 0.0047253294685637272 0 0.00027410787337634672 0.0047515244604907601 0 0.00040914918474405684 0.0046599004443284445 0 0.00034655840035272928 0.0047253294685637272 0 0.00030046831622093997 0.004636543818090655 0 0.00034655840035272928 0.0047253294685637272 0 0.00027410787337634672 0.0047515244604907601 0 0.00030046831622093997 0.004636543818090655 0 0.00027410787337634672 0.0047515244604907601 0 0.00024929931136359336 0.0047044174912777978 0 0.00030046831622093997 0.004636543818090655 0 0.00021136535999234882 0.0047634773000557748 0 0.00027410787337634672 0.0047515244604907601 0 0.00024929931136359336 0.0047044174912777978 0 0.00024929931136359336 0.0047044174912777978 0 0.00030046831622093997 0.004636543818090655 0 0.00020507715584575995 0.0046941192603833382 0 0.00019596499317434501 0.0046171659256205536 0 -5.1611905528947979e-05 0.0046477366977757395 0 0.00029021831484112227 0.0044033544168380397 0 8.6219579874018617e-05 0.0046023027182297378 0 7.4503030346280882e-05 0.0043207678661041689 0 8.6219579874018617e-05 0.0046023027182297378 0 -0.00013028177549364862 0.0044251770505221322 0 -0.00031931322944074402 0.0046044624796405748 0 8.6219579874018617e-05 0.0046023027182297378 0 -0.00013028177549364862 0.0044251770505221322 0 7.4503030346280882e-05 0.0043207678661041689 0 -0.00013028177549364862 0.0044251770505221322 0 -0.00031931322944074402 0.0046044624796405748 0 -0.00030650997538448119 0.0043969824494131645 0 -0.00031931322944074402 0.0046044624796405748 0 -0.00038766252784966739 0.0045521652542623477 0 -0.00030650997538448119 0.0043969824494131645 0 0.00021136535999234882 0.0047634773000557748 0 0.00016294375011544264 0.00476172076767998 0 0.00020507715584575995 0.0046941192603833382 0 0.00021136535999234882 0.0047634773000557748 0 0.00024929931136359336 0.0047044174912777978 0 0.00020507715584575995 0.0046941192603833382 0 -5.1611905528947979e-05 0.0046477366977757395 0 -0.00013570725931651435 0.0046697208484264329 0 0.00016294375011544264 0.00476172076767998 0 0.00020507715584575995 0.0046941192603833382 0 0.0001293944998219846 0.00474716288606232 0 -0.00031931322944074402 0.0046044624796405748 0 -0.00038766252784966739 0.0045521652542623477 0 -0.00041013167980950789 0.0045844020067896101 0 -0.00042047935904903066 0.0045830076423252295 0 -0.00038766252784966739 0.0045521652542623477 0 -0.00041013167980950789 0.0045844020067896101 0 -0.00038766252784966739 0.0045521652542623477 0 -0.00039882684901725149 0.0044389746778945756 0 -0.0004280765652457783 0.0045420305850717999 0 -0.00038766252784966739 0.0045521652542623477 0 -0.00039882684901725149 0.0044389746778945756 0 -0.00030650997538448119 0.0043969824494131645 0 -0.00039882684901725149 0.0044389746778945756 0 -0.0004280765652457783 0.0045420305850717999 0 -0.00044454862885160589 0.0044907876648463928 0 -0.00039882684901725149 0.0044389746778945756 0 -0.00044454862885160589 0.0044907876648463928 0 -0.00045488916337686021 0.0044261627901150584 0 -0.00042047935904903066 0.0045830076423252295 0 -0.00038766252784966739 0.0045521652542623477 0 -0.0004280765652457783 0.0045420305850717999 0 -0.00042047935904903066 0.0045830076423252295 0 -0.00045568711391956316 0.0045598847385718948 0 -0.00042731317418573205 0.0046095579418076174 0 -0.00042047935904903066 0.0045830076423252295 0 -0.0004280765652457783 0.0045420305850717999 0 -0.00045568711391956316 0.0045598847385718948 0 -0.0004280765652457783 0.0045420305850717999 0 -0.00045568711391956316 0.0045598847385718948 0 -0.00044454862885160589 0.0044907876648463928 0 -0.00045568711391956316 0.0045598847385718948 0 -0.00044454862885160589 0.0044907876648463928 0 -0.00051594235246307861 0.004473862884613081 0 -0.00047460036875465988 0.004580489247280572 0 -0.00047413248362098874 0.0045850337578278964 0 -0.00044454862885160589 0.0044907876648463928 0 -0.00051594235246307861 0.004473862884613081 0 -0.00045488916337686021 0.0044261627901150584 0 -0.00046050606622716509 0.0046450961507217368 0 -0.00042426159649757176 0.0046496245942958103 0 -0.00040811220751028161 0.0047024992809351169 0 -0.00045568711391956316 0.0045598847385718948 0 -0.00046050606622716509 0.0046450961507217368 0 -0.00042731317418573205 0.0046095579418076174 0 -0.00046050606622716509 0.0046450961507217368 0 -0.00042731317418573205 0.0046095579418076174 0 -0.00042426159649757176 0.0046496245942958103 0 -0.00042426159649757176 0.0046496245942958103 0 -0.00040796520272733865 0.00463554926381563 0 -0.00040811220751028161 0.0047024992809351169 0 -0.00037456252303046334 0.0046604068669495692 0 -0.00041013167980950789 0.0045844020067896101 0 -0.00028989775380371634 0.0047420489110988166 0 -0.00040796520272733865 0.00463554926381563 0 -0.00037456252303046334 0.0046604068669495692 0 -0.00040811220751028161 0.0047024992809351169 0 -0.00042731317418573205 0.0046095579418076174 0 -0.00042426159649757176 0.0046496245942958103 0 -0.00040796520272733865 0.00463554926381563 0 -0.00042047935904903066 0.0045830076423252295 0 -0.00042731317418573205 0.0046095579418076174 0 -0.00040796520272733865 0.00463554926381563 0 -0.00042047935904903066 0.0045830076423252295 0 -0.00040796520272733865 0.00463554926381563 0 -0.00037456252303046334 0.0046604068669495692 0 -0.00042047935904903066 0.0045830076423252295 0 -0.00037456252303046334 0.0046604068669495692 0 -0.00041013167980950789 0.0045844020067896101 0 -0.00041013167980950789 0.0045844020067896101 0 -0.00015106504939634227 0.0046915848530553706 0 -0.00028989775380371634 0.0047420489110988166 0 -0.00015106504939634227 0.0046915848530553706 0 -0.00028989775380371634 0.0047420489110988166 0 -0.0001683670129260718 0.0048009499273314578 0 -0.00013570725931651435 0.0046697208484264329 0 -4.8245490752594361e-05 0.004747095467312252 0 0.0001293944998219846 0.00474716288606232 0 9.4791392903332097e-05 0.0048194284609169944 0 6.5741743886547744e-05 0.0047957252075195994 0 0.00016294375011544264 0.00476172076767998 0 0.0001293944998219846 0.00474716288606232 0 0.00013015251349166542 0.0047959146754853856 0 0.0001293944998219846 0.00474716288606232 0 0.00013015251349166542 0.0047959146754853856 0 9.4791392903332097e-05 0.0048194284609169944 0 0.00016294375011544264 0.00476172076767998 0 0.00015310628178680853 0.0048102369378892305 0 0.00013015251349166542 0.0047959146754853856 0 0.00013015251349166542 0.0047959146754853856 0 9.4791392903332097e-05 0.0048194284609169944 0 0.0001174510227174815 0.004835079560968061 0 0.00015310628178680853 0.0048102369378892305 0 0.00013015251349166542 0.0047959146754853856 0 0.0001174510227174815 0.004835079560968061 0 9.4791392903332097e-05 0.0048194284609169944 0 8.894284950793717e-05 0.0048735044802141539 0 0.0001174510227174815 0.004835079560968061 0 8.894284950793717e-05 0.0048735044802141539 0 0.0001174510227174815 0.004835079560968061 0 0.00013185293535102391 0.0048658704735598385 0 0.00015310628178680853 0.0048102369378892305 0 0.0001174510227174815 0.004835079560968061 0 0.00013185293535102391 0.0048658704735598385 0 5.0102015572334365e-05 0.0048697030415043212 0 6.4820507004378252e-05 0.0049050324674821 0 3.289604250138117e-05 0.0049180709254922524 0 5.0102015572334365e-05 0.0048697030415043212 0 1.1491282204851553e-05 0.0049032647295331232 0 3.289604250138117e-05 0.0049180709254922524 0 8.894284950793717e-05 0.0048735044802141539 0 5.0102015572334365e-05 0.0048697030415043212 0 6.4820507004378252e-05 0.0049050324674821 0 9.4791392903332097e-05 0.0048194284609169944 0 5.0102015572334365e-05 0.0048697030415043212 0 6.5741743886547744e-05 0.0047957252075195994 0 9.4791392903332097e-05 0.0048194284609169944 0 8.894284950793717e-05 0.0048735044802141539 0 5.0102015572334365e-05 0.0048697030415043212 0 5.0102015572334365e-05 0.0048697030415043212 0 -6.2125501580850619e-06 0.0048451986498213809 0 1.1491282204851553e-05 0.0049032647295331232 0 5.0102015572334365e-05 0.0048697030415043212 0 6.5741743886547744e-05 0.0047957252075195994 0 -6.2125501580850619e-06 0.0048451986498213809 0 -0.00015106504939634227 0.0046915848530553706 0 -0.0001683670129260718 0.0048009499273314578 0 -7.7259012919588698e-05 0.0048423161524323187 0 -4.8245490752594361e-05 0.004747095467312252 0 -1.0581889238112513e-05 0.0048288493335052873 0 -0.00015106504939634227 0.0046915848530553706 0 -6.2125501580850619e-06 0.0048451986498213809 0 -7.7259012919588698e-05 0.0048423161524323187 0 -3.7408852572570891e-06 0.004902638506301361 0 -1.2975353343399837e-06 0.0049530896417595534 0 -1.533090405196021e-06 0.0049370366128607809 0 -6.2125501580850619e-06 0.0048451986498213809 0 -3.7408852572570891e-06 0.004902638506301361 0 -1.533090405196021e-06 0.0049370366128607809 0 -3.7408852572570891e-06 0.004902638506301361 0 -1.2975353343399837e-06 0.0049530896417595534 0 -1.3305760153137702e-07 0.004936563828538112 0 -6.2125501580850619e-06 0.0048451986498213809 0 -3.7408852572570891e-06 0.004902638506301361 0 1.1491282204851553e-05 0.0049032647295331232 0 8.3015431819222511e-09 0.0049999391185046663 0 -1.2975353343399837e-06 0.0049530896417595534 0 -1.533090405196021e-06 0.0049370366128607809 0 8.3015431819222511e-09 0.0049999391185046663 0 -1.2975353343399837e-06 0.0049530896417595534 0 -6.1595801624438268e-09 0.0049999413770394361 0 -1.2975353343399837e-06 0.0049530896417595534 0 -6.1595801624438268e-09 0.0049999413770394361 0 -1.6962395351330692e-06 0.0049718300804399542 0 -6.1595801624438268e-09 0.0049999413770394361 0 -1.6962395351330692e-06 0.0049718300804399542 0 -1.0828383425271935e-09 0.0049999565926081724 0 -1.2975353343399837e-06 0.0049530896417595534 0 -1.6962395351330692e-06 0.0049718300804399542 0 -1.3305760153137702e-07 0.004936563828538112 0 -1.6962395351330692e-06 0.0049718300804399542 0 -2.9404232585912309e-07 0.0049699284766503114 0 -1.3305760153137702e-07 0.004936563828538112 0 -1.6962395351330692e-06 0.0049718300804399542 0 -2.9404232585912309e-07 0.0049699284766503114 0 -1.0828383425271935e-09 0.0049999565926081724 0 -3.7408852572570891e-06 0.004902638506301361 0 1.1491282204851553e-05 0.0049032647295331232 0 -1.3305760153137702e-07 0.004936563828538112 0 -2.9404232585912309e-07 0.0049699284766503114 0 -1.3305760153137702e-07 0.004936563828538112 0 9.3903538556515266e-06 0.0049401477218428396 0 1.1491282204851553e-05 0.0049032647295331232 0 -1.3305760153137702e-07 0.004936563828538112 0 9.3903538556515266e-06 0.0049401477218428396 0 1.1491282204851553e-05 0.0049032647295331232 0 9.3903538556515266e-06 0.0049401477218428396 0 3.289604250138117e-05 0.0049180709254922524 0 9.3903538556515266e-06 0.0049401477218428396 0 2.1948950644546736e-05 0.0049467462774758966 0 3.289604250138117e-05 0.0049180709254922524 0 -2.9404232585912309e-07 0.0049699284766503114 0 9.3903538556515266e-06 0.0049401477218428396 0 6.4944424071917134e-06 0.0049647931399129167 0 9.3903538556515266e-06 0.0049401477218428396 0 6.4944424071917134e-06 0.0049647931399129167 0 2.1948950644546736e-05 0.0049467462774758966 0 6.4944424071917134e-06 0.0049647931399129167 0 2.8607679658031773e-06 0.0049861250656518426 0 1.3427548940822471e-05 0.004971373659775207 0 6.4944424071917134e-06 0.0049647931399129167 0 2.1948950644546736e-05 0.0049467462774758966 0 1.3427548940822471e-05 0.004971373659775207 0 2.1948950644546736e-05 0.0049467462774758966 0 3.2175794315427651e-05 0.0049587093172995134 0 4.5842171215687149e-05 0.0049358710932542174 0 2.1948950644546736e-05 0.0049467462774758966 0 3.2175794315427651e-05 0.0049587093172995134 0 1.3427548940822471e-05 0.004971373659775207 0 6.4944424071917134e-06 0.0049647931399129167 0 -5.0811213523842662e-09 0.0049999741194795104 0 2.8607679658031773e-06 0.0049861250656518426 0 -2.9404232585912309e-07 0.0049699284766503114 0 6.4944424071917134e-06 0.0049647931399129167 0 -5.0811213523842662e-09 0.0049999741194795104 0 -2.9404232585912309e-07 0.0049699284766503114 0 -1.0828383425271935e-09 0.0049999565926081724 0 -5.0811213523842662e-09 0.0049999741194795104 0 -5.0811213523842662e-09 0.0049999741194795104 0 2.8607679658031773e-06 0.0049861250656518426 0 1.2019121184617857e-09 0.0049999884316703691 0 2.8607679658031773e-06 0.0049861250656518426 0 2.1693956895245229e-06 0.0049959141150536452 0 1.1346966924757834e-05 0.0049873798727243113 0 2.8607679658031773e-06 0.0049861250656518426 0 2.1693956895245229e-06 0.0049959141150536452 0 1.2019121184617857e-09 0.0049999884316703691 0 3.2175794315427651e-05 0.0049587093172995134 0 1.3427548940822471e-05 0.004971373659775207 0 3.3205573438016233e-05 0.0049813095901503936 0 2.8607679658031773e-06 0.0049861250656518426 0 1.3427548940822471e-05 0.004971373659775207 0 1.1346966924757834e-05 0.0049873798727243113 0 1.3427548940822471e-05 0.004971373659775207 0 1.1346966924757834e-05 0.0049873798727243113 0 3.3205573438016233e-05 0.0049813095901503936 0 1.9222924285672715e-05 0.0049996925153987844 0 1.1346966924757834e-05 0.0049873798727243113 0 3.3205573438016233e-05 0.0049813095901503936 0 3.3205573438016233e-05 0.0049813095901503936 0 5.5422400345368001e-05 0.0049553986165592019 0 6.6821172470775322e-05 0.0049735747258367593 0 6.4507996501942877e-05 0.004996050474558162 0 3.3205573438016233e-05 0.0049813095901503936 0 6.6821172470775322e-05 0.0049735747258367593 0 3.2175794315427651e-05 0.0049587093172995134 0 3.3205573438016233e-05 0.0049813095901503936 0 5.5422400345368001e-05 0.0049553986165592019 0 3.2175794315427651e-05 0.0049587093172995134 0 5.5422400345368001e-05 0.0049553986165592019 0 4.5842171215687149e-05 0.0049358710932542174 0 5.5422400345368001e-05 0.0049553986165592019 0 6.6821172470775322e-05 0.0049735747258367593 0 9.2651164246897785e-05 0.0049542023384695115 0 5.5422400345368001e-05 0.0049553986165592019 0 9.2651164246897785e-05 0.0049542023384695115 0 7.8151343482373503e-05 0.0049315186011691789 0 6.6821172470775322e-05 0.0049735747258367593 0 9.7079338627829604e-05 0.0049786833141550147 0 9.2651164246897785e-05 0.0049542023384695115 0 6.4507996501942877e-05 0.004996050474558162 0 6.6821172470775322e-05 0.0049735747258367593 0 9.7079338627829604e-05 0.0049786833141550147 0 9.7079338627829604e-05 0.0049786833141550147 0 0.00013731645003647267 0.0049614046316396 0 9.2651164246897785e-05 0.0049542023384695115 0 0.00018032989944023829 0.0049519711405628455 0 0.00013731645003647267 0.0049614046316396 0 0.00015719731138025113 0.0049288372087684489 0 0.00015719731138025113 0.0049288372087684489 0 0.00011826122579227959 0.004932477256043153 0 0.00013394689740065655 0.0049039128295149358 0 0.00013731645003647267 0.0049614046316396 0 0.00015719731138025113 0.0049288372087684489 0 0.00011826122579227959 0.004932477256043153 0 0.00011826122579227959 0.004932477256043153 0 9.2651164246897785e-05 0.0049542023384695115 0 7.8151343482373503e-05 0.0049315186011691789 0 0.00013731645003647267 0.0049614046316396 0 0.00011826122579227959 0.004932477256043153 0 9.2651164246897785e-05 0.0049542023384695115 0 0.00011826122579227959 0.004932477256043153 0 0.00010163075178867642 0.0049028537345582419 0 7.8151343482373503e-05 0.0049315186011691789 0 0.00011826122579227959 0.004932477256043153 0 0.00010163075178867642 0.0049028537345582419 0 0.00013394689740065655 0.0049039128295149358 0 0.00015951113652669759 0.0048778094517033044 0 0.00013394689740065655 0.0049039128295149358 0 0.00013185293535102391 0.0048658704735598385 0 0.00010163075178867642 0.0049028537345582419 0 0.00013394689740065655 0.0049039128295149358 0 0.00013185293535102391 0.0048658704735598385 0 8.894284950793717e-05 0.0048735044802141539 0 0.00010163075178867642 0.0049028537345582419 0 0.00013185293535102391 0.0048658704735598385 0 8.894284950793717e-05 0.0048735044802141539 0 0.00010163075178867642 0.0049028537345582419 0 6.4820507004378252e-05 0.0049050324674821 0 2.1948950644546736e-05 0.0049467462774758966 0 3.289604250138117e-05 0.0049180709254922524 0 4.5842171215687149e-05 0.0049358710932542174 0 6.4820507004378252e-05 0.0049050324674821 0 3.289604250138117e-05 0.0049180709254922524 0 4.5842171215687149e-05 0.0049358710932542174 0 6.4820507004378252e-05 0.0049050324674821 0 4.5842171215687149e-05 0.0049358710932542174 0 7.8151343482373503e-05 0.0049315186011691789 0 5.5422400345368001e-05 0.0049553986165592019 0 4.5842171215687149e-05 0.0049358710932542174 0 7.8151343482373503e-05 0.0049315186011691789 0 0.00010163075178867642 0.0049028537345582419 0 6.4820507004378252e-05 0.0049050324674821 0 7.8151343482373503e-05 0.0049315186011691789 0 0.00026583587049948724 0.0029921662115272485 0 0.00027219275500871412 0.0030014553303715861 0 0.00026937795885484709 0.0029903173866214147 0 0.00026583587049948724 0.0029921662115272485 0 0.00026733020754610121 0.0029989248820786246 0 0.00026142109309056723 0.0029933392489115049 0 5.0839645029796759e-05 0.0022952151590863853 0 0.00023717118302379753 0.0022484502181430396 0 0.00026583587049948724 0.0029921662115272485 0 0.00026733020754610121 0.0029989248820786246 0 0.00027219275500871412 0.0030014553303715861 0 0.00026733020754610121 0.0029989248820786246 0 0.00027219275500871412 0.0030014553303715861 0 0.00027158012615914357 0.0030056675285929082 0 0.00027219275500871412 0.0030014553303715861 0 0.00027878378834849852 0.003016945338044441 0 0.00027158012615914357 0.0030056675285929082 0 0.00027219275500871412 0.0030014553303715861 0 0.00027878378834849852 0.003016945338044441 0 0.00028108476725693737 0.0030079067908992331 0 0.00027219275500871412 0.0030014553303715861 0 0.00027777404625033326 0.0029995617967961152 0 0.00028108476725693737 0.0030079067908992331 0 0.00027219275500871412 0.0030014553303715861 0 0.00027777404625033326 0.0029995617967961152 0 0.00026937795885484709 0.0029903173866214147 0 0.00027777404625033326 0.0029995617967961152 0 0.00027689753804277669 0.0029945515247650277 0 0.00026937795885484709 0.0029903173866214147 0 0.00027777404625033326 0.0029995617967961152 0 0.00027689753804277669 0.0029945515247650277 0 0.00028176200337003322 0.0029992712692213197 0 0.00027689753804277669 0.0029945515247650277 0 0.00028063431997426939 0.0029972012405480924 0 0.00027758748434533184 0.002992303032846744 0 -0.00022841155684078367 0.0017567576369766503 0 -0.00020522931040553864 0.0016798538465907884 0 -0.00029169064654981048 0.0017830322581416627 0 0.00027689753804277669 0.0029945515247650277 0 0.00026937795885484709 0.0029903173866214147 0 0.00027347978343833469 0.0029884897979998016 0 3.7679446654374317e-05 0.0023333598479782121 0 -2.1769456102662448e-05 0.0023845133265541101 0 -0.00022841155684078367 0.0017567576369766503 0 -0.00020522931040553864 0.0016798538465907884 0 -0.00014515640051304568 0.0017322464434287063 0 -0.00011936998690459047 0.0015851884404744123 0 -0.00014515640051304568 0.0017322464434287063 0 -2.8983932543828189e-05 0.0017022113028396062 0 -0.00011936998690459047 0.0015851884404744123 0 -0.00020522931040553864 0.0016798538465907884 0 -0.00014515640051304568 0.0017322464434287063 0 5.0839645029796759e-05 0.0022952151590863853 0 3.7679446654374317e-05 0.0023333598479782121 0 -0.00014515640051304568 0.0017322464434287063 0 -2.8983932543828189e-05 0.0017022113028396062 0 -0.00012036790801281882 0.0018189057232972177 0 -2.8983932543828189e-05 0.0017022113028396062 0 0.00010293763383384658 0.0016495122499781993 0 2.5364554592013121e-05 0.0015747003551155911 0 -0.00011936998690459047 0.0015851884404744123 0 -2.8983932543828189e-05 0.0017022113028396062 0 2.5364554592013121e-05 0.0015747003551155911 0 -2.8983932543828189e-05 0.0017022113028396062 0 0.00010293763383384658 0.0016495122499781993 0 8.8626548733812514e-05 0.0017537048084647372 0 0.00022766439863052386 0.0017710525257879897 0 0.00021533694241057303 0.0017939788104618603 0 0.00027110755704484431 0.0018329783560204385 0 0.00030928574657583963 0.0019049670011436824 0 0.00025270355557267533 0.0018910622010280763 0 0.00018429455854722499 0.0017200987530619832 0 0.00010293763383384658 0.0016495122499781993 0 8.8626548733812514e-05 0.0017537048084647372 0 0.00030928574657583963 0.0019049670011436824 0 0.00025270355557267533 0.0018910622010280763 0 0.00027108835959973438 0.0019681517060681089 0 0.00025270355557267533 0.0018910622010280763 0 0.00027108835959973438 0.0019681517060681089 0 0.00021056580683758309 0.0019403055088199604 0 0.00030928574657583963 0.0019049670011436824 0 0.00027108835959973438 0.0019681517060681089 0 0.000363753099124819 0.0019840607650274998 0 0.00027108835959973438 0.0019681517060681089 0 0.00027408648493525178 0.0020522326297198333 0 0.000363753099124819 0.0019840607650274998 0 0.00021533694241057303 0.0017939788104618603 0 0.00016634637560119589 0.0016952569875385802 0 0.00027408648493525178 0.0020522326297198333 0 0.000363753099124819 0.0019840607650274998 0 0.00033726399871375631 0.0020902580122343422 0 0.00027108835959973438 0.0019681517060681089 0 0.00027408648493525178 0.0020522326297198333 0 0.00021177507844208235 0.002017788584644391 0 0.00027408648493525178 0.0020522326297198333 0 0.00021885990132152183 0.0021034934623450677 0 0.00021177507844208235 0.002017788584644391 0 -0.00011936998690459047 0.0015851884404744123 0 2.5364554592013121e-05 0.0015747003551155911 0 -4.4209966282012829e-05 0.0015027649219765771 0 0.000363753099124819 0.0019840607650274998 0 0.00044354163495417495 0.0020806191494079627 0 0.00033726399871375631 0.0020902580122343422 0 0.00016634637560119589 0.0016952569875385802 0 0.00023717118302379753 0.0022484502181430396 0 0.00038702890319482837 0.0021673399856559665 0 0.00034651933735839642 0.0022004083092337081 0 0.0004274115876836358 0.0022248181379099915 0 0.00023717118302379753 0.0022484502181430396 0 0.000381731444121921 0.0026799438378905002 0 0.00034651933735839642 0.0022004083092337081 0 0.00038106942840424263 0.0022933981188411317 0 0.0004274115876836358 0.0022248181379099915 0 0.00044354163495417495 0.0020806191494079627 0 0.00033726399871375631 0.0020902580122343422 0 0.00034651933735839642 0.0022004083092337081 0 0.00023717118302379753 0.0022484502181430396 0 0.00041690470463389486 0.0021372821318656693 0 0.00027782331565156431 0.0021435167975486728 0 0.00022068871166232011 0.0021908555838189253 0 0.00029283780588510621 0.0022899629698446911 0 0.00034651933735839642 0.0022004083092337081 0 0.00027782331565156431 0.0021435167975486728 0 0.00029283780588510621 0.0022899629698446911 0 0.00027408648493525178 0.0020522326297198333 0 0.00021885990132152183 0.0021034934623450677 0 0.00027782331565156431 0.0021435167975486728 0 0.00033726399871375631 0.0020902580122343422 0 0.00034651933735839642 0.0022004083092337081 0 0.00027782331565156431 0.0021435167975486728 0 0.00027408648493525178 0.0020522326297198333 0 0.00033726399871375631 0.0020902580122343422 0 0.00027782331565156431 0.0021435167975486728 0 0.00021885990132152183 0.0021034934623450677 0 0.00027782331565156431 0.0021435167975486728 0 0.00022068871166232011 0.0021908555838189253 0 0.00022068871166232011 0.0021908555838189253 0 0.00029283780588510621 0.0022899629698446911 0 0.00020714557446806169 0.0022758542025704152 0 0.00029283780588510621 0.0022899629698446911 0 0.00020714557446806169 0.0022758542025704152 0 0.00024195312142380538 0.0023905969347163694 0 0.00034651933735839642 0.0022004083092337081 0 0.00029283780588510621 0.0022899629698446911 0 0.00038106942840424263 0.0022933981188411317 0 0.00029283780588510621 0.0022899629698446911 0 0.00038106942840424263 0.0022933981188411317 0 0.00036518580886446523 0.0023816110989424663 0 0.00029283780588510621 0.0022899629698446911 0 0.00036518580886446523 0.0023816110989424663 0 0.00033262211919307438 0.002425026951959351 0 0.00036518580886446523 0.0023816110989424663 0 0.00042472476613746881 0.0023747326961588472 0 0.00040003032577422222 0.0024417144427734384 0 0.00038106942840424263 0.0022933981188411317 0 0.00036518580886446523 0.0023816110989424663 0 0.00042472476613746881 0.0023747326961588472 0 0.00042472476613746881 0.0023747326961588472 0 0.00046927418719245207 0.0024404380319119979 0 0.00043336309139633156 0.0024692581417067477 0 0.00034517978773127299 0.0026291328581757598 0 0.00051632891142133481 0.0027985038688977328 0 0.00042472476613746881 0.0023747326961588472 0 0.00046927418719245207 0.0024404380319119979 0 0.00047602715271496178 0.0023110512962052372 0 0.00046927418719245207 0.0024404380319119979 0 0.00047602715271496178 0.0023110512962052372 0 0.00053507682067924299 0.0024179863888006475 0 0.00038106942840424263 0.0022933981188411317 0 0.00042472476613746881 0.0023747326961588472 0 0.00042534544358583835 0.0022987861351412078 0 0.00047602715271496178 0.0023110512962052372 0 0.00042534544358583835 0.0022987861351412078 0 0.0004274115876836358 0.0022248181379099915 0 0.00038106942840424263 0.0022933981188411317 0 0.00042534544358583835 0.0022987861351412078 0 0.0004274115876836358 0.0022248181379099915 0 0.00042472476613746881 0.0023747326961588472 0 0.00047602715271496178 0.0023110512962052372 0 0.00042534544358583835 0.0022987861351412078 0 0.00034517978773127299 0.0026291328581757598 0 0.000381731444121921 0.0026799438378905002 0 0.00027235559627785896 0.0030104760912535084 0 0.00026631947829825988 0.0030036258518507651 0 0.00027158012615914357 0.0030056675285929082 0 0.00026733020754610121 0.0029989248820786246 0 0.00026631947829825988 0.0030036258518507651 0 0.00027158012615914357 0.0030056675285929082 0 0.00026733020754610121 0.0029989248820786246 0 0.00026142109309056723 0.0029933392489115049 0 0.00026631947829825988 0.0030036258518507651 0 0.00027235559627785896 0.0030104760912535084 0 0.00027158012615914357 0.0030056675285929082 0 0.00028064902101414995 0.0030113557977551027 0 0.00027878378834849852 0.003016945338044441 0 0.00027158012615914357 0.0030056675285929082 0 0.00027658069016057687 0.003033781042262092 0 0.00028998811663763063 0.0030199613851228961 0 0.00024361351927429351 0.0029924622744174779 0 0.00027158012615914357 0.0030056675285929082 0 0.00028810716173209073 0.0030061683011339082 0 0.00028064902101414995 0.0030113557977551027 0 0.00028810716173209073 0.0030061683011339082 0 0.00028064902101414995 0.0030113557977551027 0 0.00029348629372666661 0.0030213400493428427 0 0.00027235559627785896 0.0030104760912535084 0 0.00028064902101414995 0.0030113557977551027 0 0.00028167917835510435 0.0030221187722648522 0 0.00028064902101414995 0.0030113557977551027 0 0.00028167917835510435 0.0030221187722648522 0 0.00029348629372666661 0.0030213400493428427 0 0.00053112621045980489 0.0024991552530318362 0 0.00051632891142133481 0.0027985038688977328 0 0.00092756977405796957 0.0032722054466677985 0 0.00085496946924373764 0.0033060233456892085 0 0.00086517296958699391 0.0032587642522854919 0 0.00051632891142133481 0.0027985038688977328 0 0.00058649398618713423 0.0031875413550113713 0 0.00085496946924373764 0.0033060233456892085 0 0.00086517296958699391 0.0032587642522854919 0 0.00081537820473147815 0.0032767214114640471 0 0.00085496946924373764 0.0033060233456892085 0 0.00081537820473147815 0.0032767214114640471 0 0.00077121810152649289 0.0033387064970693873 0 0.00086517296958699391 0.0032587642522854919 0 0.00081537820473147815 0.0032767214114640471 0 0.00083039933404545363 0.003233530927964919 0 0.00081537820473147815 0.0032767214114640471 0 0.00077195862597282338 0.0032861215035411826 0 0.0007904115683652665 0.0032362171727664127 0 0.00081537820473147815 0.0032767214114640471 0 0.00077121810152649289 0.0033387064970693873 0 0.00077195862597282338 0.0032861215035411826 0 0.00028810716173209073 0.0030061683011339082 0 0.00029348629372666661 0.0030213400493428427 0 0.00030889467698580947 0.0030178291857206464 0 0.00024361351927429351 0.0029924622744174779 0 0.00046695287467151038 0.0031478623941130616 0 0.00058649398618713423 0.0031875413550113713 0 0.00046695287467151038 0.0031478623941130616 0 0.00054295840314214224 0.0032793033526465035 0 0.0005291175709973597 0.0032690823152237486 0 0.00052382221585018165 0.0032877402025118718 0 0.00029339118506127945 0.0030559836189335606 0 0.0003071230792868577 0.0030536809047563142 0 0.00029953378516958294 0.0030469359146962013 0 0.00046695287467151038 0.0031478623941130616 0 0.00040632203132591802 0.0031751253426638018 0 0.00046695287467151038 0.0031478623941130616 0 0.00069830998333169855 0.0033620727647501016 0 0.00069830998333169855 0.0033620727647501016 0 0.00080287151649871666 0.003215947133478547 0 0.00077195862597282338 0.0032861215035411826 0 0.00071139248544382265 0.0032934128402150125 0 0.0007904115683652665 0.0032362171727664127 0 0.00077121810152649289 0.0033387064970693873 0 0.00077195862597282338 0.0032861215035411826 0 0.00071139248544382265 0.0032934128402150125 0 0.00076576535914642805 0.0034756087702124275 0 0.00080602384717377851 0.0035058440284028674 0 0.00073628976868521346 0.0035613632177485723 0 0.00075386155165853774 0.0033837890399179595 0 0.00069830998333169855 0.0033620727647501016 0 0.00076576535914642805 0.0034756087702124275 0 0.00073628976868521346 0.0035613632177485723 0 0.00068496591186862992 0.0035599543141355285 0 0.00081860841782425086 0.003479027306722358 0 0.0007114612797738518 0.0034939232083534841 0 0.0007051765742013223 0.0035798005874735903 0 0.00075386155165853774 0.0033837890399179595 0 0.00069721720410274054 0.0035847686969739715 0 0.00073628976868521346 0.0035613632177485723 0 0.00068496591186862992 0.0035599543141355285 0 0.00066849217127997959 0.0036192410396785331 0 0.00061829293669786955 0.0034278349137512494 0 0.00056655587050318998 0.0034416539785077495 0 0.00051094627638335443 0.0032821857503501687 0 0.00050262933287106783 0.0032970807966250576 0 0.00049124022997603484 0.0032968050081591742 0 0.0005291175709973597 0.0032690823152237486 0 0.00051094627638335443 0.0032821857503501687 0 0.00052382221585018165 0.0032877402025118718 0 0.00051094627638335443 0.0032821857503501687 0 0.00052382221585018165 0.0032877402025118718 0 0.00050262933287106783 0.0032970807966250576 0 0.00069830998333169855 0.0033620727647501016 0 0.00061829293669786955 0.0034278349137512494 0 0.0003071230792868577 0.0030536809047563142 0 0.00032286736830303934 0.0030545566651706923 0 0.00031579880780912726 0.0030508453917021104 0 0.00030744072903408513 0.0030478107765593686 0 0.00029953378516958294 0.0030469359146962013 0 0.00030231273010497523 0.0030421721648311462 0 0.0003071230792868577 0.0030536809047563142 0 0.00030744072903408513 0.0030478107765593686 0 0.00029953378516958294 0.0030469359146962013 0 0.00040632203132591802 0.0031751253426638018 0 0.00041099436574137688 0.0031660132716170336 0 0.0003071230792868577 0.0030536809047563142 0 0.00030744072903408513 0.0030478107765593686 0 0.00031579880780912726 0.0030508453917021104 0 0.00030744072903408513 0.0030478107765593686 0 0.00031021758683071456 0.0030447258818843293 0 0.00031579880780912726 0.0030508453917021104 0 0.00030744072903408513 0.0030478107765593686 0 0.00031021758683071456 0.0030447258818843293 0 0.00030231273010497523 0.0030421721648311462 0 0.00032286736830303934 0.0030545566651706923 0 0.00031579880780912726 0.0030508453917021104 0 0.00033080747462494136 0.003052296372200738 0 0.00031880771598590603 0.003051157337717967 0 0.00031897931120733437 0.0030511223390028547 0 0.00031579880780912726 0.0030508453917021104 0 0.00031892610343098256 0.0030498774155719552 0 0.00032079932084923154 0.0030507006537495453 0 0.00031021758683071456 0.0030447258818843293 0 0.00031579880780912726 0.0030508453917021104 0 0.00031892610343098256 0.0030498774155719552 0 0.00031892610343098256 0.0030498774155719552 0 0.00032473092139529059 0.0030559739045369766 0 0.00032079932084923154 0.0030507006537495453 0 0.00032473092139529059 0.0030559739045369766 0 0.00031864545039710052 0.0030467574439301806 0 0.00031915460824411896 0.003038803438015525 0 0.00031892610343098256 0.0030498774155719552 0 0.00032473092139529059 0.0030559739045369766 0 0.00031864545039710052 0.0030467574439301806 0 0.00031021758683071456 0.0030447258818843293 0 0.00031892610343098256 0.0030498774155719552 0 0.00031260557357895178 0.0030412062856683244 0 0.00031892610343098256 0.0030498774155719552 0 0.00031864545039710052 0.0030467574439301806 0 0.00031260557357895178 0.0030412062856683244 0 0.00031864545039710052 0.0030467574439301806 0 0.00031260557357895178 0.0030412062856683244 0 0.00031915460824411896 0.003038803438015525 0 0.00031260557357895178 0.0030412062856683244 0 0.00031915460824411896 0.003038803438015525 0 0.00030861513699035622 0.003030046904627388 0 0.00031021758683071456 0.0030447258818843293 0 0.00030150124938668212 0.0030340035305456673 0 0.00030231273010497523 0.0030421721648311462 0 0.00031021758683071456 0.0030447258818843293 0 0.00031260557357895178 0.0030412062856683244 0 0.00030150124938668212 0.0030340035305456673 0 0.00031260557357895178 0.0030412062856683244 0 0.00030150124938668212 0.0030340035305456673 0 0.00030861513699035622 0.003030046904627388 0 0.00030150124938668212 0.0030340035305456673 0 0.00030231273010497523 0.0030421721648311462 0 0.00029178500478005615 0.003035669086296139 0 0.00030150124938668212 0.0030340035305456673 0 0.00029178500478005615 0.003035669086296139 0 0.00028947424194672401 0.0030216153656491395 0 0.00027878378834849852 0.003016945338044441 0 0.00029178500478005615 0.003035669086296139 0 0.00028947424194672401 0.0030216153656491395 0 0.00027878378834849852 0.003016945338044441 0 0.00027658069016057687 0.003033781042262092 0 0.00029178500478005615 0.003035669086296139 0 0.00027658069016057687 0.003033781042262092 0 0.00029339118506127945 0.0030559836189335606 0 0.00029178500478005615 0.003035669086296139 0 0.00029339118506127945 0.0030559836189335606 0 0.00029953378516958294 0.0030469359146962013 0 0.00029178500478005615 0.003035669086296139 0 0.00029953378516958294 0.0030469359146962013 0 0.00030231273010497523 0.0030421721648311462 0 0.00029178500478005615 0.003035669086296139 0 0.00047370881030557653 0.0035666180744846699 0 0.00051579113761182247 0.003563329786370301 0 0.00047502590703878524 0.0036281094764258983 0 0.00043722506940445149 0.00356498486624089 0 0.00047370881030557653 0.0035666180744846699 0 0.00047502590703878524 0.0036281094764258983 0 0.00047370881030557653 0.0035666180744846699 0 0.00046198795454936205 0.0035380859701133142 0 0.00048762489535513517 0.0035296580071755798 0 0.00046198795454936205 0.0035380859701133142 0 0.00048762489535513517 0.0035296580071755798 0 0.00047543119635222632 0.0035057769928516038 0 0.00047370881030557653 0.0035666180744846699 0 0.00048762489535513517 0.0035296580071755798 0 0.00051579113761182247 0.003563329786370301 0 0.00055880180185762429 0.0035156321457102016 0 0.00051579113761182247 0.003563329786370301 0 0.00051970288110387945 0.0034990049472316607 0 0.00048762489535513517 0.0035296580071755798 0 0.00051579113761182247 0.003563329786370301 0 0.00051970288110387945 0.0034990049472316607 0 0.00055880180185762429 0.0035156321457102016 0 0.00051579113761182247 0.003563329786370301 0 0.00056732490947672995 0.0035711226300375338 0 0.00051579113761182247 0.003563329786370301 0 0.00056732490947672995 0.0035711226300375338 0 0.00053855876993800904 0.003620972957812405 0 0.00051579113761182247 0.003563329786370301 0 0.00053855876993800904 0.003620972957812405 0 0.00047502590703878524 0.0036281094764258983 0 0.00061589811994232726 0.0035764288122970226 0 0.00056732490947672995 0.0035711226300375338 0 0.00058700575543402071 0.0036147198227569895 0 0.00056732490947672995 0.0035711226300375338 0 0.00058700575543402071 0.0036147198227569895 0 0.00053855876993800904 0.003620972957812405 0 0.00061589811994232726 0.0035764288122970226 0 0.00062968461299362964 0.0036110036547352194 0 0.00058700575543402071 0.0036147198227569895 0 0.00061589811994232726 0.0035764288122970226 0 0.00056732490947672995 0.0035711226300375338 0 0.00060958140065410689 0.0035251136661432667 0 0.00055880180185762429 0.0035156321457102016 0 0.00060958140065410689 0.0035251136661432667 0 0.00060928178552887636 0.0034458422103560765 0 0.00055880180185762429 0.0035156321457102016 0 0.00056732490947672995 0.0035711226300375338 0 0.00060958140065410689 0.0035251136661432667 0 0.00060958140065410689 0.0035251136661432667 0 0.00065717440311222552 0.0035437878187799901 0 0.00065726872264505005 0.0034914256386530313 0 0.0007114612797738518 0.0034939232083534841 0 0.0007051765742013223 0.0035798005874735903 0 0.00065717440311222552 0.0035437878187799901 0 0.00060958140065410689 0.0035251136661432667 0 0.00065726872264505005 0.0034914256386530313 0 0.00060928178552887636 0.0034458422103560765 0 0.00061589811994232726 0.0035764288122970226 0 0.00060958140065410689 0.0035251136661432667 0 0.00065717440311222552 0.0035437878187799901 0 0.0007114612797738518 0.0034939232083534841 0 0.00065717440311222552 0.0035437878187799901 0 0.00065726872264505005 0.0034914256386530313 0 0.0007114612797738518 0.0034939232083534841 0 0.00065726872264505005 0.0034914256386530313 0 0.00068003429166515073 0.0034363708946900857 0 0.0007051765742013223 0.0035798005874735903 0 0.00065717440311222552 0.0035437878187799901 0 0.00065157046567607861 0.0035779992493751721 0 0.00069721720410274054 0.0035847686969739715 0 0.00061587870083617137 0.0036397257370084798 0 0.0007051765742013223 0.0035798005874735903 0 0.00065157046567607861 0.0035779992493751721 0 0.00062968461299362964 0.0036110036547352194 0 0.0007051765742013223 0.0035798005874735903 0 0.00062968461299362964 0.0036110036547352194 0 0.0006097707571130484 0.0036493505264180558 0 0.00061589811994232726 0.0035764288122970226 0 0.00065717440311222552 0.0035437878187799901 0 0.00065157046567607861 0.0035779992493751721 0 0.00061589811994232726 0.0035764288122970226 0 0.00065157046567607861 0.0035779992493751721 0 0.00062968461299362964 0.0036110036547352194 0 0.00033972650560493844 0.0030551298722658019 0 0.00033080747462494136 0.003052296372200738 0 0.00034559990357722854 0.0030531562260913527 0 0.00050262933287106783 0.0032970807966250576 0 0.00049124022997603484 0.0032968050081591742 0 0.00047958141041039417 0.0033058285519859867 0 0.00032286736830303934 0.0030545566651706923 0 0.00033972650560493844 0.0030551298722658019 0 0.00033080747462494136 0.003052296372200738 0 0.00068496591186862992 0.0035599543141355285 0 0.00066849217127997959 0.0036192410396785331 0 0.0006097707571130484 0.0036493505264180558 0 0.00041099436574137688 0.0031660132716170336 0 0.00045987640236691275 0.0033107893319057383 0 0.00031897931120733437 0.0030511223390028547 0 0.000367233954194035 0.0031771399774180305 0 0.00056655587050318998 0.0034416539785077495 0 0.00045987640236691275 0.0033107893319057383 0 0.00066849217127997959 0.0036192410396785331 0 0.00062992188113779974 0.0036538212029261271 0 0.0006097707571130484 0.0036493505264180558 0 0.00032473092139529059 0.0030559739045369766 0 0.00031915460824411896 0.003038803438015525 0 0.00033694279841600178 0.0030357918242745166 0 0.00032473092139529059 0.0030559739045369766 0 0.00032079932084923154 0.0030507006537495453 0 0.00030045884628069751 0.0030791163326912585 0 0.00032079932084923154 0.0030507006537495453 0 0.00030045884628069751 0.0030791163326912585 0 0.00027063776138724069 0.003070746299081288 0 0.00030172293456549014 0.0030890574567409841 0 0.00037269916921496392 0.0029982161279554298 0 0.00032473092139529059 0.0030559739045369766 0 0.00030045884628069751 0.0030791163326912585 0 0.00030112980071537489 0.0031246815795112973 0 0.00030045884628069751 0.0030791163326912585 0 0.00026328476256130606 0.0031259179843567608 0 0.00030112980071537489 0.0031246815795112973 0 0.000367233954194035 0.0031771399774180305 0 0.00048229026785073629 0.0040613001478035961 0 0.00026799626825925081 0.0030780297224654598 0 0.00024608743003603546 0.0030964077090101013 0 0.00020481987724900135 0.0031051543934059625 0 0.00030045884628069751 0.0030791163326912585 0 0.00027063776138724069 0.003070746299081288 0 0.00026328476256130606 0.0031259179843567608 0 0.0006032589497146502 0.0036731137411718513 0 0.00056612202306465735 0.003651285720163943 0 0.00052420535080595213 0.0036980798328825619 0 0.00027063776138724069 0.003070746299081288 0 0.00024608743003603546 0.0030964077090101013 0 0.00026328476256130606 0.0031259179843567608 0 0.00024608743003603546 0.0030964077090101013 0 0.00022929326324503215 0.0031397027696074046 0 0.00026328476256130606 0.0031259179843567608 0 0.000367233954194035 0.0031771399774180305 0 0.00028835342330029356 0.0031380242267399581 0 0.0006032589497146502 0.0036731137411718513 0 0.00056612202306465735 0.003651285720163943 0 0.0006097707571130484 0.0036493505264180558 0 0.00062992188113779974 0.0036538212029261271 0 0.0006032589497146502 0.0036731137411718513 0 0.0006097707571130484 0.0036493505264180558 0 0.00045987640236691275 0.0033107893319057383 0 0.000367233954194035 0.0031771399774180305 0 0.00062968461299362964 0.0036110036547352194 0 0.0006097707571130484 0.0036493505264180558 0 0.00058700575543402071 0.0036147198227569895 0 0.00056612202306465735 0.003651285720163943 0 0.0006097707571130484 0.0036493505264180558 0 0.00058700575543402071 0.0036147198227569895 0 0.00056612202306465735 0.003651285720163943 0 0.00058700575543402071 0.0036147198227569895 0 0.00053855876993800904 0.003620972957812405 0 0.00056612202306465735 0.003651285720163943 0 0.00053855876993800904 0.003620972957812405 0 0.00052420535080595213 0.0036980798328825619 0 0.00053855876993800904 0.003620972957812405 0 0.00052420535080595213 0.0036980798328825619 0 0.00047502590703878524 0.0036281094764258983 0 0.00048229026785073629 0.0040613001478035961 0 0.00022043861579325782 0.0039442844772922718 0 0.00024608743003603546 0.0030964077090101013 0 0.00020481987724900135 0.0031051543934059625 0 0.00022929326324503215 0.0031397027696074046 0 0.00048229026785073629 0.0040613001478035961 0 0.00052773772790451923 0.0048340687292143421 0 0.00080139101092473848 0.0047228803290801777 0 0.00069003281447978563 0.0047612512099163918 0 0.00072756520191536735 0.0046147072432635144 0 0.00026721453607413245 0.0048628960444824414 0 0.00040797424342119202 0.0048314996969378203 0 0.00029647172434358997 0.0047717897996663186 0 0.00048229026785073629 0.0040613001478035961 0 0.00063677511908814626 0.0041550950563756552 0 0.00033046097191607765 0.0046351587878005864 0 0.00023671829899287394 0.0045659411747260457 0 0.00039614446933125151 0.0045682689308216935 0 0.00041716929936964041 0.0046559443737843364 0 0.00033046097191607765 0.0046351587878005864 0 0.00039614446933125151 0.0045682689308216935 0 0.00033046097191607765 0.0046351587878005864 0 0.00035490518103709843 0.0047034565566017716 0 0.00025474010789625881 0.0046851333694282356 0 0.00045383115656995478 0.0047397715165975862 0 0.00041716929936964041 0.0046559443737843364 0 0.00035490518103709843 0.0047034565566017716 0 0.00041716929936964041 0.0046559443737843364 0 0.00033046097191607765 0.0046351587878005864 0 0.00035490518103709843 0.0047034565566017716 0 0.00040797424342119202 0.0048314996969378203 0 0.00035490518103709843 0.0047034565566017716 0 0.00029647172434358997 0.0047717897996663186 0 0.00045383115656995478 0.0047397715165975862 0 0.00040797424342119202 0.0048314996969378203 0 0.00035490518103709843 0.0047034565566017716 0 0.00035490518103709843 0.0047034565566017716 0 0.00029647172434358997 0.0047717897996663186 0 0.00025474010789625881 0.0046851333694282356 0 0.00019840718702933099 0.0047728867058725033 0 0.00025474010789625881 0.0046851333694282356 0 0.00013258927956787396 0.0046822202273496018 0 0.00029647172434358997 0.0047717897996663186 0 0.00019840718702933099 0.0047728867058725033 0 0.00025474010789625881 0.0046851333694282356 0 0.00026721453607413245 0.0048628960444824414 0 0.00029647172434358997 0.0047717897996663186 0 0.00019840718702933099 0.0047728867058725033 0 0.00033046097191607765 0.0046351587878005864 0 0.00025474010789625881 0.0046851333694282356 0 0.00023671829899287394 0.0045659411747260457 0 0.00025474010789625881 0.0046851333694282356 0 0.00013258927956787396 0.0046822202273496018 0 0.00023671829899287394 0.0045659411747260457 0 0.00020417451529796044 0.0036208208557410668 0 0.00018528954325589125 0.003593058863989371 0 0.00022473534224048736 0.0035989476273619618 0 0.00022149304946009587 0.0037010682001259536 0 0.00023820793250554318 0.0031099224162557137 0 0.00022149304946009587 0.0037010682001259536 0 0.00021016417855219437 0.0040062228279824754 0 0.00022043861579325782 0.0039442844772922718 0 0.00022149304946009587 0.0037010682001259536 0 0.00022929326324503215 0.0031397027696074046 0 0.00025885947583536044 0.0031833866119218152 0 0.00026328476256130606 0.0031259179843567608 0 0.00025885947583536044 0.0031833866119218152 0 0.00026328476256130606 0.0031259179843567608 0 0.00030112980071537489 0.0031246815795112973 0 0.00022149304946009587 0.0037010682001259536 0 0.00037269916921496392 0.0029982161279554298 0 0.00033694279841600178 0.0030357918242745166 0 0.00033195145500412117 0.0030208111098994866 0 0.00031947685091692976 0.0030258667322619615 0 0.00034706177597470026 0.003025531504705678 0 0.00033694279841600178 0.0030357918242745166 0 0.00033195145500412117 0.0030208111098994866 0 0.00034706177597470026 0.003025531504705678 0 0.00033195145500412117 0.0030208111098994866 0 0.00033426898068824852 0.0030050743074997339 0 0.00033195145500412117 0.0030208111098994866 0 0.00033426898068824852 0.0030050743074997339 0 0.00032078126172732597 0.0030139021666781827 0 0.00025547488795794144 0.0030118966943748818 0 0.00025040039158487695 0.0030179478898835041 0 0.00026312532707905846 0.003010716597417197 0 0.00023820793250554318 0.0031099224162557137 0 0.0003029639657054517 0.0029956847616911374 0 0.00023820793250554318 0.0031099224162557137 0 0.00024930076303047321 0.0029880038392069092 0 0.00025677985228651014 0.0030179356750041127 0 0.00025040039158487695 0.0030179478898835041 0 0.00026312532707905846 0.003010716597417197 0 0.00025040039158487695 0.0030179478898835041 0 0.00024358592584752519 0.0030233714900521772 0 0.00024765293434888798 0.0030247880375566692 0 0.00025677985228651014 0.0030179356750041127 0 0.00025040039158487695 0.0030179478898835041 0 0.00024765293434888798 0.0030247880375566692 0 0.00025547488795794144 0.0030118966943748818 0 0.00025040039158487695 0.0030179478898835041 0 0.00024379663225871889 0.0030195358474865278 0 0.00023820793250554318 0.0031099224162557137 0 0.00021016417855219437 0.0040062228279824754 0 0.00025040039158487695 0.0030179478898835041 0 0.00024379663225871889 0.0030195358474865278 0 0.0002445806867292492 0.0030209220074649272 0 0.00021016417855219437 0.0040062228279824754 0 0.00021644481664695545 0.0033918685234080232 0 0.00024379663225871889 0.0030195358474865278 0 0.0002445806867292492 0.0030209220074649272 0 0.00024035072128637293 0.0030239896816323924 0 0.00025040039158487695 0.0030179478898835041 0 0.0002445806867292492 0.0030209220074649272 0 0.00024358592584752519 0.0030233714900521772 0 0.0002445806867292492 0.0030209220074649272 0 0.00024358592584752519 0.0030233714900521772 0 0.00024035072128637293 0.0030239896816323924 0 0.00016034293569333781 0.0030288990798991002 0 0.00021644481664695545 0.0033918685234080232 0 0.00029869857712620654 0.0029719187205595634 0 0.00021644481664695545 0.0033918685234080232 0 0.00032522869441836769 0.0030172517314523742 0 0.0002063234649037976 0.0031253361041485668 0 0.00021022657245260308 0.0030274073784133477 0 0.00012487463949495338 0.0030615827961849203 0 0.0002063234649037976 0.0031253361041485668 0 0.00021022657245260308 0.0030274073784133477 0 0.00045860080969376335 0.0045287702036942365 0 0.00030029123939289066 0.0043841500849590188 0 0.00039614446933125151 0.0045682689308216935 0 0.00015232257486927093 0.0045531706965828206 0 0.00030029123939289066 0.0043841500849590188 0 0.00039614446933125151 0.0045682689308216935 0 0.00021016417855219437 0.0040062228279824754 0 0.00038003043386089307 0.004664144602295155 0 0.00037219003209916935 0.0040356021525145471 0 0.00021644481664695545 0.0033918685234080232 0 0.00028808341341591377 0.003010797013083143 0 0.00028924596333541034 0.0030006936585776356 0 0.00028505669515459616 0.0030021231333887751 0 0.00028808341341591377 0.003010797013083143 0 0.00028108476725693737 0.0030079067908992331 0 0.00028505669515459616 0.0030021231333887751 0 0.00027777404625033326 0.0029995617967961152 0 0.00028108476725693737 0.0030079067908992331 0 0.00028505669515459616 0.0030021231333887751 0 0.00027878378834849852 0.003016945338044441 0 0.00028108476725693737 0.0030079067908992331 0 0.00028947424194672401 0.0030216153656491395 0 0.00028808341341591377 0.003010797013083143 0 0.00028108476725693737 0.0030079067908992331 0 0.00028947424194672401 0.0030216153656491395 0 0.00028808341341591377 0.003010797013083143 0 0.00029788028690524662 0.0030225264377562325 0 0.00030366890590189082 0.0030160251224742359 0 0.00030150124938668212 0.0030340035305456673 0 0.00028947424194672401 0.0030216153656491395 0 0.00029788028690524662 0.0030225264377562325 0 0.00028808341341591377 0.003010797013083143 0 0.00028947424194672401 0.0030216153656491395 0 0.00029788028690524662 0.0030225264377562325 0 0.00029788028690524662 0.0030225264377562325 0 0.00030861513699035622 0.003030046904627388 0 0.00030366890590189082 0.0030160251224742359 0 0.00030150124938668212 0.0030340035305456673 0 0.00029788028690524662 0.0030225264377562325 0 0.00030861513699035622 0.003030046904627388 0 0.00030861513699035622 0.003030046904627388 0 0.00031947685091692976 0.0030258667322619615 0 0.00030366890590189082 0.0030160251224742359 0 0.00031915460824411896 0.003038803438015525 0 0.00033694279841600178 0.0030357918242745166 0 0.00031947685091692976 0.0030258667322619615 0 0.00031915460824411896 0.003038803438015525 0 0.00030861513699035622 0.003030046904627388 0 0.00031947685091692976 0.0030258667322619615 0 0.00031947685091692976 0.0030258667322619615 0 0.00032078126172732597 0.0030139021666781827 0 0.00030366890590189082 0.0030160251224742359 0 0.00032078126172732597 0.0030139021666781827 0 0.00030366890590189082 0.0030160251224742359 0 0.00031405644778453612 0.0030015616976335432 0 0.00033426898068824852 0.0030050743074997339 0 0.00032078126172732597 0.0030139021666781827 0 0.00031405644778453612 0.0030015616976335432 0 0.00033195145500412117 0.0030208111098994866 0 0.00031947685091692976 0.0030258667322619615 0 0.00032078126172732597 0.0030139021666781827 0 0.00028808341341591377 0.003010797013083143 0 0.00030366890590189082 0.0030160251224742359 0 0.00028924596333541034 0.0030006936585776356 0 0.00030366890590189082 0.0030160251224742359 0 0.00028924596333541034 0.0030006936585776356 0 0.00031405644778453612 0.0030015616976335432 0 0.00028551326733510819 0.0030006625375208246 0 0.0003029639657054517 0.0029956847616911374 0 0.00028924596333541034 0.0030006936585776356 0 0.00027828606529836723 0.0030068969364623961 0 0.00028358809839526024 0.0030021158145023433 0 0.00028924596333541034 0.0030006936585776356 0 0.00027127895260693557 0.0029977237160170389 0 0.00027828606529836723 0.0030068969364623961 0 0.00025323270332115407 0.0029982385435878404 0 0.00027127895260693557 0.0029977237160170389 0 0.00026312532707905846 0.003010716597417197 0 0.00027127895260693557 0.0029977237160170389 0 0.00026312532707905846 0.003010716597417197 0 0.00027828606529836723 0.0030068969364623961 0 0.00026980516272180025 0.003013782562820803 0 0.00026312532707905846 0.003010716597417197 0 0.00027828606529836723 0.0030068969364623961 0 0.00025677985228651014 0.0030179356750041127 0 0.00026980516272180025 0.003013782562820803 0 0.00026312532707905846 0.003010716597417197 0 0.00027828606529836723 0.0030068969364623961 0 0.00028358809839526024 0.0030021158145023433 0 0.00027865010139534706 0.0030112546046282946 0 0.00026980516272180025 0.003013782562820803 0 0.00027828606529836723 0.0030068969364623961 0 0.00027865010139534706 0.0030112546046282946 0 0.00028924596333541034 0.0030006936585776356 0 0.00028358809839526024 0.0030021158145023433 0 0.00028505669515459616 0.0030021231333887751 0 0.00028358809839526024 0.0030021158145023433 0 0.00028505669515459616 0.0030021231333887751 0 0.00028176200337003322 0.0029992712692213197 0 0.00027777404625033326 0.0029995617967961152 0 0.00028505669515459616 0.0030021231333887751 0 0.00028176200337003322 0.0029992712692213197 0 0.00027689753804277669 0.0029945515247650277 0 0.00028176200337003322 0.0029992712692213197 0 0.00028063431997426939 0.0029972012405480924 0 0.00028358809839526024 0.0030021158145023433 0 0.00028063431997426939 0.0029972012405480924 0 0.00028109286999296893 0.0029979881315506294 0 0.00028358809839526024 0.0030021158145023433 0 0.00028176200337003322 0.0029992712692213197 0 0.00028063431997426939 0.0029972012405480924 0 0.00028063431997426939 0.0029972012405480924 0 0.00028109286999296893 0.0029979881315506294 0 0.00027758748434533184 0.002992303032846744 0 4.7868451696131761e-05 0.0027816466240999666 0 0.00012747488000677706 0.0027575786632294949 0 -6.081603636401304e-05 0.0025687183991089601 0 -5.635068501539843e-05 0.0025671733073939483 0 -5.667314963064129e-05 0.002568938943455318 0 4.7868451696131761e-05 0.0027816466240999666 0 -6.4458258638269301e-05 0.0026657980760435808 0 -5.9989922358095423e-05 0.002570231297432635 0 -5.635068501539843e-05 0.0025671733073939483 0 -5.3452036073618108e-05 0.0025640251152398382 0 -6.1235596871532849e-05 0.0025738690679367399 0 -6.0595660313132519e-05 0.0025781383325359027 0 -5.445660320038473e-05 0.0025703193343005071 0 -6.081603636401304e-05 0.0025687183991089601 0 -5.667314963064129e-05 0.002568938943455318 0 -6.1235596871532849e-05 0.0025738690679367399 0 -5.667314963064129e-05 0.002568938943455318 0 -6.1235596871532849e-05 0.0025738690679367399 0 -5.445660320038473e-05 0.0025703193343005071 0 -6.081603636401304e-05 0.0025687183991089601 0 -6.7532473045346251e-05 0.0025764568071087197 0 -7.0467218072400661e-05 0.002574290662774295 0 -6.081603636401304e-05 0.0025687183991089601 0 -6.1235596871532849e-05 0.0025738690679367399 0 -6.7532473045346251e-05 0.0025764568071087197 0 4.7868451696131761e-05 0.0027816466240999666 0 -6.7500584314087188e-05 0.0027400922942921709 0 0.00028358809839526024 0.0030021158145023433 0 0.00028109286999296893 0.0029979881315506294 0 0.00027865010139534706 0.0030112546046282946 0 4.7868451696131761e-05 0.0027816466240999666 0 0.00014439184941466538 0.0029862403017110761 0 -2.1216754245823106e-07 0.0029152677578697037 0 -2.9515274849762928e-05 0.0029189826987167022 0 -3.2214155189761365e-05 0.0029237143628461481 0 -2.9515274849762928e-05 0.0029189826987167022 0 -3.2214155189761365e-05 0.0029237143628461481 0 -3.7670299239137501e-05 0.0029272755202044789 0 -3.2214155189761365e-05 0.0029237143628461481 0 -3.7670299239137501e-05 0.0029272755202044789 0 -3.3016705250644278e-05 0.0029211905068940911 0 0.00026980516272180025 0.003013782562820803 0 0.00027865010139534706 0.0030112546046282946 0 0.00026222853350729106 0.0030220120299306445 0 0.00014439184941466538 0.0029862403017110761 0 0.00011203624773048547 0.0029721091648101665 0 -7.0467218072400661e-05 0.002574290662774295 0 -7.3140111066544844e-05 0.0025787906162264857 0 -7.5754188770541265e-05 0.002578667612964978 0 -0.00013008603660871485 0.0026666884217428541 0 -5.1559352196228127e-05 0.0027780606744679708 0 -6.7500584314087188e-05 0.0027400922942921709 0 -5.1559352196228127e-05 0.0027780606744679708 0 -6.7532473045346251e-05 0.0025764568071087197 0 -7.0467218072400661e-05 0.002574290662774295 0 -7.3140111066544844e-05 0.0025787906162264857 0 -0.00014863268375826089 0.0026344022315537559 0 -0.00013008603660871485 0.0026666884217428541 0 -6.7532473045346251e-05 0.0025764568071087197 0 -6.9813064370134322e-05 0.0025804787607423075 0 -7.3140111066544844e-05 0.0025787906162264857 0 -0.00017396572890274564 0.0027694335218973664 0 -0.00014596639249765125 0.002659060515200708 0 -8.0527146591561897e-05 0.00276215244728763 0 -0.00024618147345380453 0.0026697521715261241 0 -0.00017396572890274564 0.0027694335218973664 0 -0.00014596639249765125 0.002659060515200708 0 -0.00014596639249765125 0.002659060515200708 0 -9.7004142172773928e-05 0.0026203774352022134 0 -0.00018474553492592961 0.0025631695098923663 0 -0.00014596639249765125 0.002659060515200708 0 -0.00023742574607769532 0.0025874184419270312 0 -0.00018474553492592961 0.0025631695098923663 0 -0.00024618147345380453 0.0026697521715261241 0 -0.00014596639249765125 0.002659060515200708 0 -0.00023742574607769532 0.0025874184419270312 0 -0.00023742574607769532 0.0025874184419270312 0 -0.00028286661062456924 0.0025227243997574399 0 -0.00024380302020186152 0.0025396880245729158 0 -0.00014863268375826089 0.0026344022315537559 0 -0.00019378788600326319 0.0025124752942191349 0 -0.00024618147345380453 0.0026697521715261241 0 -0.00023742574607769532 0.0025874184419270312 0 -0.0003106876635574686 0.0025645835690128764 0 -6.9813064370134322e-05 0.0025804787607423075 0 -6.6131176619180294e-05 0.0025833747339657552 0 -6.5730198553366141e-05 0.0025792974595921464 0 -0.00023742574607769532 0.0025874184419270312 0 -0.00028286661062456924 0.0025227243997574399 0 -0.0003106876635574686 0.0025645835690128764 0 -0.00028286661062456924 0.0025227243997574399 0 -0.00027418065000415982 0.0024739079215856698 0 -0.00027025612303067074 0.0024982538098399887 0 -0.00027418065000415982 0.0024739079215856698 0 -0.00026490701962521285 0.0024643132939599238 0 -0.00027025612303067074 0.0024982538098399887 0 -0.00019378788600326319 0.0025124752942191349 0 -0.00023712615712112066 0.002481496216237518 0 -0.00024168343182782572 0.002536243626117313 0 -0.00019378788600326319 0.0025124752942191349 0 -0.00023969828468579192 0.0024243624272280492 0 -0.000227042272915195 0.0023429878546844972 0 -0.00019924414376976772 0.002406191166200515 0 -0.00019378788600326319 0.0025124752942191349 0 -0.0001439490406945569 0.0024834102549902357 0 -0.00028863095964482227 0.0024384897105229611 0 -0.00023969828468579192 0.0024243624272280492 0 -0.000227042272915195 0.0023429878546844972 0 -0.00026490701962521285 0.0024643132939599238 0 -0.00023969828468579192 0.0024243624272280492 0 -0.00023213490755820908 0.0024654918307818034 0 -0.00028863095964482227 0.0024384897105229611 0 -0.00026490701962521285 0.0024643132939599238 0 -0.00023969828468579192 0.0024243624272280492 0 -0.00023969828468579192 0.0024243624272280492 0 -0.00023213490755820908 0.0024654918307818034 0 -0.00019924414376976772 0.002406191166200515 0 -6.1235596871532849e-05 0.0025738690679367399 0 -6.0595660313132519e-05 0.0025781383325359027 0 -6.5730198553366141e-05 0.0025792974595921464 0 -6.7532473045346251e-05 0.0025764568071087197 0 -6.9813064370134322e-05 0.0025804787607423075 0 -6.5730198553366141e-05 0.0025792974595921464 0 -6.1235596871532849e-05 0.0025738690679367399 0 -6.7532473045346251e-05 0.0025764568071087197 0 -6.5730198553366141e-05 0.0025792974595921464 0 -6.6131176619180294e-05 0.0025833747339657552 0 -6.0595660313132519e-05 0.0025781383325359027 0 -6.5730198553366141e-05 0.0025792974595921464 0 0.00023905951225533298 0.0028494200789099321 0 0.00015615086266739629 0.00287438164957439 0 0.0001859812673916996 0.0027968106270521383 0 0.00023483989245279044 0.0029433591345502576 0 0.00015581636469313523 0.0029681127348111448 0 0.00015615086266739629 0.00287438164957439 0 0.00023905951225533298 0.0028494200789099321 0 0.00023483989245279044 0.0029433591345502576 0 0.00015615086266739629 0.00287438164957439 0 0.00033848897961363469 0.0028706805425218478 0 0.00023905951225533298 0.0028494200789099321 0 0.00023483989245279044 0.0029433591345502576 0 0.00032522869441836769 0.0030172517314523742 0 0.00023483989245279044 0.0029433591345502576 0 0.00021022657245260308 0.0030274073784133477 0 0.00023483989245279044 0.0029433591345502576 0 0.00021022657245260308 0.0030274073784133477 0 0.00015581636469313523 0.0029681127348111448 0 0.00015581636469313523 0.0029681127348111448 0 0.00010010064113022265 0.0029616854464740812 0 0.00011555762929914583 0.0029106283924829656 0 0.00012487463949495338 0.0030615827961849203 0 0.00021022657245260308 0.0030274073784133477 0 0.00015581636469313523 0.0029681127348111448 0 0.00012487463949495338 0.0030615827961849203 0 0.00015581636469313523 0.0029681127348111448 0 0.00010010064113022265 0.0029616854464740812 0 0.00012487463949495338 0.0030615827961849203 0 5.320349018545148e-05 0.0029807545419087088 0 3.3703508070395189e-05 0.0029794655865667094 0 0.00012487463949495338 0.0030615827961849203 0 0.00010010064113022265 0.0029616854464740812 0 5.320349018545148e-05 0.0029807545419087088 0 0.00016034293569333781 0.0030288990798991002 0 0.00011987352558965734 0.002993750739371089 0 0.00010010064113022265 0.0029616854464740812 0 6.3541614530795521e-05 0.0029539200423425783 0 5.320349018545148e-05 0.0029807545419087088 0 0.00010010064113022265 0.0029616854464740812 0 8.3113737446964607e-05 0.0029248681617182323 0 0.00011555762929914583 0.0029106283924829656 0 0.00010010064113022265 0.0029616854464740812 0 8.3113737446964607e-05 0.0029248681617182323 0 6.3541614530795521e-05 0.0029539200423425783 0 7.2991029048541207e-05 0.0028851640034284688 0 0.00011555762929914583 0.0029106283924829656 0 9.1943867254145963e-05 0.0028511842798950317 0 8.3113737446964607e-05 0.0029248681617182323 0 7.2991029048541207e-05 0.0028851640034284688 0 4.677324137395703e-05 0.0029276315324396037 0 8.3113737446964607e-05 0.0029248681617182323 0 7.2991029048541207e-05 0.0028851640034284688 0 0.00011555762929914583 0.0029106283924829656 0 0.00015581636469313523 0.0029681127348111448 0 0.00011555762929914583 0.0029106283924829656 0 0.00015615086266739629 0.00287438164957439 0 0.00011555762929914583 0.0029106283924829656 0 0.00015615086266739629 0.00287438164957439 0 9.1943867254145963e-05 0.0028511842798950317 0 0.00015615086266739629 0.00287438164957439 0 9.1943867254145963e-05 0.0028511842798950317 0 0.00011459511713687675 0.0027935133521019622 0 7.2991029048541207e-05 0.0028851640034284688 0 9.1943867254145963e-05 0.0028511842798950317 0 3.7078821741845698e-05 0.0028460112416319218 0 9.1943867254145963e-05 0.0028511842798950317 0 3.7078821741845698e-05 0.0028460112416319218 0 5.8656092324372745e-05 0.0027981649337800152 0 3.7078821741845698e-05 0.0028460112416319218 0 -9.6934549119037239e-08 0.0027872771037475161 0 5.8656092324372745e-05 0.0027981649337800152 0 3.7078821741845698e-05 0.0028460112416319218 0 -1.0923766814643631e-05 0.0028440084501508735 0 -9.6934549119037239e-08 0.0027872771037475161 0 3.7078821741845698e-05 0.0028460112416319218 0 -1.0923766814643631e-05 0.0028440084501508735 0 1.5213800808519487e-05 0.0028775057944390894 0 -1.0923766814643631e-05 0.0028440084501508735 0 -4.3820077421415698e-05 0.0028264619641093914 0 -9.6934549119037239e-08 0.0027872771037475161 0 -1.0923766814643631e-05 0.0028440084501508735 0 1.5213800808519487e-05 0.0028775057944390894 0 -1.1014020193642956e-05 0.0028904698892112577 0 -1.1014020193642956e-05 0.0028904698892112577 0 1.1187974079410322e-05 0.0029121569712616223 0 -1.5518105782619859e-05 0.0029276332159064813 0 1.5213800808519487e-05 0.0028775057944390894 0 -1.1014020193642956e-05 0.0028904698892112577 0 1.1187974079410322e-05 0.0029121569712616223 0 1.5213800808519487e-05 0.0028775057944390894 0 1.1187974079410322e-05 0.0029121569712616223 0 3.9977918159868183e-05 0.0028930076810204501 0 1.1187974079410322e-05 0.0029121569712616223 0 3.9977918159868183e-05 0.0028930076810204501 0 4.677324137395703e-05 0.0029276315324396037 0 3.7078821741845698e-05 0.0028460112416319218 0 1.5213800808519487e-05 0.0028775057944390894 0 3.9977918159868183e-05 0.0028930076810204501 0 7.2991029048541207e-05 0.0028851640034284688 0 3.7078821741845698e-05 0.0028460112416319218 0 3.9977918159868183e-05 0.0028930076810204501 0 7.2991029048541207e-05 0.0028851640034284688 0 3.9977918159868183e-05 0.0028930076810204501 0 4.677324137395703e-05 0.0029276315324396037 0 8.3113737446964607e-05 0.0029248681617182323 0 4.677324137395703e-05 0.0029276315324396037 0 6.3541614530795521e-05 0.0029539200423425783 0 9.0574799184218261e-06 0.002945983209221415 0 1.6178399561643313e-05 0.0029544586791389643 0 -3.7670299239137501e-05 0.0029272755202044789 0 1.1187974079410322e-05 0.0029121569712616223 0 4.677324137395703e-05 0.0029276315324396037 0 9.0574799184218261e-06 0.002945983209221415 0 4.677324137395703e-05 0.0029276315324396037 0 9.0574799184218261e-06 0.002945983209221415 0 3.3871910162626827e-05 0.002975139905543705 0 7.4127663902434442e-05 0.0029646906975670387 0 0.00011987352558965734 0.002993750739371089 0 6.3541614530795521e-05 0.0029539200423425783 0 5.320349018545148e-05 0.0029807545419087088 0 3.3871910162626827e-05 0.002975139905543705 0 4.677324137395703e-05 0.0029276315324396037 0 6.3541614530795521e-05 0.0029539200423425783 0 3.3871910162626827e-05 0.002975139905543705 0 0.00010249467295824481 0.0029924165904228963 0 0.00011987352558965734 0.002993750739371089 0 1.1187974079410322e-05 0.0029121569712616223 0 9.0574799184218261e-06 0.002945983209221415 0 -1.5518105782619859e-05 0.0029276332159064813 0 9.0574799184218261e-06 0.002945983209221415 0 -1.5518105782619859e-05 0.0029276332159064813 0 -3.7670299239137501e-05 0.0029272755202044789 0 0.00025677985228651014 0.0030179356750041127 0 0.00024765293434888798 0.0030247880375566692 0 0.00026222853350729106 0.0030220120299306445 0 0.00011987352558965734 0.002993750739371089 0 0.00011203624773048547 0.0029721091648101665 0 0.00025677985228651014 0.0030179356750041127 0 0.00026980516272180025 0.003013782562820803 0 0.00026222853350729106 0.0030220120299306445 0 -1.5518105782619859e-05 0.0029276332159064813 0 -3.7670299239137501e-05 0.0029272755202044789 0 -3.3016705250644278e-05 0.0029211905068940911 0 -8.2788056558848839e-05 0.0028703088866220291 0 -4.3820077421415698e-05 0.0028264619641093914 0 -8.0527146591561897e-05 0.00276215244728763 0 -0.00017396572890274564 0.0027694335218973664 0 -8.2788056558848839e-05 0.0028703088866220291 0 -8.0527146591561897e-05 0.00276215244728763 0 -1.5518105782619859e-05 0.0029276332159064813 0 -9.1618440212487844e-05 0.0028783467888934453 0 -4.6264044125834249e-05 0.0028704835216807677 0 2.7055391654340241e-07 0.0028989281736987232 0 -5.1559352196228127e-05 0.0027780606744679708 0 -1.1014020193642956e-05 0.0028904698892112577 0 -1.5518105782619859e-05 0.0029276332159064813 0 -4.6264044125834249e-05 0.0028704835216807677 0 -1.0923766814643631e-05 0.0028440084501508735 0 -1.1014020193642956e-05 0.0028904698892112577 0 -4.6264044125834249e-05 0.0028704835216807677 0 -5.1559352196228127e-05 0.0027780606744679708 0 -6.3087852079352904e-05 0.0028045063930577786 0 -8.2788056558848839e-05 0.0028703088866220291 0 -4.6264044125834249e-05 0.0028704835216807677 0 -4.3820077421415698e-05 0.0028264619641093914 0 -1.0923766814643631e-05 0.0028440084501508735 0 -4.6264044125834249e-05 0.0028704835216807677 0 -4.3820077421415698e-05 0.0028264619641093914 0 -0.00014596639249765125 0.002659060515200708 0 -8.0527146591561897e-05 0.00276215244728763 0 -4.5457965518800065e-05 0.0026713315896715511 0 -8.0527146591561897e-05 0.00276215244728763 0 -5.9153466898539187e-06 0.002725415482915034 0 -9.6934549119037239e-08 0.0027872771037475161 0 -4.3820077421415698e-05 0.0028264619641093914 0 -8.0527146591561897e-05 0.00276215244728763 0 -9.6934549119037239e-08 0.0027872771037475161 0 -8.0527146591561897e-05 0.00276215244728763 0 -4.5457965518800065e-05 0.0026713315896715511 0 -5.9153466898539187e-06 0.002725415482915034 0 -9.7004142172773928e-05 0.0026203774352022134 0 -4.5457965518800065e-05 0.0026713315896715511 0 -4.8622928362972695e-06 0.0026034615717710177 0 -0.00014596639249765125 0.002659060515200708 0 -9.7004142172773928e-05 0.0026203774352022134 0 -4.5457965518800065e-05 0.0026713315896715511 0 -4.5457965518800065e-05 0.0026713315896715511 0 1.5351676647347049e-05 0.0026773572063781273 0 -5.9153466898539187e-06 0.002725415482915034 0 -4.5457965518800065e-05 0.0026713315896715511 0 1.5351676647347049e-05 0.0026773572063781273 0 -4.8622928362972695e-06 0.0026034615717710177 0 7.8394592619587906e-05 0.0026534773346040931 0 7.7828918028037663e-05 0.002587280436736577 0 -4.8622928362972695e-06 0.0026034615717710177 0 1.5351676647347049e-05 0.0026773572063781273 0 7.8394592619587906e-05 0.0026534773346040931 0 -4.8622928362972695e-06 0.0026034615717710177 0 1.5351676647347049e-05 0.0026773572063781273 0 5.7969587406400959e-05 0.0027354168201907092 0 7.8394592619587906e-05 0.0026534773346040931 0 1.5351676647347049e-05 0.0026773572063781273 0 5.7969587406400959e-05 0.0027354168201907092 0 -5.9153466898539187e-06 0.002725415482915034 0 5.7969587406400959e-05 0.0027354168201907092 0 -5.9153466898539187e-06 0.002725415482915034 0 -9.6934549119037239e-08 0.0027872771037475161 0 5.7969587406400959e-05 0.0027354168201907092 0 -9.6934549119037239e-08 0.0027872771037475161 0 5.8656092324372745e-05 0.0027981649337800152 0 9.1943867254145963e-05 0.0028511842798950317 0 5.8656092324372745e-05 0.0027981649337800152 0 0.00011459511713687675 0.0027935133521019622 0 5.7969587406400959e-05 0.0027354168201907092 0 5.8656092324372745e-05 0.0027981649337800152 0 0.00011459511713687675 0.0027935133521019622 0 0.00015615086266739629 0.00287438164957439 0 0.00011459511713687675 0.0027935133521019622 0 0.0001859812673916996 0.0027968106270521383 0 0.00011459511713687675 0.0027935133521019622 0 0.00015480009830911865 0.0027152063873982428 0 0.0001859812673916996 0.0027968106270521383 0 5.7969587406400959e-05 0.0027354168201907092 0 0.00011459511713687675 0.0027935133521019622 0 0.00015480009830911865 0.0027152063873982428 0 5.7969587406400959e-05 0.0027354168201907092 0 0.00015480009830911865 0.0027152063873982428 0 7.8394592619587906e-05 0.0026534773346040931 0 7.8394592619587906e-05 0.0026534773346040931 0 0.00014224082866768801 0.0026295013233984853 0 7.7828918028037663e-05 0.002587280436736577 0 0.00015480009830911865 0.0027152063873982428 0 7.8394592619587906e-05 0.0026534773346040931 0 0.00014224082866768801 0.0026295013233984853 0 0.00029092402016088373 0.0027543458391171604 0 0.00015480009830911865 0.0027152063873982428 0 0.00022665031205567569 0.0026472932130865508 0 0.00015480009830911865 0.0027152063873982428 0 0.00014224082866768801 0.0026295013233984853 0 0.00022665031205567569 0.0026472932130865508 0 0.00014224082866768801 0.0026295013233984853 0 0.00022665031205567569 0.0026472932130865508 0 0.00016260442607452571 0.0025518029227655681 0 0.00029092402016088373 0.0027543458391171604 0 0.0003017279114185273 0.0027035462463593984 0 0.00025427570934016521 0.0026869696046171255 0 0.00028553737421625091 0.0027434534356413805 0 0.00024051902993922503 0.0026692232099649904 0 0.00029092402016088373 0.0027543458391171604 0 0.00015480009830911865 0.0027152063873982428 0 0.0001859812673916996 0.0027968106270521383 0 0.00029092402016088373 0.0027543458391171604 0 0.00023905951225533298 0.0028494200789099321 0 0.0001859812673916996 0.0027968106270521383 0 0.00032280223374120994 0.0025818412801740112 0 0.00025373290741379341 0.0025899006462177113 0 0.00027048879811534816 0.0025477402638422928 0 0.0003523883087406211 0.0026801438160986108 0 0.00017542197928762816 0.0025986783688013177 0 0.00030093933562163662 0.0026268887623095887 0 0.00025373290741379341 0.0025899006462177113 0 0.00023532188113197533 0.0026406450076706012 0 0.00033628054975321544 0.0026698818544716538 0 0.00025427570934016521 0.0026869696046171255 0 0.00021254616338877273 0.0026204076063387339 0 0.00030093933562163662 0.0026268887623095887 0 0.00033628054975321544 0.0026698818544716538 0 0.00023532188113197533 0.0026406450076706012 0 0.00024051902993922503 0.0026692232099649904 0 0.00017542197928762816 0.0025986783688013177 0 0.00017542197928762816 0.0025986783688013177 0 -2.0292240634095503e-05 0.002505906799659367 0 0.00016260442607452571 0.0025518029227655681 0 7.7828918028037663e-05 0.002587280436736577 0 8.7816756313194131e-06 0.0025029358133714899 0 0.00014224082866768801 0.0026295013233984853 0 0.00016260442607452571 0.0025518029227655681 0 7.7828918028037663e-05 0.002587280436736577 0 0.00025373290741379341 0.0025899006462177113 0 0.00019771402013438693 0.0025851735625273659 0 0.0002283965436669653 0.0025564929773643844 0 0.00017542197928762816 0.0025986783688013177 0 0.00012530594902012521 0.0025301808225056004 0 0.00025373290741379341 0.0025899006462177113 0 0.00023532188113197533 0.0026406450076706012 0 0.00019771402013438693 0.0025851735625273659 0 8.8505253311808819e-05 0.0025658454830056266 0 3.5787262101998621e-05 0.0024835802294117621 0 -2.4577034959819425e-05 0.0025213014145711071 0 3.5787262101998621e-05 0.0024835802294117621 0 -1.6336380234293952e-05 0.0024676688054988448 0 -2.4577034959819425e-05 0.0025213014145711071 0 -1.6336380234293952e-05 0.0024676688054988448 0 -2.4577034959819425e-05 0.0025213014145711071 0 -6.0212279779205336e-05 0.0024603162873688888 0 8.7816756313194131e-06 0.0025029358133714899 0 -4.8622928362972695e-06 0.0026034615717710177 0 -9.0844973495734043e-05 0.002552723482185226 0 7.7828918028037663e-05 0.002587280436736577 0 8.7816756313194131e-06 0.0025029358133714899 0 -4.8622928362972695e-06 0.0026034615717710177 0 -9.7004142172773928e-05 0.0026203774352022134 0 -4.8622928362972695e-06 0.0026034615717710177 0 -9.0844973495734043e-05 0.002552723482185226 0 -2.4577034959819425e-05 0.0025213014145711071 0 -6.0212279779205336e-05 0.0024603162873688888 0 -0.00012809968111597645 0.0024754771748781057 0 -9.0844973495734043e-05 0.002552723482185226 0 -0.00014826840353753895 0.0025250540290243702 0 -0.00012809968111597645 0.0024754771748781057 0 8.7816756313194131e-06 0.0025029358133714899 0 -9.0844973495734043e-05 0.002552723482185226 0 -0.00012809968111597645 0.0024754771748781057 0 -2.0292240634095503e-05 0.002505906799659367 0 -0.00011355679371796421 0.0024795083630837402 0 -6.0212279779205336e-05 0.0024603162873688888 0 -0.00011449487139524675 0.0024280545788939491 0 -1.6132969982645373e-05 0.0024067137735458923 0 -0.00021423901510227394 0.0025204934180107969 0 -0.00013188951240200017 0.0025856136042322168 0 -0.00029489450980758685 0.0026224928172872732 0 -0.00029867616124734078 0.0026577733351473456 0 -0.00035588565701382373 0.0026310000815616469 0 -6.0212279779205336e-05 0.0024603162873688888 0 -0.00011449487139524675 0.0024280545788939491 0 -0.00012809968111597645 0.0024754771748781057 0 -0.00029489450980758685 0.0026224928172872732 0 -0.00029867616124734078 0.0026577733351473456 0 -0.00027818454734746613 0.0026548714205170557 0 -0.00029867616124734078 0.0026577733351473456 0 -0.00027818454734746613 0.0026548714205170557 0 -0.00029086806783340844 0.0027184737954859079 0 -0.00029867616124734078 0.0026577733351473456 0 -0.00035588565701382373 0.0026310000815616469 0 -0.00029086806783340844 0.0027184737954859079 0 -0.00027971449439472093 0.0027645754436704398 0 -0.0002758908465061455 0.002758155500440449 0 -0.00029086806783340844 0.0027184737954859079 0 -0.00013188951240200017 0.0025856136042322168 0 -0.00034351580029580876 0.0027484123881145583 0 3.5787262101998621e-05 0.0024835802294117621 0 -1.6336380234293952e-05 0.0024676688054988448 0 -1.6132969982645373e-05 0.0024067137735458923 0 0.00012530594902012521 0.0025301808225056004 0 -0.00013188951240200017 0.0025856136042322168 0 -1.6336380234293952e-05 0.0024676688054988448 0 -6.0212279779205336e-05 0.0024603162873688888 0 -1.6132969982645373e-05 0.0024067137735458923 0 -0.00013188951240200017 0.0025856136042322168 0 5.3236661239505044e-06 0.0026245932632295594 0 0.00019771402013438693 0.0025851735625273659 0 0.00015918354790220274 0.0025292892386220849 0 0.0002283965436669653 0.0025564929773643844 0 0.00015918354790220274 0.0025292892386220849 0 0.0002283965436669653 0.0025564929773643844 0 0.00023108589212238715 0.0025158730848261982 0 -0.00027971449439472093 0.0027645754436704398 0 -0.00027796785775160044 0.0027594994719788548 0 -0.0002758908465061455 0.002758155500440449 0 -0.00027796785775160044 0.0027594994719788548 0 -0.0002758908465061455 0.002758155500440449 0 -0.00028442799093303801 0.0027661036921294603 0 -0.00017013252209234671 0.0030171119410112562 0 -0.00017781296461951926 0.0029752623478749175 0 -0.00023463925090071874 0.0029358059576008034 0 -5.6716094501005718e-05 0.0028460078304524661 0 5.3236661239505044e-06 0.0026245932632295594 0 -0.00014531819087858038 0.0029039196794935283 0 -0.00026587041150406967 0.0028426538356486242 0 -0.00028348810731045125 0.0027635216649143186 0 -0.00027796785775160044 0.0027594994719788548 0 -0.00028442799093303801 0.0027661036921294603 0 -0.00028335516677040256 0.0027626604035114778 0 -0.00028348810731045125 0.0027635216649143186 0 -0.00027796785775160044 0.0027594994719788548 0 0.00029765132433176361 0.0025048873466721644 0 0.00023108589212238715 0.0025158730848261982 0 0.00027048879811534816 0.0025477402638422928 0 0.0002283965436669653 0.0025564929773643844 0 0.00023108589212238715 0.0025158730848261982 0 0.00027048879811534816 0.0025477402638422928 0 0.00025373290741379341 0.0025899006462177113 0 0.0002283965436669653 0.0025564929773643844 0 0.00027048879811534816 0.0025477402638422928 0 -0.00025776179545244638 0.0025286543037986013 0 -0.00023629829789706587 0.0024967223129594277 0 -0.00025747786851312875 0.0025012763261664044 0 -0.00025776179545244638 0.0025286543037986013 0 -0.00026276662149066503 0.0025146533120547132 0 -0.00023902498162181167 0.0025166722747535846 0 -0.00025776179545244638 0.0025286543037986013 0 -0.00022787482103925726 0.002523711566049725 0 -0.00023629829789706587 0.0024967223129594277 0 -0.00022787482103925726 0.002523711566049725 0 -0.00019804812379781628 0.0025043311264848463 0 -0.00021183420127452338 0.0024826418790761498 0 -0.00022787482103925726 0.002523711566049725 0 -0.00023629829789706587 0.0024967223129594277 0 -0.00021183420127452338 0.0024826418790761498 0 -0.00023629829789706587 0.0024967223129594277 0 -0.00023213490755820908 0.0024654918307818034 0 -0.00025747786851312875 0.0025012763261664044 0 -0.00023629829789706587 0.0024967223129594277 0 -0.00023213490755820908 0.0024654918307818034 0 -0.00021183420127452338 0.0024826418790761498 0 -0.00023213490755820908 0.0024654918307818034 0 -0.00027025612303067074 0.0024982538098399887 0 -0.00025747786851312875 0.0025012763261664044 0 -0.00026490701962521285 0.0024643132939599238 0 -0.00023213490755820908 0.0024654918307818034 0 -0.00027025612303067074 0.0024982538098399887 0 -0.00025776179545244638 0.0025286543037986013 0 -0.00025747786851312875 0.0025012763261664044 0 -0.00026276662149066503 0.0025146533120547132 0 -0.00028286661062456924 0.0025227243997574399 0 -0.00027025612303067074 0.0024982538098399887 0 -0.00026276662149066503 0.0025146533120547132 0 -0.00027025612303067074 0.0024982538098399887 0 -0.00025747786851312875 0.0025012763261664044 0 -0.00026276662149066503 0.0025146533120547132 0 -0.00028286661062456924 0.0025227243997574399 0 -0.00026276662149066503 0.0025146533120547132 0 -0.00024380302020186152 0.0025396880245729158 0 -0.00023742574607769532 0.0025874184419270312 0 -0.00024380302020186152 0.0025396880245729158 0 -0.00018474553492592961 0.0025631695098923663 0 -0.00023902498162181167 0.0025166722747535846 0 -0.00018474553492592961 0.0025631695098923663 0 -0.00018661847901772137 0.0025071643730044625 0 -0.00024380302020186152 0.0025396880245729158 0 -0.00023902498162181167 0.0025166722747535846 0 -0.00018474553492592961 0.0025631695098923663 0 -0.00026276662149066503 0.0025146533120547132 0 -0.00024380302020186152 0.0025396880245729158 0 -0.00023902498162181167 0.0025166722747535846 0 -9.0844973495734043e-05 0.002552723482185226 0 -0.00018474553492592961 0.0025631695098923663 0 -0.00014826840353753895 0.0025250540290243702 0 -9.7004142172773928e-05 0.0026203774352022134 0 -9.0844973495734043e-05 0.002552723482185226 0 -0.00018474553492592961 0.0025631695098923663 0 -0.00018474553492592961 0.0025631695098923663 0 -0.00014826840353753895 0.0025250540290243702 0 -0.00018661847901772137 0.0025071643730044625 0 -0.00018661847901772137 0.0025071643730044625 0 -0.00012809968111597645 0.0024754771748781057 0 -0.00021073418484939224 0.0024657619888854938 0 -0.00014826840353753895 0.0025250540290243702 0 -0.00018661847901772137 0.0025071643730044625 0 -0.00012809968111597645 0.0024754771748781057 0 -0.00025776179545244638 0.0025286543037986013 0 -0.00023902498162181167 0.0025166722747535846 0 -0.00021073418484939224 0.0024657619888854938 0 -0.00023902498162181167 0.0025166722747535846 0 -0.00018661847901772137 0.0025071643730044625 0 -0.00021073418484939224 0.0024657619888854938 0 -0.0002511693376793112 0.0025279196840866805 0 -0.00023764760731451713 0.0025282618238146063 0 -0.00025776179545244638 0.0025286543037986013 0 -0.00027912224035035927 0.0025925843099178043 0 -0.00026568812941946303 0.0026155131072925159 0 -0.00027912224035035927 0.0025925843099178043 0 -0.00027818454734746613 0.0026548714205170557 0 -0.00026568812941946303 0.0026155131072925159 0 -0.00011449487139524675 0.0024280545788939491 0 -0.00012809968111597645 0.0024754771748781057 0 -0.00021073418484939224 0.0024657619888854938 0 -0.00021423901510227394 0.0025204934180107969 0 -0.00023764760731451713 0.0025282618238146063 0 -0.00029489450980758685 0.0026224928172872732 0 -0.00027912224035035927 0.0025925843099178043 0 -0.00027818454734746613 0.0026548714205170557 0 -0.00027818454734746613 0.0026548714205170557 0 -0.00026568812941946303 0.0026155131072925159 0 -0.00026234363701047243 0.002657532091904662 0 -0.00026568812941946303 0.0026155131072925159 0 -0.00024578792746057809 0.0026287332556065228 0 -0.00026234363701047243 0.002657532091904662 0 -0.00026568812941946303 0.0026155131072925159 0 -0.00024578792746057809 0.0026287332556065228 0 -0.00024348124133518343 0.0025842234305033505 0 -0.00025776179545244638 0.0025286543037986013 0 -0.00026568812941946303 0.0026155131072925159 0 -0.00024348124133518343 0.0025842234305033505 0 -0.00025776179545244638 0.0025286543037986013 0 -0.00022787482103925726 0.002523711566049725 0 -0.00024348124133518343 0.0025842234305033505 0 -0.00022787482103925726 0.002523711566049725 0 -0.00024348124133518343 0.0025842234305033505 0 -0.00022249299767562256 0.0025628554844064392 0 -0.00022787482103925726 0.002523711566049725 0 -0.00022249299767562256 0.0025628554844064392 0 -0.00019879334959883196 0.0025460257329976378 0 -0.00024348124133518343 0.0025842234305033505 0 -0.00022249299767562256 0.0025628554844064392 0 -0.00022322223640700852 0.0025986805031432644 0 -0.00022249299767562256 0.0025628554844064392 0 -0.00022322223640700852 0.0025986805031432644 0 -0.00019879334959883196 0.0025460257329976378 0 -0.00024578792746057809 0.0026287332556065228 0 -0.00024348124133518343 0.0025842234305033505 0 -0.00022322223640700852 0.0025986805031432644 0 -0.00024578792746057809 0.0026287332556065228 0 -0.00022322223640700852 0.0025986805031432644 0 -0.00023065030096181289 0.0026383482453445932 0 -0.00022322223640700852 0.0025986805031432644 0 -0.00019121983839853437 0.0026228875380314978 0 -0.00023065030096181289 0.0026383482453445932 0 -0.00022322223640700852 0.0025986805031432644 0 -0.00019121983839853437 0.0026228875380314978 0 -0.00019879334959883196 0.0025460257329976378 0 -0.00020221790482699868 0.0025699604412307065 0 -0.00016720826045412519 0.0025297745932909032 0 -0.00020956794022697518 0.0025157201215942945 0 -0.00018640997826328937 0.0025227784004505116 0 -0.0001623524101992227 0.0025251708825111702 0 -0.00018640997826328937 0.0025227784004505116 0 -0.0001623524101992227 0.0025251708825111702 0 -0.00012673268128852438 0.0025142874810583429 0 -0.00019318523587616294 0.002386171795845602 0 -0.00013202164469665789 0.0023473982951974465 0 -0.0001296161792569686 0.002296798751849927 0 -0.00018641862296841504 0.002454750846361816 0 -0.0001307824336264142 0.0024048545067025476 0 -0.0001623524101992227 0.0025251708825111702 0 -0.00019879334959883196 0.0025460257329976378 0 -0.00016646921473494826 0.0024887077697716992 0 -0.00019121983839853437 0.0026228875380314978 0 -0.0001623524101992227 0.0025251708825111702 0 -0.00019879334959883196 0.0025460257329976378 0 -9.0901125246791768e-05 0.002416199344130314 0 -9.5640072678352715e-05 0.0023576965766953415 0 -4.3238565081718419e-05 0.0023783820740599232 0 -0.00019318523587616294 0.002386171795845602 0 -0.0001301729185560892 0.0023963782223438987 0 -0.00013202164469665789 0.0023473982951974465 0 -0.00019318523587616294 0.002386171795845602 0 -0.0001301729185560892 0.0023963782223438987 0 -0.00014362455592323661 0.0024753301599390815 0 -9.5640072678352715e-05 0.0023576965766953415 0 -0.0001301729185560892 0.0023963782223438987 0 -0.00013202164469665789 0.0023473982951974465 0 -9.0901125246791768e-05 0.002416199344130314 0 -9.5640072678352715e-05 0.0023576965766953415 0 -0.0001301729185560892 0.0023963782223438987 0 -0.00013202164469665789 0.0023473982951974465 0 -0.00010685754492156403 0.0023093774197729001 0 -0.0001296161792569686 0.002296798751849927 0 -9.5640072678352715e-05 0.0023576965766953415 0 -0.00013202164469665789 0.0023473982951974465 0 -0.00010685754492156403 0.0023093774197729001 0 -9.5640072678352715e-05 0.0023576965766953415 0 -0.00010685754492156403 0.0023093774197729001 0 -6.2493194282656301e-05 0.0023044718988283665 0 -9.5640072678352715e-05 0.0023576965766953415 0 -6.2493194282656301e-05 0.0023044718988283665 0 -4.3238565081718419e-05 0.0023783820740599232 0 -0.00010685754492156403 0.0023093774197729001 0 -9.1959889113275237e-05 0.0022810265528711957 0 -6.2493194282656301e-05 0.0023044718988283665 0 -0.00010685754492156403 0.0023093774197729001 0 -9.1959889113275237e-05 0.0022810265528711957 0 -0.00010789945823235049 0.0022991534044798012 0 -9.1959889113275237e-05 0.0022810265528711957 0 -0.00010789945823235049 0.0022991534044798012 0 -9.487990207177673e-05 0.0022926192700153669 0 -0.00010789945823235049 0.0022991534044798012 0 -9.3670260658565075e-05 0.0023491755719289471 0 -0.0001296161792569686 0.002296798751849927 0 -9.8348677583635062e-05 0.0023560848377035567 0 -0.0001307824336264142 0.0024048545067025476 0 -0.00010685754492156403 0.0023093774197729001 0 -0.00010789945823235049 0.0022991534044798012 0 -0.0001296161792569686 0.002296798751849927 0 -0.00010789945823235049 0.0022991534044798012 0 -9.3670260658565075e-05 0.0023491755719289471 0 -9.487990207177673e-05 0.0022926192700153669 0 -9.1959889113275237e-05 0.0022810265528711957 0 -9.487990207177673e-05 0.0022926192700153669 0 -4.9037339336532084e-05 0.0021957152893167251 0 -9.487990207177673e-05 0.0022926192700153669 0 -9.5119509221922409e-05 0.0023244735027481375 0 -4.9037339336532084e-05 0.0021957152893167251 0 -9.3670260658565075e-05 0.0023491755719289471 0 -9.487990207177673e-05 0.0022926192700153669 0 -9.5119509221922409e-05 0.0023244735027481375 0 -0.00019804812379781628 0.0025043311264848463 0 -0.00016646921473494826 0.0024887077697716992 0 -0.00018333815769072822 0.0024437609007560137 0 -0.00022787482103925726 0.002523711566049725 0 -0.00019879334959883196 0.0025460257329976378 0 -0.00019804812379781628 0.0025043311264848463 0 -0.00019879334959883196 0.0025460257329976378 0 -0.00019804812379781628 0.0025043311264848463 0 -0.00016646921473494826 0.0024887077697716992 0 -0.00012673268128852438 0.0025142874810583429 0 -0.00016646921473494826 0.0024887077697716992 0 -0.00014538774460123879 0.0024295429336130122 0 -0.0001623524101992227 0.0025251708825111702 0 -0.00012673268128852438 0.0025142874810583429 0 -0.00016646921473494826 0.0024887077697716992 0 -0.00016646921473494826 0.0024887077697716992 0 -0.00014538774460123879 0.0024295429336130122 0 -0.00018333815769072822 0.0024437609007560137 0 -9.3670260658565075e-05 0.0023491755719289471 0 -0.00012673268128852438 0.0025142874810583429 0 -0.00014538774460123879 0.0024295429336130122 0 -9.3670260658565075e-05 0.0023491755719289471 0 -0.00014538774460123879 0.0024295429336130122 0 -0.0001377633500525401 0.0023767502376775295 0 -0.00014538774460123879 0.0024295429336130122 0 -0.00018333815769072822 0.0024437609007560137 0 -0.0001377633500525401 0.0023767502376775295 0 -0.00023213490755820908 0.0024654918307818034 0 -0.00018333815769072822 0.0024437609007560137 0 -0.00021183420127452338 0.0024826418790761498 0 -0.00018333815769072822 0.0024437609007560137 0 -0.00017302111144888854 0.0024017428579635632 0 -0.0001377633500525401 0.0023767502376775295 0 -0.00023213490755820908 0.0024654918307818034 0 -0.00018333815769072822 0.0024437609007560137 0 -0.00019924414376976772 0.002406191166200515 0 -0.00019804812379781628 0.0025043311264848463 0 -0.00018333815769072822 0.0024437609007560137 0 -0.00021183420127452338 0.0024826418790761498 0 -0.00018333815769072822 0.0024437609007560137 0 -0.00019924414376976772 0.002406191166200515 0 -0.00017302111144888854 0.0024017428579635632 0 -0.00017302111144888854 0.0024017428579635632 0 -0.00016854414782354447 0.0023604915087164584 0 -0.0001377633500525401 0.0023767502376775295 0 -0.00019924414376976772 0.002406191166200515 0 -0.00017302111144888854 0.0024017428579635632 0 -0.00016854414782354447 0.0023604915087164584 0 -0.000227042272915195 0.0023429878546844972 0 -0.00019924414376976772 0.002406191166200515 0 -0.00016854414782354447 0.0023604915087164584 0 -0.000227042272915195 0.0023429878546844972 0 -0.00016854414782354447 0.0023604915087164584 0 -0.00018145148735820212 0.0022854038255730271 0 -0.00016854414782354447 0.0023604915087164584 0 -0.00011861825651082828 0.0023369473159044322 0 -0.00018145148735820212 0.0022854038255730271 0 -9.3670260658565075e-05 0.0023491755719289471 0 -0.00011861825651082828 0.0023369473159044322 0 -0.0001377633500525401 0.0023767502376775295 0 -0.00016854414782354447 0.0023604915087164584 0 -0.00011861825651082828 0.0023369473159044322 0 -0.0001377633500525401 0.0023767502376775295 0 -9.3670260658565075e-05 0.0023491755719289471 0 -0.00011861825651082828 0.0023369473159044322 0 -9.5119509221922409e-05 0.0023244735027481375 0 -0.00021083137983940844 0.0021029075379907025 0 -0.00011741460147126812 0.0021892030921436658 0 -0.00016712308571976883 0.0020377948768569823 0 -0.00015339062786201126 0.0019290959567520372 0 -6.5893416955286623e-05 0.0020389462802825062 0 -0.00025400642176898669 0.001938563596885473 0 -0.00016712308571976883 0.0020377948768569823 0 -0.00015339062786201126 0.0019290959567520372 0 -0.00025400642176898669 0.001938563596885473 0 -0.00015339062786201126 0.0019290959567520372 0 -0.0002113835221582956 0.0018574078097653587 0 -0.00015339062786201126 0.0019290959567520372 0 -0.0002113835221582956 0.0018574078097653587 0 -0.00012036790801281882 0.0018189057232972177 0 -0.00015339062786201126 0.0019290959567520372 0 -0.00012036790801281882 0.0018189057232972177 0 -4.7440468007308566e-05 0.0019221850974503879 0 -0.00014515640051304568 0.0017322464434287063 0 -0.00012036790801281882 0.0018189057232972177 0 -0.0002044893228919675 0.0017959726745439141 0 -0.0002113835221582956 0.0018574078097653587 0 -0.00012036790801281882 0.0018189057232972177 0 -0.0002044893228919675 0.0017959726745439141 0 -0.00022841155684078367 0.0017567576369766503 0 -0.00014515640051304568 0.0017322464434287063 0 -0.0002044893228919675 0.0017959726745439141 0 -0.0002044893228919675 0.0017959726745439141 0 -0.00024658271774539038 0.0017846387516233589 0 -0.00025573659431110814 0.0018087257617057924 0 -0.0002113835221582956 0.0018574078097653587 0 -0.0002044893228919675 0.0017959726745439141 0 -0.00025573659431110814 0.0018087257617057924 0 -0.00022841155684078367 0.0017567576369766503 0 -0.0002044893228919675 0.0017959726745439141 0 -0.00024658271774539038 0.0017846387516233589 0 -0.00029169064654981048 0.0017830322581416627 0 -0.00034702407767826842 0.0018588159902703887 0 -0.00027503169813219942 0.0018509416924352518 0 -0.00024658271774539038 0.0017846387516233589 0 -0.00025573659431110814 0.0018087257617057924 0 -0.00029169064654981048 0.0017830322581416627 0 -0.00022841155684078367 0.0017567576369766503 0 -0.00024658271774539038 0.0017846387516233589 0 -0.00029169064654981048 0.0017830322581416627 0 -0.00025573659431110814 0.0018087257617057924 0 -0.00029169064654981048 0.0017830322581416627 0 -0.00027503169813219942 0.0018509416924352518 0 -2.1769456102662448e-05 0.0023845133265541101 0 0.00012747488000677706 0.0027575786632294949 0 -4.3254693841737303e-05 0.0025604696858408799 0 -5.3452036073618108e-05 0.0025640251152398382 0 -5.2263690637573082e-05 0.0025715268981783791 0 -2.1769456102662448e-05 0.0023845133265541101 0 -0.00018169731359737418 0.0022508985751488837 0 0.00027689753804277669 0.0029945515247650277 0 0.00027347978343833469 0.0029884897979998016 0 0.00027758748434533184 0.002992303032846744 0 -5.667314963064129e-05 0.002568938943455318 0 -5.3452036073618108e-05 0.0025640251152398382 0 -5.2263690637573082e-05 0.0025715268981783791 0 -5.635068501539843e-05 0.0025671733073939483 0 -5.667314963064129e-05 0.002568938943455318 0 -5.3452036073618108e-05 0.0025640251152398382 0 -0.0001439490406945569 0.0024834102549902357 0 -0.00018169731359737418 0.0022508985751488837 0 7.1758053014664175e-06 0.0025331105858118754 0 -0.00018169731359737418 0.0022508985751488837 0 -0.00021083137983940844 0.0021029075379907025 0 -0.00018169731359737418 0.0022508985751488837 0 -0.00025400642176898669 0.001938563596885473 0 -0.00034702407767826842 0.0018588159902703887 0 -0.00027503169813219942 0.0018509416924352518 0 -0.00025400642176898669 0.001938563596885473 0 -0.0002113835221582956 0.0018574078097653587 0 -0.00027503169813219942 0.0018509416924352518 0 -0.0002113835221582956 0.0018574078097653587 0 -0.00025573659431110814 0.0018087257617057924 0 -0.00027503169813219942 0.0018509416924352518 0 0.00018964880260212712 0.0017726298778445995 0 8.8626548733812514e-05 0.0017537048084647372 0 8.8322555795559477e-05 0.0018825259242300871 0 0.00018964880260212712 0.0017726298778445995 0 0.00018365982247589129 0.0018483094034643256 0 0.00023933879249775532 0.0017958640056228098 0 0.00018964880260212712 0.0017726298778445995 0 8.8322555795559477e-05 0.0018825259242300871 0 0.00018365982247589129 0.0018483094034643256 0 0.00018429455854722499 0.0017200987530619832 0 0.00018964880260212712 0.0017726298778445995 0 8.8626548733812514e-05 0.0017537048084647372 0 -2.8983932543828189e-05 0.0017022113028396062 0 8.8626548733812514e-05 0.0017537048084647372 0 -8.937789597607468e-06 0.0018166132049662771 0 -2.8983932543828189e-05 0.0017022113028396062 0 -0.00012036790801281882 0.0018189057232972177 0 -8.937789597607468e-06 0.0018166132049662771 0 -0.00012036790801281882 0.0018189057232972177 0 -8.937789597607468e-06 0.0018166132049662771 0 -4.7440468007308566e-05 0.0019221850974503879 0 -8.937789597607468e-06 0.0018166132049662771 0 -4.7440468007308566e-05 0.0019221850974503879 0 8.8322555795559477e-05 0.0018825259242300871 0 8.8626548733812514e-05 0.0017537048084647372 0 -8.937789597607468e-06 0.0018166132049662771 0 8.8322555795559477e-05 0.0018825259242300871 0 -4.7440468007308566e-05 0.0019221850974503879 0 3.0553421575445862e-05 0.0020335865161745805 0 8.8322555795559477e-05 0.0018825259242300871 0 -0.00015339062786201126 0.0019290959567520372 0 -4.7440468007308566e-05 0.0019221850974503879 0 -6.5893416955286623e-05 0.0020389462802825062 0 -4.7440468007308566e-05 0.0019221850974503879 0 -6.5893416955286623e-05 0.0020389462802825062 0 3.0553421575445862e-05 0.0020335865161745805 0 3.0553421575445862e-05 0.0020335865161745805 0 0.00012723180263168741 0.0020470844048303678 0 8.8322555795559477e-05 0.0018825259242300871 0 0.00012723180263168741 0.0020470844048303678 0 8.8322555795559477e-05 0.0018825259242300871 0 0.00017000771209163903 0.0019367615174414104 0 8.8322555795559477e-05 0.0018825259242300871 0 0.00018365982247589129 0.0018483094034643256 0 0.00017000771209163903 0.0019367615174414104 0 0.00018365982247589129 0.0018483094034643256 0 0.00017000771209163903 0.0019367615174414104 0 0.00024090003814241466 0.0018991894717718763 0 0.00012723180263168741 0.0020470844048303678 0 0.00017000771209163903 0.0019367615174414104 0 0.00021341121654132236 0.0020063052891240887 0 0.00017000771209163903 0.0019367615174414104 0 0.00021341121654132236 0.0020063052891240887 0 0.00024090003814241466 0.0018991894717718763 0 0.00012723180263168741 0.0020470844048303678 0 0.00020991112905539039 0.0021127420294862771 0 0.0001044674108969158 0.0021474906146964883 0 0.00012723180263168741 0.0020470844048303678 0 0.00021341121654132236 0.0020063052891240887 0 0.00020991112905539039 0.0021127420294862771 0 3.0553421575445862e-05 0.0020335865161745805 0 0.00012723180263168741 0.0020470844048303678 0 0.0001044674108969158 0.0021474906146964883 0 0.0001044674108969158 0.0021474906146964883 0 7.4622992585842977e-05 0.0022408013635703068 0 0.00015566909453149064 0.0021975020665758113 0 0.00020991112905539039 0.0021127420294862771 0 0.00015566909453149064 0.0021975020665758113 0 0.00024943295802583049 0.0021855766217331817 0 0.00020991112905539039 0.0021127420294862771 0 0.0001044674108969158 0.0021474906146964883 0 0.00015566909453149064 0.0021975020665758113 0 -0.00011741460147126812 0.0021892030921436658 0 -5.2606098700745572e-05 0.0022017215813658788 0 -0.00016712308571976883 0.0020377948768569823 0 -6.5893416955286623e-05 0.0020389462802825062 0 -4.9037339336532084e-05 0.0021957152893167251 0 -6.5893416955286623e-05 0.0020389462802825062 0 3.0553421575445862e-05 0.0020335865161745805 0 -4.9037339336532084e-05 0.0021957152893167251 0 3.0553421575445862e-05 0.0020335865161745805 0 0.0001044674108969158 0.0021474906146964883 0 -4.9037339336532084e-05 0.0021957152893167251 0 7.4622992585842977e-05 0.0022408013635703068 0 -4.9037339336532084e-05 0.0021957152893167251 0 1.2548344962249372e-05 0.0023082733851237536 0 0.0001044674108969158 0.0021474906146964883 0 7.4622992585842977e-05 0.0022408013635703068 0 -4.9037339336532084e-05 0.0021957152893167251 0 -9.1959889113275237e-05 0.0022810265528711957 0 -4.9037339336532084e-05 0.0021957152893167251 0 -6.2493194282656301e-05 0.0023044718988283665 0 -4.9037339336532084e-05 0.0021957152893167251 0 -6.2493194282656301e-05 0.0023044718988283665 0 1.2548344962249372e-05 0.0023082733851237536 0 -6.2493194282656301e-05 0.0023044718988283665 0 1.2548344962249372e-05 0.0023082733851237536 0 -4.3238565081718419e-05 0.0023783820740599232 0 1.3997459973874068e-05 0.002344973034364992 0 0.00010537254849853168 0.0023062172737766109 0 1.2548344962249372e-05 0.0023082733851237536 0 3.5910581955988817e-05 0.0023938856678379378 0 0.00013406432147089137 0.0023179258674592769 0 1.2548344962249372e-05 0.0023082733851237536 0 4.2206590300146927e-05 0.002401810664711452 0 -4.3238565081718419e-05 0.0023783820740599232 0 0.00025886566064348642 0.0021727875831662308 0 0.00026715865237071521 0.0021702988050061826 0 0.00024943295802583049 0.0021855766217331817 0 0.00020947365209013187 0.0022356450711638557 0 0.00024165560885497896 0.0021962881075132256 0 0.00015566909453149064 0.0021975020665758113 0 0.00013406432147089137 0.0023179258674592769 0 0.00024943295802583049 0.0021855766217331817 0 7.4622992585842977e-05 0.0022408013635703068 0 0.00015566909453149064 0.0021975020665758113 0 0.00013406432147089137 0.0023179258674592769 0 7.4622992585842977e-05 0.0022408013635703068 0 1.2548344962249372e-05 0.0023082733851237536 0 0.00013406432147089137 0.0023179258674592769 0 0.00010537254849853168 0.0023062172737766109 0 0.00020947365209013187 0.0022356450711638557 0 0.00026818996793150372 0.002163908642781368 0 0.00026715865237071521 0.0021702988050061826 0 0.00026589945571367513 0.0021630345505271988 0 0.00026715865237071521 0.0021702988050061826 0 0.00026370623031214229 0.0021640244111862323 0 0.00026589945571367513 0.0021630345505271988 0 0.00026370623031214229 0.0021640244111862323 0 0.00026273938312713576 0.0021676344364578606 0 0.00026123600039479794 0.0021648006925963728 0 0.00025886566064348642 0.0021727875831662308 0 0.00026715865237071521 0.0021702988050061826 0 0.00026273938312713576 0.0021676344364578606 0 0.00026715865237071521 0.0021702988050061826 0 0.00026370623031214229 0.0021640244111862323 0 0.00026273938312713576 0.0021676344364578606 0 0.00025886566064348642 0.0021727875831662308 0 0.00026273938312713576 0.0021676344364578606 0 0.00026123600039479794 0.0021648006925963728 0 0.00026370623031214229 0.0021640244111862323 0 0.00026123600039479794 0.0021648006925963728 0 0.00026012190199349675 0.0021596511890698473 0 -0.00064542209414026729 0.0012509346332923834 0 -0.00045915537662496536 0.0011918414715917241 0 -0.0005870834076904005 0.00094010088508143189 0 -3.4720612386946572e-05 0.0020928447092882435 0 -0.00015260319651796742 0.0012352807008080104 0 -0.00015260319651796742 0.0012352807008080104 0 -0.00011946103010705888 0.0016816541043216885 0 0.00026370623031214229 0.0021640244111862323 0 0.00026012190199349675 0.0021596511890698473 0 0.00026342863950819012 0.0021592591741915815 0 0.00026370623031214229 0.0021640244111862323 0 0.00026589945571367513 0.0021630345505271988 0 0.00026342863950819012 0.0021592591741915815 0 0.00026589945571367513 0.0021630345505271988 0 0.00026342863950819012 0.0021592591741915815 0 0.00026667595692378442 0.0021584641972919303 0 -0.00011946103010705888 0.0016816541043216885 0 7.6936906531626997e-05 0.002022205137943722 0 -0.00045915537662496536 0.0011918414715917241 0 -0.00042602579086207051 0.0010981455524462619 0 -0.00027261012296213365 0.001135952951677165 0 -0.00042602579086207051 0.0010981455524462619 0 -0.00044295683706304002 0.00087518386495107731 0 -0.0002936306458744201 0.0010350992655001772 0 -0.00042602579086207051 0.0010981455524462619 0 -0.0005870834076904005 0.00094010088508143189 0 -0.00044295683706304002 0.00087518386495107731 0 -0.00045915537662496536 0.0011918414715917241 0 -0.00042602579086207051 0.0010981455524462619 0 -0.0005870834076904005 0.00094010088508143189 0 -0.00033108665804570025 0.0011029843615920065 0 -0.00048134807762756354 0.0013112043510936191 0 -0.00042602579086207051 0.0010981455524462619 0 -0.00029504015179333289 0.0010419301338866855 0 -0.00027261012296213365 0.001135952951677165 0 -0.00061320353030144457 -3.8252659977335897e-05 0 -0.0006562204566598266 1.5947301730128338e-05 0 -0.00058305975604891296 -8.0348431855633235e-06 0 -0.00015260319651796742 0.0012352807008080104 0 -0.00066892086431851773 0.00036264078861622154 0 -0.0005870834076904005 0.00094010088508143189 0 -0.00044295683706304002 0.00087518386495107731 0 -0.00052654715651844993 0.00062945597100948257 0 -0.0006562204566598266 1.5947301730128338e-05 0 -0.0007357041907995862 8.7453881278463282e-05 0 -0.00060799221973850616 2.9767305195088665e-05 0 -0.00066892086431851773 0.00036264078861622154 0 -0.00061589638058529288 0.000350024003061538 0 -0.00044295683706304002 0.00087518386495107731 0 -0.00038061838107976707 0.0006753853985863637 0 -0.0002936306458744201 0.0010350992655001772 0 -0.00066405956328902485 0.00071419092488437944 0 -0.00048134807762756354 0.0013112043510936191 0 -0.00044295683706304002 0.00087518386495107731 0 -0.00038061838107976707 0.0006753853985863637 0 -0.00052654715651844993 0.00062945597100948257 0 -0.00038061838107976707 0.0006753853985863637 0 -0.00052654715651844993 0.00062945597100948257 0 -0.00046912025969851818 0.00032704845533803321 0 -0.0007357041907995862 8.7453881278463282e-05 0 -0.00059038236239003419 7.2755665890420377e-05 0 -0.00067189385473735784 0.00016664253529761808 0 -0.00076628082339005139 0.00082260568116544102 0 -0.00070270030681673272 0.00084479549669939718 0 -0.00073505517772708931 0.00074755142389898097 0 -0.00076628082339005139 0.00082260568116544102 0 -0.00081401590905931086 0.00088241393519841249 0 -0.00073894691353492998 0.00089336445027307372 0 -0.00076628082339005139 0.00082260568116544102 0 -0.00073894691353492998 0.00089336445027307372 0 -0.00070270030681673272 0.00084479549669939718 0 -0.00092487907207847435 0.0008563279045840955 0 -0.00081401590905931086 0.00088241393519841249 0 -0.00085527632283241908 0.00076792981086087713 0 -0.00076628082339005139 0.00082260568116544102 0 -0.00081401590905931086 0.00088241393519841249 0 -0.00085527632283241908 0.00076792981086087713 0 -0.00081401590905931086 0.00088241393519841249 0 -0.00084630885918014938 0.00093863140963678954 0 -0.00076379767952420468 0.00097777800186603565 0 -0.00092487907207847435 0.0008563279045840955 0 -0.00084630885918014938 0.00093863140963678954 0 -0.00088370527800573175 0.0010377307691637799 0 -0.00092487907207847435 0.0008563279045840955 0 -0.00081401590905931086 0.00088241393519841249 0 -0.00084630885918014938 0.00093863140963678954 0 -0.00076379767952420468 0.00097777800186603565 0 -0.00073894691353492998 0.00089336445027307372 0 -0.00064988962085584792 0.00092717226356430545 0 -0.00081401590905931086 0.00088241393519841249 0 -0.00076379767952420468 0.00097777800186603565 0 -0.00073894691353492998 0.00089336445027307372 0 -1.9152376390299112e-05 0.0024423227354131291 0 -5.2233143100195389e-05 0.0024005186148414069 0 7.0578536375671052e-05 0.0023450210196839503 0 -5.6056665331845302e-05 0.0024200139875390318 0 7.6936906531626997e-05 0.002022205137943722 0 -4.441115086396566e-05 0.0023711908666185898 0 0.00011572992310028754 0.002317261341899099 0 -5.6058182910487589e-05 0.002320046663650314 0 -0.00084630885918014938 0.00093863140963678954 0 -0.00076379767952420468 0.00097777800186603565 0 -0.00088370527800573175 0.0010377307691637799 0 -0.00039838948389468552 0.0017525290352263638 0 -0.00048134807762756354 0.0013112043510936191 0 -1.9152376390299112e-05 0.0024423227354131291 0 7.8765271425460933e-05 0.0023827871399184509 0 7.0578536375671052e-05 0.0023450210196839503 0 -0.00048134807762756354 0.0013112043510936191 0 7.6936906531626997e-05 0.002022205137943722 0 0.00010537254849853168 0.0023062172737766109 0 7.6936906531626997e-05 0.002022205137943722 0 0.00026818996793150372 0.002163908642781368 0 0.00026589945571367513 0.0021630345505271988 0 0.00026667595692378442 0.0021584641972919303 0 9.2582589216913096e-05 0.0022161913662289085 0 0.00011572992310028754 0.002317261341899099 0 -5.6058182910487589e-05 0.002320046663650314 0 4.2206590300146927e-05 0.002401810664711452 0 -4.3238565081718419e-05 0.0023783820740599232 0 -4.6224020438063483e-05 0.0024793523127628956 0 0.00010537254849853168 0.0023062172737766109 0 -6.0340768866297101e-05 0.0024022387451097223 0 -9.0901125246791768e-05 0.002416199344130314 0 -4.6224020438063483e-05 0.0024793523127628956 0 -0.00014362455592323661 0.0024753301599390815 0 -9.0901125246791768e-05 0.002416199344130314 0 -4.3238565081718419e-05 0.0023783820740599232 0 -4.6224020438063483e-05 0.0024793523127628956 0 -9.0901125246791768e-05 0.002416199344130314 0 -0.0001301729185560892 0.0023963782223438987 0 -0.00014362455592323661 0.0024753301599390815 0 -0.00014362455592323661 0.0024753301599390815 0 -0.00013384345554076207 0.0025632968862973659 0 -0.00018131730697503576 0.0025391134262513293 0 -4.6224020438063483e-05 0.0024793523127628956 0 -0.00014362455592323661 0.0024753301599390815 0 -0.00013384345554076207 0.0025632968862973659 0 -5.6056665331845302e-05 0.0024200139875390318 0 -0.00016258412820397105 0.0024964582938249579 0 -6.0340768866297101e-05 0.0024022387451097223 0 -0.00016258412820397105 0.0024964582938249579 0 -4.441115086396566e-05 0.0023711908666185898 0 -5.6058182910487589e-05 0.002320046663650314 0 -0.00020417389670794757 0.002425559624907155 0 -0.00020221790482699868 0.0025699604412307065 0 -0.00024956106873521232 0.0026067067606503104 0 -0.00020956794022697518 0.0025157201215942945 0 -0.00022079952853225478 0.0025196366705478807 0 -0.00026401301488550229 0.0025436519828644709 0 -0.00020956794022697518 0.0025157201215942945 0 -0.00018640997826328937 0.0025227784004505116 0 -0.00022079952853225478 0.0025196366705478807 0 -0.00018641862296841504 0.002454750846361816 0 -0.00021766307310247209 0.0025135531278489254 0 -0.00019318523587616294 0.002386171795845602 0 -0.00014362455592323661 0.0024753301599390815 0 -0.00022079952853225478 0.0025196366705478807 0 -0.00014362455592323661 0.0024753301599390815 0 -0.00022079952853225478 0.0025196366705478807 0 -0.00018131730697503576 0.0025391134262513293 0 -0.00013384345554076207 0.0025632968862973659 0 -0.00018131730697503576 0.0025391134262513293 0 -0.00020321980617110801 0.0025881191736911776 0 -0.00018131730697503576 0.0025391134262513293 0 -0.00023098918503669814 0.0025686924471281579 0 -0.00020321980617110801 0.0025881191736911776 0 -0.00022079952853225478 0.0025196366705478807 0 -0.00018131730697503576 0.0025391134262513293 0 -0.00023098918503669814 0.0025686924471281579 0 -0.00022079952853225478 0.0025196366705478807 0 -0.00023098918503669814 0.0025686924471281579 0 -0.00026401301488550229 0.0025436519828644709 0 -0.00023098918503669814 0.0025686924471281579 0 -0.00026401301488550229 0.0025436519828644709 0 -0.0002583548754586372 0.002598793745319928 0 -0.00023208509280942587 0.0026010595473645354 0 -0.00020221305930284811 0.0026086066599549833 0 -0.00027335387918557124 0.0026192734705323445 0 -0.00024937583100666938 0.0026031228564377417 0 -0.0002583548754586372 0.002598793745319928 0 -0.00026764039608011942 0.0026252501827505083 0 -0.00024937583100666938 0.0026031228564377417 0 -0.00023208509280942587 0.0026010595473645354 0 -0.00027335387918557124 0.0026192734705323445 0 -0.00023098918503669814 0.0025686924471281579 0 -0.00024937583100666938 0.0026031228564377417 0 -0.0002583548754586372 0.002598793745319928 0 -0.00023098918503669814 0.0025686924471281579 0 -0.00023208509280942587 0.0026010595473645354 0 -0.00020321980617110801 0.0025881191736911776 0 -0.00023098918503669814 0.0025686924471281579 0 -0.00024937583100666938 0.0026031228564377417 0 -0.00023208509280942587 0.0026010595473645354 0 -0.00016258412820397105 0.0024964582938249579 0 -0.0001954680652947456 0.0025881163421617483 0 -0.00016258412820397105 0.0024964582938249579 0 -0.00022282521393427246 0.0025733239310290991 0 -0.00014309154553395501 0.0025674020879289691 0 -0.00020221305930284811 0.0026086066599549833 0 -0.00020321980617110801 0.0025881191736911776 0 -0.00023208509280942587 0.0026010595473645354 0 -0.00020221305930284811 0.0026086066599549833 0 -0.00020321980617110801 0.0025881191736911776 0 -0.00024762583289743197 0.0025389321227177555 0 -0.00022975082191965731 0.0025535878537358159 0 -0.00024078895471041982 0.0025613662803733728 0 -0.00024762583289743197 0.0025389321227177555 0 -0.000211264688413023 0.0025361214849722261 0 -0.00019489845522186499 0.0025151970553015583 0 -0.000211264688413023 0.0025361214849722261 0 -0.00021096893032511611 0.0025727082938193906 0 -0.00019489845522186499 0.0025151970553015583 0 -0.00024762583289743197 0.0025389321227177555 0 -0.00022975082191965731 0.0025535878537358159 0 -0.000211264688413023 0.0025361214849722261 0 -0.00022975082191965731 0.0025535878537358159 0 -0.000211264688413023 0.0025361214849722261 0 -0.000218038274494873 0.0025628243409966502 0 -0.00021451625105931084 0.0025738198921961258 0 -0.00025208244068992372 0.002587591438807373 0 -0.00028541030417263672 0.0026231514553004967 0 -0.00032424220981289685 0.0019688885983409439 0 -0.00032907510852773792 0.0027912961622952055 0 -0.00039296061636131862 0.0026736109610801351 0 -0.00028541030417263672 0.0026231514553004967 0 -0.00034816119662506469 0.0026236245851802699 0 -0.00039296061636131862 0.0026736109610801351 0 -0.00034816119662506469 0.0026236245851802699 0 -0.00037073243156233646 0.0025841051661745964 0 -0.00023038755782782286 0.0025670634547894449 0 -0.00021451625105931084 0.0025738198921961258 0 -0.00025208244068992372 0.002587591438807373 0 -0.000211264688413023 0.0025361214849722261 0 -0.000218038274494873 0.0025628243409966502 0 -0.00021096893032511611 0.0025727082938193906 0 -0.000218038274494873 0.0025628243409966502 0 -0.00023038755782782286 0.0025670634547894449 0 -0.00021451625105931084 0.0025738198921961258 0 -0.00026113976328079964 0.0020980918429911949 0 -0.00032424220981289685 0.0019688885983409439 0 -0.00022975082191965731 0.0025535878537358159 0 -0.000218038274494873 0.0025628243409966502 0 -0.00023038755782782286 0.0025670634547894449 0 -0.00022975082191965731 0.0025535878537358159 0 -0.00023038755782782286 0.0025670634547894449 0 -0.00024078895471041982 0.0025613662803733728 0 -0.00024762583289743197 0.0025389321227177555 0 -0.00025208244068992372 0.002587591438807373 0 -0.00024078895471041982 0.0025613662803733728 0 -0.00023038755782782286 0.0025670634547894449 0 -0.00025208244068992372 0.002587591438807373 0 -0.00024078895471041982 0.0025613662803733728 0 -0.00022282521393427246 0.0025733239310290991 0 -0.00026530327476306705 0.002610426854169528 0 -0.00024762583289743197 0.0025389321227177555 0 -0.00025208244068992372 0.002587591438807373 0 -0.00027335387918557124 0.0026192734705323445 0 -0.00025208244068992372 0.002587591438807373 0 -0.00028541030417263672 0.0026231514553004967 0 -0.00027335387918557124 0.0026192734705323445 0 -0.00028541030417263672 0.0026231514553004967 0 -0.00027335387918557124 0.0026192734705323445 0 -0.00027409108412068558 0.0026230192111267501 0 -0.00024937583100666938 0.0026031228564377417 0 -0.00027335387918557124 0.0026192734705323445 0 -0.00026764039608011942 0.0026252501827505083 0 -0.00027335387918557124 0.0026192734705323445 0 -0.00027409108412068558 0.0026230192111267501 0 -0.00026764039608011942 0.0026252501827505083 0 -1.9152376390299112e-05 0.0024423227354131291 0 -5.2233143100195389e-05 0.0024005186148414069 0 -0.00011503385553515739 0.0025061528195939845 0 -5.2233143100195389e-05 0.0024005186148414069 0 -0.00017353708059494787 0.0024604613913367678 0 -0.00011503385553515739 0.0025061528195939845 0 -0.00039838948389468552 0.0017525290352263638 0 -0.00037675904673167029 0.00168924490857998 0 -0.00032424220981289685 0.0019688885983409439 0 -0.00037675904673167029 0.00168924490857998 0 -0.00017353708059494787 0.0024604613913367678 0 -0.00024762583289743197 0.0025389321227177555 0 -0.00019489845522186499 0.0025151970553015583 0 -0.00021096893032511611 0.0025727082938193906 0 -0.00011503385553515739 0.0025061528195939845 0 -0.00019489845522186499 0.0025151970553015583 0 -0.00017353708059494787 0.0024604613913367678 0 -0.00011503385553515739 0.0025061528195939845 0 -0.00019489845522186499 0.0025151970553015583 0 -0.00052482599453962191 0.00087932467849344135 0 -0.00062344598091249764 0.00083068351595721134 0 -0.00062786539101258821 0.00072782447962695736 0 -0.00052482599453962191 0.00087932467849344135 0 -0.00064988962085584792 0.00092717226356430545 0 -0.00062344598091249764 0.00083068351595721134 0 -0.00062344598091249764 0.00083068351595721134 0 -0.00070270030681673272 0.00084479549669939718 0 -0.00073505517772708931 0.00074755142389898097 0 -0.00073894691353492998 0.00089336445027307372 0 -0.00064988962085584792 0.00092717226356430545 0 -0.00070270030681673272 0.00084479549669939718 0 -0.00064988962085584792 0.00092717226356430545 0 -0.00062344598091249764 0.00083068351595721134 0 -0.00070270030681673272 0.00084479549669939718 0 -0.00062344598091249764 0.00083068351595721134 0 -0.00062786539101258821 0.00072782447962695736 0 -0.00073505517772708931 0.00074755142389898097 0 -0.00032424220981289685 0.0019688885983409439 0 -0.00058429556867062987 0.0016016543954989594 0 -0.00039296061636131862 0.0026736109610801351 0 -0.00047778535546988919 0.0025642383513450042 0 -0.00037073243156233646 0.0025841051661745964 0 -0.00047778535546988919 0.0025642383513450042 0 -0.0003730470142089798 0.0025052547634238928 0 -0.00042351824480411595 0.0024226571519999451 0 -0.00047778535546988919 0.0025642383513450042 0 -0.00037073243156233646 0.0025841051661745964 0 -0.0003730470142089798 0.0025052547634238928 0 -0.00058429556867062987 0.0016016543954989594 0 -0.00066878401965014041 0.0015100256564527946 0 -0.00062786539101258821 0.00072782447962695736 0 -0.00075156262082425203 0.000596987674558723 0 -0.00073505517772708931 0.00074755142389898097 0 -0.00047778535546988919 0.0025642383513450042 0 -0.00060053583636062748 0.0024005197516801923 0 -0.00042351824480411595 0.0024226571519999451 0 -0.00028541030417263672 0.0026231514553004967 0 -0.00028108508091530683 0.0025962051508196513 0 -0.0003249127817691942 0.0025985717253139526 0 -0.00028541030417263672 0.0026231514553004967 0 -0.00028108508091530683 0.0025962051508196513 0 -0.00027409108412068558 0.0026230192111267501 0 -0.00028541030417263672 0.0026231514553004967 0 -0.0003249127817691942 0.0025985717253139526 0 -0.00034816119662506469 0.0026236245851802699 0 -0.00028108508091530683 0.0025962051508196513 0 -0.0003249127817691942 0.0025985717253139526 0 -0.00032430829316565331 0.0025526200572450128 0 -0.0003249127817691942 0.0025985717253139526 0 -0.00037073243156233646 0.0025841051661745964 0 -0.00032430829316565331 0.0025526200572450128 0 -0.0003249127817691942 0.0025985717253139526 0 -0.00034816119662506469 0.0026236245851802699 0 -0.00037073243156233646 0.0025841051661745964 0 -0.00037073243156233646 0.0025841051661745964 0 -0.0003730470142089798 0.0025052547634238928 0 -0.00032430829316565331 0.0025526200572450128 0 -0.0003730470142089798 0.0025052547634238928 0 -0.00032430829316565331 0.0025526200572450128 0 -0.00032134532966511905 0.0024929231559781546 0 -0.00032430829316565331 0.0025526200572450128 0 -0.00029412749530922266 0.0025400041080112989 0 -0.00032134532966511905 0.0024929231559781546 0 -0.00028108508091530683 0.0025962051508196513 0 -0.00032430829316565331 0.0025526200572450128 0 -0.00029412749530922266 0.0025400041080112989 0 -0.00032134532966511905 0.0024929231559781546 0 -0.00032189873167740322 0.0024327594704074947 0 -0.00028145546579048405 0.0024915921777400032 0 -0.00029412749530922266 0.0025400041080112989 0 -0.00032134532966511905 0.0024929231559781546 0 -0.00028145546579048405 0.0024915921777400032 0 -0.00036211602258013503 0.0024346351763251794 0 -0.00038164369247407339 0.0023193221183482947 0 -0.00042351824480411595 0.0024226571519999451 0 -0.00032134532966511905 0.0024929231559781546 0 -0.00036211602258013503 0.0024346351763251794 0 -0.00032189873167740322 0.0024327594704074947 0 -0.0003730470142089798 0.0025052547634238928 0 -0.00032134532966511905 0.0024929231559781546 0 -0.00036211602258013503 0.0024346351763251794 0 -0.0003730470142089798 0.0025052547634238928 0 -0.00036211602258013503 0.0024346351763251794 0 -0.00042351824480411595 0.0024226571519999451 0 -0.00036211602258013503 0.0024346351763251794 0 -0.00038164369247407339 0.0023193221183482947 0 -0.00032189873167740322 0.0024327594704074947 0 -0.00038164369247407339 0.0023193221183482947 0 -0.00032189873167740322 0.0024327594704074947 0 -0.00030179961803062673 0.002407676823416752 0 -0.00031028490267160985 0.002210036898433407 0 -0.00010231287470923341 0.002266954829448155 0 -0.00032189873167740322 0.0024327594704074947 0 -0.00028145546579048405 0.0024915921777400032 0 -0.00030179961803062673 0.002407676823416752 0 -0.00060053583636062748 0.0024005197516801923 0 -0.00049350128780816004 0.0023320343451977122 0 -0.00042351824480411595 0.0024226571519999451 0 -0.00060053583636062748 0.0024005197516801923 0 -0.00049350128780816004 0.0023320343451977122 0 -0.00055135958974291278 0.0021601478547530199 0 -0.00038164369247407339 0.0023193221183482947 0 -0.00049350128780816004 0.0023320343451977122 0 -0.00055135958974291278 0.0021601478547530199 0 -0.00038164369247407339 0.0023193221183482947 0 -0.00049350128780816004 0.0023320343451977122 0 -0.00042351824480411595 0.0024226571519999451 0 -0.00031028490267160985 0.002210036898433407 0 -0.00054627453477303859 0.0021739353091587677 0 -0.00060053583636062748 0.0024005197516801923 0 -0.00055135958974291278 0.0021601478547530199 0 -0.00080467863672232826 0.0020379482590146668 0 -0.00066878401965014041 0.0015100256564527946 0 -0.0008355970108312171 0.001299350902733626 0 -0.00075156262082425203 0.000596987674558723 0 -0.00087173066638611212 0.00055553593612576156 0 -0.00084627782903401428 0.00057704819382652008 0 -0.00075156262082425203 0.000596987674558723 0 -0.00086207574788623549 0.00059762265496892883 0 -0.00084627782903401428 0.00057704819382652008 0 -0.00086207574788623549 0.00059762265496892883 0 -0.00089292051123507962 0.00056534168715769904 0 -0.00088886603801879079 0.00055539062146523865 0 -0.00086207574788623549 0.00059762265496892883 0 -0.00084627782903401428 0.00057704819382652008 0 -0.00089292051123507962 0.00056534168715769904 0 -0.00087173066638611212 0.00055553593612576156 0 -0.00084627782903401428 0.00057704819382652008 0 -0.00089292051123507962 0.00056534168715769904 0 -0.00087173066638611212 0.00055553593612576156 0 -0.00089292051123507962 0.00056534168715769904 0 -0.00091907555818789737 0.00057602101927059024 0 -0.00089292051123507962 0.00056534168715769904 0 -0.00088472739355808085 0.00058986646596989091 0 -0.00088886603801879079 0.00055539062146523865 0 -0.00089292051123507962 0.00056534168715769904 0 -0.00088472739355808085 0.00058986646596989091 0 -0.00091907555818789737 0.00057602101927059024 0 -0.00088472739355808085 0.00058986646596989091 0 -0.0008630269780726085 0.00052406607403147898 0 -0.00088886603801879079 0.00055539062146523865 0 -0.00086516757123141885 0.00048553251934532158 0 -0.00072153063894504993 0.00037813071445996657 0 -0.00085251804088493489 0.00038042716430724795 0 -0.00069397276908206025 0.00024456939439497798 0 -0.00067942852937576657 0.00032231448751666861 0 -0.00088472739355808085 0.00058986646596989091 0 -0.00074303303569773593 0.00051997068200404907 0 -0.0008630269780726085 0.00052406607403147898 0 -0.00085251804088493489 0.00038042716430724795 0 -0.0006777831806603151 0.00041768717522726382 0 -0.00067942852937576657 0.00032231448751666861 0 -0.00074303303569773593 0.00051997068200404907 0 -0.0008630269780726085 0.00052406607403147898 0 -0.00074882616925098634 0.00032773922878795599 0 -0.00086207574788623549 0.00059762265496892883 0 -0.00088886603801879079 0.00055539062146523865 0 -0.00089358207110925962 0.00056810517408167926 0 -0.0008630269780726085 0.00052406607403147898 0 -0.00088886603801879079 0.00055539062146523865 0 -0.00089358207110925962 0.00056810517408167926 0 -0.0008630269780726085 0.00052406607403147898 0 -0.00089358207110925962 0.00056810517408167926 0 -0.00091971143906881877 0.00060331703419992774 0 -0.0008857974979829355 0.0005082279340128615 0 -0.00076007207765943973 0.00046274266249406301 0 -0.00086207574788623549 0.00059762265496892883 0 -0.00089358207110925962 0.00056810517408167926 0 -0.00087356768530490343 0.00065073127910344878 0 -0.00089358207110925962 0.00056810517408167926 0 -0.00094720069128458441 0.00066892277332829297 0 -0.00087356768530490343 0.00065073127910344878 0 -0.00089831036657841837 0.00063533814965783966 0 -0.00076007207765943973 0.00046274266249406301 0 -0.00086149460302807135 0.00025586781036857623 0 -0.00074882616925098634 0.00032773922878795599 0 -0.00067189385473735784 0.00016664253529761808 0 -0.0008630269780726085 0.00052406607403147898 0 -0.00086149460302807135 0.00025586781036857623 0 -0.00074882616925098634 0.00032773922878795599 0 -0.0007357041907995862 8.7453881278463282e-05 0 -0.00086149460302807135 0.00025586781036857623 0 -0.00067189385473735784 0.00016664253529761808 0 -0.00066405956328902485 0.00071419092488437944 0 -0.00076007207765943973 0.00046274266249406301 0 -0.00094720069128458441 0.00066892277332829297 0 -0.00085527632283241908 0.00076792981086087713 0 -0.00087356768530490343 0.00065073127910344878 0 -0.00092487907207847435 0.0008563279045840955 0 -0.00094720069128458441 0.00066892277332829297 0 -0.00085527632283241908 0.00076792981086087713 0 -0.00061589638058529288 0.000350024003061538 0 -0.00076007207765943973 0.00046274266249406301 0 -0.00085527632283241908 0.00076792981086087713 0 -0.00087356768530490343 0.00065073127910344878 0 -0.00082049872476690894 0.00067358099542875333 0 -0.00076628082339005139 0.00082260568116544102 0 -0.00085527632283241908 0.00076792981086087713 0 -0.00073505517772708931 0.00074755142389898097 0 -0.00085527632283241908 0.00076792981086087713 0 -0.00073505517772708931 0.00074755142389898097 0 -0.00082049872476690894 0.00067358099542875333 0 -0.00075156262082425203 0.000596987674558723 0 -0.00086207574788623549 0.00059762265496892883 0 -0.00082049872476690894 0.00067358099542875333 0 -0.00075156262082425203 0.000596987674558723 0 -0.00073505517772708931 0.00074755142389898097 0 -0.00082049872476690894 0.00067358099542875333 0 -0.00086207574788623549 0.00059762265496892883 0 -0.00087356768530490343 0.00065073127910344878 0 -0.00082049872476690894 0.00067358099542875333 0 -0.0002266467725747015 0.002749509439022392 0 -0.00020087824207217005 0.0027575967978393972 0 -0.00020121425996860341 0.0027865846080734591 0 -0.0002266467725747015 0.002749509439022392 0 -0.00022504617474909449 0.0027757935204398387 0 -0.00020121425996860341 0.0027865846080734591 0 -0.00017693618380904409 0.002785054498360908 0 -0.00020087824207217005 0.0027575967978393972 0 -0.00020121425996860341 0.0027865846080734591 0 -0.00020087824207217005 0.0027575967978393972 0 -0.00022019313993007234 0.0027305147817793985 0 -0.00019116805754491856 0.0027409311061625135 0 -0.00017765948946227086 0.0027628156171018215 0 -0.00020087824207217005 0.0027575967978393972 0 -0.00019116805754491856 0.0027409311061625135 0 -0.0002266467725747015 0.002749509439022392 0 -0.00020087824207217005 0.0027575967978393972 0 -0.00022019313993007234 0.0027305147817793985 0 -0.0002266467725747015 0.002749509439022392 0 -0.00024757164362910458 0.0027244346606836666 0 -0.00025275723295164294 0.002757623564339437 0 -0.0002266467725747015 0.002749509439022392 0 -0.00024757164362910458 0.0027244346606836666 0 -0.00022019313993007234 0.0027305147817793985 0 -0.0002266467725747015 0.002749509439022392 0 -0.00025275723295164294 0.002757623564339437 0 -0.00022504617474909449 0.0027757935204398387 0 -0.00025275723295164294 0.002757623564339437 0 -0.00022516326474058076 0.0028046133417399684 0 -0.00022504617474909449 0.0027757935204398387 0 -0.00025275723295164294 0.002757623564339437 0 -0.00022516326474058076 0.0028046133417399684 0 -0.00026147224609467812 0.0027819467695354809 0 -0.00022516326474058076 0.0028046133417399684 0 -0.00022504617474909449 0.0027757935204398387 0 -0.00020121425996860341 0.0027865846080734591 0 -0.00018258456844255416 0.0028180743330886524 0 -0.00017693618380904409 0.002785054498360908 0 -0.00020121425996860341 0.0027865846080734591 0 -0.00018258456844255416 0.0028180743330886524 0 -0.00022516326474058076 0.0028046133417399684 0 -0.00019425214047324085 0.0028341357094113766 0 -0.00018258456844255416 0.0028180743330886524 0 -0.00022516326474058076 0.0028046133417399684 0 -0.00020121425996860341 0.0027865846080734591 0 -0.00022516326474058076 0.0028046133417399684 0 -0.00019425214047324085 0.0028341357094113766 0 -0.00020266100451384991 0.0028626234726494724 0 -0.00016636396615583147 0.0028643144160113774 0 -0.00019425214047324085 0.0028341357094113766 0 -0.00020266100451384991 0.0028626234726494724 0 -0.00022516326474058076 0.0028046133417399684 0 -0.00020266100451384991 0.0028626234726494724 0 -0.00024465991325441197 0.0028199128428218669 0 -0.00020266100451384991 0.0028626234726494724 0 -0.00022858740437466636 0.0028675104649332722 0 -0.00024465991325441197 0.0028199128428218669 0 -0.00016470902644225607 0.0029229375121764801 0 -0.00020266100451384991 0.0028626234726494724 0 -0.00019436236203726403 0.0029205288378419494 0 -0.00020266100451384991 0.0028626234726494724 0 -0.00019436236203726403 0.0029205288378419494 0 -0.00022858740437466636 0.0028675104649332722 0 -0.00019436236203726403 0.0029205288378419494 0 -0.00022858740437466636 0.0028675104649332722 0 -0.00023463925090071874 0.0029358059576008034 0 -0.00017781296461951926 0.0029752623478749175 0 -0.00019436236203726403 0.0029205288378419494 0 -0.00023463925090071874 0.0029358059576008034 0 -0.00026587041150406967 0.0028426538356486242 0 -0.000266868632758895 0.0028112417540868866 0 -0.00022858740437466636 0.0028675104649332722 0 -0.00023463925090071874 0.0029358059576008034 0 -0.0002751069937172128 0.0027907293537239733 0 -0.00022858740437466636 0.0028675104649332722 0 -0.0002751069937172128 0.0027907293537239733 0 -0.00024465991325441197 0.0028199128428218669 0 -0.0002758908465061455 0.002758155500440449 0 -0.00028442799093303801 0.0027661036921294603 0 -0.0002751069937172128 0.0027907293537239733 0 -0.0002751069937172128 0.0027907293537239733 0 -0.00024465991325441197 0.0028199128428218669 0 -0.00026147224609467812 0.0027819467695354809 0 -0.00022516326474058076 0.0028046133417399684 0 -0.00024465991325441197 0.0028199128428218669 0 -0.00026147224609467812 0.0027819467695354809 0 -0.0002751069937172128 0.0027907293537239733 0 -0.00026147224609467812 0.0027819467695354809 0 -0.00027655478511326383 0.002742216779212746 0 -0.0002758908465061455 0.002758155500440449 0 -0.0002751069937172128 0.0027907293537239733 0 -0.00029086806783340844 0.0027184737954859079 0 -0.0002751069937172128 0.0027907293537239733 0 -0.00027655478511326383 0.002742216779212746 0 -0.00029086806783340844 0.0027184737954859079 0 -0.00027655478511326383 0.002742216779212746 0 -0.00029086806783340844 0.0027184737954859079 0 -0.00027359561922522693 0.0026997262110584584 0 -0.00027655478511326383 0.002742216779212746 0 -0.00027062321471814176 0.0027118647131928624 0 -0.00027359561922522693 0.0026997262110584584 0 -0.00027655478511326383 0.002742216779212746 0 -0.00027062321471814176 0.0027118647131928624 0 -0.00026481547876244809 0.0027199509934042348 0 -0.00025275723295164294 0.002757623564339437 0 -0.00027655478511326383 0.002742216779212746 0 -0.00026481547876244809 0.0027199509934042348 0 -0.00025275723295164294 0.002757623564339437 0 -0.00026147224609467812 0.0027819467695354809 0 -0.00027655478511326383 0.002742216779212746 0 -0.00024757164362910458 0.0027244346606836666 0 -0.00025275723295164294 0.002757623564339437 0 -0.00026481547876244809 0.0027199509934042348 0 -0.00027062321471814176 0.0027118647131928624 0 -0.00026481547876244809 0.0027199509934042348 0 -0.00026425712335855037 0.0026910273443420747 0 -0.00026481547876244809 0.0027199509934042348 0 -0.00026425712335855037 0.0026910273443420747 0 -0.0002614601049629824 0.0026965636741547797 0 -0.00026425712335855037 0.0026910273443420747 0 -0.00025596878918898654 0.002659172654428857 0 -0.00026434559620227519 0.0026898771716129749 0 -0.00025596878918898654 0.002659172654428857 0 -0.00026434559620227519 0.0026898771716129749 0 -0.00025786162534206401 0.0026732863739578204 0 -0.00027062321471814176 0.0027118647131928624 0 -0.00026434559620227519 0.0026898771716129749 0 -0.00027359561922522693 0.0026997262110584584 0 -0.00027062321471814176 0.0027118647131928624 0 -0.00026425712335855037 0.0026910273443420747 0 -0.00026434559620227519 0.0026898771716129749 0 -0.00027818454734746613 0.0026548714205170557 0 -0.00029086806783340844 0.0027184737954859079 0 -0.00027359561922522693 0.0026997262110584584 0 -0.00027818454734746613 0.0026548714205170557 0 -0.00027359561922522693 0.0026997262110584584 0 -0.00026234363701047243 0.002657532091904662 0 -0.00026434559620227519 0.0026898771716129749 0 -0.00027359561922522693 0.0026997262110584584 0 -0.00025786162534206401 0.0026732863739578204 0 -0.00027359561922522693 0.0026997262110584584 0 -0.00026234363701047243 0.002657532091904662 0 -0.00025786162534206401 0.0026732863739578204 0 -0.00026234363701047243 0.002657532091904662 0 -0.00025786162534206401 0.0026732863739578204 0 -0.00024834861261917773 0.002656221116251317 0 -0.00024578792746057809 0.0026287332556065228 0 -0.00026234363701047243 0.002657532091904662 0 -0.00024834861261917773 0.002656221116251317 0 -0.00024834861261917773 0.002656221116251317 0 -0.00023065030096181289 0.0026383482453445932 0 -0.00024154076233865647 0.002669853495792145 0 -0.00019121983839853437 0.0026228875380314978 0 -0.00023065030096181289 0.0026383482453445932 0 -0.00024154076233865647 0.002669853495792145 0 -0.00024578792746057809 0.0026287332556065228 0 -0.00024834861261917773 0.002656221116251317 0 -0.00023065030096181289 0.0026383482453445932 0 -0.00025786162534206401 0.0026732863739578204 0 -0.00024834861261917773 0.002656221116251317 0 -0.00024154076233865647 0.002669853495792145 0 -0.00025786162534206401 0.0026732863739578204 0 -0.00024154076233865647 0.002669853495792145 0 -0.00027035051793481362 0.0026429641223165447 0 -0.00024956106873521232 0.0026067067606503104 0 -0.00026827827640515771 0.0026371391460571865 0 -0.00026401301488550229 0.0025436519828644709 0 -0.0002583548754586372 0.002598793745319928 0 -0.00027035051793481362 0.0026429641223165447 0 -0.0002583548754586372 0.002598793745319928 0 -0.00027035051793481362 0.0026429641223165447 0 -0.00026764039608011942 0.0026252501827505083 0 -0.00025596878918898654 0.002659172654428857 0 -0.00025786162534206401 0.0026732863739578204 0 -0.00027035051793481362 0.0026429641223165447 0 -0.00025596878918898654 0.002659172654428857 0 -0.00027035051793481362 0.0026429641223165447 0 -0.00026593542579406344 0.0026283239335429158 0 -0.00027035051793481362 0.0026429641223165447 0 -0.00026764039608011942 0.0026252501827505083 0 -0.00026593542579406344 0.0026283239335429158 0 -0.00027409108412068558 0.0026230192111267501 0 -0.00026764039608011942 0.0026252501827505083 0 -0.00026593542579406344 0.0026283239335429158 0 -0.00028108508091530683 0.0025962051508196513 0 -0.00026593542579406344 0.0026283239335429158 0 -0.00026518251550609564 0.0025762466282921621 0 -0.00028108508091530683 0.0025962051508196513 0 -0.00027409108412068558 0.0026230192111267501 0 -0.00026593542579406344 0.0026283239335429158 0 -0.00025596878918898654 0.002659172654428857 0 -0.00026593542579406344 0.0026283239335429158 0 -0.00024341506350121755 0.0026200624252965539 0 -0.00026593542579406344 0.0026283239335429158 0 -0.00024341506350121755 0.0026200624252965539 0 -0.00026518251550609564 0.0025762466282921621 0 -0.00024341506350121755 0.0026200624252965539 0 -0.00026518251550609564 0.0025762466282921621 0 -0.00023419902972352473 0.0025562692355551712 0 -0.00029412749530922266 0.0025400041080112989 0 -0.00026518251550609564 0.0025762466282921621 0 -0.00028145546579048405 0.0024915921777400032 0 -0.00028108508091530683 0.0025962051508196513 0 -0.00029412749530922266 0.0025400041080112989 0 -0.00026518251550609564 0.0025762466282921621 0 -0.00026518251550609564 0.0025762466282921621 0 -0.00028145546579048405 0.0024915921777400032 0 -0.00023419902972352473 0.0025562692355551712 0 -0.00026314450242269474 0.0024570644154461576 0 -0.00023320950439530567 0.00244190039106798 0 -0.00030179961803062673 0.002407676823416752 0 -0.00028145546579048405 0.0024915921777400032 0 -0.00026314450242269474 0.0024570644154461576 0 -0.00023689610727611012 0.0024861247475052436 0 -0.00028145546579048405 0.0024915921777400032 0 -0.00026314450242269474 0.0024570644154461576 0 -0.00030179961803062673 0.002407676823416752 0 -0.00020556120937943173 0.0024685725307094395 0 -0.00023689610727611012 0.0024861247475052436 0 -0.00018353544870688043 0.0024904970000584072 0 -0.00020556120937943173 0.0024685725307094395 0 -0.00023689610727611012 0.0024861247475052436 0 -0.00023320950439530567 0.00244190039106798 0 -0.00026314450242269474 0.0024570644154461576 0 -0.00023689610727611012 0.0024861247475052436 0 -0.00023320950439530567 0.00244190039106798 0 -0.00023689610727611012 0.0024861247475052436 0 -0.00023419902972352473 0.0025562692355551712 0 -0.00018353544870688043 0.0024904970000584072 0 -0.00028145546579048405 0.0024915921777400032 0 -0.00023689610727611012 0.0024861247475052436 0 -0.00023419902972352473 0.0025562692355551712 0 -0.00024341506350121755 0.0026200624252965539 0 -0.00023419902972352473 0.0025562692355551712 0 -0.0002436713725999131 0.0026582292448928888 0 -0.00023419902972352473 0.0025562692355551712 0 -0.00018353544870688043 0.0024904970000584072 0 -0.0001306943554446368 0.0025296659174429592 0 -0.0002358926851583477 0.0025639144293170568 0 -0.00019558470811821703 0.0025943690216411372 0 -0.00018353544870688043 0.0024904970000584072 0 -0.00014442585973067264 0.0024798954448387476 0 -0.0001306943554446368 0.0025296659174429592 0 -0.00018353544870688043 0.0024904970000584072 0 -0.00014442585973067264 0.0024798954448387476 0 -0.00016897270068205896 0.0024569547724278998 0 -0.00020556120937943173 0.0024685725307094395 0 -0.00018353544870688043 0.0024904970000584072 0 -0.00016897270068205896 0.0024569547724278998 0 -0.00011312440210403466 0.0024881977536672277 0 -6.6905672853630476e-05 0.0024879332447334283 0 -0.00014066907961653161 0.0024424691271804221 0 -0.00011312440210403466 0.0024881977536672277 0 -0.00014442585973067264 0.0024798954448387476 0 -0.00014066907961653161 0.0024424691271804221 0 -0.00011312440210403466 0.0024881977536672277 0 -0.00014442585973067264 0.0024798954448387476 0 -0.0001306943554446368 0.0025296659174429592 0 -0.00011312440210403466 0.0024881977536672277 0 -0.0001306943554446368 0.0025296659174429592 0 -9.3520971691739779e-05 0.0025047992723722578 0 -0.0002436713725999131 0.0026582292448928888 0 -0.00025887375694920456 0.0026449782499448067 0 -0.00030996682625968752 0.002717376124888871 0 -0.00024341506350121755 0.0026200624252965539 0 -0.0002436713725999131 0.0026582292448928888 0 -0.00025887375694920456 0.0026449782499448067 0 -0.00024590321013915798 0.0026276763440361279 0 -0.00025963091346878548 0.0026568851212502081 0 -0.00025596878918898654 0.002659172654428857 0 -0.00024341506350121755 0.0026200624252965539 0 -0.00025856317922983118 0.0026721956945512078 0 -0.00026425712335855037 0.0026910273443420747 0 -0.00025596878918898654 0.002659172654428857 0 -0.00025856317922983118 0.0026721956945512078 0 -0.00026425712335855037 0.0026910273443420747 0 -0.00025856317922983118 0.0026721956945512078 0 -0.0002614601049629824 0.0026965636741547797 0 -0.00025963091346878548 0.0026568851212502081 0 -0.00028515256483633585 0.0026866169622227743 0 -0.00024757164362910458 0.0027244346606836666 0 -0.00026481547876244809 0.0027199509934042348 0 -0.0002614601049629824 0.0026965636741547797 0 -0.00031326972232094261 0.0026777105261858061 0 -0.00030996682625968752 0.002717376124888871 0 -0.00030326046234786818 0.0026799142214892122 0 -0.00030634457824580888 0.0027313159304968569 0 -0.00032215016738863149 0.002781882470047823 0 -0.00025887375694920456 0.0026449782499448067 0 -0.00031326972232094261 0.0026777105261858061 0 -0.00030996682625968752 0.002717376124888871 0 -0.0001306943554446368 0.0025296659174429592 0 -6.5699710832952743e-05 0.0025162159905677069 0 -9.3520971691739779e-05 0.0025047992723722578 0 -0.00019558470811821703 0.0025943690216411372 0 -0.00018911666740224157 0.0026261038552146316 0 -0.0002436713725999131 0.0026582292448928888 0 -0.00030996682625968752 0.002717376124888871 0 -0.00031431282315347119 0.0027504675465724795 0 -0.00011312440210403466 0.0024881977536672277 0 -9.3520971691739779e-05 0.0025047992723722578 0 -6.6905672853630476e-05 0.0024879332447334283 0 -6.5699710832952743e-05 0.0025162159905677069 0 -9.3520971691739779e-05 0.0025047992723722578 0 -6.6905672853630476e-05 0.0024879332447334283 0 -4.6732146845505793e-05 0.0025500252991962624 0 -0.00020752496769569907 0.0027327709762046417 0 -9.3269039183512843e-05 0.0026299305360078227 0 -8.3997658593877895e-05 0.0026848738346873561 0 -8.6266069798430074e-05 0.0026510645392716155 0 -9.3269039183512843e-05 0.0026299305360078227 0 -8.299553458471787e-05 0.0027316412024108875 0 -8.3997658593877895e-05 0.0026848738346873561 0 -6.5699710832952743e-05 0.0025162159905677069 0 -6.6905672853630476e-05 0.0024879332447334283 0 -2.1162654583579572e-05 0.0025160312868134083 0 -0.00031431282315347119 0.0027504675465724795 0 -0.00034277614364128299 0.0027978267754487003 0 -0.00035545839078527064 0.0028244621116020312 0 -0.00018911666740224157 0.0026261038552146316 0 -0.00020752496769569907 0.0027327709762046417 0 -0.00030996682625968752 0.002717376124888871 0 -0.00034277614364128299 0.0027978267754487003 0 -0.00036436241358938433 0.0028804950486595485 0 -0.00030996682625968752 0.002717376124888871 0 -0.00031431282315347119 0.0027504675465724795 0 -0.00034277614364128299 0.0027978267754487003 0 -0.00034277614364128299 0.0027978267754487003 0 -0.00035189233098273918 0.0028432172431904807 0 -0.00036436241358938433 0.0028804950486595485 0 -0.00035189233098273918 0.0028432172431904807 0 -0.00033544474981165071 0.0028795654315309379 0 -0.00036436241358938433 0.0028804950486595485 0 -0.00035189233098273918 0.0028432172431904807 0 -0.00035545839078527064 0.0028244621116020312 0 -0.00033544474981165071 0.0028795654315309379 0 -0.00034277614364128299 0.0027978267754487003 0 -0.00035189233098273918 0.0028432172431904807 0 -0.00035545839078527064 0.0028244621116020312 0 -8.299553458471787e-05 0.0027316412024108875 0 -8.3997658593877895e-05 0.0026848738346873561 0 -7.5299250747825984e-05 0.0027291835356373136 0 -6.8189487504289819e-05 0.0027780734431149469 0 -7.5299250747825984e-05 0.0027291835356373136 0 -7.5779976221668994e-05 0.0027727864981577665 0 -8.299553458471787e-05 0.0027316412024108875 0 -7.5299250747825984e-05 0.0027291835356373136 0 -7.5779976221668994e-05 0.0027727864981577665 0 -0.00020752496769569907 0.0027327709762046417 0 -0.00015233400936992786 0.0028259380832408873 0 -0.00026880770426496343 0.0029133906336203516 0 -0.00033544474981165071 0.0028795654315309379 0 -0.00031076226279639686 0.0029388450456858126 0 -0.00021526906712246322 0.0029857490311983145 0 -0.00020752496769569907 0.0027327709762046417 0 -0.00026880770426496343 0.0029133906336203516 0 -0.00035545839078527064 0.0028244621116020312 0 -0.00033544474981165071 0.0028795654315309379 0 -8.675070953232918e-05 0.0030239615061259714 0 -0.00040226831468082269 0.0028898856820127002 0 -0.00023107494592331594 0.0028785472169848094 0 -0.00028692264686669948 0.0030555089463111355 0 -0.00031076226279639686 0.0029388450456858126 0 -0.00036436241358938433 0.0028804950486595485 0 -0.00033544474981165071 0.0028795654315309379 0 -0.00031076226279639686 0.0029388450456858126 0 -0.00036436241358938433 0.0028804950486595485 0 -0.00023358774054333423 0.0028775875187189979 0 -0.00032215016738863149 0.002781882470047823 0 -0.00019209208632175114 0.0026934033380052588 0 -0.00030326046234786818 0.0026799142214892122 0 -0.00028473498546383339 0.0027081003128712556 0 -0.00031326972232094261 0.0026777105261858061 0 -0.00030326046234786818 0.0026799142214892122 0 -0.00028473498546383339 0.0027081003128712556 0 -0.00024757164362910458 0.0027244346606836666 0 -0.0002614601049629824 0.0026965636741547797 0 -0.00023305641483131032 0.0027055068590563953 0 -0.00028515256483633585 0.0026866169622227743 0 -0.00025574237740283765 0.0027048517768834476 0 -0.00024757164362910458 0.0027244346606836666 0 -0.00023305641483131032 0.0027055068590563953 0 -0.00022019313993007234 0.0027305147817793985 0 -0.00017718505641713543 0.0027075705333821352 0 -0.00025574237740283765 0.0027048517768834476 0 -0.00023305641483131032 0.0027055068590563953 0 -0.00022019313993007234 0.0027305147817793985 0 -0.00019964169528717001 0.0027204064473816199 0 -0.00019209208632175114 0.0026934033380052588 0 -0.00017076675071288951 0.0027068368560703156 0 -0.00028473498546383339 0.0027081003128712556 0 -0.00017076675071288951 0.0027068368560703156 0 -0.00023305641483131032 0.0027055068590563953 0 -0.00019964169528717001 0.0027204064473816199 0 -0.00022019313993007234 0.0027305147817793985 0 -0.00019964169528717001 0.0027204064473816199 0 -0.00019116805754491856 0.0027409311061625135 0 -0.00017557750008844359 0.0027304023312446895 0 -0.00019964169528717001 0.0027204064473816199 0 -0.00019116805754491856 0.0027409311061625135 0 -1.7966290340158302e-05 0.0026947665836645224 0 -4.4195841627710571e-05 0.0026709169234273179 0 -4.9293397809013653e-05 0.0026438716521944672 0 -4.4195841627710571e-05 0.0026709169234273179 0 -7.1052079920010114e-05 0.0026022622932684093 0 -4.9293397809013653e-05 0.0026438716521944672 0 -7.1893003136435784e-05 0.0026529248399661137 0 -4.4195841627710571e-05 0.0026709169234273179 0 -7.1052079920010114e-05 0.0026022622932684093 0 -7.1893003136435784e-05 0.0026529248399661137 0 -4.4195841627710571e-05 0.0026709169234273179 0 -6.5679178834070158e-05 0.0026850681815139051 0 -3.7090211082913917e-05 0.0027053104208542918 0 -1.3758079630576338e-05 0.0027085517666071263 0 -4.4195841627710571e-05 0.0026709169234273179 0 -5.2289730093825694e-05 0.002735102227813235 0 -3.7090211082913917e-05 0.0027053104208542918 0 -6.5679178834070158e-05 0.0026850681815139051 0 -3.7090211082913917e-05 0.0027053104208542918 0 -4.4195841627710571e-05 0.0026709169234273179 0 -6.5679178834070158e-05 0.0026850681815139051 0 -5.2289730093825694e-05 0.002735102227813235 0 -7.5299250747825984e-05 0.0027291835356373136 0 -6.5679178834070158e-05 0.0026850681815139051 0 -5.2289730093825694e-05 0.002735102227813235 0 -6.8189487504289819e-05 0.0027780734431149469 0 -7.5299250747825984e-05 0.0027291835356373136 0 -8.0537358032743987e-05 0.0026821372822754663 0 -6.5679178834070158e-05 0.0026850681815139051 0 -8.5716039542803416e-05 0.0026439003227254052 0 -7.5299250747825984e-05 0.0027291835356373136 0 -8.0537358032743987e-05 0.0026821372822754663 0 -6.5679178834070158e-05 0.0026850681815139051 0 -8.3997658593877895e-05 0.0026848738346873561 0 -7.5299250747825984e-05 0.0027291835356373136 0 -8.0537358032743987e-05 0.0026821372822754663 0 -8.3997658593877895e-05 0.0026848738346873561 0 -8.0537358032743987e-05 0.0026821372822754663 0 -8.6266069798430074e-05 0.0026510645392716155 0 -7.1893003136435784e-05 0.0026529248399661137 0 -6.5679178834070158e-05 0.0026850681815139051 0 -8.5716039542803416e-05 0.0026439003227254052 0 -7.1893003136435784e-05 0.0026529248399661137 0 -8.5716039542803416e-05 0.0026439003227254052 0 -9.2010396013587559e-05 0.0026278754778818378 0 -8.5716039542803416e-05 0.0026439003227254052 0 -9.0744031311701506e-05 0.0026059445670575179 0 -9.2010396013587559e-05 0.0026278754778818378 0 -8.5716039542803416e-05 0.0026439003227254052 0 -8.8913204735931951e-05 0.0026116945719173927 0 -9.0744031311701506e-05 0.0026059445670575179 0 -8.0537358032743987e-05 0.0026821372822754663 0 -8.5716039542803416e-05 0.0026439003227254052 0 -8.6266069798430074e-05 0.0026510645392716155 0 -8.5716039542803416e-05 0.0026439003227254052 0 -8.6266069798430074e-05 0.0026510645392716155 0 -8.8913204735931951e-05 0.0026116945719173927 0 -9.3269039183512843e-05 0.0026299305360078227 0 -8.6266069798430074e-05 0.0026510645392716155 0 -8.8913204735931951e-05 0.0026116945719173927 0 -9.3269039183512843e-05 0.0026299305360078227 0 -8.2626430707340864e-05 0.0025571422077081836 0 -6.5651935102189947e-05 0.0024924567497209781 0 -9.3269039183512843e-05 0.0026299305360078227 0 -8.8913204735931951e-05 0.0026116945719173927 0 -8.2626430707340864e-05 0.0025571422077081836 0 -8.2626430707340864e-05 0.0025571422077081836 0 -9.0744031311701506e-05 0.0026059445670575179 0 -8.4878109214838992e-05 0.0025962012741361003 0 -8.8913204735931951e-05 0.0026116945719173927 0 -8.2626430707340864e-05 0.0025571422077081836 0 -9.0744031311701506e-05 0.0026059445670575179 0 -9.0744031311701506e-05 0.0026059445670575179 0 -8.4878109214838992e-05 0.0025962012741361003 0 -9.2010396013587559e-05 0.0026278754778818378 0 -8.4878109214838992e-05 0.0025962012741361003 0 -9.2010396013587559e-05 0.0026278754778818378 0 -9.3641210994378456e-05 0.0026311838932356192 0 -8.4878109214838992e-05 0.0025962012741361003 0 -9.3641210994378456e-05 0.0026311838932356192 0 -5.762459373546657e-05 0.0025924496156273097 0 -7.1893003136435784e-05 0.0026529248399661137 0 -9.2010396013587559e-05 0.0026278754778818378 0 -7.1052079920010114e-05 0.0026022622932684093 0 -7.1052079920010114e-05 0.0026022622932684093 0 -2.4596001248194754e-05 0.00247110130613431 0 -5.4359597191277189e-05 0.0025591505997355941 0 -9.2010396013587559e-05 0.0026278754778818378 0 -7.1052079920010114e-05 0.0026022622932684093 0 -9.3641210994378456e-05 0.0026311838932356192 0 -6.9351210081136048e-05 0.0025940074954319474 0 -4.6043746224548909e-05 0.0025462758890722648 0 -4.6043746224548909e-05 0.0025462758890722648 0 -4.3430217134758134e-05 0.0026185786937204412 0 -2.4596001248194754e-05 0.00247110130613431 0 -3.9220724878361106e-05 0.0024138036475036418 0 -5.5208543759809373e-05 0.0024600413578546245 0 -2.4596001248194754e-05 0.00247110130613431 0 -3.9220724878361106e-05 0.0024138036475036418 0 -1.9188229906480325e-05 0.0024505331824462989 0 -3.9220724878361106e-05 0.0024138036475036418 0 -0.00013106700998246178 0.0024151790175874293 0 -9.4112311917409934e-05 0.0022936010327517845 0 -3.9220724878361106e-05 0.0024138036475036418 0 -5.5208543759809373e-05 0.0024600413578546245 0 -0.00013106700998246178 0.0024151790175874293 0 8.6588673078349978e-06 0.0026504196495078405 0 -5.762459373546657e-05 0.0025924496156273097 0 -1.1411208195871955e-05 0.002516976370313769 0 -9.3641210994378456e-05 0.0026311838932356192 0 8.6588673078349978e-06 0.0026504196495078405 0 -5.762459373546657e-05 0.0025924496156273097 0 -8.2626430707340864e-05 0.0025571422077081836 0 -8.4878109214838992e-05 0.0025962012741361003 0 -6.1885056168262717e-05 0.0025389308536104237 0 -8.4878109214838992e-05 0.0025962012741361003 0 -5.762459373546657e-05 0.0025924496156273097 0 -6.1885056168262717e-05 0.0025389308536104237 0 -5.762459373546657e-05 0.0025924496156273097 0 -6.1885056168262717e-05 0.0025389308536104237 0 -1.1411208195871955e-05 0.002516976370313769 0 -4.5286333603854732e-05 0.0024954024355270431 0 -6.1885056168262717e-05 0.0025389308536104237 0 -1.1411208195871955e-05 0.002516976370313769 0 -4.5286333603854732e-05 0.0024954024355270431 0 -6.1885056168262717e-05 0.0025389308536104237 0 -6.3455188822706313e-05 0.0025068118388958636 0 -8.2626430707340864e-05 0.0025571422077081836 0 -6.1885056168262717e-05 0.0025389308536104237 0 -6.3455188822706313e-05 0.0025068118388958636 0 -4.6732146845505793e-05 0.0025500252991962624 0 -8.4894006580645836e-05 0.0024363311857221056 0 -9.3269039183512843e-05 0.0026299305360078227 0 -6.5651935102189947e-05 0.0024924567497209781 0 -6.3428599382053501e-05 0.0024769283371173733 0 -8.2626430707340864e-05 0.0025571422077081836 0 -6.3455188822706313e-05 0.0025068118388958636 0 -6.5651935102189947e-05 0.0024924567497209781 0 -4.5286333603854732e-05 0.0024954024355270431 0 -6.3455188822706313e-05 0.0025068118388958636 0 -4.9209095244455473e-05 0.0024595330696998105 0 -4.5286333603854732e-05 0.0024954024355270431 0 -4.9209095244455473e-05 0.0024595330696998105 0 -1.1371450770759463e-05 0.0024506116227179199 0 -4.9209095244455473e-05 0.0024595330696998105 0 -6.5651935102189947e-05 0.0024924567497209781 0 -4.5832445911905861e-05 0.0024392411000503972 0 -4.9209095244455473e-05 0.0024595330696998105 0 -4.5832445911905861e-05 0.0024392411000503972 0 -2.2503594208347153e-05 0.0023865721569096728 0 -6.3455188822706313e-05 0.0025068118388958636 0 -4.9209095244455473e-05 0.0024595330696998105 0 -6.5651935102189947e-05 0.0024924567497209781 0 -7.0829204211282713e-05 0.0024420062464035664 0 -8.4894006580645836e-05 0.0024363311857221056 0 -8.4894006580645836e-05 0.0024363311857221056 0 1.2949085090115835e-05 0.002316862750909812 0 -0.00014066907961653161 0.0024424691271804221 0 -0.00016897270068205896 0.0024569547724278998 0 -0.00023320950439530567 0.00244190039106798 0 -2.2503594208347153e-05 0.0023865721569096728 0 0.00012606970671219547 0.0023206531159948233 0 0.00027005137289460717 0.0021940375855745691 0 -7.7313490079547117e-05 0.0023823360442089838 0 -2.2503594208347153e-05 0.0023865721569096728 0 0.00027005137289460717 0.0021940375855745691 0 -0.00014442585973067264 0.0024798954448387476 0 -0.00014066907961653161 0.0024424691271804221 0 -0.00016897270068205896 0.0024569547724278998 0 -8.4894006580645836e-05 0.0024363311857221056 0 -6.1252323618784279e-05 0.0024351738980000195 0 -4.9209095244455473e-05 0.0024595330696998105 0 -2.2503594208347153e-05 0.0023865721569096728 0 -1.1371450770759463e-05 0.0024506116227179199 0 -1.1371450770759463e-05 0.0024506116227179199 0 3.1234080535307745e-05 0.0023999783520529017 0 4.1610598811904064e-05 0.0024354104074763793 0 -2.2503594208347153e-05 0.0023865721569096728 0 -1.1371450770759463e-05 0.0024506116227179199 0 3.1234080535307745e-05 0.0023999783520529017 0 3.1234080535307745e-05 0.0023999783520529017 0 0.00012606970671219547 0.0023206531159948233 0 4.1610598811904064e-05 0.0024354104074763793 0 -2.2503594208347153e-05 0.0023865721569096728 0 3.1234080535307745e-05 0.0023999783520529017 0 0.00012606970671219547 0.0023206531159948233 0 4.1610598811904064e-05 0.0024354104074763793 0 -1.1411208195871955e-05 0.002516976370313769 0 9.300473768113206e-05 0.0024722559614335708 0 8.6588673078349978e-06 0.0026504196495078405 0 -1.1411208195871955e-05 0.002516976370313769 0 9.300473768113206e-05 0.0024722559614335708 0 0.00012606970671219547 0.0023206531159948233 0 4.1610598811904064e-05 0.0024354104074763793 0 9.300473768113206e-05 0.0024722559614335708 0 -1.1371450770759463e-05 0.0024506116227179199 0 4.1610598811904064e-05 0.0024354104074763793 0 -1.1411208195871955e-05 0.002516976370313769 0 -4.5286333603854732e-05 0.0024954024355270431 0 -1.1371450770759463e-05 0.0024506116227179199 0 -1.1411208195871955e-05 0.002516976370313769 0 0.00019904471225281722 0.002329186043700522 0 0.00026977795724100403 0.0021656763875463176 0 0.00030165793349958768 0.0025997757729144255 0 9.300473768113206e-05 0.0024722559614335708 0 0.00019904471225281722 0.002329186043700522 0 0.00030165793349958768 0.0025997757729144255 0 0.00012606970671219547 0.0023206531159948233 0 9.300473768113206e-05 0.0024722559614335708 0 0.00019904471225281722 0.002329186043700522 0 0.00012606970671219547 0.0023206531159948233 0 0.00019904471225281722 0.002329186043700522 0 0.00027005137289460717 0.0021940375855745691 0 -0.00020556120937943173 0.0024685725307094395 0 -0.00016897270068205896 0.0024569547724278998 0 -0.00023320950439530567 0.00244190039106798 0 0.00019904471225281722 0.002329186043700522 0 0.00027005137289460717 0.0021940375855745691 0 0.00026977795724100403 0.0021656763875463176 0 1.2949085090115835e-05 0.002316862750909812 0 -0.00010231287470923341 0.002266954829448155 0 0.00026977795724100403 0.0021656763875463176 0 0.00012553496541461225 0.0019813824427537558 0 9.3770125028916194e-05 0.0021288712492939644 0 0.00027005137289460717 0.0021940375855745691 0 0.00026977795724100403 0.0021656763875463176 0 9.3770125028916194e-05 0.0021288712492939644 0 0.00012553496541461225 0.0019813824427537558 0 0.00031397427161734034 0.0017275833191250276 0 5.7428914153050458e-05 0.0017941649484164888 0 0.00026977795724100403 0.0021656763875463176 0 0.00012553496541461225 0.0019813824427537558 0 0.00031397427161734034 0.0017275833191250276 0 0.00033069129556989563 0.0021941719512902609 0 8.4206455716108363e-05 0.0020946735395797082 0 -4.5425328370880142e-05 0.0014757658887646634 0 -7.7639283442644562e-06 0.0015166410569150426 0 -8.5241196589191519e-05 0.0014539966874181584 0 -4.5425328370880142e-05 0.0014757658887646634 0 -7.7639283442644562e-06 0.0015166410569150426 0 -5.5038576832284768e-05 0.0015949098528674249 0 8.4206455716108363e-05 0.0020946735395797082 0 2.0428181094260124e-05 0.0016583026161283527 0 -5.5208543759809373e-05 0.0024600413578546245 0 -0.00022426125674402189 0.0025233966648636687 0 -0.00013106700998246178 0.0024151790175874293 0 -4.3430217134758134e-05 0.0026185786937204412 0 8.4206455716108363e-05 0.0020946735395797082 0 8.6588673078349978e-06 0.0026504196495078405 0 9.300473768113206e-05 0.0024722559614335708 0 0.00030165793349958768 0.0025997757729144255 0 -0.00013106700998246178 0.0024151790175874293 0 -0.00024676054077442708 0.0023581051006995903 0 -9.4112311917409934e-05 0.0022936010327517845 0 -0.00022426125674402189 0.0025233966648636687 0 -0.00013106700998246178 0.0024151790175874293 0 -0.00024676054077442708 0.0023581051006995903 0 8.4206455716108363e-05 0.0020946735395797082 0 -0.00018352258153116476 0.0018967024401257628 0 -4.5425328370880142e-05 0.0014757658887646634 0 -8.5241196589191519e-05 0.0014539966874181584 0 -5.122271550140482e-05 0.0014066885932816988 0 -0.00018352258153116476 0.0018967024401257628 0 -0.00020572839185458938 0.001844896743212689 0 -8.5241196589191519e-05 0.0014539966874181584 0 -0.00010315295827820298 0.0015055582039329933 0 -5.122271550140482e-05 0.0014066885932816988 0 -8.5241196589191519e-05 0.0014539966874181584 0 -0.00010315295827820298 0.0015055582039329933 0 -0.00017564139715558704 0.0015703131630679123 0 -0.00025999517003385479 0.0021081430889973085 0 -7.0694924986643905e-05 0.0020756384727817893 0 -9.4112311917409934e-05 0.0022936010327517845 0 -0.00024676054077442708 0.0023581051006995903 0 -0.00025999517003385479 0.0021081430889973085 0 -9.4112311917409934e-05 0.0022936010327517845 0 -0.00025999517003385479 0.0021081430889973085 0 -0.00018201995685125148 0.0017581607785347698 0 -7.0694924986643905e-05 0.0020756384727817893 0 -0.00010315295827820298 0.0015055582039329933 0 -0.00017564139715558704 0.0015703131630679123 0 -6.6037146635074151e-05 0.0016316208698786609 0 -0.00017564139715558704 0.0015703131630679123 0 -0.00018201995685125148 0.0017581607785347698 0 -6.6037146635074151e-05 0.0016316208698786609 0 -0.00020572839185458938 0.001844896743212689 0 -0.00019203705248855473 0.0017678835225907723 0 -0.00015953266271129403 0.0016951466652294861 0 -0.00018201995685125148 0.0017581607785347698 0 -6.6037146635074151e-05 0.0016316208698786609 0 1.5287106686574305e-08 0.0013130720529601304 0 9.3627809356307689e-07 0.0013045311365716837 0 -1.6641509680197927e-08 0.0011462363765659634 0 -0.00015953266271129403 0.0016951466652294861 0 -0.00018201995685125148 0.0017581607785347698 0 -0.00017165074973090938 0.0016122717219396482 0 -6.2922273759007642e-05 0.0014539670531226207 0 1.9580147466687825e-08 0.0014802180366162783 0 1.5287106686574305e-08 0.0013130720529601304 0 9.3627809356307689e-07 0.0013045311365716837 0 -1.5627859176272514e-08 0.0014802370344330941 0 -0.00018201995685125148 0.0017581607785347698 0 -0.00017165074973090938 0.0016122717219396482 0 -4.886195144072415e-07 0.0014809500523880967 0 -0.00018201995685125148 0.0017581607785347698 0 -4.886195144072415e-07 0.0014809500523880967 0 -1.4986980505623059e-05 0.0018046894317087386 0 -0.00018201995685125148 0.0017581607785347698 0 -1.4986980505623059e-05 0.0018046894317087386 0 -7.0694924986643905e-05 0.0020756384727817893 0 -1.4986980505623059e-05 0.0018046894317087386 0 2.1444036874615395e-05 0.0020274475195656365 0 -7.0694924986643905e-05 0.0020756384727817893 0 -4.886195144072415e-07 0.0014809500523880967 0 -1.4986980505623059e-05 0.0018046894317087386 0 1.5872625903465373e-07 0.0017309295687234036 0 1.5872625903465373e-07 0.0017309295687234036 0 3.1270691536073987e-05 0.0019746310267002472 0 3.1803593194610899e-08 0.001981823632589687 0 -1.4986980505623059e-05 0.0018046894317087386 0 1.5872625903465373e-07 0.0017309295687234036 0 3.1270691536073987e-05 0.0019746310267002472 0 3.1270691536073987e-05 0.0019746310267002472 0 2.1444036874615395e-05 0.0020274475195656365 0 5.7553446479853071e-05 0.0021407489030516279 0 -1.4986980505623059e-05 0.0018046894317087386 0 3.1270691536073987e-05 0.0019746310267002472 0 2.1444036874615395e-05 0.0020274475195656365 0 2.1444036874615395e-05 0.0020274475195656365 0 5.9425803645547388e-05 0.002192259255791361 0 5.7553446479853071e-05 0.0021407489030516279 0 2.1444036874615395e-05 0.0020274475195656365 0 -7.0694924986643905e-05 0.0020756384727817893 0 5.9425803645547388e-05 0.002192259255791361 0 -3.9220724878361106e-05 0.0024138036475036418 0 -9.4112311917409934e-05 0.0022936010327517845 0 -1.9188229906480325e-05 0.0024505331824462989 0 -9.7309577601644072e-05 0.0023039187296629189 0 4.8555253956395059e-06 0.002324116663198927 0 -7.0694924986643905e-05 0.0020756384727817893 0 -9.4112311917409934e-05 0.0022936010327517845 0 5.9425803645547388e-05 0.002192259255791361 0 4.8555253956395059e-06 0.002324116663198927 0 4.077568919905536e-06 0.0023868629004234255 0 -2.4596001248194754e-05 0.00247110130613431 0 -1.9188229906480325e-05 0.0024505331824462989 0 -5.4359597191277189e-05 0.0025591505997355941 0 5.9425803645547388e-05 0.002192259255791361 0 5.9571115840382638e-05 0.0022091223482829372 0 5.7553446479853071e-05 0.0021407489030516279 0 4.077568919905536e-06 0.0023868629004234255 0 -1.1719668138515404e-05 0.0024886508939119139 0 -7.1052079920010114e-05 0.0026022622932684093 0 -5.4359597191277189e-05 0.0025591505997355941 0 -6.2784844051082093e-05 0.0026082757313971418 0 5.9571115840382638e-05 0.0022091223482829372 0 3.9408129011155558e-05 0.0022624948367778184 0 1.7304247586570958e-05 0.002358085609106973 0 5.9571115840382638e-05 0.0022091223482829372 0 3.9408129011155558e-05 0.0022624948367778184 0 5.7553446479853071e-05 0.0021407489030516279 0 3.1270691536073987e-05 0.0019746310267002472 0 5.7553446479853071e-05 0.0021407489030516279 0 3.0294062788675353e-05 0.0021670342117428719 0 3.1270691536073987e-05 0.0019746310267002472 0 3.1803593194610899e-08 0.001981823632589687 0 3.0294062788675353e-05 0.0021670342117428719 0 3.1803593194610899e-08 0.001981823632589687 0 3.0294062788675353e-05 0.0021670342117428719 0 3.6569392588890777e-08 0.002232496346010005 0 3.9408129011155558e-05 0.0022624948367778184 0 5.7553446479853071e-05 0.0021407489030516279 0 3.0294062788675353e-05 0.0021670342117428719 0 3.9408129011155558e-05 0.0022624948367778184 0 3.0294062788675353e-05 0.0021670342117428719 0 7.9806483178099085e-06 0.0024014263095162515 0 3.0294062788675353e-05 0.0021670342117428719 0 7.9806483178099085e-06 0.0024014263095162515 0 3.6569392588890777e-08 0.002232496346010005 0 7.9806483178099085e-06 0.0024014263095162515 0 3.6569392588890777e-08 0.002232496346010005 0 -4.8902486595876744e-09 0.0024831900854606188 0 -1.60231084306396e-06 0.0026018367200157187 0 7.9806483178099085e-06 0.0024014263095162515 0 -4.8902486595876744e-09 0.0024831900854606188 0 -1.1074789688920994e-05 0.002621241765681603 0 -1.60231084306396e-06 0.0026018367200157187 0 7.9806483178099085e-06 0.0024014263095162515 0 -2.3358804350849564e-06 0.0025890898804622428 0 -1.1719668138515404e-05 0.0024886508939119139 0 -1.1074789688920994e-05 0.002621241765681603 0 7.9806483178099085e-06 0.0024014263095162515 0 1.7304247586570958e-05 0.002358085609106973 0 3.9408129011155558e-05 0.0022624948367778184 0 7.9806483178099085e-06 0.0024014263095162515 0 1.7304247586570958e-05 0.002358085609106973 0 -7.1052079920010114e-05 0.0026022622932684093 0 -6.2784844051082093e-05 0.0026082757313971418 0 -4.9293397809013653e-05 0.0026438716521944672 0 -1.1074789688920994e-05 0.002621241765681603 0 -1.7966290340158302e-05 0.0026947665836645224 0 -4.9293397809013653e-05 0.0026438716521944672 0 -1.1074789688920994e-05 0.002621241765681603 0 -6.2784844051082093e-05 0.0026082757313971418 0 -4.9293397809013653e-05 0.0026438716521944672 0 -0.00084164206926388887 0.0012654630021100186 0 -0.00073341191841246674 0.0014368256959923025 0 -0.0007592769157929478 0.001201277260389469 0 -0.00084164206926388887 0.0012654630021100186 0 -0.00073341191841246674 0.0014368256959923025 0 -0.00081511544720547365 0.0015221009742079417 0 -0.0006362347242559605 0.0013499136091269914 0 -0.00073341191841246674 0.0014368256959923025 0 -0.00056498965317356548 0.0015931950766285654 0 -0.0006362347242559605 0.0013499136091269914 0 -0.00073341191841246674 0.0014368256959923025 0 -0.0007592769157929478 0.001201277260389469 0 -0.0006362347242559605 0.0013499136091269914 0 -0.00063842008841351165 0.0012056982761558975 0 -0.0007592769157929478 0.001201277260389469 0 -0.0006362347242559605 0.0013499136091269914 0 -0.00063842008841351165 0.0012056982761558975 0 -0.00047660057777984619 0.0013670590246344988 0 -0.00084164206926388887 0.0012654630021100186 0 -0.0007592769157929478 0.001201277260389469 0 -0.00086662660724686434 0.0010512450283373413 0 -0.00084164206926388887 0.0012654630021100186 0 -0.00091536338594594869 0.00098820132875158018 0 -0.00086662660724686434 0.0010512450283373413 0 -0.00091536338594594869 0.00098820132875158018 0 -0.00086662660724686434 0.0010512450283373413 0 -0.00084641955953021269 0.0010095896132461877 0 -0.00091536338594594869 0.00098820132875158018 0 -0.00084641955953021269 0.0010095896132461877 0 -0.00078394640586252761 0.0009489637371156497 0 -0.00091536338594594869 0.00098820132875158018 0 -0.00078394640586252761 0.0009489637371156497 0 -0.00074374869686074535 0.00081199798836920263 0 -0.00091536338594594869 0.00098820132875158018 0 -0.0007514784157228294 0.00060891561736083869 0 -0.00074374869686074535 0.00081199798836920263 0 -0.00091536338594594869 0.00098820132875158018 0 -0.00088967552750886594 0.00059765658163429868 0 -0.0007514784157228294 0.00060891561736083869 0 -0.00091536338594594869 0.00098820132875158018 0 -0.00088967552750886594 0.00059765658163429868 0 -0.00099387464604932716 0.00059641949505510915 0 -0.00091775810771507998 0.001017811269960591 0 -0.00095238393630551717 0.0010991129931995206 0 -0.00084164206926388887 0.0012654630021100186 0 -0.00091536338594594869 0.00098820132875158018 0 -0.00095092792777784875 0.0015764503215013738 0 -0.00088967552750886594 0.00059765658163429868 0 -0.00082132672151232335 0.00049432470113530214 0 -0.00097629431744725072 0.0005847563590496589 0 -0.00088967552750886594 0.00059765658163429868 0 -0.00097629431744725072 0.0005847563590496589 0 -0.00099387464604932716 0.00059641949505510915 0 -0.00088967552750886594 0.00059765658163429868 0 -0.0007514784157228294 0.00060891561736083869 0 -0.00082132672151232335 0.00049432470113530214 0 -0.00085251804088493489 0.00038042716430724795 0 -0.00082132672151232335 0.00049432470113530214 0 -0.0006777831806603151 0.00041768717522726382 0 -0.0007514784157228294 0.00060891561736083869 0 -0.00082132672151232335 0.00049432470113530214 0 -0.0006777831806603151 0.00041768717522726382 0 -0.00086516757123141885 0.00048553251934532158 0 -0.00096439359352040027 0.00057646994328178572 0 -0.00088472739355808085 0.00058986646596989091 0 -0.00091907555818789737 0.00057602101927059024 0 -0.00097629431744725072 0.0005847563590496589 0 -0.00085251804088493489 0.00038042716430724795 0 -0.00082132672151232335 0.00049432470113530214 0 -0.00097629431744725072 0.0005847563590496589 0 -0.00087173066638611212 0.00055553593612576156 0 -0.00091907555818789737 0.00057602101927059024 0 -0.00097629431744725072 0.0005847563590496589 0 -0.0008355970108312171 0.001299350902733626 0 -0.00095238393630551717 0.0010991129931995206 0 -0.00087173066638611212 0.00055553593612576156 0 -0.00097629431744725072 0.0005847563590496589 0 -0.00099387464604932716 0.00059641949505510915 0 -0.00080467863672232826 0.0020379482590146668 0 -0.00095092792777784875 0.0015764503215013738 0 -0.00073786306522063548 0.0017175204888687824 0 -0.00084164206926388887 0.0012654630021100186 0 -0.00081511544720547365 0.0015221009742079417 0 -0.00095092792777784875 0.0015764503215013738 0 -0.00081511544720547365 0.0015221009742079417 0 -0.00095092792777784875 0.0015764503215013738 0 -0.00073786306522063548 0.0017175204888687824 0 -0.00073341191841246674 0.0014368256959923025 0 -0.00081511544720547365 0.0015221009742079417 0 -0.00073786306522063548 0.0017175204888687824 0 -0.00073786306522063548 0.0017175204888687824 0 -0.00060910100318978385 0.0018690571569898815 0 -0.00056498965317356548 0.0015931950766285654 0 -0.00073341191841246674 0.0014368256959923025 0 -0.00073786306522063548 0.0017175204888687824 0 -0.00056498965317356548 0.0015931950766285654 0 -0.00055135958974291278 0.0021601478547530199 0 -0.00080467863672232826 0.0020379482590146668 0 -0.00060910100318978385 0.0018690571569898815 0 -0.00080467863672232826 0.0020379482590146668 0 -0.00073786306522063548 0.0017175204888687824 0 -0.00060910100318978385 0.0018690571569898815 0 -0.00055135958974291278 0.0021601478547530199 0 -0.00060910100318978385 0.0018690571569898815 0 -0.00040070736071942041 0.0018727155439186415 0 -0.00021829883889843535 0.0021012159832300942 0 -0.00055135958974291278 0.0021601478547530199 0 -0.00040070736071942041 0.0018727155439186415 0 -0.00021829883889843535 0.0021012159832300942 0 -0.00040070736071942041 0.0018727155439186415 0 -0.00017186518114998677 0.0017453247801688487 0 -0.00040070736071942041 0.0018727155439186415 0 -0.00017186518114998677 0.0017453247801688487 0 -0.00034936608216187451 0.0015828018101947158 0 -0.00060910100318978385 0.0018690571569898815 0 -0.00040070736071942041 0.0018727155439186415 0 -0.00056498965317356548 0.0015931950766285654 0 -0.00040070736071942041 0.0018727155439186415 0 -0.00056498965317356548 0.0015931950766285654 0 -0.00034936608216187451 0.0015828018101947158 0 0.00012553496541461225 0.0019813824427537558 0 9.3770125028916194e-05 0.0021288712492939644 0 -1.7572838126972122e-05 0.0019465148173898842 0 -0.00021829883889843535 0.0021012159832300942 0 9.3770125028916194e-05 0.0021288712492939644 0 -1.7572838126972122e-05 0.0019465148173898842 0 -0.00021829883889843535 0.0021012159832300942 0 -1.7572838126972122e-05 0.0019465148173898842 0 -0.00017186518114998677 0.0017453247801688487 0 0.00012553496541461225 0.0019813824427537558 0 -1.7572838126972122e-05 0.0019465148173898842 0 5.7428914153050458e-05 0.0017941649484164888 0 -0.00018535950857918027 0.0017533717847750367 0 2.0428181094260124e-05 0.0016583026161283527 0 -1.7572838126972122e-05 0.0019465148173898842 0 -0.00017186518114998677 0.0017453247801688487 0 5.7428914153050458e-05 0.0017941649484164888 0 -0.00017186518114998677 0.0017453247801688487 0 -5.5038576832284768e-05 0.0015949098528674249 0 -0.00011528908218141476 0.0014945906232397511 0 -4.5425328370880142e-05 0.0014757658887646634 0 -5.5038576832284768e-05 0.0015949098528674249 0 -0.00011528908218141476 0.0014945906232397511 0 -0.00017186518114998677 0.0017453247801688487 0 -0.00011528908218141476 0.0014945906232397511 0 -0.00034936608216187451 0.0015828018101947158 0 -0.00011528908218141476 0.0014945906232397511 0 -0.00034936608216187451 0.0015828018101947158 0 -0.00028234932881551918 0.0014132421321762642 0 -0.00011528908218141476 0.0014945906232397511 0 -0.00028234932881551918 0.0014132421321762642 0 -0.00018631891343794932 0.0013139531645549646 0 -0.00028234932881551918 0.0014132421321762642 0 -0.00034142762216300563 0.001262656575630486 0 -0.00018631891343794932 0.0013139531645549646 0 -4.5425328370880142e-05 0.0014757658887646634 0 -0.00011528908218141476 0.0014945906232397511 0 -5.122271550140482e-05 0.0014066885932816988 0 -0.00011528908218141476 0.0014945906232397511 0 -5.122271550140482e-05 0.0014066885932816988 0 -0.00018631891343794932 0.0013139531645549646 0 -0.00056498965317356548 0.0015931950766285654 0 -0.00034936608216187451 0.0015828018101947158 0 -0.00047660057777984619 0.0013670590246344988 0 -0.0006362347242559605 0.0013499136091269914 0 -0.00056498965317356548 0.0015931950766285654 0 -0.00047660057777984619 0.0013670590246344988 0 -0.00034936608216187451 0.0015828018101947158 0 -0.00028234932881551918 0.0014132421321762642 0 -0.00047660057777984619 0.0013670590246344988 0 -0.00028234932881551918 0.0014132421321762642 0 -0.00047660057777984619 0.0013670590246344988 0 -0.00034142762216300563 0.001262656575630486 0 -0.00047660057777984619 0.0013670590246344988 0 -0.00049214385497397823 0.0011821216452443171 0 -0.00034142762216300563 0.001262656575630486 0 -0.00063842008841351165 0.0012056982761558975 0 -0.00047660057777984619 0.0013670590246344988 0 -0.00049214385497397823 0.0011821216452443171 0 -0.00049214385497397823 0.0011821216452443171 0 -0.00048093535183117941 0.0010510685513832095 0 -0.00061461237159443995 0.001106715158376939 0 -0.00034142762216300563 0.001262656575630486 0 -0.00036130983555126759 0.0011071567316553255 0 -0.00024228523158586256 0.0011564536314797669 0 -0.00049214385497397823 0.0011821216452443171 0 -0.00034142762216300563 0.001262656575630486 0 -0.00036130983555126759 0.0011071567316553255 0 -0.00036130983555126759 0.0011071567316553255 0 -0.00024153343010978738 0.0010252362836251669 0 -0.00034620067468781941 0.00094627622524433026 0 -0.00036130983555126759 0.0011071567316553255 0 -0.00048093535183117941 0.0010510685513832095 0 -0.00034620067468781941 0.00094627622524433026 0 -0.00049214385497397823 0.0011821216452443171 0 -0.00036130983555126759 0.0011071567316553255 0 -0.00048093535183117941 0.0010510685513832095 0 -0.00048093535183117941 0.0010510685513832095 0 -0.0005913481900964928 0.00093361876876930103 0 -0.00059808219345059083 0.0010250144308224293 0 -0.00048093535183117941 0.0010510685513832095 0 -0.00059808219345059083 0.0010250144308224293 0 -0.00061461237159443995 0.001106715158376939 0 -5.122271550140482e-05 0.0014066885932816988 0 -0.00018631891343794932 0.0013139531645549646 0 -5.9421776181797437e-05 0.0010437164132359184 0 -5.0266813975161548e-05 0.0013990223220460589 0 -7.128211342426778e-05 0.0013433757846417968 0 -0.00010315295827820298 0.0015055582039329933 0 -5.122271550140482e-05 0.0014066885932816988 0 -6.6037146635074151e-05 0.0016316208698786609 0 -0.00034142762216300563 0.001262656575630486 0 -0.00018631891343794932 0.0013139531645549646 0 -0.00024228523158586256 0.0011564536314797669 0 -0.00018631891343794932 0.0013139531645549646 0 -0.00024228523158586256 0.0011564536314797669 0 -5.9421776181797437e-05 0.0010437164132359184 0 -0.00024228523158586256 0.0011564536314797669 0 -0.00024153343010978738 0.0010252362836251669 0 -5.9421776181797437e-05 0.0010437164132359184 0 -0.00036130983555126759 0.0011071567316553255 0 -0.00024228523158586256 0.0011564536314797669 0 -0.00024153343010978738 0.0010252362836251669 0 -5.9421776181797437e-05 0.0010437164132359184 0 -0.00019784492832488932 0.00091206710557136049 0 -8.8696242496878175e-05 0.00077508688822011044 0 -7.128211342426778e-05 0.0013433757846417968 0 -9.3674575625235572e-05 0.0011944865287508077 0 -0.00015953266271129403 0.0016951466652294861 0 -6.6037146635074151e-05 0.0016316208698786609 0 -0.00016508990041740621 0.0016929678485150409 0 -0.00024153343010978738 0.0010252362836251669 0 -0.00019784492832488932 0.00091206710557136049 0 -0.00034620067468781941 0.00094627622524433026 0 -0.00024153343010978738 0.0010252362836251669 0 -5.9421776181797437e-05 0.0010437164132359184 0 -0.00019784492832488932 0.00091206710557136049 0 -0.00019784492832488932 0.00091206710557136049 0 -8.8696242496878175e-05 0.00077508688822011044 0 -0.00032824879878822567 0.00082998204487902557 0 -9.3674575625235572e-05 0.0011944865287508077 0 -0.00013552863776055291 0.00079242930881917746 0 -7.9696741448960327e-08 0.0011457921817150049 0 -5.7272272765428848e-06 0.0010998753878316242 0 9.7910983894524212e-09 0.00086688644746648312 0 -5.7272272765428848e-06 0.0010998753878316242 0 -4.3580671228307646e-06 0.00083260143045786042 0 9.7910983894524212e-09 0.00086688644746648312 0 -0.00015953266271129403 0.0016951466652294861 0 -0.00017165074973090938 0.0016122717219396482 0 -0.00016508990041740621 0.0016929678485150409 0 9.3627809356307689e-07 0.0013045311365716837 0 -1.6641509680197927e-08 0.0011462363765659634 0 -2.220859253048358e-06 0.0011715741549285883 0 -6.2922273759007642e-05 0.0014539670531226207 0 -9.3674575625235572e-05 0.0011944865287508077 0 -1.2952396489910045e-07 0.0011460822133114537 0 -9.3674575625235572e-05 0.0011944865287508077 0 -0.00034471010567118082 0.00094196728089120606 0 -0.00057210697081334081 0.00093894538885430233 0 -0.00048093535183117941 0.0010510685513832095 0 -0.00034620067468781941 0.00094627622524433026 0 -0.0005913481900964928 0.00093361876876930103 0 -0.00034620067468781941 0.00094627622524433026 0 -0.00049790162853494515 0.00087348334753768189 0 -0.00050063805695598645 0.00092149941894002893 0 -0.00034620067468781941 0.00094627622524433026 0 -0.00032824879878822567 0.00082998204487902557 0 -0.00049790162853494515 0.00087348334753768189 0 -0.00019784492832488932 0.00091206710557136049 0 -0.00034620067468781941 0.00094627622524433026 0 -0.00032824879878822567 0.00082998204487902557 0 -4.3580671228307646e-06 0.00083260143045786042 0 9.7910983894524212e-09 0.00086688644746648312 0 7.8537935871408385e-06 0.00071882130018239882 0 -4.3580671228307646e-06 0.00083260143045786042 0 7.8537935871408385e-06 0.00071882130018239882 0 2.2933955320606837e-05 0.00059327218941691547 0 -0.00013552863776055291 0.00079242930881917746 0 -0.00023069731947915659 0.00075915597746411092 0 9.7910983894524212e-09 0.00086688644746648312 0 7.8537935871408385e-06 0.00071882130018239882 0 1.0729715184751581e-07 0.00058756979198053608 0 7.8537935871408385e-06 0.00071882130018239882 0 1.0729715184751581e-07 0.00058756979198053608 0 2.2933955320606837e-05 0.00059327218941691547 0 1.0729715184751581e-07 0.00058756979198053608 0 7.4666208111206632e-06 0.00050138647717570101 0 2.2933955320606837e-05 0.00059327218941691547 0 -0.00035555405489503264 0.00058766415247023382 0 2.5078655124273327e-08 0.00030816002039434824 0 7.4666208111206632e-06 0.00050138647717570101 0 -3.5326502993720175e-05 0.00053331970600179292 0 -1.6878773800012149e-07 0.00030887946461497298 0 1.0729715184751581e-07 0.00058756979198053608 0 7.4666208111206632e-06 0.00050138647717570101 0 -1.6878773800012149e-07 0.00030887946461497298 0 -0.00062138776317824775 0.00089762577870538521 0 -0.00061969214006298186 0.00090835330282265268 0 -0.00050063805695598645 0.00092149941894002893 0 -0.00052917251558459364 0.0007713369778721839 0 -0.00053108522824139609 0.00075981851238697865 0 -0.00048250565080866433 0.00076252537459169437 0 -0.00035555405489503264 0.00058766415247023382 0 -0.00056765768567434407 0.00082463603382667021 0 7.4666208111206632e-06 0.00050138647717570101 0 -3.5326502993720175e-05 0.00053331970600179292 0 2.2933955320606837e-05 0.00059327218941691547 0 -0.00078658282584822983 0.00093035039010803088 0 -0.0005913481900964928 0.00093361876876930103 0 -0.00069407341555593289 0.001008448149346828 0 -0.00056765768567434407 0.00082463603382667021 0 -0.00057210697081334081 0.00093894538885430233 0 -0.00035555405489503264 0.00058766415247023382 0 -0.00023069731947915659 0.00075915597746411092 0 -0.00062138776317824775 0.00089762577870538521 0 -0.00049790162853494515 0.00087348334753768189 0 -0.00050063805695598645 0.00092149941894002893 0 -0.00069407341555593289 0.001008448149346828 0 -0.00075516800094248141 0.0011092476582240053 0 -0.00061461237159443995 0.001106715158376939 0 -0.0005913481900964928 0.00093361876876930103 0 -0.00059808219345059083 0.0010250144308224293 0 -0.00069407341555593289 0.001008448149346828 0 -0.00059808219345059083 0.0010250144308224293 0 -0.00069407341555593289 0.001008448149346828 0 -0.00061461237159443995 0.001106715158376939 0 -0.00056765768567434407 0.00082463603382667021 0 -0.00081320718232543419 0.001090147336863816 0 -0.00084205878436850398 0.0010345071888034994 0 -0.0008274565255940975 0.00099776788047725045 0 -0.00083177847631372851 0.0010162299363459285 0 -0.00078658282584822983 0.00093035039010803088 0 -0.00069407341555593289 0.001008448149346828 0 -0.00075516800094248141 0.0011092476582240053 0 -0.00075848279780540431 0.0011824184309392248 0 -0.00081320718232543419 0.001090147336863816 0 -0.0007592769157929478 0.001201277260389469 0 -0.00086662660724686434 0.0010512450283373413 0 -0.0008274565255940975 0.00099776788047725045 0 -0.00063842008841351165 0.0012056982761558975 0 -0.0007592769157929478 0.001201277260389469 0 -0.00075516800094248141 0.0011092476582240053 0 -0.00063842008841351165 0.0012056982761558975 0 -0.00049214385497397823 0.0011821216452443171 0 -0.00061461237159443995 0.001106715158376939 0 -0.00063842008841351165 0.0012056982761558975 0 -0.00075516800094248141 0.0011092476582240053 0 -0.00061461237159443995 0.001106715158376939 0 -0.00084641955953021269 0.0010095896132461877 0 -0.00078354154226878046 0.0010224497709746161 0 -0.00078394640586252761 0.0009489637371156497 0 -0.00086662660724686434 0.0010512450283373413 0 -0.0008274565255940975 0.00099776788047725045 0 -0.00084641955953021269 0.0010095896132461877 0 -0.00084641955953021269 0.0010095896132461877 0 -0.00083177847631372851 0.0010162299363459285 0 -0.00082480648028771604 0.0010215197147075412 0 -0.0008274565255940975 0.00099776788047725045 0 -0.00084641955953021269 0.0010095896132461877 0 -0.00083177847631372851 0.0010162299363459285 0 -0.00083177847631372851 0.0010162299363459285 0 -0.00082480648028771604 0.0010215197147075412 0 -0.00082893164137125784 0.0010402387352946196 0 -0.00082480648028771604 0.0010215197147075412 0 -0.00078354154226878046 0.0010224497709746161 0 -0.00081232624505777522 0.0010491139226885572 0 -0.00084641955953021269 0.0010095896132461877 0 -0.00082480648028771604 0.0010215197147075412 0 -0.00078354154226878046 0.0010224497709746161 0 -0.00081232624505777522 0.0010491139226885572 0 -0.00084728151290817272 0.0010479168443984846 0 -0.00075825008156641554 0.0010720482938730307 0 -0.00078354154226878046 0.0010224497709746161 0 -0.00081232624505777522 0.0010491139226885572 0 -0.00075825008156641554 0.0010720482938730307 0 -3.0352405561217208e-05 5.9417334518441942e-05 0 5.9107880110199959e-06 0.00011259530568009666 0 2.2397701196549042e-05 -4.4909271793625136e-05 0 -0.00052353677707485348 0.00072875807502772593 0 -0.00034068883072309124 0.00048649427236650345 0 -8.4420629452618969e-05 6.8450270434772121e-05 0 -3.0352405561217208e-05 5.9417334518441942e-05 0 5.9107880110199959e-06 0.00011259530568009666 0 -0.00056765768567434407 0.00082463603382667021 0 -0.00052353677707485348 0.00072875807502772593 0 -0.00084205878436850398 0.0010345071888034994 0 -0.00083177847631372851 0.0010162299363459285 0 -0.00082893164137125784 0.0010402387352946196 0 -0.00088879253947796698 0.00097701128929692871 0 -0.00052353677707485348 0.00072875807502772593 0 -0.00082480648028771604 0.0010215197147075412 0 -0.00081232624505777522 0.0010491139226885572 0 -0.00082893164137125784 0.0010402387352946196 0 -0.00035555405489503264 0.00058766415247023382 0 -0.00052353677707485348 0.00072875807502772593 0 5.9107880110199959e-06 0.00011259530568009666 0 -2.4390191575803707e-07 0.00030804588432041573 0 1.1715234585261475e-07 5.8647730943360325e-05 0 -8.4420629452618969e-05 6.8450270434772121e-05 0 5.9107880110199959e-06 0.00011259530568009666 0 -2.4390191575803707e-07 0.00030804588432041573 0 5.9107880110199959e-06 0.00011259530568009666 0 1.1715234585261475e-07 5.8647730943360325e-05 0 2.2397701196549042e-05 -4.4909271793625136e-05 0 1.1715234585261475e-07 5.8647730943360325e-05 0 5.780750591093239e-09 -0.00019124342911151895 0 2.2397701196549042e-05 -4.4909271793625136e-05 0 5.780750591093239e-09 -0.00019124342911151895 0 4.1731762915119185e-06 -0.00027311810144703028 0 8.7053285114331919e-10 -0.00044102355496818444 0 5.780750591093239e-09 -0.00019124342911151895 0 4.1731762915119185e-06 -0.00027311810144703028 0 2.2397701196549042e-05 -4.4909271793625136e-05 0 -0.00030889193584183566 0.00040269383930940803 0 -0.00034068883072309124 0.00048649427236650345 0 -0.00063381082856510526 0.001075108762703735 0 -0.00075825008156641554 0.0010720482938730307 0 -0.00070740093675992306 0.0010278942206900855 0 8.7053285114331919e-10 -0.00044102355496818444 0 6.6878614988032319e-06 -0.00051746615398159772 0 7.8854595831526117e-08 -0.00069092841330082764 0 4.1731762915119185e-06 -0.00027311810144703028 0 8.7053285114331919e-10 -0.00044102355496818444 0 6.6878614988032319e-06 -0.00051746615398159772 0 -0.00063381082856510526 0.001075108762703735 0 -0.00049952697022196747 0.0010665826473907523 0 -0.00056531525166826646 0.0010193024508984355 0 -0.00030889193584183566 0.00040269383930940803 0 -0.00023004768975785173 0.00028290862941787184 0 -0.00063381082856510526 0.001075108762703735 0 -0.00056531525166826646 0.0010193024508984355 0 -0.00064218639941034268 0.00099559217534728531 0 -0.00049952697022196747 0.0010665826473907523 0 -0.00056531525166826646 0.0010193024508984355 0 -0.00047135012413833377 0.0010106862950618439 0 -0.00054118610887040231 0.0009204279409567186 0 -0.0005277910003772385 0.00091014077092318795 0 -0.00052306486475619922 0.0009168310184536633 0 -0.00056531525166826646 0.0010193024508984355 0 -0.00057218516324279559 0.00094445824813492452 0 -0.00047135012413833377 0.0010106862950618439 0 -0.00057218516324279559 0.00094445824813492452 0 -0.00054118610887040231 0.0009204279409567186 0 -0.00052306486475619922 0.0009168310184536633 0 -0.0005789469603977006 0.00091026472584727349 0 -0.00049793671427672266 0.0010736217001875905 0 -0.00056531525166826646 0.0010193024508984355 0 -0.00057218516324279559 0.00094445824813492452 0 -0.00064218639941034268 0.00099559217534728531 0 -0.00056747679744020862 0.00092413507052351972 0 -0.00048891775062359546 0.00092623061146445231 0 -0.00057218516324279559 0.00094445824813492452 0 -0.00061668791147717866 0.00091721726345741746 0 -0.00054496988528848636 0.00089214894500574493 0 -0.00057218516324279559 0.00094445824813492452 0 -0.00061668791147717866 0.00091721726345741746 0 -0.00064218639941034268 0.00099559217534728531 0 -0.00057218516324279559 0.00094445824813492452 0 -0.00054496988528848636 0.00089214894500574493 0 -0.00054118610887040231 0.0009204279409567186 0 -0.00054496988528848636 0.00089214894500574493 0 -0.00054118610887040231 0.0009204279409567186 0 -0.0005277910003772385 0.00091014077092318795 0 -0.00078354154226878046 0.0010224497709746161 0 -0.00070740093675992306 0.0010278942206900855 0 -0.00071154435748313905 0.00098393044327580825 0 -0.00078354154226878046 0.0010224497709746161 0 -0.00075825008156641554 0.0010720482938730307 0 -0.00070740093675992306 0.0010278942206900855 0 -0.00063381082856510526 0.001075108762703735 0 -0.00070740093675992306 0.0010278942206900855 0 -0.00064218639941034268 0.00099559217534728531 0 -0.00070740093675992306 0.0010278942206900855 0 -0.00064218639941034268 0.00099559217534728531 0 -0.00071154435748313905 0.00098393044327580825 0 -0.00053836917082103356 0.00093779633398132552 0 -0.00071154435748313905 0.00098393044327580825 0 -0.00058579533243100488 0.00084787910035285488 0 -0.00056747679744020862 0.00092413507052351972 0 -0.00070208835399308703 0.00097709897606016653 0 -0.00061668791147717866 0.00091721726345741746 0 -0.00064218639941034268 0.00099559217534728531 0 -0.00071154435748313905 0.00098393044327580825 0 -0.00071154435748313905 0.00098393044327580825 0 -0.00078394640586252761 0.0009489637371156497 0 -0.00066759877276042741 0.00082655467250822767 0 -0.00078354154226878046 0.0010224497709746161 0 -0.00071154435748313905 0.00098393044327580825 0 -0.00078394640586252761 0.0009489637371156497 0 -0.00078394640586252761 0.0009489637371156497 0 -0.00066759877276042741 0.00082655467250822767 0 -0.00074374869686074535 0.00081199798836920263 0 -0.00066759877276042741 0.00082655467250822767 0 -0.00074374869686074535 0.00081199798836920263 0 -0.00062914142886178327 0.00061604212774146088 0 -0.0007514784157228294 0.00060891561736083869 0 -0.00074374869686074535 0.00081199798836920263 0 -0.00062914142886178327 0.00061604212774146088 0 -0.00066759877276042741 0.00082655467250822767 0 -0.00062914142886178327 0.00061604212774146088 0 -0.00052542259227356938 0.00065515307156934616 0 -0.00062914142886178327 0.00061604212774146088 0 -0.00052542259227356938 0.00065515307156934616 0 -0.00051242791795212033 0.00050198737658728161 0 -0.00071154435748313905 0.00098393044327580825 0 -0.00066759877276042741 0.00082655467250822767 0 -0.00058579533243100488 0.00084787910035285488 0 -0.00066759877276042741 0.00082655467250822767 0 -0.00058579533243100488 0.00084787910035285488 0 -0.00052542259227356938 0.00065515307156934616 0 -0.00053836917082103356 0.00093779633398132552 0 -0.00058579533243100488 0.00084787910035285488 0 -0.00045846465532296018 0.00077943822210114154 0 -0.00053836917082103356 0.00093779633398132552 0 -0.00033819826598958263 0.0008685174523222495 0 -0.00045846465532296018 0.00077943822210114154 0 -0.00058579533243100488 0.00084787910035285488 0 -0.00045846465532296018 0.00077943822210114154 0 -0.00052542259227356938 0.00065515307156934616 0 -0.00033819826598958263 0.0008685174523222495 0 -0.00045846465532296018 0.00077943822210114154 0 -0.00028617001976535936 0.00072708752731745539 0 -0.00045846465532296018 0.00077943822210114154 0 -0.00028617001976535936 0.00072708752731745539 0 -0.00036438900456866225 0.00059221538795932709 0 -0.00033819826598958263 0.0008685174523222495 0 -0.00028617001976535936 0.00072708752731745539 0 -8.6053187822199048e-05 0.00079253404284244792 0 -0.00048891775062359546 0.00092623061146445231 0 -0.00016709126213064541 0.00025864477984122516 0 -0.00036438900456866225 0.00059221538795932709 0 -0.00026377771982837934 0.00030390281614897614 0 -0.0001447747209666357 0.00059101270354189621 0 -0.00028617001976535936 0.00072708752731745539 0 -0.00036438900456866225 0.00059221538795932709 0 -0.0001447747209666357 0.00059101270354189621 0 -0.00036438900456866225 0.00059221538795932709 0 -0.0004181805500913119 0.00044999220083986272 0 -0.00026377771982837934 0.00030390281614897614 0 -0.00045846465532296018 0.00077943822210114154 0 -0.00036438900456866225 0.00059221538795932709 0 -0.00052542259227356938 0.00065515307156934616 0 -0.00036438900456866225 0.00059221538795932709 0 -0.00052542259227356938 0.00065515307156934616 0 -0.0004181805500913119 0.00044999220083986272 0 -0.00052542259227356938 0.00065515307156934616 0 -0.00051242791795212033 0.00050198737658728161 0 -0.0004181805500913119 0.00044999220083986272 0 -0.00051242791795212033 0.00050198737658728161 0 -0.00043892159946474498 0.00037461656716954693 0 -0.00055843162525575697 0.00043835158741527974 0 -0.00051242791795212033 0.00050198737658728161 0 -0.0004181805500913119 0.00044999220083986272 0 -0.00043892159946474498 0.00037461656716954693 0 -0.0004181805500913119 0.00044999220083986272 0 -0.00026377771982837934 0.00030390281614897614 0 -0.00036197721377407915 0.00031145373606191872 0 -0.0004181805500913119 0.00044999220083986272 0 -0.00043892159946474498 0.00037461656716954693 0 -0.00036197721377407915 0.00031145373606191872 0 -0.00026377771982837934 0.00030390281614897614 0 -0.00036197721377407915 0.00031145373606191872 0 -0.00034501371712626503 0.0002304968890328171 0 -0.00038236797126267743 0.00029468838643847018 0 -0.00034501371712626503 0.0002304968890328171 0 -0.0003812660409971839 0.00028631050143955 0 -0.00036197721377407915 0.00031145373606191872 0 -0.00038236797126267743 0.00029468838643847018 0 -0.00034501371712626503 0.0002304968890328171 0 -0.00043892159946474498 0.00037461656716954693 0 -0.00036197721377407915 0.00031145373606191872 0 -0.00038236797126267743 0.00029468838643847018 0 -0.00043892159946474498 0.00037461656716954693 0 -0.0004755367896126205 0.00034219436636333939 0 -0.00055843162525575697 0.00043835158741527974 0 -0.00043892159946474498 0.00037461656716954693 0 -0.00038236797126267743 0.00029468838643847018 0 -0.0004755367896126205 0.00034219436636333939 0 -0.00054869486434453449 0.00034957507654209685 0 -0.00055843162525575697 0.00043835158741527974 0 -0.0006777831806603151 0.00041768717522726382 0 -0.0004755367896126205 0.00034219436636333939 0 -0.00054869486434453449 0.00034957507654209685 0 -0.00055843162525575697 0.00043835158741527974 0 -0.00055843162525575697 0.00043835158741527974 0 -0.0006777831806603151 0.00041768717522726382 0 -0.00065475196575958425 0.00051940931229430747 0 -0.0007514784157228294 0.00060891561736083869 0 -0.0006777831806603151 0.00041768717522726382 0 -0.00065475196575958425 0.00051940931229430747 0 -0.0007514784157228294 0.00060891561736083869 0 -0.00062914142886178327 0.00061604212774146088 0 -0.00065475196575958425 0.00051940931229430747 0 -0.00062914142886178327 0.00061604212774146088 0 -0.00055843162525575697 0.00043835158741527974 0 -0.00065475196575958425 0.00051940931229430747 0 -0.00062914142886178327 0.00061604212774146088 0 -0.00051242791795212033 0.00050198737658728161 0 -0.00055843162525575697 0.00043835158741527974 0 -0.00029436714007799279 0.00010620875982668976 0 -0.00026149522456336708 9.6929883930768187e-05 0 -0.00033739095715434024 0.00011320522960794932 0 -0.00029436714007799279 0.00010620875982668976 0 -0.00030104887317074377 0.00015049568256956562 0 -0.00033739095715434024 0.00011320522960794932 0 -0.00016569561122509061 -0.00036903356941532436 0 -0.00015009410704228612 -0.00055060992382584262 0 1.4120502850311085e-05 -0.0011045156841429551 0 2.444981244493664e-05 -0.0011472956867388628 0 5.3192429599328724e-06 -0.0011472866780476445 0 1.4120502850311085e-05 -0.0011045156841429551 0 5.3192429599328724e-06 -0.0011472866780476445 0 -2.6560779023407543e-05 -0.0011128215098962773 0 -0.00016569561122509061 -0.00036903356941532436 0 -0.00029959261827082251 -0.00021907097715570021 0 -0.00027834583621966631 -0.00033960371406893615 0 -0.00032028113504057579 -0.00024247648121066427 0 -0.00039048164945340385 -0.00032895519698958401 0 -0.00031074040727366591 -0.00020945779811590198 0 -0.00032028113504057579 -0.00024247648121066427 0 -0.00030467705135269011 -0.00014922324577170754 0 -0.00031074040727366591 -0.00020945779811590198 0 -0.00029666165671922255 1.1625377880233394e-05 0 -0.00030467705135269011 -0.00014922324577170754 0 -0.00029436714007799279 0.00010620875982668976 0 -0.00026149522456336708 9.6929883930768187e-05 0 -0.00029666165671922255 1.1625377880233394e-05 0 -0.00016569561122509061 -0.00036903356941532436 0 -0.00034274235175030493 7.0361528295041908e-05 0 -0.00029666165671922255 1.1625377880233394e-05 0 -0.00031273116281591121 0.00011712270505926384 0 -0.00030104887317074377 0.00015049568256956562 0 -0.00035582951592044395 0.00021762816725255467 0 -0.00037263670045043835 0.00011973056680693306 0 -0.00029666165671922255 1.1625377880233394e-05 0 -0.00031273116281591121 0.00011712270505926384 0 -0.00037849976980642268 -5.2623224983105484e-05 0 -0.00031273116281591121 0.00011712270505926384 0 -0.00034501371712626503 0.0002304968890328171 0 -0.00037849976980642268 -5.2623224983105484e-05 0 -0.00026377771982837934 0.00030390281614897614 0 -0.00034501371712626503 0.0002304968890328171 0 -0.00029680406534293778 0.00020872996334486677 0 -0.00031273116281591121 0.00011712270505926384 0 -0.00034501371712626503 0.0002304968890328171 0 -0.00029680406534293778 0.00020872996334486677 0 -0.00031273116281591121 0.00011712270505926384 0 -0.00029680406534293778 0.00020872996334486677 0 -0.00030104887317074377 0.00015049568256956562 0 -0.00029680406534293778 0.00020872996334486677 0 -0.00030104887317074377 0.00015049568256956562 0 -0.00027125209364966597 0.00014913280440665162 0 -0.00026377771982837934 0.00030390281614897614 0 -0.00029680406534293778 0.00020872996334486677 0 -0.00027125209364966597 0.00014913280440665162 0 -0.00029436714007799279 0.00010620875982668976 0 -0.00029666165671922255 1.1625377880233394e-05 0 -0.00030104887317074377 0.00015049568256956562 0 -0.00030104887317074377 0.00015049568256956562 0 -0.00030244429601949512 7.5903743065548309e-05 0 -0.00033739095715434024 0.00011320522960794932 0 -0.00030104887317074377 0.00015049568256956562 0 -0.00030244429601949512 7.5903743065548309e-05 0 -0.00027125209364966597 0.00014913280440665162 0 -0.00030244429601949512 7.5903743065548309e-05 0 -0.00023527902551411358 2.7949740857891141e-05 0 -0.00022924098917726456 -9.3049908481620305e-05 0 -0.00030244429601949512 7.5903743065548309e-05 0 -0.00027125209364966597 0.00014913280440665162 0 -0.00023527902551411358 2.7949740857891141e-05 0 -0.00023632409625644904 0.00028653706475948435 0 -0.0001750615808942207 0.00034072676962516087 0 -0.00026377771982837934 0.00030390281614897614 0 -0.00027125209364966597 0.00014913280440665162 0 -0.00018808180977491221 6.6992041077477017e-05 0 -0.00027125209364966597 0.00014913280440665162 0 -0.00023527902551411358 2.7949740857891141e-05 0 -0.00018808180977491221 6.6992041077477017e-05 0 -0.00028617001976535936 0.00072708752731745539 0 -0.0001447747209666357 0.00059101270354189621 0 -8.6053187822199048e-05 0.00079253404284244792 0 -0.0001750615808942207 0.00034072676962516087 0 -0.00016709126213064541 0.00025864477984122516 0 -0.00023527902551411358 2.7949740857891141e-05 0 -0.00018808180977491221 6.6992041077477017e-05 0 -0.00018984193843964549 -6.0655235329584529e-05 0 -0.00040906888478552361 -9.3367446424222732e-05 0 -3.0357146131055648e-05 -0.0004620072951279574 0 2.0175331910765341e-05 -0.00098766784556208304 0 -0.00030244429601949512 7.5903743065548309e-05 0 -0.00040906888478552361 -9.3367446424222732e-05 0 -0.00022924098917726456 -9.3049908481620305e-05 0 -0.00023527902551411358 2.7949740857891141e-05 0 -0.00018984193843964549 -6.0655235329584529e-05 0 -0.00022924098917726456 -9.3049908481620305e-05 0 -0.00016709126213064541 0.00025864477984122516 0 -7.7669601344928894e-05 -9.602352749467336e-05 0 0.00039030441533338672 -0.00037193277013522036 0 -0.00022924098917726456 -9.3049908481620305e-05 0 -3.0357146131055648e-05 -0.0004620072951279574 0 -0.00040906888478552361 -9.3367446424222732e-05 0 -0.00022924098917726456 -9.3049908481620305e-05 0 -3.0357146131055648e-05 -0.0004620072951279574 0 -2.0725527991603186e-06 -0.0011655598351580641 0 1.1398870439195426e-05 -0.0011506060084344634 0 3.2390688817808328e-06 -0.0011029895294882987 0 1.1398870439195426e-05 -0.0011506060084344634 0 1.3263201320797574e-05 -0.001166521823500979 0 7.8770970130648628e-06 -0.0011660324671322901 0 1.1398870439195426e-05 -0.0011506060084344634 0 1.3263201320797574e-05 -0.001166521823500979 0 1.2604657300697825e-05 -0.0011635248460343554 0 1.3263201320797574e-05 -0.001166521823500979 0 1.2604657300697825e-05 -0.0011635248460343554 0 1.4827444562275615e-05 -0.0011632455388809781 0 -2.0725527991603186e-06 -0.0011655598351580641 0 1.1398870439195426e-05 -0.0011506060084344634 0 1.2604657300697825e-05 -0.0011635248460343554 0 1.2604657300697825e-05 -0.0011635248460343554 0 2.444981244493664e-05 -0.0011472956867388628 0 1.4827444562275615e-05 -0.0011632455388809781 0 -0.0001805457941341685 -0.00064183297512789602 0 -0.00015009410704228612 -0.00055060992382584262 0 -0.00030244429601949512 7.5903743065548309e-05 0 -0.00040906888478552361 -9.3367446424222732e-05 0 -0.00033739095715434024 0.00011320522960794932 0 -2.0725527991603186e-06 -0.0011655598351580641 0 1.2604657300697825e-05 -0.0011635248460343554 0 2.444981244493664e-05 -0.0011472956867388628 0 5.3192429599328724e-06 -0.0011472866780476445 0 1.4827444562275615e-05 -0.0011632455388809781 0 8.0479144422621374e-06 -0.0011804526711699523 0 2.444981244493664e-05 -0.0011472956867388628 0 5.3192429599328724e-06 -0.0011472866780476445 0 1.4827444562275615e-05 -0.0011632455388809781 0 1.3263201320797574e-05 -0.001166521823500979 0 1.4827444562275615e-05 -0.0011632455388809781 0 8.0479144422621374e-06 -0.0011804526711699523 0 1.3263201320797574e-05 -0.001166521823500979 0 8.0479144422621374e-06 -0.0011804526711699523 0 7.1213725990279931e-06 -0.0011900719179470615 0 8.0479144422621374e-06 -0.0011804526711699523 0 3.184768270518484e-06 -0.001219346041309841 0 -4.5835213205464791e-06 -0.0012015769636538631 0 3.184768270518484e-06 -0.001219346041309841 0 2.1216241367948185e-06 -0.0012297496456643146 0 1.8095935215983796e-06 -0.0012679808744730347 0 8.0479144422621374e-06 -0.0011804526711699523 0 3.184768270518484e-06 -0.001219346041309841 0 7.1213725990279931e-06 -0.0011900719179470615 0 3.184768270518484e-06 -0.001219346041309841 0 7.1213725990279931e-06 -0.0011900719179470615 0 2.1216241367948185e-06 -0.0012297496456643146 0 7.1213725990279931e-06 -0.0011900719179470615 0 -2.2596948423641774e-06 -0.001193371035589536 0 2.1216241367948185e-06 -0.0012297496456643146 0 7.1213725990279931e-06 -0.0011900719179470615 0 7.8770970130648628e-06 -0.0011660324671322901 0 -2.2596948423641774e-06 -0.001193371035589536 0 1.3263201320797574e-05 -0.001166521823500979 0 7.1213725990279931e-06 -0.0011900719179470615 0 7.8770970130648628e-06 -0.0011660324671322901 0 7.8770970130648628e-06 -0.0011660324671322901 0 5.007120537862448e-07 -0.0011456332703522934 0 -2.2596948423641774e-06 -0.001193371035589536 0 1.1398870439195426e-05 -0.0011506060084344634 0 5.007120537862448e-07 -0.0011456332703522934 0 3.2390688817808328e-06 -0.0011029895294882987 0 1.1398870439195426e-05 -0.0011506060084344634 0 7.8770970130648628e-06 -0.0011660324671322901 0 5.007120537862448e-07 -0.0011456332703522934 0 5.007120537862448e-07 -0.0011456332703522934 0 -8.1508725441299049e-06 -0.0011743434598006643 0 3.2390688817808328e-06 -0.0011029895294882987 0 5.007120537862448e-07 -0.0011456332703522934 0 -8.1508725441299049e-06 -0.0011743434598006643 0 -2.2596948423641774e-06 -0.001193371035589536 0 -8.1508725441299049e-06 -0.0011743434598006643 0 -2.2596948423641774e-06 -0.001193371035589536 0 -9.3423142365005066e-06 -0.0012141064929469029 0 -2.2596948423641774e-06 -0.001193371035589536 0 -9.3423142365005066e-06 -0.0012141064929469029 0 -3.2353821794524022e-06 -0.001242639920493389 0 -8.1508725441299049e-06 -0.0011743434598006643 0 -1.228981542513084e-05 -0.0012147985827280945 0 -1.3230322918754321e-05 -0.0011599854869381206 0 -8.1508725441299049e-06 -0.0011743434598006643 0 -9.3423142365005066e-06 -0.0012141064929469029 0 -1.228981542513084e-05 -0.0012147985827280945 0 -9.3423142365005066e-06 -0.0012141064929469029 0 -1.228981542513084e-05 -0.0012147985827280945 0 -1.2490389268146443e-05 -0.0012418147842804268 0 -1.228981542513084e-05 -0.0012147985827280945 0 -1.1227275859338027e-05 -0.001244342566361466 0 1.5988046118940371e-06 -0.0012484831367600006 0 -1.228981542513084e-05 -0.0012147985827280945 0 -1.1227275859338027e-05 -0.001244342566361466 0 -1.2490389268146443e-05 -0.0012418147842804268 0 -9.3423142365005066e-06 -0.0012141064929469029 0 -1.2490389268146443e-05 -0.0012418147842804268 0 -3.2353821794524022e-06 -0.001242639920493389 0 -1.2490389268146443e-05 -0.0012418147842804268 0 -3.2353821794524022e-06 -0.001242639920493389 0 2.7702938904227631e-07 -0.0012623979550147586 0 6.4017672352752324e-06 -0.0012771283028731695 0 2.1216241367948185e-06 -0.0012297496456643146 0 1.8095935215983796e-06 -0.0012679808744730347 0 -3.2353821794524022e-06 -0.001242639920493389 0 6.4017672352752324e-06 -0.0012771283028731695 0 2.7702938904227631e-07 -0.0012623979550147586 0 -3.2353821794524022e-06 -0.001242639920493389 0 6.4017672352752324e-06 -0.0012771283028731695 0 2.1216241367948185e-06 -0.0012297496456643146 0 -2.2596948423641774e-06 -0.001193371035589536 0 -3.2353821794524022e-06 -0.001242639920493389 0 2.1216241367948185e-06 -0.0012297496456643146 0 0.00039030441533338672 -0.00037193277013522036 0 2.0175331910765341e-05 -0.00098766784556208304 0 5.481933008447335e-05 -0.0012664623204786051 0 -0.00016709126213064541 0.00025864477984122516 0 -0.00021537319721697313 -0.00013513610043888746 0 -0.00051669248859336099 0.00088323831331449984 0 -0.0005277910003772385 0.00091014077092318795 0 -0.00052034985722029456 0.00090858801098771768 0 -0.00054496988528848636 0.00089214894500574493 0 -0.00051669248859336099 0.00088323831331449984 0 -0.0005277910003772385 0.00091014077092318795 0 -0.0001805457941341685 -0.00064183297512789602 0 -3.4569533399251296e-07 -0.00096802041119105982 0 -2.0725527991603186e-06 -0.0011655598351580641 0 2.0175331910765341e-05 -0.00098766784556208304 0 3.2390688817808328e-06 -0.0011029895294882987 0 2.0175331910765341e-05 -0.00098766784556208304 0 -1.3230322918754321e-05 -0.0011599854869381206 0 5.481933008447335e-05 -0.0012664623204786051 0 0.00039030441533338672 -0.00037193277013522036 0 -3.0357146131055648e-05 -0.0004620072951279574 0 2.0175331910765341e-05 -0.00098766784556208304 0 2.0175331910765341e-05 -0.00098766784556208304 0 3.2390688817808328e-06 -0.0011029895294882987 0 -1.3230322918754321e-05 -0.0011599854869381206 0 -8.1508725441299049e-06 -0.0011743434598006643 0 3.2390688817808328e-06 -0.0011029895294882987 0 -1.3230322918754321e-05 -0.0011599854869381206 0 1.5988046118940371e-06 -0.0012484831367600006 0 5.481933008447335e-05 -0.0012664623204786051 0 -2.3841759526013769e-05 -0.0012457082486266504 0 -1.3230322918754321e-05 -0.0011599854869381206 0 1.5988046118940371e-06 -0.0012484831367600006 0 5.481933008447335e-05 -0.0012664623204786051 0 -1.228981542513084e-05 -0.0012147985827280945 0 -1.3230322918754321e-05 -0.0011599854869381206 0 1.5988046118940371e-06 -0.0012484831367600006 0 -0.0005277910003772385 0.00091014077092318795 0 -0.0005228613664853488 0.00091125723899539873 0 -0.00052306486475619922 0.0009168310184536633 0 -0.0005277910003772385 0.00091014077092318795 0 -0.00052034985722029456 0.00090858801098771768 0 -0.0005228613664853488 0.00091125723899539873 0 -0.0005228613664853488 0.00091125723899539873 0 -0.00052306486475619922 0.0009168310184536633 0 -0.00052274619153474806 0.00090169824590466115 0 -0.00052034985722029456 0.00090858801098771768 0 -0.0005228613664853488 0.00091125723899539873 0 -0.00052274619153474806 0.00090169824590466115 0 -0.00023004768975785173 0.00028290862941787184 0 -0.00022429582940104438 0.00013061511792903996 0 -0.00049952697022196747 0.0010665826473907523 0 -0.00047135012413833377 0.0010106862950618439 0 -0.00038111842539399315 0.0010554974780521394 0 -0.00049793671427672266 0.0010736217001875905 0 -0.00022429582940104438 0.00013061511792903996 0 -0.00052306486475619922 0.0009168310184536633 0 -0.00052274619153474806 0.00090169824590466115 0 -0.00052382427519676728 0.00088652568509997435 0 1.5988046118940371e-06 -0.0012484831367600006 0 -2.3841759526013769e-05 -0.0012457082486266504 0 -1.7778574464662988e-05 -0.0012472366704794349 0 -0.00052034985722029456 0.00090858801098771768 0 -0.00052274619153474806 0.00090169824590466115 0 -0.00052802025867476989 0.00088554622022006676 0 -0.00021537319721697313 -0.00013513610043888746 0 -0.00025320090307947104 -0.00031406576873522167 0 -0.00052274619153474806 0.00090169824590466115 0 -0.00052382427519676728 0.00088652568509997435 0 -0.00052802025867476989 0.00088554622022006676 0 -1.1227275859338027e-05 -0.001244342566361466 0 1.5988046118940371e-06 -0.0012484831367600006 0 -1.7778574464662988e-05 -0.0012472366704794349 0 -9.0670999420281869e-05 -0.0012416518048461052 0 -8.4559392936205723e-05 -0.0012247506496418411 0 -4.1311638298970074e-05 -0.0012416694130442812 0 -2.3841759526013769e-05 -0.0012457082486266504 0 -1.7778574464662988e-05 -0.0012472366704794349 0 -4.1311638298970074e-05 -0.0012416694130442812 0 -0.00025320090307947104 -0.00031406576873522167 0 -6.5999659407122279e-05 -0.00079279836186414319 0 -0.00022429582940104438 0.00013061511792903996 0 -0.00025320090307947104 -0.00031406576873522167 0 -0.00016649918766165663 -0.0002079851893927231 0 -0.00026233386592752756 -0.00021395699764221136 0 -0.0002874798232437537 -0.00029171871438451064 0 -0.00022429582940104438 0.00013061511792903996 0 -0.00022129594007199075 -0.00064546030549655626 0 -0.00025320090307947104 -0.00031406576873522167 0 -0.00022129594007199075 -0.00064546030549655626 0 -2.1456123844840649e-05 -0.00074958966817971159 0 7.8854595831526117e-08 -0.00069092841330082764 0 -1.92020098175276e-07 -0.00094038132944731893 0 -2.004472093070503e-05 -0.00070601195066080386 0 -2.1456123844840649e-05 -0.00074958966817971159 0 7.8854595831526117e-08 -0.00069092841330082764 0 -0.00022129594007199075 -0.00064546030549655626 0 -7.2287813587107628e-08 -0.00094075050100125032 0 6.6878614988032319e-06 -0.00051746615398159772 0 -2.004472093070503e-05 -0.00070601195066080386 0 7.8854595831526117e-08 -0.00069092841330082764 0 6.4017672352752324e-06 -0.0012771283028731695 0 2.7702938904227631e-07 -0.0012623979550147586 0 2.1011493136961278e-05 -0.0012981820106696157 0 2.7702938904227631e-07 -0.0012623979550147586 0 -1.9296709338969738e-06 -0.0012336140721259776 0 2.1011493136961278e-05 -0.0012981820106696157 0 -1.2490389268146443e-05 -0.0012418147842804268 0 2.7702938904227631e-07 -0.0012623979550147586 0 -1.9108032554534396e-05 -0.0012518820725758643 0 -1.1227275859338027e-05 -0.001244342566361466 0 -1.2490389268146443e-05 -0.0012418147842804268 0 -1.9108032554534396e-05 -0.0012518820725758643 0 -1.1227275859338027e-05 -0.001244342566361466 0 -1.9108032554534396e-05 -0.0012518820725758643 0 -1.7778574464662988e-05 -0.0012472366704794349 0 -1.9108032554534396e-05 -0.0012518820725758643 0 -1.7778574464662988e-05 -0.0012472366704794349 0 -4.1311638298970074e-05 -0.0012416694130442812 0 -1.9108032554534396e-05 -0.0012518820725758643 0 -4.1311638298970074e-05 -0.0012416694130442812 0 -1.9296709338969738e-06 -0.0012336140721259776 0 2.7702938904227631e-07 -0.0012623979550147586 0 -1.9108032554534396e-05 -0.0012518820725758643 0 -1.9296709338969738e-06 -0.0012336140721259776 0 -1.2013684041075313e-06 -0.00089153037065034643 0 -1.6446145239956663e-10 -0.00094118191231200819 0 -1.9858636776301725e-09 -0.0011059700883969069 0 -4.1311638298970074e-05 -0.0012416694130442812 0 -3.2030464643026199e-08 -0.0011068609598317283 0 -1.9296709338969738e-06 -0.0012336140721259776 0 -8.4559392936205723e-05 -0.0012247506496418411 0 -4.1311638298970074e-05 -0.0012416694130442812 0 -3.2030464643026199e-08 -0.0011068609598317283 0 -0.00022129594007199075 -0.00064546030549655626 0 4.2664390251171788e-08 -0.0011065879447847346 0 -3.2030464643026199e-08 -0.0011068609598317283 0 6.0286514143418335e-08 -0.0013712860462390393 0 2.1011493136961278e-05 -0.0012981820106696157 0 -3.2030464643026199e-08 -0.0011068609598317283 0 -1.9296709338969738e-06 -0.0012336140721259776 0 2.1011493136961278e-05 -0.0012981820106696157 0 6.0286514143418335e-08 -0.0013712860462390393 0 2.1011493136961278e-05 -0.0012981820106696157 0 8.8731360493470281e-06 -0.0013731730425080755 0 6.4017672352752324e-06 -0.0012771283028731695 0 2.1011493136961278e-05 -0.0012981820106696157 0 7.6558770055466727e-06 -0.0013289199115008692 0 2.1011493136961278e-05 -0.0012981820106696157 0 8.8731360493470281e-06 -0.0013731730425080755 0 7.6558770055466727e-06 -0.0013289199115008692 0 8.8731360493470281e-06 -0.0013731730425080755 0 7.6558770055466727e-06 -0.0013289199115008692 0 -6.7795225183607079e-06 -0.0013769018168410005 0 8.8731360493470281e-06 -0.0013731730425080755 0 5.7500428597787932e-06 -0.0014643510972203581 0 -6.7795225183607079e-06 -0.0013769018168410005 0 6.0286514143418335e-08 -0.0013712860462390393 0 5.7500428597787932e-06 -0.0014643510972203581 0 1.1475795016475431e-07 -0.0016363825709448745 0 6.0286514143418335e-08 -0.0013712860462390393 0 8.8731360493470281e-06 -0.0013731730425080755 0 5.7500428597787932e-06 -0.0014643510972203581 0 5.7500428597787932e-06 -0.0014643510972203581 0 1.1475795016475431e-07 -0.0016363825709448745 0 -3.2112303052038779e-05 -0.0015270900726824291 0 1.1475795016475431e-07 -0.0016363825709448745 0 -1.6348248184719422e-05 -0.0016773722390934624 0 -4.35494732230825e-07 -0.0019009384753225762 0 1.1475795016475431e-07 -0.0016363825709448745 0 -1.6348248184719422e-05 -0.0016773722390934624 0 -3.2112303052038779e-05 -0.0015270900726824291 0 -3.2112303052038779e-05 -0.0015270900726824291 0 -9.3507696822805672e-05 -0.0014492432143211292 0 -0.00011350089980792811 -0.0015713862140905484 0 -1.6348248184719422e-05 -0.0016773722390934624 0 -3.2112303052038779e-05 -0.0015270900726824291 0 -0.00011350089980792811 -0.0015713862140905484 0 -3.2112303052038779e-05 -0.0015270900726824291 0 -4.7411424633906783e-05 -0.0014009096864723279 0 -9.3507696822805672e-05 -0.0014492432143211292 0 -0.00013207364765127185 -0.0015395920926466115 0 -0.00010348979921390049 -0.0017061901294164591 0 5.7500428597787932e-06 -0.0014643510972203581 0 -3.2112303052038779e-05 -0.0015270900726824291 0 -4.7411424633906783e-05 -0.0014009096864723279 0 5.7500428597787932e-06 -0.0014643510972203581 0 -4.7411424633906783e-05 -0.0014009096864723279 0 -6.7795225183607079e-06 -0.0013769018168410005 0 -4.7411424633906783e-05 -0.0014009096864723279 0 -6.7795225183607079e-06 -0.0013769018168410005 0 -2.0208945806946908e-05 -0.0013092184088236713 0 -4.7411424633906783e-05 -0.0014009096864723279 0 -0.00012417528224894624 -0.0012825348159320473 0 -6.043504697175907e-05 -0.001311772151093469 0 -4.7411424633906783e-05 -0.0014009096864723279 0 -6.043504697175907e-05 -0.001311772151093469 0 -2.0208945806946908e-05 -0.0013092184088236713 0 -0.00013207364765127185 -0.0015395920926466115 0 -0.00014812463834330882 -0.0013068661637396129 0 -4.7411424633906783e-05 -0.0014009096864723279 0 -0.00017514594761608321 -0.0014119798775129283 0 -0.00012417528224894624 -0.0012825348159320473 0 -0.00023769800561690511 -0.0015306180126475541 0 -0.00016843308407217639 -0.0013451102075775372 0 -0.00035825559492788867 -0.0014113165774473501 0 -5.1365602259282972e-05 -0.0014113790406824361 0 -0.00013207364765127185 -0.0015395920926466115 0 -0.00016843308407217639 -0.0013451102075775372 0 -0.00035825559492788867 -0.0014113165774473501 0 -0.00029055622987073624 -0.0012475505483157726 0 -0.00014812463834330882 -0.0013068661637396129 0 -0.0001120001447019755 -0.0012206088447350308 0 -0.00012417528224894624 -0.0012825348159320473 0 -5.7773372412171472e-05 -0.0012540023739520114 0 -0.00011073741658322056 -0.0012099824566749878 0 -0.00012417528224894624 -0.0012825348159320473 0 -6.043504697175907e-05 -0.001311772151093469 0 -5.7773372412171472e-05 -0.0012540023739520114 0 -6.043504697175907e-05 -0.001311772151093469 0 -5.7773372412171472e-05 -0.0012540023739520114 0 -2.0208945806946908e-05 -0.0013092184088236713 0 -5.7773372412171472e-05 -0.0012540023739520114 0 -1.5188646309036271e-05 -0.0012343266432740777 0 -2.0208945806946908e-05 -0.0013092184088236713 0 -1.5188646309036271e-05 -0.0012343266432740777 0 1.8095935215983796e-06 -0.0012679808744730347 0 -2.0208945806946908e-05 -0.0013092184088236713 0 3.184768270518484e-06 -0.001219346041309841 0 -1.5188646309036271e-05 -0.0012343266432740777 0 -4.5835213205464791e-06 -0.0012015769636538631 0 3.184768270518484e-06 -0.001219346041309841 0 -1.5188646309036271e-05 -0.0012343266432740777 0 1.8095935215983796e-06 -0.0012679808744730347 0 1.8095935215983796e-06 -0.0012679808744730347 0 7.6558770055466727e-06 -0.0013289199115008692 0 -2.0208945806946908e-05 -0.0013092184088236713 0 6.4017672352752324e-06 -0.0012771283028731695 0 1.8095935215983796e-06 -0.0012679808744730347 0 7.6558770055466727e-06 -0.0013289199115008692 0 7.6558770055466727e-06 -0.0013289199115008692 0 -6.7795225183607079e-06 -0.0013769018168410005 0 -2.0208945806946908e-05 -0.0013092184088236713 0 -0.00089146806441849796 -0.00154472976715408 0 -0.00093310950042941384 -0.0015327932189681309 0 -0.00096452959150228616 -0.0015287948976019203 0 -0.00047782349143917527 -0.0018279971849329219 0 -0.00044746657712627232 -0.0020423692630134778 0 2.0487871550200972e-05 -0.0024407597072251029 0 1.3791218395317624e-06 -0.0024421830464716374 0 3.134219659546062e-05 -0.0025244866017160774 0 2.0487871550200972e-05 -0.0024407597072251029 0 8.1977976298088722e-08 -0.0022551899563434934 0 7.6627182486285718e-08 -0.0025246386289867781 0 2.0487871550200972e-05 -0.0024407597072251029 0 8.1977976298088722e-08 -0.0022551899563434934 0 -1.8517680642455509e-05 -0.0022993805170003307 0 2.0487871550200972e-05 -0.0024407597072251029 0 1.3791218395317624e-06 -0.0024421830464716374 0 -1.8517680642455509e-05 -0.0022993805170003307 0 -0.00047782349143917527 -0.0018279971849329219 0 -7.9935835639366337e-05 -0.0021337764793947743 0 -0.0004057306085699101 -0.0017573848492758869 0 -0.00027881434694289672 -0.0018550002592904098 0 -0.00023055204841530684 -0.001744955560012843 0 -0.00027881434694289672 -0.0018550002592904098 0 -0.00019315562730810317 -0.0018272736412997626 0 -0.00023055204841530684 -0.001744955560012843 0 -7.9935835639366337e-05 -0.0021337764793947743 0 -6.8830889462447723e-05 -0.0019265379300911442 0 8.1977976298088722e-08 -0.0022551899563434934 0 -1.8517680642455509e-05 -0.0022993805170003307 0 -2.3641414706699469e-07 -0.0019861392612051678 0 -0.00027881434694289672 -0.0018550002592904098 0 -0.00015287088604118255 -0.0019518942393665613 0 -0.00019315562730810317 -0.0018272736412997626 0 -1.8517680642455509e-05 -0.0022993805170003307 0 -3.9070108791447886e-05 -0.00204812392600241 0 -2.3641414706699469e-07 -0.0019861392612051678 0 -1.6348248184719422e-05 -0.0016773722390934624 0 -0.00012486506409669268 -0.001790321356504342 0 -0.00011350089980792811 -0.0015713862140905484 0 -1.6348248184719422e-05 -0.0016773722390934624 0 -0.00012486506409669268 -0.001790321356504342 0 -4.35494732230825e-07 -0.0019009384753225762 0 -0.00015287088604118255 -0.0019518942393665613 0 -0.00010435297539131175 -0.0018420985406883378 0 -0.00019315562730810317 -0.0018272736412997626 0 -6.8830889462447723e-05 -0.0019265379300911442 0 -1.3385129643530324e-07 -0.0019856809959392214 0 -1.0650266569936779e-07 -0.0019636492789432344 0 -2.6811309599892926e-10 -0.0019856017143638784 0 -9.0351090090682511e-12 -0.001901539445591276 0 -6.8830889462447723e-05 -0.0019265379300911442 0 -5.9480373260247522e-08 -0.0019014328253147959 0 -6.8830889462447723e-05 -0.0019265379300911442 0 -0.00010348979921390049 -0.0017061901294164591 0 -5.5837502123086329e-05 -0.0017318585281551732 0 -0.00010435297539131175 -0.0018420985406883378 0 -0.00019315562730810317 -0.0018272736412997626 0 -5.5837502123086329e-05 -0.0017318585281551732 0 -0.00019315562730810317 -0.0018272736412997626 0 -0.00023055204841530684 -0.001744955560012843 0 -0.00023769800561690511 -0.0015306180126475541 0 -0.00035825559492788867 -0.0014113165774473501 0 -0.00052407303390442517 -0.0015609191338682024 0 -0.00013207364765127185 -0.0015395920926466115 0 -0.00040851794886788493 -0.001645599356916003 0 -0.00035175211494769458 -0.0013915880895417993 0 -0.00029616740825737182 -0.0012095811493513622 0 -0.00035825559492788867 -0.0014113165774473501 0 -0.00052851782171942703 -0.0012469040198248213 0 -0.00031933421195195621 -0.0011364975742697823 0 -0.00052851782171942703 -0.0012469040198248213 0 -0.0006386568202703803 -0.001416402367916426 0 -0.00074243135027542856 -0.0012881027821230434 0 -0.00052851782171942703 -0.0012469040198248213 0 -0.00074243135027542856 -0.0012881027821230434 0 -0.00064470997195779174 -0.00098804683837427996 0 -0.00035825559492788867 -0.0014113165774473501 0 -0.00052851782171942703 -0.0012469040198248213 0 -0.0006386568202703803 -0.001416402367916426 0 -0.00035825559492788867 -0.0014113165774473501 0 -0.0006386568202703803 -0.001416402367916426 0 -0.00052407303390442517 -0.0015609191338682024 0 -0.00047782349143917527 -0.0018279971849329219 0 -0.00040851794886788493 -0.001645599356916003 0 -0.00083397651452822802 -0.0015631400770870108 0 -0.0006386568202703803 -0.001416402367916426 0 -0.00052407303390442517 -0.0015609191338682024 0 -0.00083397651452822802 -0.0015631400770870108 0 -0.00082953458493483466 -0.0014195654775851128 0 -0.00094917911989170418 -0.0014439548704958591 0 -0.0006386568202703803 -0.001416402367916426 0 -0.00082953458493483466 -0.0014195654775851128 0 -0.00074243135027542856 -0.0012881027821230434 0 -0.00083397651452822802 -0.0015631400770870108 0 -0.0006386568202703803 -0.001416402367916426 0 -0.00082953458493483466 -0.0014195654775851128 0 -0.00074243135027542856 -0.0012881027821230434 0 -0.00089488811402519926 -0.0012007345157129391 0 -0.00088852680137604316 -0.0013215656569617296 0 -0.00082953458493483466 -0.0014195654775851128 0 -0.00074243135027542856 -0.0012881027821230434 0 -0.00088852680137604316 -0.0013215656569617296 0 -0.00094503270021912525 -0.0012875732304610959 0 -0.0010438516169496803 -0.0011814457278437036 0 -0.00094917911989170418 -0.0014439548704958591 0 -0.00088852680137604316 -0.0013215656569617296 0 -0.00094503270021912525 -0.0012875732304610959 0 -0.00094917911989170418 -0.0014439548704958591 0 -0.00089488811402519926 -0.0012007345157129391 0 -0.00088852680137604316 -0.0013215656569617296 0 -0.00094503270021912525 -0.0012875732304610959 0 -0.00089488811402519926 -0.0012007345157129391 0 -0.00094503270021912525 -0.0012875732304610959 0 -0.0010438516169496803 -0.0011814457278437036 0 -0.00093267336287240581 -0.0014514239634528193 0 -0.00094884803258392663 -0.0014926880171799166 0 -0.00095357449618152371 -0.0014679497935141516 0 -0.00093267336287240581 -0.0014514239634528193 0 -0.00094884803258392663 -0.0014926880171799166 0 -0.00093310950042941384 -0.0015327932189681309 0 -0.0010438516169496803 -0.0011814457278437036 0 -0.00094917911989170418 -0.0014439548704958591 0 -0.00093310950042941384 -0.0015327932189681309 0 -0.00098565615056497424 -0.0013171190628902595 0 -0.0009399683407180419 -0.0015191385219114938 0 -0.00082953458493483466 -0.0014195654775851128 0 -0.00088852680137604316 -0.0013215656569617296 0 -0.00094917911989170418 -0.0014439548704958591 0 -0.00047782349143917527 -0.0018279971849329219 0 -0.001033547971245264 -0.0013929106955696596 0 -0.00089146806441849796 -0.00154472976715408 0 -0.00094917911989170418 -0.0014439548704958591 0 -0.00093310950042941384 -0.0015327932189681309 0 -0.00094884803258392663 -0.0014926880171799166 0 -0.00093310950042941384 -0.0015327932189681309 0 -0.00095365191644974478 -0.0015150259800161324 0 -0.00093310950042941384 -0.0015327932189681309 0 -0.00095365191644974478 -0.0015150259800161324 0 -0.00096452959150228616 -0.0015287948976019203 0 -0.0010825422371466167 -0.0009987694095451821 0 -0.0010323555570295761 -0.0010680058419415221 0 -0.0010484154174219091 -0.0010194349541161032 0 -0.0010825422371466167 -0.0009987694095451821 0 -0.0010359637648759126 -0.0011418233818108468 0 -0.0010323555570295761 -0.0010680058419415221 0 -0.00093267336287240581 -0.0014514239634528193 0 -0.00095704297371954788 -0.0013850398953352903 0 -0.00096238763095044672 -0.0014205012862103857 0 -0.0010438516169496803 -0.0011814457278437036 0 -0.0010825422371466167 -0.0009987694095451821 0 -0.0010359637648759126 -0.0011418233818108468 0 -0.00098565615056497424 -0.0013171190628902595 0 -0.0010242017127693231 -0.0011992115127026776 0 -0.00089488811402519926 -0.0012007345157129391 0 -0.0010438516169496803 -0.0011814457278437036 0 -0.0010359637648759126 -0.0011418233818108468 0 -0.0010359637648759126 -0.0011418233818108468 0 -0.0010323555570295761 -0.0010680058419415221 0 -0.00096177024717547456 -0.0011235046447521135 0 -0.0010244224262649282 -0.0011336612022098548 0 -0.00080242952786297209 -0.00106677042161265 0 -0.00074243135027542856 -0.0012881027821230434 0 -0.00089488811402519926 -0.0012007345157129391 0 -0.00064470997195779174 -0.00098804683837427996 0 -0.00089488811402519926 -0.0012007345157129391 0 -0.0010359637648759126 -0.0011418233818108468 0 -0.00064470997195779174 -0.00098804683837427996 0 -0.0010323555570295761 -0.0010680058419415221 0 -0.00096177024717547456 -0.0011235046447521135 0 -0.0010484154174219091 -0.0010194349541161032 0 -0.00096177024717547456 -0.0011235046447521135 0 -0.00088926814184498207 -0.00096579369775630017 0 -0.0010484154174219091 -0.0010194349541161032 0 -0.00052851782171942703 -0.0012469040198248213 0 -0.00064470997195779174 -0.00098804683837427996 0 -0.00031933421195195621 -0.0011364975742697823 0 -0.00064470997195779174 -0.00098804683837427996 0 -0.00031933421195195621 -0.0011364975742697823 0 -0.00027719276959150798 -0.00086660286054221307 0 -0.00029616740825737182 -0.0012095811493513622 0 -0.00049030437540776607 -0.00091510767234391336 0 -0.00096177024717547456 -0.0011235046447521135 0 -0.00088926814184498207 -0.00096579369775630017 0 -0.00069861136566389491 -0.0010826442344315172 0 -0.00080242952786297209 -0.00106677042161265 0 -0.00049030437540776607 -0.00091510767234391336 0 -0.00088926814184498207 -0.00096579369775630017 0 -0.00069861136566389491 -0.0010826442344315172 0 -0.00063665165853865288 -0.00088458903696632862 0 -0.00078401411977160179 -0.00075181179846614294 0 -0.00088926814184498207 -0.00096579369775630017 0 -0.00063665165853865288 -0.00088458903696632862 0 -0.00078401411977160179 -0.00075181179846614294 0 -0.00059709444916005198 -0.00052915191092392337 0 -0.00078344617801804739 -0.0005667882416406537 0 -0.00078401411977160179 -0.00075181179846614294 0 -0.0010009249980935837 -0.00083176983926081384 0 -0.00088926814184498207 -0.00096579369775630017 0 -0.00078401411977160179 -0.00075181179846614294 0 -0.0010009249980935837 -0.00083176983926081384 0 -0.00078344617801804739 -0.0005667882416406537 0 -0.0010009249980935837 -0.00083176983926081384 0 -0.00088926814184498207 -0.00096579369775630017 0 -0.0010484154174219091 -0.0010194349541161032 0 -0.0010009249980935837 -0.00083176983926081384 0 -0.0010484154174219091 -0.0010194349541161032 0 -0.0011309871185318434 -0.0010555858592636669 0 -0.0010009249980935837 -0.00083176983926081384 0 -0.0011309871185318434 -0.0010555858592636669 0 -0.0010893745655083374 -0.00083164193034952142 0 -0.0011362173517945255 -0.0010885430409433062 0 -0.0011745531920183318 -0.0011622537556474227 0 -0.0011309871185318434 -0.0010555858592636669 0 -0.0010749803666431877 -0.0012828634587464828 0 -0.0011522072185378329 -0.0015100757355146343 0 -0.0011309871185318434 -0.0010555858592636669 0 -0.0010893745655083374 -0.00083164193034952142 0 -0.0012121779996530696 -0.00081249558101469707 0 -0.0010825422371466167 -0.0009987694095451821 0 -0.0011309871185318434 -0.0010555858592636669 0 -0.0010749803666431877 -0.0012828634587464828 0 -0.0010242017127693231 -0.0011992115127026776 0 -0.001064515990374215 -0.0012805360007942408 0 -0.0010825422371466167 -0.0009987694095451821 0 -0.0010484154174219091 -0.0010194349541161032 0 -0.0011309871185318434 -0.0010555858592636669 0 -1.7773568555123114e-05 -0.0011671039327742871 0 -5.5537200769488728e-05 -0.001194293952389376 0 -9.5254811304958321e-05 -0.0011104041516625863 0 -1.7773568555123114e-05 -0.0011671039327742871 0 -9.5254811304958321e-05 -0.0011104041516625863 0 -2.6560779023407543e-05 -0.0011128215098962773 0 5.3192429599328724e-06 -0.0011472866780476445 0 -1.7773568555123114e-05 -0.0011671039327742871 0 -2.6560779023407543e-05 -0.0011128215098962773 0 5.3192429599328724e-06 -0.0011472866780476445 0 8.0479144422621374e-06 -0.0011804526711699523 0 -1.7773568555123114e-05 -0.0011671039327742871 0 8.0479144422621374e-06 -0.0011804526711699523 0 -1.7773568555123114e-05 -0.0011671039327742871 0 -4.5835213205464791e-06 -0.0012015769636538631 0 -1.5188646309036271e-05 -0.0012343266432740777 0 -1.7773568555123114e-05 -0.0011671039327742871 0 -4.5835213205464791e-06 -0.0012015769636538631 0 -5.7773372412171472e-05 -0.0012540023739520114 0 -1.5188646309036271e-05 -0.0012343266432740777 0 -5.5537200769488728e-05 -0.001194293952389376 0 -1.5188646309036271e-05 -0.0012343266432740777 0 -1.7773568555123114e-05 -0.0011671039327742871 0 -5.5537200769488728e-05 -0.001194293952389376 0 -5.7773372412171472e-05 -0.0012540023739520114 0 -5.5537200769488728e-05 -0.001194293952389376 0 -0.00011073741658322056 -0.0012099824566749878 0 -0.00029055622987073624 -0.0012475505483157726 0 -0.00011073741658322056 -0.0012099824566749878 0 -0.00024686328595666633 -0.0011250927578072107 0 -0.00016843308407217639 -0.0013451102075775372 0 -0.00029055622987073624 -0.0012475505483157726 0 -0.00011073741658322056 -0.0012099824566749878 0 -0.00049030437540776607 -0.00091510767234391336 0 -0.00030093211387298121 -0.0007966838198483039 0 -0.00011073741658322056 -0.0012099824566749878 0 -0.00024686328595666633 -0.0011250927578072107 0 -9.5254811304958321e-05 -0.0011104041516625863 0 -5.5537200769488728e-05 -0.001194293952389376 0 -0.00011073741658322056 -0.0012099824566749878 0 -9.5254811304958321e-05 -0.0011104041516625863 0 -0.00053717189125622401 -0.00051927021608856149 0 -0.00058987981844254688 -0.00050231636348756995 0 -0.00054602910056831449 -0.00046107369129188392 0 -0.00049030437540776607 -0.00091510767234391336 0 -0.00061839550390532588 -0.00067258187693537079 0 -0.0005963130497705012 -0.00054817758015895186 0 -0.00053717189125622401 -0.00051927021608856149 0 -0.00058987981844254688 -0.00050231636348756995 0 -0.00061839550390532588 -0.00067258187693537079 0 -0.000597404507995334 -0.00055366907799233266 0 -0.00078401411977160179 -0.00075181179846614294 0 -0.00063665165853865288 -0.00088458903696632862 0 -0.00059709444916005198 -0.00052915191092392337 0 -0.00058987981844254688 -0.00050231636348756995 0 -0.00059709444916005198 -0.00052915191092392337 0 -0.00054602910056831449 -0.00046107369129188392 0 -0.00059709444916005198 -0.00052915191092392337 0 -0.00054602910056831449 -0.00046107369129188392 0 -0.00054350846731474447 -0.0003566381120973976 0 -0.00054602910056831449 -0.00046107369129188392 0 -0.0004372768941779461 -0.00044656527544930795 0 -0.0004708720019134735 -0.00034456740023781608 0 -0.00053717189125622401 -0.00051927021608856149 0 -0.00054602910056831449 -0.00046107369129188392 0 -0.0004372768941779461 -0.00044656527544930795 0 -0.00030093211387298121 -0.0007966838198483039 0 -0.00024266794990087165 -0.00082515830762542068 0 -0.00016569561122509061 -0.00036903356941532436 0 -0.00024266794990087165 -0.00082515830762542068 0 -0.00027834583621966631 -0.00033960371406893615 0 -0.0004372768941779461 -0.00044656527544930795 0 -0.00039048164945340385 -0.00032895519698958401 0 -0.0004372768941779461 -0.00044656527544930795 0 -0.00039048164945340385 -0.00032895519698958401 0 -0.0004708720019134735 -0.00034456740023781608 0 -0.00039048164945340385 -0.00032895519698958401 0 -0.00039124567668222065 -0.00026529424739662403 0 -0.0004708720019134735 -0.00034456740023781608 0 -0.00032028113504057579 -0.00024247648121066427 0 -0.00039048164945340385 -0.00032895519698958401 0 -0.00039124567668222065 -0.00026529424739662403 0 -0.00039124567668222065 -0.00026529424739662403 0 -0.0004708720019134735 -0.00034456740023781608 0 -0.00043722693652859283 -0.00026003407703730348 0 -0.00039124567668222065 -0.00026529424739662403 0 -0.00038574150562179556 -0.00021120492451224461 0 -0.00043722693652859283 -0.00026003407703730348 0 -0.00039124567668222065 -0.00026529424739662403 0 -0.00038574150562179556 -0.00021120492451224461 0 -0.00034170420808386201 -0.00019441273007022287 0 -0.00040652464272316919 -0.00017119809141898269 0 -0.00045417799716308848 -0.0002089047643029291 0 -0.00043722693652859283 -0.00026003407703730348 0 -0.00038574150562179556 -0.00021120492451224461 0 -0.00040652464272316919 -0.00017119809141898269 0 -0.00043722693652859283 -0.00026003407703730348 0 -0.00038574150562179556 -0.00021120492451224461 0 -0.00040652464272316919 -0.00017119809141898269 0 -0.00036410888224452291 -0.00016535719791310773 0 -0.00045417799716308848 -0.0002089047643029291 0 -0.00048121677342918427 -0.00027686303395113739 0 -0.00051453537080045077 -0.00019425385110740206 0 -0.00045417799716308848 -0.0002089047643029291 0 -0.00048121677342918427 -0.00027686303395113739 0 -0.00043722693652859283 -0.00026003407703730348 0 -0.00048121677342918427 -0.00027686303395113739 0 -0.0004708720019134735 -0.00034456740023781608 0 -0.00054350846731474447 -0.0003566381120973976 0 -0.00048121677342918427 -0.00027686303395113739 0 -0.0004708720019134735 -0.00034456740023781608 0 -0.00043722693652859283 -0.00026003407703730348 0 -0.00054602910056831449 -0.00046107369129188392 0 -0.0004708720019134735 -0.00034456740023781608 0 -0.00054350846731474447 -0.0003566381120973976 0 -0.00059709444916005198 -0.00052915191092392337 0 -0.00054350846731474447 -0.0003566381120973976 0 -0.00066657429940302599 -0.00036632176264342732 0 -0.00054350846731474447 -0.0003566381120973976 0 -0.00066657429940302599 -0.00036632176264342732 0 -0.00060184431549994142 -0.0002426184182788039 0 -0.00066657429940302599 -0.00036632176264342732 0 -0.00060184431549994142 -0.0002426184182788039 0 -0.00070049032928332945 -0.0002217704831091078 0 -0.00054350846731474447 -0.0003566381120973976 0 -0.00060184431549994142 -0.0002426184182788039 0 -0.00051453537080045077 -0.00019425385110740206 0 -0.00048121677342918427 -0.00027686303395113739 0 -0.00054350846731474447 -0.0003566381120973976 0 -0.00051453537080045077 -0.00019425385110740206 0 -0.00051453537080045077 -0.00019425385110740206 0 -0.00060238657414895245 -0.00016475826098352519 0 -0.00055843411598829732 -9.9050137723903051e-05 0 -0.00060184431549994142 -0.0002426184182788039 0 -0.00051453537080045077 -0.00019425385110740206 0 -0.00060238657414895245 -0.00016475826098352519 0 -0.00060238657414895245 -0.00016475826098352519 0 -0.00066422944991835822 -0.0001028471824421861 0 -0.00070049032928332945 -0.0002217704831091078 0 -0.00060184431549994142 -0.0002426184182788039 0 -0.00060238657414895245 -0.00016475826098352519 0 -0.00070049032928332945 -0.0002217704831091078 0 -0.00060238657414895245 -0.00016475826098352519 0 -0.00066422944991835822 -0.0001028471824421861 0 -0.00055843411598829732 -9.9050137723903051e-05 0 -0.00066422944991835822 -0.0001028471824421861 0 -0.00063434580579073755 -5.6625253396177035e-05 0 -0.0007575384726235361 -4.2612374918769473e-06 0 -0.00066422944991835822 -0.0001028471824421861 0 -0.00063434580579073755 -5.6625253396177035e-05 0 -0.00055843411598829732 -9.9050137723903051e-05 0 -0.00051453537080045077 -0.00019425385110740206 0 -0.00055843411598829732 -9.9050137723903051e-05 0 -0.00048418731206524833 -0.00010629516718093156 0 -0.00063434580579073755 -5.6625253396177035e-05 0 -0.00055843411598829732 -9.9050137723903051e-05 0 -0.00056197293943481476 -1.65701729360712e-05 0 -0.00055843411598829732 -9.9050137723903051e-05 0 -0.00051587968123258717 -7.2617143610173381e-05 0 -0.00056197293943481476 -1.65701729360712e-05 0 -0.00055843411598829732 -9.9050137723903051e-05 0 -0.00051587968123258717 -7.2617143610173381e-05 0 -0.00048418731206524833 -0.00010629516718093156 0 -0.00051587968123258717 -7.2617143610173381e-05 0 -0.00048418731206524833 -0.00010629516718093156 0 -0.0004795877440831097 -7.0421568041028517e-05 0 -0.00048418731206524833 -0.00010629516718093156 0 -0.00044341099001026852 -9.4133642407407382e-05 0 -0.00044056035484200186 -0.00014236449601963093 0 -0.00048418731206524833 -0.00010629516718093156 0 -0.00044341099001026852 -9.4133642407407382e-05 0 -0.0004795877440831097 -7.0421568041028517e-05 0 -0.00044341099001026852 -9.4133642407407382e-05 0 -0.000407780520862509 -0.00010483208694072669 0 -0.00043231327504312389 -5.8112318146725905e-05 0 -0.00044341099001026852 -9.4133642407407382e-05 0 -0.000407780520862509 -0.00010483208694072669 0 -0.00044056035484200186 -0.00014236449601963093 0 -0.00040652464272316919 -0.00017119809141898269 0 -0.000407780520862509 -0.00010483208694072669 0 -0.00044056035484200186 -0.00014236449601963093 0 -0.00040652464272316919 -0.00017119809141898269 0 -0.000407780520862509 -0.00010483208694072669 0 -0.00038067304062918328 -0.00013743852138684888 0 -0.00040652464272316919 -0.00017119809141898269 0 -0.00045417799716308848 -0.0002089047643029291 0 -0.00044056035484200186 -0.00014236449601963093 0 -0.00051453537080045077 -0.00019425385110740206 0 -0.00048418731206524833 -0.00010629516718093156 0 -0.00044056035484200186 -0.00014236449601963093 0 -0.00045417799716308848 -0.0002089047643029291 0 -0.00051453537080045077 -0.00019425385110740206 0 -0.00044056035484200186 -0.00014236449601963093 0 -0.0011326246775459476 -0.00075160830396486539 0 -0.0011143502394446606 -0.00066683574401645528 0 -0.0012510562440712883 -0.00069186245883867876 0 -0.0011326246775459476 -0.00075160830396486539 0 -0.0010474031522114291 -0.00075349807247065232 0 -0.0011143502394446606 -0.00066683574401645528 0 -0.0011326246775459476 -0.00075160830396486539 0 -0.0010893745655083374 -0.00083164193034952142 0 -0.0012121779996530696 -0.00081249558101469707 0 -0.0010009249980935837 -0.00083176983926081384 0 -0.0010893745655083374 -0.00083164193034952142 0 -0.0010474031522114291 -0.00075349807247065232 0 -0.0011326246775459476 -0.00075160830396486539 0 -0.0010893745655083374 -0.00083164193034952142 0 -0.0010474031522114291 -0.00075349807247065232 0 -0.0010474031522114291 -0.00075349807247065232 0 -0.0010186593801345672 -0.00065129785100914337 0 -0.0011143502394446606 -0.00066683574401645528 0 -0.0010474031522114291 -0.00075349807247065232 0 -0.00097432937852506331 -0.00074590105905585297 0 -0.0010186593801345672 -0.00065129785100914337 0 -0.00094532188978739236 -0.00056981014824869123 0 -0.00087795980214941784 -0.00037955733497725154 0 -0.0010009249980935837 -0.00083176983926081384 0 -0.0010474031522114291 -0.00075349807247065232 0 -0.00097432937852506331 -0.00074590105905585297 0 -0.00099979882814607807 -0.00081030564383302247 0 -0.00094532188978739236 -0.00056981014824869123 0 -0.0010009249980935837 -0.00083176983926081384 0 -0.00092144009975125558 -0.0003763499274506356 0 -0.00078344617801804739 -0.0005667882416406537 0 -0.00059709444916005198 -0.00052915191092392337 0 -0.00066657429940302599 -0.00036632176264342732 0 -0.00078344617801804739 -0.0005667882416406537 0 -0.00066657429940302599 -0.00036632176264342732 0 -0.00092144009975125558 -0.0003763499274506356 0 -0.00078344617801804739 -0.0005667882416406537 0 -0.00066657429940302599 -0.00036632176264342732 0 -0.00092144009975125558 -0.0003763499274506356 0 -0.00070049032928332945 -0.0002217704831091078 0 -0.00092144009975125558 -0.0003763499274506356 0 -0.00070049032928332945 -0.0002217704831091078 0 -0.00082231893411239881 -0.00016177227298880392 0 -0.00066422944991835822 -0.0001028471824421861 0 -0.00070049032928332945 -0.0002217704831091078 0 -0.00082231893411239881 -0.00016177227298880392 0 -0.00087795980214941784 -0.00037955733497725154 0 -0.00082413536172086955 -0.00027611571448454966 0 -0.00066422944991835822 -0.0001028471824421861 0 -0.00082231893411239881 -0.00016177227298880392 0 -0.0007575384726235361 -4.2612374918769473e-06 0 -0.00098800426590815531 -0.00055692910166879822 0 -0.00093120329294523276 -0.00061092860124829763 0 -0.00089406382249568696 -0.00047418369860057288 0 -0.00097432937852506331 -0.00074590105905585297 0 -0.00093120329294523276 -0.00061092860124829763 0 -0.0010186593801345672 -0.00065129785100914337 0 -0.00098800426590815531 -0.00055692910166879822 0 -0.00093120329294523276 -0.00061092860124829763 0 -0.0010186593801345672 -0.00065129785100914337 0 -0.0010186593801345672 -0.00065129785100914337 0 -0.0010641864539675575 -0.00057568133154997669 0 -0.0011143502394446606 -0.00066683574401645528 0 -0.00098800426590815531 -0.00055692910166879822 0 -0.0010186593801345672 -0.00065129785100914337 0 -0.0010641864539675575 -0.00057568133154997669 0 -0.0010641864539675575 -0.00057568133154997669 0 -0.0011240392359488983 -0.00049151141318086922 0 -0.0010112059754509896 -0.00048239383731997666 0 -0.00098800426590815531 -0.00055692910166879822 0 -0.0010641864539675575 -0.00057568133154997669 0 -0.0010112059754509896 -0.00048239383731997666 0 -0.0010641864539675575 -0.00057568133154997669 0 -0.0011240392359488983 -0.00049151141318086922 0 -0.0011818111527491751 -0.00058341842313228132 0 -0.0010641864539675575 -0.00057568133154997669 0 -0.0011143502394446606 -0.00066683574401645528 0 -0.0011818111527491751 -0.00058341842313228132 0 -0.0012144969187670642 -0.00038939272032858401 0 -0.0012115763553846707 -0.00039137785646038833 0 -0.0012228898074534682 -0.00038214185082505013 0 -0.0012130785248161788 -0.00039160264691183704 0 -0.0012091924989347125 -0.00039600558102863731 0 -0.0012130527607398986 -0.00039239195391590006 0 -0.0012130785248161788 -0.00039160264691183704 0 -0.0012118272315122243 -0.0003925347172137703 0 -0.0012144969187670642 -0.00038939272032858401 0 -0.0012130785248161788 -0.00039160264691183704 0 -0.0012118272315122243 -0.0003925347172137703 0 -0.0012091924989347125 -0.00039600558102863731 0 -0.0012118272315122243 -0.0003925347172137703 0 -0.0012091924989347125 -0.00039600558102863731 0 -0.0012094600766667904 -0.00039462726203120494 0 -0.0012091924989347125 -0.00039600558102863731 0 -0.0012130527607398986 -0.00039239195391590006 0 -0.001209998707658894 -0.00039907387348484278 0 -0.0012091924989347125 -0.00039600558102863731 0 -0.0011992048802473164 -0.00040021702458692589 0 -0.001209998707658894 -0.00039907387348484278 0 -0.0012130527607398986 -0.00039239195391590006 0 -0.001209998707658894 -0.00039907387348484278 0 -0.0012161702628735438 -0.00039244006901734038 0 -0.0012130785248161788 -0.00039160264691183704 0 -0.0012144969187670642 -0.00038939272032858401 0 -0.0012162319680850272 -0.00038613690988598218 0 -0.0012130785248161788 -0.00039160264691183704 0 -0.0012130527607398986 -0.00039239195391590006 0 -0.0012162319680850272 -0.00038613690988598218 0 -0.0012144969187670642 -0.00038939272032858401 0 -0.0012200649838624391 -0.00037997075452953665 0 -0.0012162319680850272 -0.00038613690988598218 0 -0.0011761366797111848 -0.00039512513417889447 0 -0.0011898109101920074 -0.00043557527643918887 0 -0.001157485288752575 -0.00042147765798896476 0 -0.0011761366797111848 -0.00039512513417889447 0 -0.0011992048802473164 -0.00040021702458692589 0 -0.0011898109101920074 -0.00043557527643918887 0 -0.0012118272315122243 -0.0003925347172137703 0 -0.0012144969187670642 -0.00038939272032858401 0 -0.0012115763553846707 -0.00039137785646038833 0 -0.0012118272315122243 -0.0003925347172137703 0 -0.0012115763553846707 -0.00039137785646038833 0 -0.0012094600766667904 -0.00039462726203120494 0 -0.0012091924989347125 -0.00039600558102863731 0 -0.0012094600766667904 -0.00039462726203120494 0 -0.0011992048802473164 -0.00040021702458692589 0 -0.0012115763553846707 -0.00039137785646038833 0 -0.0012094600766667904 -0.00039462726203120494 0 -0.0011992048802473164 -0.00040021702458692589 0 -0.0011689389715870302 -0.00027903662753562365 0 -0.0011767672298845574 -0.00029420248325083201 0 -0.0011898109101920074 -0.00043557527643918887 0 -0.001157485288752575 -0.00042147765798896476 0 -0.0011477018278534077 -0.00046810304552754028 0 -0.0011761366797111848 -0.00039512513417889447 0 -0.001157485288752575 -0.00042147765798896476 0 -0.0011127168161789251 -0.00041490913675409707 0 -0.001157485288752575 -0.00042147765798896476 0 -0.0011477018278534077 -0.00046810304552754028 0 -0.0011127168161789251 -0.00041490913675409707 0 -0.0011477018278534077 -0.00046810304552754028 0 -0.0011127168161789251 -0.00041490913675409707 0 -0.0010273710529504782 -0.00043368078080718647 0 -0.0011344568162561222 -0.00047907150123583606 0 -0.0010363545634704588 -0.00046746610530053813 0 -0.0011127168161789251 -0.00041490913675409707 0 -0.0010273710529504782 -0.00043368078080718647 0 -0.0010490116706161588 -0.00036233978657946198 0 -0.0011761366797111848 -0.00039512513417889447 0 -0.0011127168161789251 -0.00041490913675409707 0 -0.0010490116706161588 -0.00036233978657946198 0 -0.0011689389715870302 -0.00027903662753562365 0 -0.0010187938443839526 -0.00026490246841622 0 -0.0011689389715870302 -0.00027903662753562365 0 -0.0011047929317324905 -0.00023666549841965971 0 -0.0011390305616374497 -0.0001542586914422941 0 -0.00099940515192970241 -0.00016786400932124689 0 -0.00098863168880060034 -9.0071856162653955e-05 0 -0.0012144969187670642 -0.00038939272032858401 0 -0.0012228898074534682 -0.00038214185082505013 0 -0.0012200649838624391 -0.00037997075452953665 0 -0.00099940515192970241 -0.00016786400932124689 0 -0.00092827315569899251 -0.00013587276903977963 0 -0.00086591012587116148 -0.00017597675513826591 0 -0.00098863168880060034 -9.0071856162653955e-05 0 -0.00092827315569899251 -0.00013587276903977963 0 -0.00086280357113715047 -0.00010922436149101992 0 -0.0010187938443839526 -0.00026490246841622 0 -0.00088408174305329012 -0.00025117081577556249 0 -0.00099940515192970241 -0.00016786400932124689 0 -0.00098863168880060034 -9.0071856162653955e-05 0 -0.00092827315569899251 -0.00013587276903977963 0 -0.0010273710529504782 -0.00043368078080718647 0 -0.0010490116706161588 -0.00036233978657946198 0 -0.00090520595451448814 -0.0003283007187599577 0 -0.0010363545634704588 -0.00046746610530053813 0 -0.00082413536172086955 -0.00027611571448454966 0 -0.0010273710529504782 -0.00043368078080718647 0 -0.00089386286366875049 -0.0003822947490360227 0 -0.00090520595451448814 -0.0003283007187599577 0 -0.00098800426590815531 -0.00055692910166879822 0 -0.0010112059754509896 -0.00048239383731997666 0 -0.00089406382249568696 -0.00047418369860057288 0 -0.00088408174305329012 -0.00025117081577556249 0 -0.00075061751244966265 -0.00022622061314072248 0 -0.00089386286366875049 -0.0003822947490360227 0 -0.00090520595451448814 -0.0003283007187599577 0 -0.00076630345689950063 -0.00027147955508866859 0 -0.00086591012587116148 -0.00017597675513826591 0 -0.00086280357113715047 -0.00010922436149101992 0 -0.00079649057264891414 -0.00011152153285498682 0 -0.00092827315569899251 -0.00013587276903977963 0 -0.00086591012587116148 -0.00017597675513826591 0 -0.00086280357113715047 -0.00010922436149101992 0 -0.00086280357113715047 -0.00010922436149101992 0 -0.00084597847284205159 -3.433286468632651e-05 0 -0.00079649057264891414 -0.00011152153285498682 0 -0.0010942509455256553 -0.00035043382144661124 0 -0.0010193246336953666 -0.0001420406078779354 0 -0.0012245265101238571 -0.0002772575745834534 0 -0.0012245265101238571 -0.0002772575745834534 0 -0.00121349837872589 -0.0003396665303204621 0 -0.0012220764165139608 -0.00034066244425948118 0 -0.00098863168880060034 -9.0071856162653955e-05 0 -0.00086280357113715047 -0.00010922436149101992 0 -0.00084597847284205159 -3.433286468632651e-05 0 -0.0010942509455256553 -0.00035043382144661124 0 -0.0012245265101238571 -0.0002772575745834534 0 -0.00121349837872589 -0.0003396665303204621 0 -0.0012228898074534682 -0.00038214185082505013 0 -0.0010942509455256553 -0.00035043382144661124 0 -0.00121349837872589 -0.0003396665303204621 0 -0.0011047929317324905 -0.00023666549841965971 0 -0.00096971182949046736 -0.00018986800796150075 0 -0.0012228898074534682 -0.00038214185082505013 0 -0.00121349837872589 -0.0003396665303204621 0 -0.0012220481103932456 -0.00036300145627648291 0 -0.0012228898074534682 -0.00038214185082505013 0 -0.0012200649838624391 -0.00037997075452953665 0 -0.0012220481103932456 -0.00036300145627648291 0 -0.0012200649838624391 -0.00037997075452953665 0 -0.0012220481103932456 -0.00036300145627648291 0 -0.0012203248395720563 -0.00037286861834031737 0 -0.0012220481103932456 -0.00036300145627648291 0 -0.0012220764165139608 -0.00034066244425948118 0 -0.0012203248395720563 -0.00037286861834031737 0 -0.00121349837872589 -0.0003396665303204621 0 -0.0012220481103932456 -0.00036300145627648291 0 -0.0012220764165139608 -0.00034066244425948118 0 -0.0012245265101238571 -0.0002772575745834534 0 -0.0012220764165139608 -0.00034066244425948118 0 -0.0012197227437877522 -0.00033693973569799197 0 -0.0012220764165139608 -0.00034066244425948118 0 -0.0012189544703377808 -0.00035711232322066814 0 -0.0012197227437877522 -0.00033693973569799197 0 -0.0012220764165139608 -0.00034066244425948118 0 -0.0012189544703377808 -0.00035711232322066814 0 -0.0012185353470229108 -0.00036579505510388855 0 -0.0012220764165139608 -0.00034066244425948118 0 -0.0012185353470229108 -0.00036579505510388855 0 -0.0012203248395720563 -0.00037286861834031737 0 -0.0012189544703377808 -0.00035711232322066814 0 -0.0012185353470229108 -0.00036579505510388855 0 -0.0012158388146110363 -0.00037425293118570948 0 -0.0012185353470229108 -0.00036579505510388855 0 -0.0012167669129631833 -0.00037918568475113289 0 -0.0012158388146110363 -0.00037425293118570948 0 -0.0012185353470229108 -0.00036579505510388855 0 -0.0012183822606457967 -0.00037918904111769117 0 -0.0012167669129631833 -0.00037918568475113289 0 -0.0012183822606457967 -0.00037918904111769117 0 -0.0012203248395720563 -0.00037286861834031737 0 -0.0012166345557300044 -0.00038471799092028097 0 -0.0012185353470229108 -0.00036579505510388855 0 -0.0012183822606457967 -0.00037918904111769117 0 -0.0012203248395720563 -0.00037286861834031737 0 -0.0012200649838624391 -0.00037997075452953665 0 -0.0012203248395720563 -0.00037286861834031737 0 -0.0012162319680850272 -0.00038613690988598218 0 -0.0012203248395720563 -0.00037286861834031737 0 -0.0012162319680850272 -0.00038613690988598218 0 -0.0012166345557300044 -0.00038471799092028097 0 -0.0012130527607398986 -0.00039239195391590006 0 -0.0012162319680850272 -0.00038613690988598218 0 -0.0012166345557300044 -0.00038471799092028097 0 -0.0012130527607398986 -0.00039239195391590006 0 -0.0012166345557300044 -0.00038471799092028097 0 -0.0012161702628735438 -0.00039244006901734038 0 -0.00059852710845440665 -0.00010151091863966713 0 -0.00063341186438729477 -0.00019937945906977752 0 -0.00068067052028005306 -0.00013391925239437648 0 -0.00059852710845440665 -0.00010151091863966713 0 -0.00050488549575302777 -8.5064627080678613e-05 0 -0.00052823615810904123 -3.9127210807054755e-05 0 -0.00059852710845440665 -0.00010151091863966713 0 -0.00050488549575302777 -8.5064627080678613e-05 0 -0.00055383522214294502 -0.00016727508032331615 0 -0.00050488549575302777 -8.5064627080678613e-05 0 -0.00055383522214294502 -0.00016727508032331615 0 -0.00041311074184839088 -7.8392356412208304e-05 0 -0.000407780520862509 -0.00010483208694072669 0 -0.00043231327504312389 -5.8112318146725905e-05 0 -0.00041311074184839088 -7.8392356412208304e-05 0 -0.00055383522214294502 -0.00016727508032331615 0 -0.00063341186438729477 -0.00019937945906977752 0 -0.00071997086951342286 -0.00027203381860016853 0 -0.00059852710845440665 -0.00010151091863966713 0 -0.00055383522214294502 -0.00016727508032331615 0 -0.00063341186438729477 -0.00019937945906977752 0 -0.00049890800690227319 -0.00011336996333092809 0 -0.00064855237466936437 -0.00013430584848099034 0 -0.00043231327504312389 -5.8112318146725905e-05 0 -0.0004795877440831097 -7.0421568041028517e-05 0 -0.00056197293943481476 -1.65701729360712e-05 0 -0.00044341099001026852 -9.4133642407407382e-05 0 -0.00043231327504312389 -5.8112318146725905e-05 0 -0.0004795877440831097 -7.0421568041028517e-05 0 -0.00051587968123258717 -7.2617143610173381e-05 0 -0.0004795877440831097 -7.0421568041028517e-05 0 -0.00056197293943481476 -1.65701729360712e-05 0 -0.00063341186438729477 -0.00019937945906977752 0 -0.00071997086951342286 -0.00027203381860016853 0 -0.00076630345689950063 -0.00027147955508866859 0 -0.00063764539876382041 -0.00020792258161819784 0 -0.00075061751244966265 -0.00022622061314072248 0 -0.00063341186438729477 -0.00019937945906977752 0 -0.00074713253595066564 -0.00018099988233565627 0 -0.00068067052028005306 -0.00013391925239437648 0 -0.00082413536172086955 -0.00027611571448454966 0 -0.00064855237466936437 -0.00013430584848099034 0 -0.00089386286366875049 -0.0003822947490360227 0 -0.00071997086951342286 -0.00027203381860016853 0 -0.00076630345689950063 -0.00027147955508866859 0 -0.00063434580579073755 -5.6625253396177035e-05 0 -0.0007575384726235361 -4.2612374918769473e-06 0 -0.00056197293943481476 -1.65701729360712e-05 0 -0.00086591012587116148 -0.00017597675513826591 0 -0.00074713253595066564 -0.00018099988233565627 0 -0.00079649057264891414 -0.00011152153285498682 0 -0.00074713253595066564 -0.00018099988233565627 0 -0.00073193750565818622 -0.00011194855872781687 0 -0.00079649057264891414 -0.00011152153285498682 0 -0.00073193750565818622 -0.00011194855872781687 0 -0.00079649057264891414 -0.00011152153285498682 0 -0.0007513513557627806 -6.4029952410368338e-05 0 -0.00059852710845440665 -0.00010151091863966713 0 -0.00068067052028005306 -0.00013391925239437648 0 -0.00068080873603860374 -7.0260929998232187e-05 0 -0.00074713253595066564 -0.00018099988233565627 0 -0.00073193750565818622 -0.00011194855872781687 0 -0.00068067052028005306 -0.00013391925239437648 0 -0.00073193750565818622 -0.00011194855872781687 0 -0.00068067052028005306 -0.00013391925239437648 0 -0.00068080873603860374 -7.0260929998232187e-05 0 -0.00068080873603860374 -7.0260929998232187e-05 0 -0.00071027054001329205 7.4752396307898811e-06 0 -0.00061793723715233742 -2.6552557429398788e-05 0 -0.00068080873603860374 -7.0260929998232187e-05 0 -0.0007513513557627806 -6.4029952410368338e-05 0 -0.00071027054001329205 7.4752396307898811e-06 0 -0.00073193750565818622 -0.00011194855872781687 0 -0.00068080873603860374 -7.0260929998232187e-05 0 -0.0007513513557627806 -6.4029952410368338e-05 0 -0.00084597847284205159 -3.433286468632651e-05 0 -0.0007513513557627806 -6.4029952410368338e-05 0 -0.00071027054001329205 7.4752396307898811e-06 0 -0.00084597847284205159 -3.433286468632651e-05 0 -0.00079649057264891414 -0.00011152153285498682 0 -0.0007513513557627806 -6.4029952410368338e-05 0 -0.00096971182949046736 -0.00018986800796150075 0 -0.00077608260231039686 -8.9974486006048614e-05 0 -0.0010942509455256553 -0.00035043382144661124 0 -0.0010193246336953666 -0.0001420406078779354 0 -0.00083129819749892158 -0.0001894078491152052 0 -0.00077608260231039686 -8.9974486006048614e-05 0 -0.00063515036834167868 3.805401130037192e-06 0 -0.00071027054001329205 7.4752396307898811e-06 0 -0.00061793723715233742 -2.6552557429398788e-05 0 -0.00062389556655632243 1.7202175755122731e-05 0 -0.00061793723715233742 -2.6552557429398788e-05 0 -0.00055165335792014582 1.048869014558642e-05 0 -0.00062389556655632243 1.7202175755122731e-05 0 -0.00059852710845440665 -0.00010151091863966713 0 -0.00068080873603860374 -7.0260929998232187e-05 0 -0.00061793723715233742 -2.6552557429398788e-05 0 -0.00059852710845440665 -0.00010151091863966713 0 -0.00061793723715233742 -2.6552557429398788e-05 0 -0.00052823615810904123 -3.9127210807054755e-05 0 -0.00052823615810904123 -3.9127210807054755e-05 0 -0.00055165335792014582 1.048869014558642e-05 0 -0.0004776095738835379 -5.7546854840754287e-06 0 -0.00061793723715233742 -2.6552557429398788e-05 0 -0.00052823615810904123 -3.9127210807054755e-05 0 -0.00055165335792014582 1.048869014558642e-05 0 -0.00055165335792014582 1.048869014558642e-05 0 -0.00049258002156324734 5.15670041386869e-05 0 -0.0004776095738835379 -5.7546854840754287e-06 0 -0.00049258002156324734 5.15670041386869e-05 0 -0.00044432488071585578 2.8820801354778147e-05 0 -0.0004776095738835379 -5.7546854840754287e-06 0 -0.00049258002156324734 5.15670041386869e-05 0 -0.00044432488071585578 2.8820801354778147e-05 0 -0.00042867813344845058 7.3914312756532733e-05 0 -0.00044432488071585578 2.8820801354778147e-05 0 -0.00040796644220590102 2.9668470951203136e-05 0 -0.00042867813344845058 7.3914312756532733e-05 0 -0.00044432488071585578 2.8820801354778147e-05 0 -0.00042838464113548956 -1.4536974137032091e-06 0 -0.0004776095738835379 -5.7546854840754287e-06 0 -0.00044432488071585578 2.8820801354778147e-05 0 -0.00042838464113548956 -1.4536974137032091e-06 0 -0.00040796644220590102 2.9668470951203136e-05 0 -0.00042838464113548956 -1.4536974137032091e-06 0 -0.00040101600007242267 2.7882241016099276e-06 0 -0.00040796644220590102 2.9668470951203136e-05 0 -0.00042838464113548956 -1.4536974137032091e-06 0 -0.00045307345031158497 -4.1002149223388337e-05 0 -0.00040407548011915764 -2.6619256567694347e-05 0 -0.00042838464113548956 -1.4536974137032091e-06 0 -0.00040407548011915764 -2.6619256567694347e-05 0 -0.00040101600007242267 2.7882241016099276e-06 0 -0.00052823615810904123 -3.9127210807054755e-05 0 -0.0004776095738835379 -5.7546854840754287e-06 0 -0.00045307345031158497 -4.1002149223388337e-05 0 -0.00042838464113548956 -1.4536974137032091e-06 0 -0.0004776095738835379 -5.7546854840754287e-06 0 -0.00045307345031158497 -4.1002149223388337e-05 0 -0.00050488549575302777 -8.5064627080678613e-05 0 -0.00045307345031158497 -4.1002149223388337e-05 0 -0.00041311074184839088 -7.8392356412208304e-05 0 -0.00040407548011915764 -2.6619256567694347e-05 0 -0.00041311074184839088 -7.8392356412208304e-05 0 -0.0003620737938655463 -3.8925847011697633e-06 0 -0.00041311074184839088 -7.8392356412208304e-05 0 -0.0003620737938655463 -3.8925847011697633e-06 0 -0.00037475595287136108 -9.7026331968594679e-05 0 -0.00050488549575302777 -8.5064627080678613e-05 0 -0.00052823615810904123 -3.9127210807054755e-05 0 -0.00045307345031158497 -4.1002149223388337e-05 0 -0.00045307345031158497 -4.1002149223388337e-05 0 -0.00040407548011915764 -2.6619256567694347e-05 0 -0.00041311074184839088 -7.8392356412208304e-05 0 -0.00049890800690227319 -0.00011336996333092809 0 -0.00042000448441889814 -8.3112237500614864e-05 0 -0.0003620737938655463 -3.8925847011697633e-06 0 -0.00042650006529095869 4.6230485438942112e-05 0 -0.00035769927850840097 0.00013132893677987779 0 -0.00040407548011915764 -2.6619256567694347e-05 0 -0.0003620737938655463 -3.8925847011697633e-06 0 -0.00039053557820137633 -6.6771856667219826e-06 0 -0.0003620737938655463 -3.8925847011697633e-06 0 -0.00041102414609600467 3.8551916789874215e-06 0 -0.00039053557820137633 -6.6771856667219826e-06 0 -0.0003620737938655463 -3.8925847011697633e-06 0 -0.00041102414609600467 3.8551916789874215e-06 0 -0.00042650006529095869 4.6230485438942112e-05 0 -0.00041102414609600467 3.8551916789874215e-06 0 -0.00039891409157665104 2.3582423639404239e-07 0 -0.00041398031136726307 -8.7674732640754339e-07 0 -0.00041102414609600467 3.8551916789874215e-06 0 -0.00039891409157665104 2.3582423639404239e-07 0 -0.00039053557820137633 -6.6771856667219826e-06 0 -0.00040407548011915764 -2.6619256567694347e-05 0 -0.00039053557820137633 -6.6771856667219826e-06 0 -0.00040101600007242267 2.7882241016099276e-06 0 -0.00039891409157665104 2.3582423639404239e-07 0 -0.00039053557820137633 -6.6771856667219826e-06 0 -0.00040101600007242267 2.7882241016099276e-06 0 -0.00040101600007242267 2.7882241016099276e-06 0 -0.00040796644220590102 2.9668470951203136e-05 0 -0.00039788444899863616 1.2277847873974038e-05 0 -0.00039891409157665104 2.3582423639404239e-07 0 -0.00040101600007242267 2.7882241016099276e-06 0 -0.00039788444899863616 1.2277847873974038e-05 0 -0.00040796644220590102 2.9668470951203136e-05 0 -0.00039788444899863616 1.2277847873974038e-05 0 -0.0003976395871034071 3.0451019534876026e-05 0 -0.00039891409157665104 2.3582423639404239e-07 0 -0.00041398031136726307 -8.7674732640754339e-07 0 -0.00039788444899863616 1.2277847873974038e-05 0 -0.00039788444899863616 1.2277847873974038e-05 0 -0.00041349869919501535 5.1592086612471151e-07 0 -0.00039901006922847125 1.8956022079402311e-05 0 -0.00041398031136726307 -8.7674732640754339e-07 0 -0.00039788444899863616 1.2277847873974038e-05 0 -0.00041349869919501535 5.1592086612471151e-07 0 -0.00041398031136726307 -8.7674732640754339e-07 0 -0.00041349869919501535 5.1592086612471151e-07 0 -0.0004352598284330424 -1.0975697507182222e-05 0 -0.00041398031136726307 -8.7674732640754339e-07 0 -0.0004352598284330424 -1.0975697507182222e-05 0 -0.00044701279300113518 -4.04018770088778e-06 0 -0.0004352598284330424 -1.0975697507182222e-05 0 -0.00046496952659423585 -2.0147136484032611e-05 0 -0.00044701279300113518 -4.04018770088778e-06 0 -0.0004352598284330424 -1.0975697507182222e-05 0 -0.00046496952659423585 -2.0147136484032611e-05 0 -0.00045424923022573273 -2.5001000047318032e-05 0 -0.00046496952659423585 -2.0147136484032611e-05 0 -0.00049978222501594961 -3.4980571548369695e-05 0 -0.00047102106581137893 -3.0445325885202952e-05 0 -0.00046496952659423585 -2.0147136484032611e-05 0 -0.00049085178510192785 -1.348646728903678e-05 0 -0.00049978222501594961 -3.4980571548369695e-05 0 -0.00046496952659423585 -2.0147136484032611e-05 0 -0.00049085178510192785 -1.348646728903678e-05 0 -0.00044701279300113518 -4.04018770088778e-06 0 -0.00049085178510192785 -1.348646728903678e-05 0 -0.00044701279300113518 -4.04018770088778e-06 0 -0.00046474358230545103 1.6501002847204758e-05 0 -0.00049085178510192785 -1.348646728903678e-05 0 -0.0005314975703447864 1.2830692120024291e-05 0 -0.00046474358230545103 1.6501002847204758e-05 0 -0.00041102414609600467 3.8551916789874215e-06 0 -0.00044701279300113518 -4.04018770088778e-06 0 -0.00046474358230545103 1.6501002847204758e-05 0 -0.00041102414609600467 3.8551916789874215e-06 0 -0.00041398031136726307 -8.7674732640754339e-07 0 -0.00044701279300113518 -4.04018770088778e-06 0 -0.00061320353030144457 -3.8252659977335897e-05 0 -0.00056897257606523626 -2.9821012995460656e-05 0 -0.00054244020686687296 -5.1211088490491744e-05 0 -0.00015260319651796742 0.0012352807008080104 0 -0.00013540155500157034 0.001041419036234307 0 -0.00061320353030144457 -3.8252659977335897e-05 0 -0.00056897257606523626 -2.9821012995460656e-05 0 -0.00058305975604891296 -8.0348431855633235e-06 0 -0.00056897257606523626 -2.9821012995460656e-05 0 -0.00053433083180740818 -2.1381704217594995e-05 0 -0.00058305975604891296 -8.0348431855633235e-06 0 -0.00053433083180740818 -2.1381704217594995e-05 0 -0.00049978222501594961 -3.4980571548369695e-05 0 -0.00054244020686687296 -5.1211088490491744e-05 0 -0.00056897257606523626 -2.9821012995460656e-05 0 -0.00053433083180740818 -2.1381704217594995e-05 0 -0.00054244020686687296 -5.1211088490491744e-05 0 -0.00049085178510192785 -1.348646728903678e-05 0 -0.00053433083180740818 -2.1381704217594995e-05 0 -0.00049978222501594961 -3.4980571548369695e-05 0 -0.00053433083180740818 -2.1381704217594995e-05 0 -0.0005314975703447864 1.2830692120024291e-05 0 -0.00058305975604891296 -8.0348431855633235e-06 0 -0.00049085178510192785 -1.348646728903678e-05 0 -0.00053433083180740818 -2.1381704217594995e-05 0 -0.0005314975703447864 1.2830692120024291e-05 0 -0.0005314975703447864 1.2830692120024291e-05 0 -0.00058305975604891296 -8.0348431855633235e-06 0 -0.00060799221973850616 2.9767305195088665e-05 0 -0.0006562204566598266 1.5947301730128338e-05 0 -0.00058305975604891296 -8.0348431855633235e-06 0 -0.00060799221973850616 2.9767305195088665e-05 0 -0.0005314975703447864 1.2830692120024291e-05 0 -0.00060799221973850616 2.9767305195088665e-05 0 -0.00059038236239003419 7.2755665890420377e-05 0 -0.0007357041907995862 8.7453881278463282e-05 0 -0.00060799221973850616 2.9767305195088665e-05 0 -0.00059038236239003419 7.2755665890420377e-05 0 -0.0005314975703447864 1.2830692120024291e-05 0 -0.00059038236239003419 7.2755665890420377e-05 0 -0.00050238882408132801 6.2696163087641452e-05 0 -0.00059038236239003419 7.2755665890420377e-05 0 -0.00050238882408132801 6.2696163087641452e-05 0 -0.00054960163062119788 0.00013451483981539238 0 -0.00059038236239003419 7.2755665890420377e-05 0 -0.00067189385473735784 0.00016664253529761808 0 -0.00054960163062119788 0.00013451483981539238 0 -0.00041102414609600467 3.8551916789874215e-06 0 -0.00046474358230545103 1.6501002847204758e-05 0 -0.00042650006529095869 4.6230485438942112e-05 0 -0.0005314975703447864 1.2830692120024291e-05 0 -0.00046474358230545103 1.6501002847204758e-05 0 -0.00050238882408132801 6.2696163087641452e-05 0 -0.00046474358230545103 1.6501002847204758e-05 0 -0.00050238882408132801 6.2696163087641452e-05 0 -0.00042650006529095869 4.6230485438942112e-05 0 -0.00050238882408132801 6.2696163087641452e-05 0 -0.00048092270888784296 0.00011273253522139707 0 -0.00054960163062119788 0.00013451483981539238 0 -0.00050238882408132801 6.2696163087641452e-05 0 -0.00042650006529095869 4.6230485438942112e-05 0 -0.00048092270888784296 0.00011273253522139707 0 -0.00042650006529095869 4.6230485438942112e-05 0 -0.00042685451720974162 0.00014561222125000306 0 -0.00035769927850840097 0.00013132893677987779 0 -0.00042650006529095869 4.6230485438942112e-05 0 -0.00042685451720974162 0.00014561222125000306 0 -0.00048092270888784296 0.00011273253522139707 0 -0.00048092270888784296 0.00011273253522139707 0 -0.00051348558895402915 0.000181103116426806 0 -0.00054960163062119788 0.00013451483981539238 0 -0.00042685451720974162 0.00014561222125000306 0 -0.00048092270888784296 0.00011273253522139707 0 -0.00051348558895402915 0.000181103116426806 0 -0.00042685451720974162 0.00014561222125000306 0 -0.00051348558895402915 0.000181103116426806 0 -0.00045477052192530745 0.00020951310840602847 0 -0.00051348558895402915 0.000181103116426806 0 -0.00045477052192530745 0.00020951310840602847 0 -0.00053457280647470839 0.00023239749941020589 0 -0.00042685451720974162 0.00014561222125000306 0 -0.00045477052192530745 0.00020951310840602847 0 -0.0003674188689047382 0.00022479956917412938 0 -0.00067189385473735784 0.00016664253529761808 0 -0.00054960163062119788 0.00013451483981539238 0 -0.0005872478244977826 0.0002194237903279528 0 -0.00051348558895402915 0.000181103116426806 0 -0.00054960163062119788 0.00013451483981539238 0 -0.0005872478244977826 0.0002194237903279528 0 -0.0005872478244977826 0.0002194237903279528 0 -0.00060576722598806453 0.00024694190147610436 0 -0.00053457280647470839 0.00023239749941020589 0 -0.00051348558895402915 0.000181103116426806 0 -0.0005872478244977826 0.0002194237903279528 0 -0.00053457280647470839 0.00023239749941020589 0 -0.00072153063894504993 0.00037813071445996657 0 -0.00060000336729450665 0.00023521744516141513 0 -0.00074303303569773593 0.00051997068200404907 0 -0.00074882616925098634 0.00032773922878795599 0 -0.0005872478244977826 0.0002194237903279528 0 -0.00074882616925098634 0.00032773922878795599 0 -0.00067189385473735784 0.00016664253529761808 0 -0.0005872478244977826 0.0002194237903279528 0 -0.00069397276908206025 0.00024456939439497798 0 -0.00060576722598806453 0.00024694190147610436 0 -0.00067942852937576657 0.00032231448751666861 0 -0.00069397276908206025 0.00024456939439497798 0 -0.0005872478244977826 0.0002194237903279528 0 -0.00060576722598806453 0.00024694190147610436 0 -0.00053457280647470839 0.00023239749941020589 0 -0.00058106952760897477 0.00029833548675353515 0 -0.00047765600248843851 0.0002808537259535113 0 -0.00060576722598806453 0.00024694190147610436 0 -0.00053457280647470839 0.00023239749941020589 0 -0.00058106952760897477 0.00029833548675353515 0 -0.00054869486434453449 0.00034957507654209685 0 -0.00058106952760897477 0.00029833548675353515 0 -0.00047765600248843851 0.0002808537259535113 0 -0.00054869486434453449 0.00034957507654209685 0 -0.0006777831806603151 0.00041768717522726382 0 -0.00058106952760897477 0.00029833548675353515 0 -0.00060576722598806453 0.00024694190147610436 0 -0.00058106952760897477 0.00029833548675353515 0 -0.00067942852937576657 0.00032231448751666861 0 -0.0006777831806603151 0.00041768717522726382 0 -0.00058106952760897477 0.00029833548675353515 0 -0.00067942852937576657 0.00032231448751666861 0 -0.00045477052192530745 0.00020951310840602847 0 -0.00041238178064238322 0.000259727215667983 0 -0.0003674188689047382 0.00022479956917412938 0 -0.00045477052192530745 0.00020951310840602847 0 -0.00053457280647470839 0.00023239749941020589 0 -0.00047765600248843851 0.0002808537259535113 0 -0.00045477052192530745 0.00020951310840602847 0 -0.00041238178064238322 0.000259727215667983 0 -0.00047765600248843851 0.0002808537259535113 0 -0.00038236797126267743 0.00029468838643847018 0 -0.0004755367896126205 0.00034219436636333939 0 -0.00047765600248843851 0.0002808537259535113 0 -0.0004755367896126205 0.00034219436636333939 0 -0.00054869486434453449 0.00034957507654209685 0 -0.00047765600248843851 0.0002808537259535113 0 -0.00038236797126267743 0.00029468838643847018 0 -0.00041238178064238322 0.000259727215667983 0 -0.0003812660409971839 0.00028631050143955 0 -0.00038236797126267743 0.00029468838643847018 0 -0.00041238178064238322 0.000259727215667983 0 -0.00047765600248843851 0.0002808537259535113 0 -0.00041238178064238322 0.000259727215667983 0 -0.0003812660409971839 0.00028631050143955 0 -0.0003674188689047382 0.00022479956917412938 0 -0.00037849976980642268 -5.2623224983105484e-05 0 -0.00035751412265389097 -0.00012264598300652137 0 -0.00032951321846065297 -0.00012976664138066049 0 -0.00037263670045043835 0.00011973056680693306 0 -0.00036256420378457223 5.2848929084181923e-05 0 -0.00035751412265389097 -0.00012264598300652137 0 -0.00032951321846065297 -0.00012976664138066049 0 -0.00034730891601698254 -0.00012129001529196981 0 -0.00037849976980642268 -5.2623224983105484e-05 0 -0.00032951321846065297 -0.00012976664138066049 0 -0.0003088594151926798 -9.7256114245896399e-05 0 -0.00029666165671922255 1.1625377880233394e-05 0 -0.00037849976980642268 -5.2623224983105484e-05 0 -0.0003088594151926798 -9.7256114245896399e-05 0 -0.00029666165671922255 1.1625377880233394e-05 0 -0.0003088594151926798 -9.7256114245896399e-05 0 -0.00030467705135269011 -0.00014922324577170754 0 -0.0003088594151926798 -9.7256114245896399e-05 0 -0.00030467705135269011 -0.00014922324577170754 0 -0.0003243312879889335 -0.00014743340967304216 0 -0.00032028113504057579 -0.00024247648121066427 0 -0.00039124567668222065 -0.00026529424739662403 0 -0.00034170420808386201 -0.00019441273007022287 0 -0.00032028113504057579 -0.00024247648121066427 0 -0.00030467705135269011 -0.00014922324577170754 0 -0.00034170420808386201 -0.00019441273007022287 0 -0.00030467705135269011 -0.00014922324577170754 0 -0.00034170420808386201 -0.00019441273007022287 0 -0.0003243312879889335 -0.00014743340967304216 0 -0.00036410888224452291 -0.00016535719791310773 0 -0.0003243312879889335 -0.00014743340967304216 0 -0.00035465324428291868 -0.00013463993539055788 0 -0.00038574150562179556 -0.00021120492451224461 0 -0.00034170420808386201 -0.00019441273007022287 0 -0.00036410888224452291 -0.00016535719791310773 0 -0.00034170420808386201 -0.00019441273007022287 0 -0.00036410888224452291 -0.00016535719791310773 0 -0.0003243312879889335 -0.00014743340967304216 0 -0.00032951321846065297 -0.00012976664138066049 0 -0.0003243312879889335 -0.00014743340967304216 0 -0.00035465324428291868 -0.00013463993539055788 0 -0.00032951321846065297 -0.00012976664138066049 0 -0.0003088594151926798 -9.7256114245896399e-05 0 -0.0003243312879889335 -0.00014743340967304216 0 -0.00035465324428291868 -0.00013463993539055788 0 -0.00037475595287136108 -9.7026331968594679e-05 0 -0.00034730891601698254 -0.00012129001529196981 0 -0.00032951321846065297 -0.00012976664138066049 0 -0.00035465324428291868 -0.00013463993539055788 0 -0.00034730891601698254 -0.00012129001529196981 0 -0.00035465324428291868 -0.00013463993539055788 0 -0.00038256949413438952 -0.00011141811925344239 0 -0.00037475595287136108 -9.7026331968594679e-05 0 -0.00040652464272316919 -0.00017119809141898269 0 -0.00036410888224452291 -0.00016535719791310773 0 -0.00038067304062918328 -0.00013743852138684888 0 -0.00036410888224452291 -0.00016535719791310773 0 -0.00035465324428291868 -0.00013463993539055788 0 -0.00038067304062918328 -0.00013743852138684888 0 -0.00035465324428291868 -0.00013463993539055788 0 -0.00038067304062918328 -0.00013743852138684888 0 -0.00038256949413438952 -0.00011141811925344239 0 -0.000407780520862509 -0.00010483208694072669 0 -0.00038067304062918328 -0.00013743852138684888 0 -0.00038256949413438952 -0.00011141811925344239 0 -0.000407780520862509 -0.00010483208694072669 0 -0.00041311074184839088 -7.8392356412208304e-05 0 -0.00038256949413438952 -0.00011141811925344239 0 -0.00041311074184839088 -7.8392356412208304e-05 0 -0.00038256949413438952 -0.00011141811925344239 0 -0.00037475595287136108 -9.7026331968594679e-05 0 -0.0003620737938655463 -3.8925847011697633e-06 0 -0.00037475595287136108 -9.7026331968594679e-05 0 -0.00033308536183375339 -9.8572735277734102e-05 0 -0.00037475595287136108 -9.7026331968594679e-05 0 -0.00033308536183375339 -9.8572735277734102e-05 0 -0.00034730891601698254 -0.00012129001529196981 0 -0.00035727431263751146 -2.1656600613011733e-06 0 -0.00034953265833411254 1.7289934742180109e-05 0 -0.00042685451720974162 0.00014561222125000306 0 -0.0003674188689047382 0.00022479956917412938 0 -0.00035769927850840097 0.00013132893677987779 0 -0.00036256420378457223 5.2848929084181923e-05 0 -0.00034953265833411254 1.7289934742180109e-05 0 -0.00035751412265389097 -0.00012264598300652137 0 -0.00033308536183375339 -9.8572735277734102e-05 0 -0.00034730891601698254 -0.00012129001529196981 0 5.1448901076018883e-06 -0.0049845724517746564 0 6.2617596706986162e-06 -0.0049839266114671318 0 1.9328808815230807e-06 -0.0049937071409622653 0 -3.8691474088095204e-10 -0.0049999864340655288 0 5.1448901076018883e-06 -0.0049845724517746564 0 1.9328808815230807e-06 -0.0049937071409622653 0 -3.8691474088095204e-10 -0.0049999864340655288 0 5.1448901076018883e-06 -0.0049845724517746564 0 4.0933027329564642e-09 -0.0049999856978501884 0 5.1448901076018883e-06 -0.0049845724517746564 0 1.3688746232441015e-05 -0.0049671804187308172 0 1.5360738695070812e-05 -0.0049632601265405451 0 1.3688746232441015e-05 -0.0049671804187308172 0 2.3092056676782857e-05 -0.0049489880291014657 0 1.5360738695070812e-05 -0.0049632601265405451 0 1.3688746232441015e-05 -0.0049671804187308172 0 1.0836792006766456e-05 -0.004986716206569871 0 2.2270658084959873e-05 -0.0049833526227410687 0 1.3688746232441015e-05 -0.0049671804187308172 0 2.2270658084959873e-05 -0.0049833526227410687 0 2.3349522694595912e-05 -0.0049566736457579558 0 1.3688746232441015e-05 -0.0049671804187308172 0 2.3349522694595912e-05 -0.0049566736457579558 0 2.3092056676782857e-05 -0.0049489880291014657 0 1.3688746232441015e-05 -0.0049671804187308172 0 6.2617596706986162e-06 -0.0049839266114671318 0 1.0836792006766456e-05 -0.004986716206569871 0 5.1448901076018883e-06 -0.0049845724517746564 0 1.3688746232441015e-05 -0.0049671804187308172 0 6.2617596706986162e-06 -0.0049839266114671318 0 6.2617596706986162e-06 -0.0049839266114671318 0 1.0836792006766456e-05 -0.004986716206569871 0 4.6582636036379091e-06 -0.0049933659438347894 0 1.0836792006766456e-05 -0.004986716206569871 0 1.0702382199704279e-05 -0.0049982819887261637 0 4.6582636036379091e-06 -0.0049933659438347894 0 2.04374223811709e-05 -0.0049670690617957961 0 3.2370331795501098e-05 -0.0048235124579026501 0 1.0836792006766456e-05 -0.004986716206569871 0 2.2270658084959873e-05 -0.0049833526227410687 0 1.0702382199704279e-05 -0.0049982819887261637 0 3.6738619697860524e-05 -0.004901625122432929 0 3.7570029247681765e-05 -0.0048988169972517277 0 3.4035759802666125e-05 -0.0049011647705277661 0 3.2370331795501098e-05 -0.0048235124579026501 0 8.3139812685371396e-05 -0.0046302612393739591 0 1.3334812923493465e-05 -0.0043639420762233826 0 6.3240797504145416e-05 -0.0043769726721019564 0 8.402693422640057e-05 -0.0043026484331626881 0 3.2370331795501098e-05 -0.0048235124579026501 0 -4.2436282061827477e-06 -0.0049984981928525634 0 1.0702382199704279e-05 -0.0049982819887261637 0 3.6783227815117099e-06 -0.004999049966139868 0 4.6582636036379091e-06 -0.0049933659438347894 0 -4.2436282061827477e-06 -0.0049984981928525634 0 3.8602215251370245e-06 -0.0049978761237680011 0 3.6783227815117099e-06 -0.004999049966139868 0 1.5952780697920927e-06 -0.0049972494486709472 0 4.8750603252724737e-07 -0.0049989456456841072 0 3.6783227815117099e-06 -0.004999049966139868 0 4.6582636036379091e-06 -0.0049933659438347894 0 1.5952780697920927e-06 -0.0049972494486709472 0 6.2617596706986162e-06 -0.0049839266114671318 0 1.9328808815230807e-06 -0.0049937071409622653 0 4.6582636036379091e-06 -0.0049933659438347894 0 1.9328808815230807e-06 -0.0049937071409622653 0 4.6582636036379091e-06 -0.0049933659438347894 0 1.5952780697920927e-06 -0.0049972494486709472 0 1.9328808815230807e-06 -0.0049937071409622653 0 2.7406797279823886e-10 -0.0049999962194191847 0 1.5952780697920927e-06 -0.0049972494486709472 0 -3.8691474088095204e-10 -0.0049999864340655288 0 1.9328808815230807e-06 -0.0049937071409622653 0 2.7406797279823886e-10 -0.0049999962194191847 0 2.7406797279823886e-10 -0.0049999962194191847 0 1.5952780697920927e-06 -0.0049972494486709472 0 4.8750603252724737e-07 -0.0049989456456841072 0 4.8750603252724737e-07 -0.0049989456456841072 0 1.195305817104064e-06 -0.0049988229117041792 0 9.4713180818270737e-10 -0.0049999979732642981 0 2.7406797279823886e-10 -0.0049999962194191847 0 4.8750603252724737e-07 -0.0049989456456841072 0 9.4713180818270737e-10 -0.0049999979732642981 0 3.5063244531234765e-06 -0.0049944812194499403 0 4.8750603252724737e-07 -0.0049989456456841072 0 1.195305817104064e-06 -0.0049988229117041792 0 3.5063244531234765e-06 -0.0049944812194499403 0 1.195305817104064e-06 -0.0049988229117041792 0 4.2795920522621652e-06 -0.0049975656622746334 0 -1.8722643495802358e-06 -0.0047221263591818354 0 -2.0269712099544081e-05 -0.0048469307946030268 0 1.195305817104064e-06 -0.0049988229117041792 0 4.2795920522621652e-06 -0.0049975656622746334 0 8.555989574448681e-07 -0.0049997391291744294 0 -2.8358121254110263e-05 -0.004488439114418351 0 -4.817374687013168e-06 -0.0046361900959418873 0 -6.6550991375570007e-05 -0.0046973998381557129 0 1.195305817104064e-06 -0.0049988229117041792 0 8.555989574448681e-07 -0.0049997391291744294 0 9.4713180818270737e-10 -0.0049999979732642981 0 8.555989574448681e-07 -0.0049997391291744294 0 9.4713180818270737e-10 -0.0049999979732642981 0 8.0080267088411648e-12 -0.0050000007312488992 0 -6.6550991375570007e-05 -0.0046973998381557129 0 -1.913364815076762e-07 -0.0049995733561711449 0 -1.0083949226457678e-05 -0.0048346411988011108 0 -2.0269712099544081e-05 -0.0048469307946030268 0 9.9448553813540207e-10 -0.0049999081807008952 0 -4.817374687013168e-06 -0.0046361900959418873 0 -6.6550991375570007e-05 -0.0046973998381557129 0 -1.0083949226457678e-05 -0.0048346411988011108 0 -4.817374687013168e-06 -0.0046361900959418873 0 -1.0083949226457678e-05 -0.0048346411988011108 0 3.9786107803283961e-05 -0.0047499969204960728 0 1.7678250869302563e-08 -0.0047749605091205955 0 3.04901586888194e-05 -0.0046002062557665511 0 -1.0083949226457678e-05 -0.0048346411988011108 0 -6.4348920458763834e-08 -0.0047754651239907417 0 3.9786107803283961e-05 -0.0047499969204960728 0 -1.0083949226457678e-05 -0.0048346411988011108 0 -6.4348920458763834e-08 -0.0047754651239907417 0 6.5669944922567124e-08 -0.0049998688791809895 0 -1.913364815076762e-07 -0.0049995733561711449 0 -1.0083949226457678e-05 -0.0048346411988011108 0 6.5669944922567124e-08 -0.0049998688791809895 0 1.0964086570672e-07 -0.0045039141568368468 0 4.858210649985933e-05 -0.0044031285870282403 0 2.0693300652316888e-07 -0.004232537956838439 0 1.0964086570672e-07 -0.0045039141568368468 0 1.2497198257208154e-05 -0.0044562576456193478 0 4.858210649985933e-05 -0.0044031285870282403 0 -1.6161890698111222e-07 -0.0047746267295581306 0 1.0964086570672e-07 -0.0045039141568368468 0 1.2497198257208154e-05 -0.0044562576456193478 0 3.04901586888194e-05 -0.0046002062557665511 0 7.0432639986402421e-05 -0.0044730711288543546 0 1.2497198257208154e-05 -0.0044562576456193478 0 4.858210649985933e-05 -0.0044031285870282403 0 7.7660024009789801e-05 -0.0044488166556304011 0 -4.817374687013168e-06 -0.0046361900959418873 0 3.9786107803283961e-05 -0.0047499969204960728 0 7.7660024009789801e-05 -0.0044488166556304011 0 -2.8358121254110263e-05 -0.004488439114418351 0 -4.817374687013168e-06 -0.0046361900959418873 0 7.7660024009789801e-05 -0.0044488166556304011 0 3.2370331795501098e-05 -0.0048235124579026501 0 -1.8722643495802358e-06 -0.0047221263591818354 0 9.3050783364447273e-06 -0.0049915815275766778 0 3.5063244531234765e-06 -0.0049944812194499403 0 4.2795920522621652e-06 -0.0049975656622746334 0 1.3334812923493465e-05 -0.0043639420762233826 0 -2.8358121254110263e-05 -0.004488439114418351 0 6.3240797504145416e-05 -0.0043769726721019564 0 -2.8358121254110263e-05 -0.004488439114418351 0 7.7660024009789801e-05 -0.0044488166556304011 0 6.3240797504145416e-05 -0.0043769726721019564 0 7.7660024009789801e-05 -0.0044488166556304011 0 6.3240797504145416e-05 -0.0043769726721019564 0 8.0985345622404948e-05 -0.0043816919188527136 0 6.3240797504145416e-05 -0.0043769726721019564 0 8.0985345622404948e-05 -0.0043816919188527136 0 9.9304266044254237e-05 -0.0043143983097916772 0 8.0985345622404948e-05 -0.0043816919188527136 0 9.8777732900328391e-05 -0.0043354968641495639 0 9.9304266044254237e-05 -0.0043143983097916772 0 9.8777732900328391e-05 -0.0043354968641495639 0 6.9758466657025351e-05 -0.0043767741385570998 0 0.00015134097037483829 -0.0042554970128825219 0 8.0985345622404948e-05 -0.0043816919188527136 0 9.8777732900328391e-05 -0.0043354968641495639 0 6.9758466657025351e-05 -0.0043767741385570998 0 9.7796635144769851e-05 -0.0041759101572972244 0 0.0001413630484436235 -0.0042420489491451852 0 0.00013342050633270464 -0.0039856567925470885 0 0.00010775367964801889 -0.0042046850244770824 0 0.00015134097037483829 -0.0042554970128825219 0 9.8777732900328391e-05 -0.0043354968641495639 0 0.00015134097037483829 -0.0042554970128825219 0 9.9304266044254237e-05 -0.0043143983097916772 0 8.0985345622404948e-05 -0.0043816919188527136 0 6.9758466657025351e-05 -0.0043767741385570998 0 5.455076714885098e-05 -0.0043673994424955724 0 6.9758466657025351e-05 -0.0043767741385570998 0 5.455076714885098e-05 -0.0043673994424955724 0 -4.9921519107891879e-06 -0.0042665694287606316 0 7.7660024009789801e-05 -0.0044488166556304011 0 8.0985345622404948e-05 -0.0043816919188527136 0 5.455076714885098e-05 -0.0043673994424955724 0 4.858210649985933e-05 -0.0044031285870282403 0 7.7660024009789801e-05 -0.0044488166556304011 0 5.455076714885098e-05 -0.0043673994424955724 0 5.455076714885098e-05 -0.0043673994424955724 0 2.0693300652316888e-07 -0.004232537956838439 0 -4.9921519107891879e-06 -0.0042665694287606316 0 2.0693300652316888e-07 -0.004232537956838439 0 -2.9643636119318504e-07 -0.0039619960249938383 0 -4.9921519107891879e-06 -0.0042665694287606316 0 4.858210649985933e-05 -0.0044031285870282403 0 5.455076714885098e-05 -0.0043673994424955724 0 2.0693300652316888e-07 -0.004232537956838439 0 1.5112977917795973e-08 -0.0037521394322461024 0 7.2597663278254566e-08 -0.0039608972088232544 0 1.9572819734305834e-05 -0.0038121971540874358 0 6.9408896346976454e-09 -0.0039614844718643795 0 2.7170241051473615e-05 -0.0040675426784416383 0 7.2597663278254566e-08 -0.0039608972088232544 0 4.2320417036708194e-05 -0.0038553246478181115 0 1.9572819734305834e-05 -0.0038121971540874358 0 4.2320417036708194e-05 -0.0038553246478181115 0 1.9572819734305834e-05 -0.0038121971540874358 0 2.0512602671531423e-05 -0.0039365232156768027 0 2.0512602671531423e-05 -0.0039365232156768027 0 -5.0917031186311807e-05 -0.00407898330140121 0 -6.9076773498741648e-05 -0.0038882251991202012 0 1.9572819734305834e-05 -0.0038121971540874358 0 2.0512602671531423e-05 -0.0039365232156768027 0 -6.9076773498741648e-05 -0.0038882251991202012 0 0.00013342050633270464 -0.0039856567925470885 0 4.2320417036708194e-05 -0.0038553246478181115 0 2.0512602671531423e-05 -0.0039365232156768027 0 9.7796635144769851e-05 -0.0041759101572972244 0 2.7170241051473615e-05 -0.0040675426784416383 0 0.00013342050633270464 -0.0039856567925470885 0 2.0512602671531423e-05 -0.0039365232156768027 0 4.6328685411302348e-05 -0.0041033007302306076 0 0.00013342050633270464 -0.0039856567925470885 0 4.6328685411302348e-05 -0.0041033007302306076 0 0.00010775367964801889 -0.0042046850244770824 0 2.0512602671531423e-05 -0.0039365232156768027 0 4.6328685411302348e-05 -0.0041033007302306076 0 -5.0917031186311807e-05 -0.00407898330140121 0 -6.0168713228397326e-05 -0.0036419040493332559 0 -2.1605592273044344e-05 -0.0034522019799194089 0 4.6328685411302348e-05 -0.0041033007302306076 0 -5.0917031186311807e-05 -0.00407898330140121 0 3.3839708327436763e-05 -0.0042702307240553485 0 -0.00010806848609194702 -0.0031107563800448551 0 -7.8143422120855347e-05 -0.0031500578929332854 0 -0.00013579143037378957 -0.0031524329492935012 0 -0.0001455164127814687 -0.0032005698650874699 0 -0.00014678470652282715 -0.0031989956257497195 0 -0.00015890910247753489 -0.0031795207381031636 0 -2.1605592273044344e-05 -0.0034522019799194089 0 -0.00016717281006715947 -0.0031249326148519076 0 4.5204318902058579e-05 -0.0048996473109092177 0 4.0928565952384246e-05 -0.0049156462467776878 0 0.00010450484025735939 -0.0048980864693474683 0 -0.00014567751363476315 -0.0032039221905955156 0 -0.0001455164127814687 -0.0032005698650874699 0 -0.00014678470652282715 -0.0031989956257497195 0 -0.00014567751363476315 -0.0032039221905955156 0 -0.0001458544430475824 -0.003208951670818732 0 -0.00014678470652282715 -0.0031989956257497195 0 -1.1330727813896377e-05 -0.0041080097538501587 0 -2.3843670090273669e-05 -0.004037027488817845 0 -0.00011544751760889972 -0.003310633873111278 0 -2.1605592273044344e-05 -0.0034522019799194089 0 -0.00014567751363476315 -0.0032039221905955156 0 -0.00014443509647449644 -0.0032060130385548821 0 -0.0001458544430475824 -0.003208951670818732 0 4.6328685411302348e-05 -0.0041033007302306076 0 3.3839708327436763e-05 -0.0042702307240553485 0 0.00010775367964801889 -0.0042046850244770824 0 3.3839708327436763e-05 -0.0042702307240553485 0 0.00010775367964801889 -0.0042046850244770824 0 0.00011801920885321599 -0.0042709531067046296 0 -2.1605592273044344e-05 -0.0034522019799194089 0 -1.1330727813896377e-05 -0.0041080097538501587 0 0.00015100127154492646 -0.0042529507613099397 0 0.00017041567716979727 -0.0042201044148819219 0 8.402693422640057e-05 -0.0043026484331626881 0 0.00010775367964801889 -0.0042046850244770824 0 0.00015134097037483829 -0.0042554970128825219 0 0.00015100127154492646 -0.0042529507613099397 0 -1.1330727813896377e-05 -0.0041080097538501587 0 8.3139812685371396e-05 -0.0046302612393739591 0 0.00015134097037483829 -0.0042554970128825219 0 0.00015100127154492646 -0.0042529507613099397 0 9.9304266044254237e-05 -0.0043143983097916772 0 0.00010775367964801889 -0.0042046850244770824 0 0.00015100127154492646 -0.0042529507613099397 0 0.00011801920885321599 -0.0042709531067046296 0 6.9400295478442027e-05 -0.0041700054878547081 0 -1.1330727813896377e-05 -0.0041080097538501587 0 0.00015100127154492646 -0.0042529507613099397 0 8.402693422640057e-05 -0.0043026484331626881 0 9.9304266044254237e-05 -0.0043143983097916772 0 6.3240797504145416e-05 -0.0043769726721019564 0 8.402693422640057e-05 -0.0043026484331626881 0 9.9304266044254237e-05 -0.0043143983097916772 0 3.6738619697860524e-05 -0.004901625122432929 0 3.4035759802666125e-05 -0.0049011647705277661 0 3.2747274036827867e-05 -0.0049041492230215448 0 3.6738619697860524e-05 -0.004901625122432929 0 3.2747274036827867e-05 -0.0049041492230215448 0 2.9106564911188674e-05 -0.0049010584905494073 0 4.0928565952384246e-05 -0.0049156462467776878 0 3.4035759802666125e-05 -0.0049011647705277661 0 3.2747274036827867e-05 -0.0049041492230215448 0 4.5204318902058579e-05 -0.0048996473109092177 0 4.0928565952384246e-05 -0.0049156462467776878 0 3.2747274036827867e-05 -0.0049041492230215448 0 4.5204318902058579e-05 -0.0048996473109092177 0 3.2747274036827867e-05 -0.0049041492230215448 0 2.9106564911188674e-05 -0.0049010584905494073 0 4.5204318902058579e-05 -0.0048996473109092177 0 2.9106564911188674e-05 -0.0049010584905494073 0 2.9496691307300464e-05 -0.0048737796136974878 0 2.9106564911188674e-05 -0.0049010584905494073 0 2.9496691307300464e-05 -0.0048737796136974878 0 3.0836720902532007e-05 -0.0049217426012902214 0 2.2270658084959873e-05 -0.0049833526227410687 0 2.3349522694595912e-05 -0.0049566736457579558 0 3.0836720902532007e-05 -0.0049217426012902214 0 2.04374223811709e-05 -0.0049670690617957961 0 3.5249399986980285e-05 -0.0049158667956174466 0 3.6738619697860524e-05 -0.004901625122432929 0 2.9106564911188674e-05 -0.0049010584905494073 0 3.0836720902532007e-05 -0.0049217426012902214 0 2.3349522694595912e-05 -0.0049566736457579558 0 2.8817125414484457e-05 -0.0049294733881417507 0 3.0836720902532007e-05 -0.0049217426012902214 0 7.826666563261718e-05 -0.0046709313069916341 0 0.00011933657109790777 -0.0045105925189487259 0 2.3092056676782857e-05 -0.0049489880291014657 0 2.7046916401134489e-05 -0.0049359182250120412 0 1.5360738695070812e-05 -0.0049632601265405451 0 2.3349522694595912e-05 -0.0049566736457579558 0 2.3092056676782857e-05 -0.0049489880291014657 0 2.8817125414484457e-05 -0.0049294733881417507 0 2.3092056676782857e-05 -0.0049489880291014657 0 2.8817125414484457e-05 -0.0049294733881417507 0 2.7046916401134489e-05 -0.0049359182250120412 0 2.8817125414484457e-05 -0.0049294733881417507 0 3.0836720902532007e-05 -0.0049217426012902214 0 3.0339627475847779e-05 -0.0049215125748070642 0 -1.1574062540479587e-05 -0.0048350213836047184 0 7.826666563261718e-05 -0.0046709313069916341 0 2.9496691307300464e-05 -0.0048737796136974878 0 -4.2887448559957012e-05 -0.0048228510751514107 0 5.0311919627873127e-05 -0.004714705106074391 0 4.6494949773988677e-05 -0.0048727019475088632 0 7.826666563261718e-05 -0.0046709313069916341 0 2.9496691307300464e-05 -0.0048737796136974878 0 3.0836720902532007e-05 -0.0049217426012902214 0 3.0339627475847779e-05 -0.0049215125748070642 0 2.9496691307300464e-05 -0.0048737796136974878 0 0.00011123928891043557 -0.0048103135641254496 0 5.0311919627873127e-05 -0.004714705106074391 0 0.00011123928891043557 -0.0048103135641254496 0 0.00021251938546685675 -0.0048084955855484139 0 0.00014824995922909249 -0.0047228005880612994 0 0.00011123928891043557 -0.0048103135641254496 0 0.00010450484025735939 -0.0048980864693474683 0 0.00021251938546685675 -0.0048084955855484139 0 -2.3843670090273669e-05 -0.004037027488817845 0 2.6076512503905565e-05 -0.0040280961182093556 0 2.9496691307300464e-05 -0.0048737796136974878 0 0.00011123928891043557 -0.0048103135641254496 0 0.00010450484025735939 -0.0048980864693474683 0 4.5204318902058579e-05 -0.0048996473109092177 0 2.9496691307300464e-05 -0.0048737796136974878 0 0.00010450484025735939 -0.0048980864693474683 0 -0.00017048411076701079 -0.0031912909142614672 0 -0.00019289029429249118 -0.0031902580356277421 0 -0.00018316970849812427 -0.0031737969125624284 0 -0.00017048411076701079 -0.0031912909142614672 0 -0.0001858097539556822 -0.0032083240942607527 0 -0.00019289029429249118 -0.0031902580356277421 0 -0.00017048411076701079 -0.0031912909142614672 0 -0.00015640890890584859 -0.0031941096036736038 0 -0.00015890910247753489 -0.0031795207381031636 0 -0.00017048411076701079 -0.0031912909142614672 0 -0.00015640890890584859 -0.0031941096036736038 0 -0.00015644377791532369 -0.003208869737362455 0 -0.00014678470652282715 -0.0031989956257497195 0 -0.00015640890890584859 -0.0031941096036736038 0 -0.00015644377791532369 -0.003208869737362455 0 2.6076512503905565e-05 -0.0040280961182093556 0 4.6734348803529771e-05 -0.0038625000023724669 0 -0.00015644377791532369 -0.003208869737362455 0 -0.0001858097539556822 -0.0032083240942607527 0 -0.00017989907049496275 -0.0032363982129234178 0 -0.00017048411076701079 -0.0031912909142614672 0 -0.00015644377791532369 -0.003208869737362455 0 -0.0001858097539556822 -0.0032083240942607527 0 -0.0001858097539556822 -0.0032083240942607527 0 -0.00020576445586567647 -0.0031975169055290845 0 -0.00021068315621730933 -0.0032138302828642307 0 -0.0001858097539556822 -0.0032083240942607527 0 -0.00020576445586567647 -0.0031975169055290845 0 -0.00019289029429249118 -0.0031902580356277421 0 -0.00039909425048686336 -0.0026523133968806589 0 -0.00016960991061696796 -0.0034153396848621009 0 -0.00021068315621730933 -0.0032138302828642307 0 -0.00022478823136144288 -0.0031967646257962889 0 -0.00022067023605648538 -0.0032356987157866474 0 -0.00020576445586567647 -0.0031975169055290845 0 -0.00021068315621730933 -0.0032138302828642307 0 -0.00022478823136144288 -0.0031967646257962889 0 -0.00039909425048686336 -0.0026523133968806589 0 -0.00019741111640124673 -0.0033501882192429264 0 -0.00020576445586567647 -0.0031975169055290845 0 -0.00022478823136144288 -0.0031967646257962889 0 -0.00020668148760423179 -0.003157545029130899 0 -0.00021902408368810084 -0.0031456260783000998 0 -0.00020668148760423179 -0.003157545029130899 0 -0.00022050209795657869 -0.0031501964204327495 0 -0.00039909425048686336 -0.0026523133968806589 0 -0.00064608286097642988 -0.0021944496849050123 0 -0.00020576445586567647 -0.0031975169055290845 0 -0.00019289029429249118 -0.0031902580356277421 0 -0.00020668148760423179 -0.003157545029130899 0 -0.00019289029429249118 -0.0031902580356277421 0 -0.00018316970849812427 -0.0031737969125624284 0 -0.00020668148760423179 -0.003157545029130899 0 -0.00018316970849812427 -0.0031737969125624284 0 -0.00020668148760423179 -0.003157545029130899 0 -0.00019610394588869139 -0.003155088234198238 0 -0.00019610394588869139 -0.003155088234198238 0 -0.00019670112735637951 -0.0031397857678573875 0 -0.00018141067832903231 -0.0031364101401430383 0 -0.00019610394588869139 -0.003155088234198238 0 -0.00019670112735637951 -0.0031397857678573875 0 -0.00021031619035926432 -0.0031400068871445981 0 -0.00020668148760423179 -0.003157545029130899 0 -0.00019610394588869139 -0.003155088234198238 0 -0.00021031619035926432 -0.0031400068871445981 0 -0.00022050209795657869 -0.0031501964204327495 0 -0.00021031619035926432 -0.0031400068871445981 0 -0.00023646124276965712 -0.0031195996218774651 0 -0.00020668148760423179 -0.003157545029130899 0 -0.00022050209795657869 -0.0031501964204327495 0 -0.00021031619035926432 -0.0031400068871445981 0 -0.00021031619035926432 -0.0031400068871445981 0 -0.0002128831265863141 -0.0031188872765378992 0 -0.00023646124276965712 -0.0031195996218774651 0 -0.00021031619035926432 -0.0031400068871445981 0 -0.0002128831265863141 -0.0031188872765378992 0 -0.000197858405027128 -0.0031276798523466815 0 -0.0002128831265863141 -0.0031188872765378992 0 -0.000197858405027128 -0.0031276798523466815 0 -0.0001998013594133579 -0.0031085405186407557 0 -0.0002128831265863141 -0.0031188872765378992 0 -0.00021958929953367785 -0.0030982302621518367 0 -0.00023646124276965712 -0.0031195996218774651 0 -0.00018141067832903231 -0.0031364101401430383 0 -0.000197858405027128 -0.0031276798523466815 0 -0.00018050329444024228 -0.003116257547848398 0 -0.00018141067832903231 -0.0031364101401430383 0 -0.00018050329444024228 -0.003116257547848398 0 -0.00016612356444423203 -0.003126276874796077 0 -0.00019670112735637951 -0.0031397857678573875 0 -0.00021031619035926432 -0.0031400068871445981 0 -0.000197858405027128 -0.0031276798523466815 0 -0.00019670112735637951 -0.0031397857678573875 0 -0.00018141067832903231 -0.0031364101401430383 0 -0.000197858405027128 -0.0031276798523466815 0 -0.000197858405027128 -0.0031276798523466815 0 -0.00018050329444024228 -0.003116257547848398 0 -0.0001998013594133579 -0.0031085405186407557 0 -0.00018141067832903231 -0.0031364101401430383 0 -0.00016612356444423203 -0.003126276874796077 0 -0.00013579143037378957 -0.0031524329492935012 0 -0.00018050329444024228 -0.003116257547848398 0 -0.00016612356444423203 -0.003126276874796077 0 -0.00015861538616732503 -0.0031032201598473674 0 -0.00016612356444423203 -0.003126276874796077 0 -0.00013579143037378957 -0.0031524329492935012 0 -0.00015861538616732503 -0.0031032201598473674 0 -0.00018316970849812427 -0.0031737969125624284 0 -0.00019610394588869139 -0.003155088234198238 0 -0.00015890910247753489 -0.0031795207381031636 0 -0.00017048411076701079 -0.0031912909142614672 0 -0.00018316970849812427 -0.0031737969125624284 0 -0.00015890910247753489 -0.0031795207381031636 0 -0.00018753250317340655 -0.0031689910866237758 0 -0.00016717281006715947 -0.0031249326148519076 0 -0.00019610394588869139 -0.003155088234198238 0 -0.00018141067832903231 -0.0031364101401430383 0 -0.00013579143037378957 -0.0031524329492935012 0 -0.00014678470652282715 -0.0031989956257497195 0 -0.00015640890890584859 -0.0031941096036736038 0 -0.00015890910247753489 -0.0031795207381031636 0 -0.00010806848609194702 -0.0031107563800448551 0 -0.00013579143037378957 -0.0031524329492935012 0 -0.00015861538616732503 -0.0031032201598473674 0 -0.00010806848609194702 -0.0031107563800448551 0 -0.00015861538616732503 -0.0031032201598473674 0 -0.00014144550295077564 -0.0030731100218905068 0 -6.0168713228397326e-05 -0.0036419040493332559 0 -0.00010807099658415983 -0.0034775401645028101 0 -0.00015861538616732503 -0.0031032201598473674 0 -0.00016208605256172755 -0.0030782723860099488 0 -0.00017813731148340497 -0.0030831460576682813 0 -0.00016208605256172755 -0.0030782723860099488 0 -0.00015930283039435064 -0.0030692664246771252 0 -0.00014144550295077564 -0.0030731100218905068 0 -0.00015861538616732503 -0.0031032201598473674 0 -0.00016208605256172755 -0.0030782723860099488 0 -0.00014144550295077564 -0.0030731100218905068 0 -0.00016208605256172755 -0.0030782723860099488 0 -0.00015930283039435064 -0.0030692664246771252 0 -0.00017204073918828026 -0.0030696314781802369 0 1.9572819734305834e-05 -0.0038121971540874358 0 -6.9076773498741648e-05 -0.0038882251991202012 0 -2.9726830819988609e-06 -0.0037147479985773645 0 -6.9076773498741648e-05 -0.0038882251991202012 0 -6.6850431743659729e-05 -0.0036977524467694343 0 -2.9726830819988609e-06 -0.0037147479985773645 0 -0.00010807099658415983 -0.0034775401645028101 0 -0.00010274996249630022 -0.0034008961246134299 0 -0.00015930283039435064 -0.0030692664246771252 0 -0.00014144550295077564 -0.0030731100218905068 0 -0.00017715324100141811 -0.0030835535561739616 0 -0.00015930283039435064 -0.0030692664246771252 0 -0.00015135784873822111 -0.0030650502198754956 0 -0.00017715324100141811 -0.0030835535561739616 0 -6.6850431743659729e-05 -0.0036977524467694343 0 1.6507129714358605e-08 -0.0035423926165937441 0 -2.9726830819988609e-06 -0.0037147479985773645 0 -6.6850431743659729e-05 -0.0036977524467694343 0 1.6507129714358605e-08 -0.0035423926165937441 0 -2.0064933258826255e-07 -0.003333297896074127 0 1.5112977917795973e-08 -0.0037521394322461024 0 1.6507129714358605e-08 -0.0035423926165937441 0 -2.9726830819988609e-06 -0.0037147479985773645 0 1.5112977917795973e-08 -0.0037521394322461024 0 1.9572819734305834e-05 -0.0038121971540874358 0 -2.9726830819988609e-06 -0.0037147479985773645 0 1.9945611854936518e-05 -0.0031255789901926891 0 -2.2210219656661661e-07 -0.0033325282850899655 0 9.7007659951810047e-08 -0.003063511819211277 0 -0.00017715324100141811 -0.0030835535561739616 0 -2.2210219656661661e-07 -0.0033325282850899655 0 -3.903845321166896e-05 -0.0031368525042234233 0 -0.00010274996249630022 -0.0034008961246134299 0 -2.3001963338293016e-08 -0.0033330010418295385 0 1.9945611854936518e-05 -0.0031255789901926891 0 -2.2210219656661661e-07 -0.0033325282850899655 0 -3.903845321166896e-05 -0.0031368525042234233 0 -0.00017093030278007477 -0.0030545486712613293 0 -3.4860529160575609e-05 -0.0031033957473171935 0 -0.00015135784873822111 -0.0030650502198754956 0 -3.903845321166896e-05 -0.0031368525042234233 0 3.5784794402219003e-05 -0.0030667591196608139 0 -0.00015135784873822111 -0.0030650502198754956 0 -0.00020824328671703869 -0.0030421383773537153 0 -0.00017204073918828026 -0.0030696314781802369 0 -0.00015135784873822111 -0.0030650502198754956 0 -0.00017715324100141811 -0.0030835535561739616 0 -3.903845321166896e-05 -0.0031368525042234233 0 -0.00015930283039435064 -0.0030692664246771252 0 -0.00015135784873822111 -0.0030650502198754956 0 -0.00017204073918828026 -0.0030696314781802369 0 1.9945611854936518e-05 -0.0031255789901926891 0 -3.903845321166896e-05 -0.0031368525042234233 0 3.5784794402219003e-05 -0.0030667591196608139 0 1.9945611854936518e-05 -0.0031255789901926891 0 3.5784794402219003e-05 -0.0030667591196608139 0 1.7741453856368732e-05 -0.0030301860447815138 0 -0.00020824328671703869 -0.0030421383773537153 0 -0.00019437377638265577 -0.003070611242267424 0 -0.00022125521299962562 -0.003070254281761334 0 -0.00019437377638265577 -0.003070611242267424 0 -0.00022125521299962562 -0.003070254281761334 0 -0.00019846029120407089 -0.0030880152237178129 0 -0.00020824328671703869 -0.0030421383773537153 0 -0.00019437377638265577 -0.003070611242267424 0 -0.00017204073918828026 -0.0030696314781802369 0 -0.00019437377638265577 -0.003070611242267424 0 -0.00017813731148340497 -0.0030831460576682813 0 -0.00019846029120407089 -0.0030880152237178129 0 -0.00019437377638265577 -0.003070611242267424 0 -0.00017204073918828026 -0.0030696314781802369 0 -0.00017813731148340497 -0.0030831460576682813 0 -0.00016208605256172755 -0.0030782723860099488 0 -0.00017204073918828026 -0.0030696314781802369 0 -0.00017813731148340497 -0.0030831460576682813 0 -0.00015861538616732503 -0.0031032201598473674 0 -0.00017813731148340497 -0.0030831460576682813 0 -0.00018272109968868477 -0.0030993255397227392 0 -0.00017813731148340497 -0.0030831460576682813 0 -0.00018272109968868477 -0.0030993255397227392 0 -0.00019846029120407089 -0.0030880152237178129 0 -0.00018050329444024228 -0.003116257547848398 0 -0.00018272109968868477 -0.0030993255397227392 0 -0.0001998013594133579 -0.0031085405186407557 0 -0.00018272109968868477 -0.0030993255397227392 0 -0.00019846029120407089 -0.0030880152237178129 0 -0.0001998013594133579 -0.0031085405186407557 0 -0.00018050329444024228 -0.003116257547848398 0 -0.00015861538616732503 -0.0031032201598473674 0 -0.00018272109968868477 -0.0030993255397227392 0 -0.00022125521299962562 -0.003070254281761334 0 -0.00019846029120407089 -0.0030880152237178129 0 -0.00021958929953367785 -0.0030982302621518367 0 -0.0002128831265863141 -0.0031188872765378992 0 -0.0001998013594133579 -0.0031085405186407557 0 -0.00021958929953367785 -0.0030982302621518367 0 -0.00019846029120407089 -0.0030880152237178129 0 -0.0001998013594133579 -0.0031085405186407557 0 -0.00021958929953367785 -0.0030982302621518367 0 -0.00022125521299962562 -0.003070254281761334 0 -0.00021958929953367785 -0.0030982302621518367 0 -0.00024888842571835321 -0.0030806477359903279 0 -0.00066291157437170707 -0.0022215035696285007 0 -0.00061693046362821906 -0.0023111801775775064 0 -0.00021958929953367785 -0.0030982302621518367 0 -0.00024888842571835321 -0.0030806477359903279 0 -0.00023646124276965712 -0.0031195996218774651 0 -0.0010194182372517057 -0.0014871836386298957 0 -0.0010016453335538955 -0.0014595712745232214 0 -0.0010185829636825158 -0.0014415724252598437 0 -0.0010194182372517057 -0.0014871836386298957 0 -0.0010016453335538955 -0.0014595712745232214 0 -0.00099145075412086108 -0.0014895439966440148 0 -0.0010016453335538955 -0.0014595712745232214 0 -0.00099145075412086108 -0.0014895439966440148 0 -0.00098493814027629393 -0.0014539847640676401 0 -0.00099145075412086108 -0.0014895439966440148 0 -0.0010081601336312102 -0.0015295730326773851 0 -0.00097800035678106013 -0.0015214244165117946 0 -0.0010194182372517057 -0.0014871836386298957 0 -0.00099145075412086108 -0.0014895439966440148 0 -0.0010081601336312102 -0.0015295730326773851 0 -0.00022125521299962562 -0.003070254281761334 0 -0.00024888842571835321 -0.0030806477359903279 0 -0.00026171440249655407 -0.0030362515572456938 0 -0.00066291157437170707 -0.0022215035696285007 0 -0.00040936321996699031 -0.0025426317466873236 0 -1.8195807358266641e-05 -0.0030500753577420332 0 -3.2328064594754431e-05 -0.0028817221907613722 0 1.7741453856368732e-05 -0.0030301860447815138 0 -0.00020824328671703869 -0.0030421383773537153 0 -0.00022125521299962562 -0.003070254281761334 0 -0.00026171440249655407 -0.0030362515572456938 0 3.5784794402219003e-05 -0.0030667591196608139 0 -1.8195807358266641e-05 -0.0030500753577420332 0 1.7741453856368732e-05 -0.0030301860447815138 0 -3.4860529160575609e-05 -0.0031033957473171935 0 -0.00040936321996699031 -0.0025426317466873236 0 -9.9798733307727497e-05 -0.0026748041311164669 0 -3.2328064594754431e-05 -0.0028817221907613722 0 5.6685959918284666e-06 -0.0027464220489975123 0 -9.9798733307727497e-05 -0.0026748041311164669 0 5.6685959918284666e-06 -0.0027464220489975123 0 2.4116946440112704e-05 -0.0026367085534044605 0 -0.00040936321996699031 -0.0025426317466873236 0 -3.4690768497258439e-06 -0.0030116022223390555 0 -0.00040936321996699031 -0.0025426317466873236 0 -0.00050216881089924499 -0.0020434687302751222 0 -3.2328064594754431e-05 -0.0028817221907613722 0 9.7007659951810047e-08 -0.003063511819211277 0 -5.1392784153860332e-08 -0.002794017475329048 0 -3.2328064594754431e-05 -0.0028817221907613722 0 -5.1392784153860332e-08 -0.002794017475329048 0 5.6685959918284666e-06 -0.0027464220489975123 0 1.9945611854936518e-05 -0.0031255789901926891 0 9.7007659951810047e-08 -0.003063511819211277 0 1.7741453856368732e-05 -0.0030301860447815138 0 -3.2328064594754431e-05 -0.0028817221907613722 0 9.7007659951810047e-08 -0.003063511819211277 0 1.7741453856368732e-05 -0.0030301860447815138 0 2.0487871550200972e-05 -0.0024407597072251029 0 7.6627182486285718e-08 -0.0025246386289867781 0 2.0294704469998428e-05 -0.0026367868312269453 0 7.6627182486285718e-08 -0.0025246386289867781 0 -5.1392784153860332e-08 -0.002794017475329048 0 2.0294704469998428e-05 -0.0026367868312269453 0 -5.1392784153860332e-08 -0.002794017475329048 0 5.6685959918284666e-06 -0.0027464220489975123 0 2.0294704469998428e-05 -0.0026367868312269453 0 5.6685959918284666e-06 -0.0027464220489975123 0 2.0294704469998428e-05 -0.0026367868312269453 0 2.4116946440112704e-05 -0.0026367085534044605 0 2.0294704469998428e-05 -0.0026367868312269453 0 2.4116946440112704e-05 -0.0026367085534044605 0 3.134219659546062e-05 -0.0025244866017160774 0 -0.00050216881089924499 -0.0020434687302751222 0 -0.00044746657712627232 -0.0020423692630134778 0 2.0487871550200972e-05 -0.0024407597072251029 0 2.0294704469998428e-05 -0.0026367868312269453 0 3.134219659546062e-05 -0.0025244866017160774 0 -0.00097800035678106013 -0.0015214244165117946 0 -0.00096452959150228616 -0.0015287948976019203 0 -0.00096625084234260895 -0.0015085682357176668 0 -0.00095365191644974478 -0.0015150259800161324 0 -0.00096452959150228616 -0.0015287948976019203 0 -0.00096625084234260895 -0.0015085682357176668 0 -0.00096625084234260895 -0.0015085682357176668 0 -0.00097557053603189469 -0.0014962709786335404 0 -0.0009648392270148751 -0.0014842548047460627 0 -0.00094884803258392663 -0.0014926880171799166 0 -0.00096625084234260895 -0.0015085682357176668 0 -0.0009648392270148751 -0.0014842548047460627 0 -0.00094884803258392663 -0.0014926880171799166 0 -0.00095365191644974478 -0.0015150259800161324 0 -0.00096625084234260895 -0.0015085682357176668 0 -0.00099145075412086108 -0.0014895439966440148 0 -0.00097800035678106013 -0.0015214244165117946 0 -0.00097557053603189469 -0.0014962709786335404 0 -0.00097800035678106013 -0.0015214244165117946 0 -0.00096625084234260895 -0.0015085682357176668 0 -0.00097557053603189469 -0.0014962709786335404 0 -0.00099145075412086108 -0.0014895439966440148 0 -0.00097734333185939921 -0.0014745902916689681 0 -0.00098493814027629393 -0.0014539847640676401 0 -0.00099145075412086108 -0.0014895439966440148 0 -0.00097557053603189469 -0.0014962709786335404 0 -0.00097734333185939921 -0.0014745902916689681 0 -0.00097557053603189469 -0.0014962709786335404 0 -0.00097734333185939921 -0.0014745902916689681 0 -0.0009648392270148751 -0.0014842548047460627 0 -0.00097734333185939921 -0.0014745902916689681 0 -0.00098493814027629393 -0.0014539847640676401 0 -0.0009653329264119509 -0.0014620919634330397 0 -0.00098493814027629393 -0.0014539847640676401 0 -0.0009653329264119509 -0.0014620919634330397 0 -0.00097112444327272806 -0.0014404918715021562 0 -0.0009648392270148751 -0.0014842548047460627 0 -0.0009653329264119509 -0.0014620919634330397 0 -0.00095357449618152371 -0.0014679497935141516 0 -0.00094884803258392663 -0.0014926880171799166 0 -0.0009648392270148751 -0.0014842548047460627 0 -0.00095357449618152371 -0.0014679497935141516 0 -0.00097734333185939921 -0.0014745902916689681 0 -0.0009648392270148751 -0.0014842548047460627 0 -0.0009653329264119509 -0.0014620919634330397 0 -0.00093267336287240581 -0.0014514239634528193 0 -0.00095357449618152371 -0.0014679497935141516 0 -0.00095791041641817888 -0.0014481822690416662 0 -0.0009653329264119509 -0.0014620919634330397 0 -0.00095357449618152371 -0.0014679497935141516 0 -0.00095791041641817888 -0.0014481822690416662 0 -0.00093267336287240581 -0.0014514239634528193 0 -0.00095791041641817888 -0.0014481822690416662 0 -0.00096238763095044672 -0.0014205012862103857 0 -0.00095791041641817888 -0.0014481822690416662 0 -0.00097112444327272806 -0.0014404918715021562 0 -0.00096238763095044672 -0.0014205012862103857 0 -0.0009653329264119509 -0.0014620919634330397 0 -0.00095791041641817888 -0.0014481822690416662 0 -0.00097112444327272806 -0.0014404918715021562 0 -0.00097112444327272806 -0.0014404918715021562 0 -0.00096238763095044672 -0.0014205012862103857 0 -0.0009815076174829818 -0.001420111328082776 0 -0.00095704297371954788 -0.0013850398953352903 0 -0.00096238763095044672 -0.0014205012862103857 0 -0.00098566928212597145 -0.0013858659238294663 0 -0.00096238763095044672 -0.0014205012862103857 0 -0.00098566928212597145 -0.0013858659238294663 0 -0.0009815076174829818 -0.001420111328082776 0 -0.00098566928212597145 -0.0013858659238294663 0 -0.00098225484450563264 -0.0014009627501108458 0 -0.0009815076174829818 -0.001420111328082776 0 -0.00098225484450563264 -0.0014009627501108458 0 -0.0009815076174829818 -0.001420111328082776 0 -0.00099379905075395211 -0.0014291101007170989 0 -0.00098493814027629393 -0.0014539847640676401 0 -0.0009815076174829818 -0.001420111328082776 0 -0.00099379905075395211 -0.0014291101007170989 0 -0.00098493814027629393 -0.0014539847640676401 0 -0.00097112444327272806 -0.0014404918715021562 0 -0.0009815076174829818 -0.001420111328082776 0 -0.0010016453335538955 -0.0014595712745232214 0 -0.00099379905075395211 -0.0014291101007170989 0 -0.0010185829636825158 -0.0014415724252598437 0 -0.0010016453335538955 -0.0014595712745232214 0 -0.00098493814027629393 -0.0014539847640676401 0 -0.00099379905075395211 -0.0014291101007170989 0 -0.00064608286097642988 -0.0021944496849050123 0 -0.00061693046362821906 -0.0023111801775775064 0 -0.0010083191239649092 -0.0014073470455819928 0 -0.0010185829636825158 -0.0014415724252598437 0 -0.00099344309079279374 -0.0014012485417496247 0 -0.00099379905075395211 -0.0014291101007170989 0 -0.0010185829636825158 -0.0014415724252598437 0 -0.00099344309079279374 -0.0014012485417496247 0 -0.00098225484450563264 -0.0014009627501108458 0 -0.00099379905075395211 -0.0014291101007170989 0 -0.00099344309079279374 -0.0014012485417496247 0 -0.00099344309079279374 -0.0014012485417496247 0 -0.00099406516929874877 -0.0013891193512131524 0 -0.00095948282052094546 -0.0013616504278803892 0 -0.00098225484450563264 -0.0014009627501108458 0 -0.00099344309079279374 -0.0014012485417496247 0 -0.00095948282052094546 -0.0013616504278803892 0 -0.0010083191239649092 -0.0014073470455819928 0 -0.00099344309079279374 -0.0014012485417496247 0 -0.00099406516929874877 -0.0013891193512131524 0 -0.00099339735668696797 -0.0013968805470042844 0 -0.0010083191239649092 -0.0014073470455819928 0 -0.00099406516929874877 -0.0013891193512131524 0 -0.00099339735668696797 -0.0013968805470042844 0 -0.00099406516929874877 -0.0013891193512131524 0 -0.00098860459340521963 -0.001385612193757661 0 -0.00099406516929874877 -0.0013891193512131524 0 -0.00098860459340521963 -0.001385612193757661 0 -0.00095948282052094546 -0.0013616504278803892 0 -0.00074121869877771058 -0.0014818041895556604 0 -0.00095948282052094546 -0.0013616504278803892 0 -0.00096170631345173635 -0.0014864904285730705 0 -0.00092899869818984079 -0.0013312633664073407 0 -0.00091480192937739592 -0.0014064506328256364 0 -0.0010181292609774623 -0.0013782808429255999 0 -0.00095948282052094546 -0.0013616504278803892 0 -0.00096170631345173635 -0.0014864904285730705 0 -0.0010181292609774623 -0.0013782808429255999 0 -0.0010130465615140881 -0.0013529649777230166 0 -0.00095948282052094546 -0.0013616504278803892 0 -0.0010181292609774623 -0.0013782808429255999 0 -0.0010486164805778911 -0.001430732554229213 0 -0.00096170631345173635 -0.0014864904285730705 0 -0.0010749803666431877 -0.0012828634587464828 0 -0.0010181292609774623 -0.0013782808429255999 0 -0.0010130465615140881 -0.0013529649777230166 0 -0.0010749803666431877 -0.0012828634587464828 0 -0.0010181292609774623 -0.0013782808429255999 0 -0.0010486164805778911 -0.001430732554229213 0 -0.00095704297371954788 -0.0013850398953352903 0 -0.00098566928212597145 -0.0013858659238294663 0 -0.0010130465615140881 -0.0013529649777230166 0 -0.00095704297371954788 -0.0013850398953352903 0 -0.0010749803666431877 -0.0012828634587464828 0 -0.0010130465615140881 -0.0013529649777230166 0 -0.00098566928212597145 -0.0013858659238294663 0 -0.00098225484450563264 -0.0014009627501108458 0 -0.00095948282052094546 -0.0013616504278803892 0 -0.00098566928212597145 -0.0013858659238294663 0 -0.0010130465615140881 -0.0013529649777230166 0 -0.00095948282052094546 -0.0013616504278803892 0 -0.0010968965090892174 -0.0018830008576166933 0 -0.00094881804398189856 -0.0016793186283938998 0 -0.00086242890277011522 -0.0018424092738058724 0 -0.0010968965090892174 -0.0018830008576166933 0 -0.0010362404058815941 -0.0015901996615828901 0 -0.00094881804398189856 -0.0016793186283938998 0 -0.0010968965090892174 -0.0018830008576166933 0 -0.00086242890277011522 -0.0018424092738058724 0 -0.00086103047182085727 -0.0020477427820392649 0 -0.00094881804398189856 -0.0016793186283938998 0 -0.00081501249302579331 -0.0016442147175168081 0 -0.00086242890277011522 -0.0018424092738058724 0 -0.0011467315520558505 -0.0013272899705507307 0 -0.0011745531920183318 -0.0011622537556474227 0 -0.0011326246775459476 -0.00075160830396486539 0 -0.0012510562440712883 -0.00069186245883867876 0 -0.0012121779996530696 -0.00081249558101469707 0 -0.0010968965090892174 -0.0018830008576166933 0 -0.0010362404058815941 -0.0015901996615828901 0 -0.0011522072185378329 -0.0015100757355146343 0 -0.0010749803666431877 -0.0012828634587464828 0 -0.0011522072185378329 -0.0015100757355146343 0 -0.0010486164805778911 -0.001430732554229213 0 -0.0010362404058815941 -0.0015901996615828901 0 -0.0011522072185378329 -0.0015100757355146343 0 -0.0010486164805778911 -0.001430732554229213 0 -0.0010362404058815941 -0.0015901996615828901 0 -0.0010486164805778911 -0.001430732554229213 0 -0.00096170631345173635 -0.0014864904285730705 0 -0.0010362404058815941 -0.0015901996615828901 0 -0.00096170631345173635 -0.0014864904285730705 0 -0.00094881804398189856 -0.0016793186283938998 0 -0.00096170631345173635 -0.0014864904285730705 0 -0.00094881804398189856 -0.0016793186283938998 0 -0.00081501249302579331 -0.0016442147175168081 0 -0.00074121869877771058 -0.0014818041895556604 0 -0.00096170631345173635 -0.0014864904285730705 0 -0.00081501249302579331 -0.0016442147175168081 0 -0.00074121869877771058 -0.0014818041895556604 0 -0.00081501249302579331 -0.0016442147175168081 0 -0.0006752968886694034 -0.0017030111761902817 0 -0.00081501249302579331 -0.0016442147175168081 0 -0.0006752968886694034 -0.0017030111761902817 0 -0.00075354504883719698 -0.00182791411536322 0 -0.00099339735668696797 -0.0013968805470042844 0 -0.00098860459340521963 -0.001385612193757661 0 -0.00098574206523370056 -0.0014023988415978212 0 -0.00074121869877771058 -0.0014818041895556604 0 -0.0006752968886694034 -0.0017030111761902817 0 -0.00049579118305943684 -0.0017013921675182498 0 -0.00092899869818984079 -0.0013312633664073407 0 -0.00061622554154551056 -0.0022434197538006425 0 -0.00055712912196015472 -0.0025306837116809088 0 -0.00074163694781626942 -0.0029940708710219774 0 -0.00019769721287682049 -0.0032242610866765982 0 -0.00061622554154551056 -0.0022434197538006425 0 -0.00051252495826620672 -0.0025443535027691896 0 -0.0006752968886694034 -0.0017030111761902817 0 -0.00057097833479107267 -0.0019041011309606857 0 -0.00075354504883719698 -0.00182791411536322 0 -0.0006752968886694034 -0.0017030111761902817 0 -0.00049579118305943684 -0.0017013921675182498 0 -0.00057097833479107267 -0.0019041011309606857 0 -0.000200832516665631 -0.0020053256831339379 0 -0.00059748610942301518 -0.0020505768071163838 0 -0.00075354504883719698 -0.00182791411536322 0 -0.00051252495826620672 -0.0025443535027691896 0 -0.00074840188763111433 -0.0019463158860673813 0 -0.00051252495826620672 -0.0025443535027691896 0 -0.00021854385068894301 -0.0032646636177514365 0 -0.00081501249302579331 -0.0016442147175168081 0 -0.00086242890277011522 -0.0018424092738058724 0 -0.00075354504883719698 -0.00182791411536322 0 -0.00059748610942301518 -0.0020505768071163838 0 -0.00075354504883719698 -0.00182791411536322 0 -0.00074992650811679608 -0.0020293702032030993 0 -0.00086242890277011522 -0.0018424092738058724 0 -0.00075354504883719698 -0.00182791411536322 0 -0.00074992650811679608 -0.0020293702032030993 0 -0.00086242890277011522 -0.0018424092738058724 0 -0.00074992650811679608 -0.0020293702032030993 0 -0.00086103047182085727 -0.0020477427820392649 0 -0.00074992650811679608 -0.0020293702032030993 0 -0.0007107431496251364 -0.0022243786986437175 0 -0.00086103047182085727 -0.0020477427820392649 0 -0.00059748610942301518 -0.0020505768071163838 0 -0.00056048169445959209 -0.0032083598344113521 0 -0.00087956984160470169 -0.0036185438331737905 0 -0.0007107431496251364 -0.0022243786986437175 0 -0.00093202441993461068 -0.0022267932024675288 0 -0.00086103047182085727 -0.0020477427820392649 0 -0.00059748610942301518 -0.0020505768071163838 0 -0.00074992650811679608 -0.0020293702032030993 0 -0.0007107431496251364 -0.0022243786986437175 0 -0.00060594468506128837 -0.0020612363313830405 0 -0.00080135902435255 -0.0030448807071971808 0 -0.00047090246007813156 -0.003181920094909627 0 -0.00043999372631613995 -0.003290020793895794 0 -0.00025380558082595435 -0.0032899226220581821 0 -0.000200832516665631 -0.0020053256831339379 0 -0.00059748610942301518 -0.0020505768071163838 0 -0.00056048169445959209 -0.0032083598344113521 0 -0.00047090246007813156 -0.003181920094909627 0 -0.00043999372631613995 -0.003290020793895794 0 -0.00056048169445959209 -0.0032083598344113521 0 -0.00051252495826620672 -0.0025443535027691896 0 -0.00054934793906954158 -0.0031379641955412338 0 -0.00056048169445959209 -0.0032083598344113521 0 -0.00056954501856786792 -0.0035433201001434183 0 -0.00087956984160470169 -0.0036185438331737905 0 -0.00043999372631613995 -0.003290020793895794 0 -0.00056048169445959209 -0.0032083598344113521 0 -0.00046630573153534936 -0.0034111232693635621 0 -0.00056048169445959209 -0.0032083598344113521 0 -0.00046630573153534936 -0.0034111232693635621 0 -0.00056954501856786792 -0.0035433201001434183 0 -0.00043999372631613995 -0.003290020793895794 0 -0.00046630573153534936 -0.0034111232693635621 0 -0.0003590719564003666 -0.0034656075800650831 0 -0.00046630573153534936 -0.0034111232693635621 0 -0.0003590719564003666 -0.0034656075800650831 0 -0.00045560291560472186 -0.003599707910964851 0 -0.0003590719564003666 -0.0034656075800650831 0 -0.00045560291560472186 -0.003599707910964851 0 -0.00035009919804412405 -0.0036635262375981506 0 -0.00045560291560472186 -0.003599707910964851 0 -0.00046275677197946601 -0.0037631396914862918 0 -0.00035009919804412405 -0.0036635262375981506 0 -0.00045560291560472186 -0.003599707910964851 0 -0.00058487881470125236 -0.0037133328336002008 0 -0.00046275677197946601 -0.0037631396914862918 0 -0.00056954501856786792 -0.0035433201001434183 0 -0.00069232736574741181 -0.0036827313994184873 0 -0.00087956984160470169 -0.0036185438331737905 0 -0.00045560291560472186 -0.003599707910964851 0 -0.00058487881470125236 -0.0037133328336002008 0 -0.00056954501856786792 -0.0035433201001434183 0 -0.00046630573153534936 -0.0034111232693635621 0 -0.00045560291560472186 -0.003599707910964851 0 -0.00056954501856786792 -0.0035433201001434183 0 -0.00058487881470125236 -0.0037133328336002008 0 -0.00056954501856786792 -0.0035433201001434183 0 -0.00069232736574741181 -0.0036827313994184873 0 -0.00058487881470125236 -0.0037133328336002008 0 -0.00069232736574741181 -0.0036827313994184873 0 -0.00072435010879154664 -0.0038196348317097611 0 -0.00058487881470125236 -0.0037133328336002008 0 -0.0005762144361545745 -0.003824529299427214 0 -0.00072435010879154664 -0.0038196348317097611 0 -0.00066355133796020319 -0.0038848880033738389 0 -0.0005762144361545745 -0.003824529299427214 0 -0.00072435010879154664 -0.0038196348317097611 0 -0.00066355133796020319 -0.0038848880033738389 0 -0.0005762144361545745 -0.003824529299427214 0 -0.00054189053380989988 -0.0039209556792740132 0 -0.00058487881470125236 -0.0037133328336002008 0 -0.0005762144361545745 -0.003824529299427214 0 -0.00046275677197946601 -0.0037631396914862918 0 -0.0005762144361545745 -0.003824529299427214 0 -0.00047231479312780133 -0.0038502506666434296 0 -0.00054189053380989988 -0.0039209556792740132 0 -0.0005762144361545745 -0.003824529299427214 0 -0.00046275677197946601 -0.0037631396914862918 0 -0.00047231479312780133 -0.0038502506666434296 0 -0.00046275677197946601 -0.0037631396914862918 0 -0.00047231479312780133 -0.0038502506666434296 0 -0.00037920101726118452 -0.0038214628682699497 0 -0.00047231479312780133 -0.0038502506666434296 0 -0.00037920101726118452 -0.0038214628682699497 0 -0.00038797218506643759 -0.0039104860344631193 0 -0.00046275677197946601 -0.0037631396914862918 0 -0.00037920101726118452 -0.0038214628682699497 0 -0.00035009919804412405 -0.0036635262375981506 0 -0.00080135902435255 -0.0030448807071971808 0 -0.0007773255619181324 -0.0024112327463097715 0 -0.0011930429976091696 -0.0012259119406030389 0 -0.0007773255619181324 -0.0024112327463097715 0 -0.0007107431496251364 -0.0022243786986437175 0 -0.00093202441993461068 -0.0022267932024675288 0 -0.00076774017553232808 -0.0024894210073282451 0 -0.00087956984160470169 -0.0036185438331737905 0 -0.00072435010879154664 -0.0038196348317097611 0 -0.00082987754360539401 -0.0039929495360037674 0 -0.00069232736574741181 -0.0036827313994184873 0 -0.00087956984160470169 -0.0036185438331737905 0 -0.00072435010879154664 -0.0038196348317097611 0 -0.0012933890267667334 -0.00058357657451724523 0 -0.0012765983958786661 -0.0005045508686995951 0 -0.0013190688183589163 -0.00049820478279588717 0 -0.0012933890267667334 -0.00058357657451724523 0 -0.0012278379650777871 -0.00049775738140923496 0 -0.0012765983958786661 -0.0005045508686995951 0 -0.0011467315520558505 -0.0013272899705507307 0 -0.0011930429976091696 -0.0012259119406030389 0 -0.0010968965090892174 -0.0018830008576166933 0 -0.00093202441993461068 -0.0022267932024675288 0 -0.00086103047182085727 -0.0020477427820392649 0 -0.0012510562440712883 -0.00069186245883867876 0 -0.0012933890267667334 -0.00058357657451724523 0 -0.0011818111527491751 -0.00058341842313228132 0 -0.0011143502394446606 -0.00066683574401645528 0 -0.0012510562440712883 -0.00069186245883867876 0 -0.0011818111527491751 -0.00058341842313228132 0 -0.0011240392359488983 -0.00049151141318086922 0 -0.0011818111527491751 -0.00058341842313228132 0 -0.0012278379650777871 -0.00049775738140923496 0 -0.0012933890267667334 -0.00058357657451724523 0 -0.0011818111527491751 -0.00058341842313228132 0 -0.0012278379650777871 -0.00049775738140923496 0 -0.0011898109101920074 -0.00043557527643918887 0 -0.0011477018278534077 -0.00046810304552754028 0 -0.0012278379650777871 -0.00049775738140923496 0 -0.0011344568162561222 -0.00047907150123583606 0 -0.0012235113087949987 -0.00049432772064678706 0 -0.001220028236792497 -0.00044400255812016606 0 -0.001250788674590375 -0.0004610407766954783 0 -0.0012303133217458186 -0.00043197119121382902 0 -0.0012278379650777871 -0.00049775738140923496 0 -0.001220028236792497 -0.00044400255812016606 0 -0.001250788674590375 -0.0004610407766954783 0 -0.0011898109101920074 -0.00043557527643918887 0 -0.0012278379650777871 -0.00049775738140923496 0 -0.001220028236792497 -0.00044400255812016606 0 -0.0011898109101920074 -0.00043557527643918887 0 -0.001220028236792497 -0.00044400255812016606 0 -0.0012055853194955315 -0.00042060919627243858 0 -0.0012278379650777871 -0.00049775738140923496 0 -0.0012765983958786661 -0.0005045508686995951 0 -0.001250788674590375 -0.0004610407766954783 0 -0.001250788674590375 -0.0004610407766954783 0 -0.0012851989889941116 -0.00047260038731462405 0 -0.0012643363011948031 -0.00044508596086692244 0 -0.0012765983958786661 -0.0005045508686995951 0 -0.001250788674590375 -0.0004610407766954783 0 -0.0012851989889941116 -0.00047260038731462405 0 -0.001245243297491134 -0.00042635162645419955 0 -0.00123490734441239 -0.00040654488618898884 0 -0.0012677817713312087 -0.00041236923374174167 0 -0.0012851989889941116 -0.00047260038731462405 0 -0.0012643363011948031 -0.00044508596086692244 0 -0.0012677817713312087 -0.00041236923374174167 0 -0.001250788674590375 -0.0004610407766954783 0 -0.001245243297491134 -0.00042635162645419955 0 -0.0012303133217458186 -0.00043197119121382902 0 -0.001250788674590375 -0.0004610407766954783 0 -0.0012643363011948031 -0.00044508596086692244 0 -0.001245243297491134 -0.00042635162645419955 0 -0.001245243297491134 -0.00042635162645419955 0 -0.0012287892058699657 -0.0004160155481748034 0 -0.00123490734441239 -0.00040654488618898884 0 -0.0012643363011948031 -0.00044508596086692244 0 -0.001245243297491134 -0.00042635162645419955 0 -0.0012677817713312087 -0.00041236923374174167 0 -0.0011992048802473164 -0.00040021702458692589 0 -0.0011898109101920074 -0.00043557527643918887 0 -0.0012055853194955315 -0.00042060919627243858 0 -0.0012169782846288336 -0.00041742410121508726 0 -0.0012080372496812118 -0.00040694104050991619 0 -0.0012055853194955315 -0.00042060919627243858 0 -0.0012169782846288336 -0.00041742410121508726 0 -0.0012080372496812118 -0.00040694104050991619 0 -0.0012177411873602467 -0.00040223973669212124 0 -0.0011992048802473164 -0.00040021702458692589 0 -0.0012080372496812118 -0.00040694104050991619 0 -0.0012055853194955315 -0.00042060919627243858 0 -0.0011992048802473164 -0.00040021702458692589 0 -0.0012080372496812118 -0.00040694104050991619 0 -0.001209998707658894 -0.00039907387348484278 0 -0.001220028236792497 -0.00044400255812016606 0 -0.0012169782846288336 -0.00041742410121508726 0 -0.0012055853194955315 -0.00042060919627243858 0 -0.001220028236792497 -0.00044400255812016606 0 -0.0012169782846288336 -0.00041742410121508726 0 -0.0012303133217458186 -0.00043197119121382902 0 -0.001245243297491134 -0.00042635162645419955 0 -0.0012303133217458186 -0.00043197119121382902 0 -0.0012287892058699657 -0.0004160155481748034 0 -0.0012169782846288336 -0.00041742410121508726 0 -0.0012303133217458186 -0.00043197119121382902 0 -0.0012287892058699657 -0.0004160155481748034 0 -0.0012169782846288336 -0.00041742410121508726 0 -0.0012287892058699657 -0.0004160155481748034 0 -0.0012177411873602467 -0.00040223973669212124 0 -0.0012287892058699657 -0.0004160155481748034 0 -0.0012177411873602467 -0.00040223973669212124 0 -0.00123490734441239 -0.00040654488618898884 0 -0.0012080372496812118 -0.00040694104050991619 0 -0.0012177411873602467 -0.00040223973669212124 0 -0.001209998707658894 -0.00039907387348484278 0 -0.0012177411873602467 -0.00040223973669212124 0 -0.001209998707658894 -0.00039907387348484278 0 -0.0012161702628735438 -0.00039244006901734038 0 -0.0012204830110740385 -0.00038999192808217661 0 -0.0012387077389361242 -0.00039935600061804909 0 -0.0012214991453710776 -0.00038698307623359943 0 -0.0012204830110740385 -0.00038999192808217661 0 -0.00123490734441239 -0.00040654488618898884 0 -0.0012387077389361242 -0.00039935600061804909 0 -0.0012166345557300044 -0.00038471799092028097 0 -0.0012161702628735438 -0.00039244006901734038 0 -0.0012204830110740385 -0.00038999192808217661 0 -0.0012177411873602467 -0.00040223973669212124 0 -0.0012161702628735438 -0.00039244006901734038 0 -0.0012204830110740385 -0.00038999192808217661 0 -0.0012183822606457967 -0.00037918904111769117 0 -0.0012166345557300044 -0.00038471799092028097 0 -0.0012204830110740385 -0.00038999192808217661 0 -0.0012183822606457967 -0.00037918904111769117 0 -0.0012204830110740385 -0.00038999192808217661 0 -0.0012214991453710776 -0.00038698307623359943 0 -0.0012177411873602467 -0.00040223973669212124 0 -0.0012204830110740385 -0.00038999192808217661 0 -0.00123490734441239 -0.00040654488618898884 0 -0.00091747028966812421 -0.0023195460822917949 0 -0.00090408073184667216 -0.0018301094639715208 0 -0.00123490734441239 -0.00040654488618898884 0 -0.0012387077389361242 -0.00039935600061804909 0 -0.0012677817713312087 -0.00041236923374174167 0 -0.0012387077389361242 -0.00039935600061804909 0 -0.0012178479544169831 -0.00039523081977994049 0 -0.0012677817713312087 -0.00041236923374174167 0 -0.0012387077389361242 -0.00039935600061804909 0 -0.0012235379668546174 -0.00039188488855399541 0 -0.0012214991453710776 -0.00038698307623359943 0 -0.0012387077389361242 -0.00039935600061804909 0 -0.0012235379668546174 -0.00039188488855399541 0 -0.0012178479544169831 -0.00039523081977994049 0 -0.0012235379668546174 -0.00039188488855399541 0 -0.0012178479544169831 -0.00039523081977994049 0 -0.0012166150360235133 -0.00038936206810314718 0 -0.0012166150360235133 -0.00038936206810314718 0 -0.0012167669129631833 -0.00037918568475113289 0 -0.0012214991453710776 -0.00038698307623359943 0 -0.0012166150360235133 -0.00038936206810314718 0 -0.0012167669129631833 -0.00037918568475113289 0 -0.0012118436104045689 -0.00038911735042784936 0 -0.0012183822606457967 -0.00037918904111769117 0 -0.0012167669129631833 -0.00037918568475113289 0 -0.0012214991453710776 -0.00038698307623359943 0 -0.0012235379668546174 -0.00039188488855399541 0 -0.0012166150360235133 -0.00038936206810314718 0 -0.0012214991453710776 -0.00038698307623359943 0 -0.00040883598857105311 -0.0043408944725227758 0 -0.00050564152780451681 -0.0042938384039208971 0 -0.00045334886339594291 -0.0044348919468203433 0 -0.00040883598857105311 -0.0043408944725227758 0 -0.00030915055906727458 -0.0042946882537629365 0 -0.0003395802908537768 -0.0044820972272265015 0 -0.00061288440266854712 -0.00420209629419628 0 -0.00036990164883323227 -0.0039972072713198867 0 -0.00061645538263744725 -0.0043669703607032142 0 -0.00040433186821423332 -0.0040690900252961506 0 -0.00062113330130828242 -0.0043888853472987327 0 -0.00061288440266854712 -0.00420209629419628 0 -0.00036990164883323227 -0.0039972072713198867 0 -0.00055002326774733577 -0.0035642568537267976 0 -0.00036990164883323227 -0.0039972072713198867 0 -0.00055002326774733577 -0.0035642568537267976 0 -2.6495385762260524e-05 -0.0034878944124759723 0 -0.00040433186821423332 -0.0040690900252961506 0 -0.00032633422087422148 -0.0041849821305369453 0 -0.00040883598857105311 -0.0043408944725227758 0 -0.00040338797732665743 -0.0041420281807762601 0 -0.00030915055906727458 -0.0042946882537629365 0 -0.00040883598857105311 -0.0043408944725227758 0 -0.00050564152780451681 -0.0042938384039208971 0 -0.00040338797732665743 -0.0041420281807762601 0 -0.00032633422087422148 -0.0041849821305369453 0 -0.00027232712574413033 -0.0044007180619542582 0 -0.00063068098703410235 -0.0042842577015191428 0 -0.00082987754360539401 -0.0039929495360037674 0 -0.00066639735727254596 -0.0040652461696838458 0 -0.00032633422087422148 -0.0041849821305369453 0 -0.00034217805200651818 -0.0041222252926543055 0 -0.00063068098703410235 -0.0042842577015191428 0 -0.00066639735727254596 -0.0040652461696838458 0 -0.00045103922050185481 -0.0040126418904764122 0 -0.00055002326774733577 -0.0035642568537267976 0 -2.6495385762260524e-05 -0.0034878944124759723 0 -0.00041474517737019747 -0.002851206148634293 0 -0.0012851989889941116 -0.00047260038731462405 0 -0.0012677817713312087 -0.00041236923374174167 0 -0.0013190688183589163 -0.00049820478279588717 0 -0.00032633422087422148 -0.0041849821305369453 0 -0.0007773255619181324 -0.0024112327463097715 0 -0.00090408073184667216 -0.0018301094639715208 0 -0.0007773255619181324 -0.0024112327463097715 0 -0.00066355133796020319 -0.0038848880033738389 0 -0.00072435010879154664 -0.0038196348317097611 0 -0.00076009614919230026 -0.0039717493431921172 0 -0.00076009614919230026 -0.0039717493431921172 0 -0.00082987754360539401 -0.0039929495360037674 0 -0.00066639735727254596 -0.0040652461696838458 0 -0.00072435010879154664 -0.0038196348317097611 0 -0.00076009614919230026 -0.0039717493431921172 0 -0.00082987754360539401 -0.0039929495360037674 0 -0.0012765983958786661 -0.0005045508686995951 0 -0.0012851989889941116 -0.00047260038731462405 0 -0.0013190688183589163 -0.00049820478279588717 0 -0.00076009614919230026 -0.0039717493431921172 0 -0.00066639735727254596 -0.0040652461696838458 0 -0.00045103922050185481 -0.0040126418904764122 0 -0.00076009614919230026 -0.0039717493431921172 0 -0.00054189053380989988 -0.0039209556792740132 0 -0.00026177340767414171 -0.0040238490618782043 0 -0.00074641313796214932 -0.0039511906497853057 0 -0.00034217805200651818 -0.0041222252926543055 0 -0.00066355133796020319 -0.0038848880033738389 0 -0.00076009614919230026 -0.0039717493431921172 0 -0.00054189053380989988 -0.0039209556792740132 0 -0.00054189053380989988 -0.0039209556792740132 0 -0.00038797218506643759 -0.0039104860344631193 0 -0.00026177340767414171 -0.0040238490618782043 0 -0.00047231479312780133 -0.0038502506666434296 0 -0.00054189053380989988 -0.0039209556792740132 0 -0.00038797218506643759 -0.0039104860344631193 0 -0.00038797218506643759 -0.0039104860344631193 0 -0.00026177340767414171 -0.0040238490618782043 0 -0.00027054006742752048 -0.0038695014467703221 0 -0.00023432368615152474 -0.0040130889726984207 0 -0.00018836485456098147 -0.003986627615701374 0 -8.599706242871878e-05 -0.0037645320561060917 0 -0.00018836485456098147 -0.003986627615701374 0 -0.00015853420582861939 -0.0040123598688021969 0 -7.7876127079512235e-05 -0.0039220138059852232 0 -0.00023432368615152474 -0.0040130889726984207 0 -0.00018836485456098147 -0.003986627615701374 0 -0.00016038796601213165 -0.004021725404208875 0 -0.0002173170788270208 -0.0042083903547309766 0 -0.00018985946080738158 -0.0042685874413518898 0 -0.00034217805200651818 -0.0041222252926543055 0 -0.00018985946080738158 -0.0042685874413518898 0 -0.00023658685588866615 -0.0043385561807398757 0 -0.0002195557348249968 -0.0043410221781996737 0 -0.00022774469803566746 -0.0043783388647333724 0 -0.00018985946080738158 -0.0042685874413518898 0 1.722205170710972e-05 -0.0043039824321956773 0 -7.7876127079512235e-05 -0.0039220138059852232 0 0.00014052331170285611 -0.0040566025107895377 0 8.2059548420846138e-05 -0.0039292542384994798 0 -0.00015853420582861939 -0.0040123598688021969 0 -7.7876127079512235e-05 -0.0039220138059852232 0 0.00014052331170285611 -0.0040566025107895377 0 -0.00017212771372457589 -0.0045333567235382359 0 -0.00013870027863122791 -0.0045772845223566311 0 -0.00011330577941456227 -0.0045459596417435156 0 -0.00018985946080738158 -0.0042685874413518898 0 -0.00014557381971901846 -0.0045190758311504124 0 -0.0002195557348249968 -0.0043410221781996737 0 -0.00017028150740807966 -0.0044039283657345517 0 -0.00022774469803566746 -0.0043783388647333724 0 -0.00028263262531593515 -0.0044099851742555232 0 -0.00023658685588866615 -0.0043385561807398757 0 -0.00022774469803566746 -0.0043783388647333724 0 -0.00028263262531593515 -0.0044099851742555232 0 -0.00022774469803566746 -0.0043783388647333724 0 -0.00022243229108120897 -0.0044246151696247828 0 -0.00017028150740807966 -0.0044039283657345517 0 -0.00022774469803566746 -0.0043783388647333724 0 -0.00022243229108120897 -0.0044246151696247828 0 -0.00022243229108120897 -0.0044246151696247828 0 -0.00019191084211189001 -0.0044718952212654392 0 -0.00024034666753602535 -0.0044717971696922052 0 -0.00028263262531593515 -0.0044099851742555232 0 -0.00022243229108120897 -0.0044246151696247828 0 -0.00024034666753602535 -0.0044717971696922052 0 -0.00017028150740807966 -0.0044039283657345517 0 -0.00022243229108120897 -0.0044246151696247828 0 -0.00019191084211189001 -0.0044718952212654392 0 -0.00017028150740807966 -0.0044039283657345517 0 -0.00019191084211189001 -0.0044718952212654392 0 -0.00011411265998878633 -0.0044747373556955974 0 -0.00019191084211189001 -0.0044718952212654392 0 -0.00016570331869661568 -0.004516933549075691 0 -0.00021486572892173245 -0.0045053377527168158 0 -0.00019191084211189001 -0.0044718952212654392 0 -0.00016570331869661568 -0.004516933549075691 0 -0.00011411265998878633 -0.0044747373556955974 0 -0.00019191084211189001 -0.0044718952212654392 0 -0.00024034666753602535 -0.0044717971696922052 0 -0.00021486572892173245 -0.0045053377527168158 0 -0.00027232712574413033 -0.0044007180619542582 0 -0.00022088955115661865 -0.0044876866759930379 0 -0.00011303404309729876 -0.0045403907038556318 0 -7.0359141859814621e-05 -0.0046079603440249937 0 -7.8884116325145302e-05 -0.0046192067439086489 0 -0.00010244926249221599 -0.0046162785844027152 0 -6.7625118304118364e-05 -0.0046153305710417225 0 -0.00011411265998878633 -0.0044747373556955974 0 -0.0001123591934264868 -0.0045626979479240831 0 -6.7625118304118364e-05 -0.0046153305710417225 0 -7.8884116325145302e-05 -0.0046192067439086489 0 -6.2443760277225844e-05 -0.0046400010098771125 0 -6.7625118304118364e-05 -0.0046153305710417225 0 -0.00016570331869661568 -0.004516933549075691 0 -0.00011411265998878633 -0.0044747373556955974 0 -0.0001123591934264868 -0.0045626979479240831 0 -0.00013870027863122791 -0.0045772845223566311 0 -0.00010244926249221599 -0.0046162785844027152 0 -9.2386947242109247e-05 -0.0045844258533574191 0 -0.00014557381971901846 -0.0045190758311504124 0 -0.00011303404309729876 -0.0045403907038556318 0 -7.8884116325145302e-05 -0.0046192067439086489 0 -0.00010244926249221599 -0.0046162785844027152 0 -9.2386947242109247e-05 -0.0045844258533574191 0 -7.8884116325145302e-05 -0.0046192067439086489 0 -9.2386947242109247e-05 -0.0045844258533574191 0 -6.3967878000867383e-05 -0.0046061108932527748 0 -9.2386947242109247e-05 -0.0045844258533574191 0 -6.6895389620341607e-05 -0.0045530866992037249 0 -6.3967878000867383e-05 -0.0046061108932527748 0 -9.2386947242109247e-05 -0.0045844258533574191 0 -0.00011330577941456227 -0.0045459596417435156 0 -6.6895389620341607e-05 -0.0045530866992037249 0 -0.00013870027863122791 -0.0045772845223566311 0 -9.2386947242109247e-05 -0.0045844258533574191 0 -0.00011330577941456227 -0.0045459596417435156 0 0.00014052331170285611 -0.0040566025107895377 0 0.00017373547918229319 -0.0040145900982005104 0 8.2059548420846138e-05 -0.0039292542384994798 0 0.00014052331170285611 -0.0040566025107895377 0 0.00017373547918229319 -0.0040145900982005104 0 0.00018054656918243238 -0.0041276981708576284 0 0.00017373547918229319 -0.0040145900982005104 0 0.00018910508955649117 -0.0041023454357475295 0 0.00018054656918243238 -0.0041276981708576284 0 1.722205170710972e-05 -0.0043039824321956773 0 5.8980208546981958e-05 -0.0043419073732762796 0 0.00017814498743150259 -0.0040128210476846927 0 0.0001795126623699898 -0.004070825754294463 0 0.00017373547918229319 -0.0040145900982005104 0 0.00016590626900824611 -0.0038470747615785943 0 0.00018910508955649117 -0.0041023454357475295 0 0.00020718840392044066 -0.0041461955368366889 0 0.00021282539437041448 -0.0041442778137705709 0 0.00018910508955649117 -0.0041023454357475295 0 0.00020718840392044066 -0.0041461955368366889 0 0.00020860590352626086 -0.0041383807855924588 0 0.00022232571268871273 -0.0041355200228598331 0 0.00020718840392044066 -0.0041461955368366889 0 0.00020860590352626086 -0.0041383807855924588 0 0.00021282539437041448 -0.0041442778137705709 0 0.00023689753945106088 -0.0041157238831116653 0 0.00012524254714116201 -0.0042631306056385597 0 0.00020860590352626086 -0.0041383807855924588 0 0.00021282539437041448 -0.0041442778137705709 0 0.00020033656462145746 -0.0041316161174340107 0 0.00016590626900824611 -0.0038470747615785943 0 8.0791600178996148e-05 -0.0037377220765738564 0 3.390393870301309e-05 -0.0036245202325031591 0 0.00021282539437041448 -0.0041442778137705709 0 0.00018642091820804955 -0.004136395556695413 0 0.00020033656462145746 -0.0041316161174340107 0 0.00017814498743150259 -0.0040128210476846927 0 0.00013433215870131226 -0.0036843116391173745 0 0.00012333869687788528 -0.0038716865371387988 0 0.00016590626900824611 -0.0038470747615785943 0 8.0791600178996148e-05 -0.0037377220765738564 0 0.00017373547918229319 -0.0040145900982005104 0 0.00012333869687788528 -0.0038716865371387988 0 8.2059548420846138e-05 -0.0039292542384994798 0 0.00012333869687788528 -0.0038716865371387988 0 8.2059548420846138e-05 -0.0039292542384994798 0 8.0791600178996148e-05 -0.0037377220765738564 0 0.00017373547918229319 -0.0040145900982005104 0 0.00012333869687788528 -0.0038716865371387988 0 0.00016590626900824611 -0.0038470747615785943 0 -7.7876127079512235e-05 -0.0039220138059852232 0 8.2059548420846138e-05 -0.0039292542384994798 0 -8.599706242871878e-05 -0.0037645320561060917 0 8.2059548420846138e-05 -0.0039292542384994798 0 -8.599706242871878e-05 -0.0037645320561060917 0 8.0791600178996148e-05 -0.0037377220765738564 0 -0.00026177340767414171 -0.0040238490618782043 0 -8.599706242871878e-05 -0.0037645320561060917 0 -0.00027054006742752048 -0.0038695014467703221 0 -0.00034217805200651818 -0.0041222252926543055 0 -6.871541848139836e-05 -0.003744297251770101 0 -0.00037920101726118452 -0.0038214628682699497 0 -0.00025905987519265035 -0.0037580032551811689 0 -0.00035009919804412405 -0.0036635262375981506 0 -0.00037920101726118452 -0.0038214628682699497 0 -0.00038797218506643759 -0.0039104860344631193 0 -0.00027054006742752048 -0.0038695014467703221 0 -0.00037920101726118452 -0.0038214628682699497 0 -0.00027054006742752048 -0.0038695014467703221 0 -0.00025905987519265035 -0.0037580032551811689 0 -0.00018836485456098147 -0.003986627615701374 0 -7.7876127079512235e-05 -0.0039220138059852232 0 -8.599706242871878e-05 -0.0037645320561060917 0 -8.599706242871878e-05 -0.0037645320561060917 0 -0.00027054006742752048 -0.0038695014467703221 0 -0.00025905987519265035 -0.0037580032551811689 0 -8.599706242871878e-05 -0.0037645320561060917 0 -0.00025905987519265035 -0.0037580032551811689 0 -0.00021554336142426761 -0.0035811819597237884 0 -0.0003590719564003666 -0.0034656075800650831 0 -0.00035009919804412405 -0.0036635262375981506 0 -0.00021554336142426761 -0.0035811819597237884 0 -0.00025905987519265035 -0.0037580032551811689 0 -0.00035009919804412405 -0.0036635262375981506 0 -0.00021554336142426761 -0.0035811819597237884 0 -0.0003590719564003666 -0.0034656075800650831 0 -0.00021554336142426761 -0.0035811819597237884 0 -0.00025380558082595435 -0.0032899226220581821 0 -0.00021554336142426761 -0.0035811819597237884 0 -0.00025380558082595435 -0.0032899226220581821 0 1.4693462360641111e-06 -0.0035203095664274636 0 -0.00019769721287682049 -0.0032242610866765982 0 0.00034512360017118388 -0.0034544572043022953 0 1.6269439700744215e-05 -0.0031170142322001454 0 -0.00021854385068894301 -0.0032646636177514365 0 0.00013433215870131226 -0.0036843116391173745 0 -0.00043999372631613995 -0.003290020793895794 0 -0.0003590719564003666 -0.0034656075800650831 0 -0.00025380558082595435 -0.0032899226220581821 0 0.00018642091820804955 -0.004136395556695413 0 0.00017713227705635996 -0.004126073833122316 0 0.00020033656462145746 -0.0041316161174340107 0 6.301176759292402e-05 -0.0036601946903299558 0 0.00013433215870131226 -0.0036843116391173745 0 -8.599706242871878e-05 -0.0037645320561060917 0 8.0791600178996148e-05 -0.0037377220765738564 0 1.4693462360641111e-06 -0.0035203095664274636 0 -8.599706242871878e-05 -0.0037645320561060917 0 -0.00021554336142426761 -0.0035811819597237884 0 1.4693462360641111e-06 -0.0035203095664274636 0 0.00013433215870131226 -0.0036843116391173745 0 -1.0018533288700854e-05 -0.0036403501448722848 0 0.00017713227705635996 -0.004126073833122316 0 0.00019636665222252253 -0.0041126468422843536 0 0.00020033656462145746 -0.0041316161174340107 0 -1.0018533288700854e-05 -0.0036403501448722848 0 4.6734348803529771e-05 -0.0038625000023724669 0 -0.00021334017480753015 -0.003335191668139672 0 -0.00022067023605648538 -0.0032356987157866474 0 -0.00013119861967469284 -0.0032470796774542853 0 -0.00030181978145240343 -0.0032561423127325895 0 -0.00021334017480753015 -0.003335191668139672 0 -0.00022067023605648538 -0.0032356987157866474 0 -0.00061622554154551056 -0.0022434197538006425 0 -1.0018533288700854e-05 -0.0036403501448722848 0 -0.00055712912196015472 -0.0025306837116809088 0 -0.00019769721287682049 -0.0032242610866765982 0 1.6269439700744215e-05 -0.0031170142322001454 0 -0.00039909425048686336 -0.0026523133968806589 0 -0.00061622554154551056 -0.0022434197538006425 0 -0.00025360378581405925 -0.0031127554039041168 0 -0.00030181978145240343 -0.0032561423127325895 0 -0.00022067023605648538 -0.0032356987157866474 0 -0.00033808761927178803 -0.0030710957234776179 0 4.6734348803529771e-05 -0.0038625000023724669 0 -0.00021068315621730933 -0.0032138302828642307 0 -0.00022067023605648538 -0.0032356987157866474 0 -0.00013119861967469284 -0.0032470796774542853 0 -0.0001858097539556822 -0.0032083240942607527 0 -0.00021068315621730933 -0.0032138302828642307 0 -0.00017989907049496275 -0.0032363982129234178 0 4.6734348803529771e-05 -0.0038625000023724669 0 0.00029645049084510363 -0.0044636134246727301 0 0.00021251938546685675 -0.0048084955855484139 0 0.00031019769790561715 -0.0047050777134551051 0 0.00022501526803354549 -0.0046633392787021506 0 0.00021251938546685675 -0.0048084955855484139 0 0.00022501526803354549 -0.0046633392787021506 0 0.00014824995922909249 -0.0047228005880612994 0 0.00029645049084510363 -0.0044636134246727301 0 0.00012524254714116201 -0.0042631306056385597 0 0.00020860590352626086 -0.0041383807855924588 0 0.00021000211034350548 -0.004125631158973346 0 0.00022232571268871273 -0.0041355200228598331 0 0.00020860590352626086 -0.0041383807855924588 0 0.00021000211034350548 -0.004125631158973346 0 0.00020033656462145746 -0.0041316161174340107 0 0.00019636665222252253 -0.0041126468422843536 0 0.00021000211034350548 -0.004125631158973346 0 0.00020033656462145746 -0.0041316161174340107 0 5.5881010844684243e-05 -0.0041761569920997846 0 0.0001045572923397807 -0.0041254004450074913 0 0.00010140209504050037 -0.0042001627039341665 0 0.00012524254714116201 -0.0042631306056385597 0 7.4053560064292947e-05 -0.0044071092752162311 0 0.0001045572923397807 -0.0041254004450074913 0 0.00014948764146441727 -0.0041809806195650095 0 0.00010140209504050037 -0.0042001627039341665 0 0.00022501526803354549 -0.0046633392787021506 0 0.00013918683542464105 -0.0046167108664318095 0 0.00014824995922909249 -0.0047228005880612994 0 0.00013918683542464105 -0.0046167108664318095 0 0.00014824995922909249 -0.0047228005880612994 0 5.0311919627873127e-05 -0.004714705106074391 0 0.00011123928891043557 -0.0048103135641254496 0 0.00014824995922909249 -0.0047228005880612994 0 5.0311919627873127e-05 -0.004714705106074391 0 7.826666563261718e-05 -0.0046709313069916341 0 7.4053560064292947e-05 -0.0044071092752162311 0 0.00015696684172848639 -0.0040720151277833421 0 0.0001045572923397807 -0.0041254004450074913 0 0.00016526562049068861 -0.0041294340110174261 0 0.00015696684172848639 -0.0040720151277833421 0 0.00016526562049068861 -0.0041294340110174261 0 0.00023314271745137133 -0.0041097826583858885 0 0.00016526562049068861 -0.0041294340110174261 0 0.00020687057504015298 -0.0041785486530659987 0 0.00023314271745137133 -0.0041097826583858885 0 0.00016526562049068861 -0.0041294340110174261 0 0.00020687057504015298 -0.0041785486530659987 0 0.00014948764146441727 -0.0041809806195650095 0 0.0001045572923397807 -0.0041254004450074913 0 0.00016526562049068861 -0.0041294340110174261 0 0.00014948764146441727 -0.0041809806195650095 0 0.00014323383076203901 -0.0042162604328959147 0 0.00011417218280310886 -0.0041871795584150556 0 0.00014948764146441727 -0.0041809806195650095 0 0.00014335835860841204 -0.0042212015971646536 0 0.00010140209504050037 -0.0042001627039341665 0 0.00014948764146441727 -0.0041809806195650095 0 0.00018661922108808164 -0.0042299644158828361 0 0.00014335835860841204 -0.0042212015971646536 0 0.00020687057504015298 -0.0041785486530659987 0 0.00014948764146441727 -0.0041809806195650095 0 0.00018661922108808164 -0.0042299644158828361 0 0.00018661922108808164 -0.0042299644158828361 0 0.00014335835860841204 -0.0042212015971646536 0 0.00013838338075670829 -0.0042988641476128598 0 0.00018661922108808164 -0.0042299644158828361 0 0.00013838338075670829 -0.0042988641476128598 0 0.00021109281678009776 -0.0042887598606827079 0 0.00014335835860841204 -0.0042212015971646536 0 0.00014055572571409673 -0.0041894315449015921 0 0.00013838338075670829 -0.0042988641476128598 0 0.00014335835860841204 -0.0042212015971646536 0 0.00014055572571409673 -0.0041894315449015921 0 0.00014269227929811828 -0.0041837929910834327 0 0.00014055572571409673 -0.0041894315449015921 0 0.00014269227929811828 -0.0041837929910834327 0 0.00016239183221193444 -0.0041597288173194497 0 0.00012524254714116201 -0.0042631306056385597 0 0.00011417218280310886 -0.0041871795584150556 0 0.00020718840392044066 -0.0041461955368366889 0 0.00016957363424547072 -0.0041937594460234933 0 0.00016239183221193444 -0.0041597288173194497 0 0.00016957363424547072 -0.0041937594460234933 0 0.00014269227929811828 -0.0041837929910834327 0 0.00016239183221193444 -0.0041597288173194497 0 0.00020718840392044066 -0.0041461955368366889 0 0.00016239183221193444 -0.0041597288173194497 0 0.00018910508955649117 -0.0041023454357475295 0 0.00014055572571409673 -0.0041894315449015921 0 0.00016239183221193444 -0.0041597288173194497 0 0.00018910508955649117 -0.0041023454357475295 0 0.00014055572571409673 -0.0041894315449015921 0 0.00018910508955649117 -0.0041023454357475295 0 0.00018054656918243238 -0.0041276981708576284 0 0.00014055572571409673 -0.0041894315449015921 0 0.00018054656918243238 -0.0041276981708576284 0 0.00012310471681744377 -0.0042591031780407707 0 -4.2251372365905877e-05 -0.0045756077200596618 0 3.720182828023441e-05 -0.0046045280598586763 0 -2.2405052720409604e-06 -0.0045397219407917241 0 -4.2251372365905877e-05 -0.0045756077200596618 0 -6.6895389620341607e-05 -0.0045530866992037249 0 -2.2405052720409604e-06 -0.0045397219407917241 0 5.8980208546981958e-05 -0.0043419073732762796 0 7.4077968640282027e-05 -0.0044046812342804151 0 -4.2251372365905877e-05 -0.0045756077200596618 0 -6.6895389620341607e-05 -0.0045530866992037249 0 -6.3967878000867383e-05 -0.0046061108932527748 0 -4.2251372365905877e-05 -0.0045756077200596618 0 -2.4089937647259514e-05 -0.004647680274019658 0 3.720182828023441e-05 -0.0046045280598586763 0 -4.2251372365905877e-05 -0.0045756077200596618 0 -6.3967878000867383e-05 -0.0046061108932527748 0 -2.4089937647259514e-05 -0.004647680274019658 0 -2.4089937647259514e-05 -0.004647680274019658 0 -6.2443760277225844e-05 -0.0046400010098771125 0 -4.4391492197196441e-05 -0.0046947247397785413 0 -2.4089937647259514e-05 -0.004647680274019658 0 1.5796737895132718e-05 -0.0047342630508616116 0 -4.4391492197196441e-05 -0.0046947247397785413 0 -6.3967878000867383e-05 -0.0046061108932527748 0 -2.4089937647259514e-05 -0.004647680274019658 0 -6.2443760277225844e-05 -0.0046400010098771125 0 -6.2443760277225844e-05 -0.0046400010098771125 0 -4.4391492197196441e-05 -0.0046947247397785413 0 -6.7625118304118364e-05 -0.0046153305710417225 0 -7.8884116325145302e-05 -0.0046192067439086489 0 -6.3967878000867383e-05 -0.0046061108932527748 0 -6.2443760277225844e-05 -0.0046400010098771125 0 0.00010093973438156532 -0.0046877607623502758 0 0.0001619388454238678 -0.0046768875128176644 0 8.7332951202368075e-05 -0.0047478645815077934 0 5.1804218862396401e-05 -0.0046780275270322247 0 1.5796737895132718e-05 -0.0047342630508616116 0 8.7332951202368075e-05 -0.0047478645815077934 0 0.00010093973438156532 -0.0046877607623502758 0 5.1804218862396401e-05 -0.0046780275270322247 0 0.00010555520527149399 -0.0046480910666151414 0 0.00010093973438156532 -0.0046877607623502758 0 5.1804218862396401e-05 -0.0046780275270322247 0 8.7332951202368075e-05 -0.0047478645815077934 0 -2.4089937647259514e-05 -0.004647680274019658 0 5.1804218862396401e-05 -0.0046780275270322247 0 1.5796737895132718e-05 -0.0047342630508616116 0 -2.4089937647259514e-05 -0.004647680274019658 0 5.1804218862396401e-05 -0.0046780275270322247 0 3.720182828023441e-05 -0.0046045280598586763 0 3.720182828023441e-05 -0.0046045280598586763 0 0.00010555520527149399 -0.0046480910666151414 0 0.00014258469809799354 -0.0046116502621103709 0 5.1804218862396401e-05 -0.0046780275270322247 0 3.720182828023441e-05 -0.0046045280598586763 0 0.00010555520527149399 -0.0046480910666151414 0 0.00010093973438156532 -0.0046877607623502758 0 0.00010555520527149399 -0.0046480910666151414 0 0.0001619388454238678 -0.0046768875128176644 0 0.00010555520527149399 -0.0046480910666151414 0 0.00014258469809799354 -0.0046116502621103709 0 0.0001619388454238678 -0.0046768875128176644 0 0.00015198477831285427 -0.0044930658178690937 0 0.00012310471681744377 -0.0042591031780407707 0 0.00013838338075670829 -0.0042988641476128598 0 3.720182828023441e-05 -0.0046045280598586763 0 0.00014258469809799354 -0.0046116502621103709 0 0.00015198477831285427 -0.0044930658178690937 0 0.00016158839461238384 -0.0044805209337452313 0 7.4077968640282027e-05 -0.0044046812342804151 0 3.720182828023441e-05 -0.0046045280598586763 0 0.00015198477831285427 -0.0044930658178690937 0 -2.2405052720409604e-06 -0.0045397219407917241 0 0.00014055572571409673 -0.0041894315449015921 0 0.00012310471681744377 -0.0042591031780407707 0 0.00013838338075670829 -0.0042988641476128598 0 0.00015198477831285427 -0.0044930658178690937 0 0.00013838338075670829 -0.0042988641476128598 0 0.00020400090387957844 -0.004380740006694416 0 0.00013838338075670829 -0.0042988641476128598 0 0.00020400090387957844 -0.004380740006694416 0 0.00021109281678009776 -0.0042887598606827079 0 0.00027867732269006994 -0.0043229832388572663 0 0.00020400090387957844 -0.004380740006694416 0 0.00021109281678009776 -0.0042887598606827079 0 0.00027867732269006994 -0.0043229832388572663 0 0.00025319191424597899 -0.0044284344012573288 0 0.00020400090387957844 -0.004380740006694416 0 0.00025319191424597899 -0.0044284344012573288 0 0.00020400090387957844 -0.004380740006694416 0 0.00020446517275650124 -0.0044742402131359793 0 0.00027867732269006994 -0.0043229832388572663 0 0.00035510236381100307 -0.0043612773062868858 0 0.00034445601482542093 -0.0042943307604648203 0 0.00027867732269006994 -0.0043229832388572663 0 0.00025319191424597899 -0.0044284344012573288 0 0.00035510236381100307 -0.0043612773062868858 0 0.00018034932732810413 -0.0048899515339045525 0 0.00017199415127417422 -0.004743802568085158 0 0.00021949958946142523 -0.0046175716704412607 0 0.00018034932732810413 -0.0048899515339045525 0 0.00017199415127417422 -0.004743802568085158 0 0.00011249399196646693 -0.0048205785405199099 0 0.00025557326731630775 -0.0046303371527589123 0 0.00021934181113951435 -0.004629779651874829 0 0.00025319191424597899 -0.0044284344012573288 0 0.00035510236381100307 -0.0043612773062868858 0 0.00021949958946142523 -0.0046175716704412607 0 0.00025319191424597899 -0.0044284344012573288 0 0.00020446517275650124 -0.0044742402131359793 0 0.00021949958946142523 -0.0046175716704412607 0 0.00015198477831285427 -0.0044930658178690937 0 0.00020400090387957844 -0.004380740006694416 0 0.00020446517275650124 -0.0044742402131359793 0 0.00014258469809799354 -0.0046116502621103709 0 0.00015198477831285427 -0.0044930658178690937 0 0.00021949958946142523 -0.0046175716704412607 0 0.00015198477831285427 -0.0044930658178690937 0 0.00020446517275650124 -0.0044742402131359793 0 0.00021949958946142523 -0.0046175716704412607 0 0.00021949958946142523 -0.0046175716704412607 0 0.0001619388454238678 -0.0046768875128176644 0 0.00018719439416056119 -0.0046896349569807124 0 0.00014258469809799354 -0.0046116502621103709 0 0.00021949958946142523 -0.0046175716704412607 0 0.0001619388454238678 -0.0046768875128176644 0 0.00017199415127417422 -0.004743802568085158 0 0.00021949958946142523 -0.0046175716704412607 0 0.00018719439416056119 -0.0046896349569807124 0 0.00017199415127417422 -0.004743802568085158 0 0.00018719439416056119 -0.0046896349569807124 0 9.7094144436172308e-05 -0.0047183481864525719 0 0.00018719439416056119 -0.0046896349569807124 0 0.00019922315414196598 -0.0047042943148069751 0 9.7094144436172308e-05 -0.0047183481864525719 0 0.0001619388454238678 -0.0046768875128176644 0 0.00018719439416056119 -0.0046896349569807124 0 0.00019922315414196598 -0.0047042943148069751 0 0.0001619388454238678 -0.0046768875128176644 0 0.00019922315414196598 -0.0047042943148069751 0 8.7332951202368075e-05 -0.0047478645815077934 0 1.0186776431273296e-05 -0.0049950835997739891 0 7.9001781915039834e-09 -0.0050000107578887197 0 3.7636125849181222e-09 -0.0049999715079732266 0 0.00011470690713387441 -0.0048478798945308941 0 5.9807932322659489e-05 -0.0048654041740749969 0 4.5408882474550929e-05 -0.0049889597510547065 0 1.0186776431273296e-05 -0.0049950835997739891 0 9.460220984153537e-06 -0.0050051281331871577 0 1.0186776431273296e-05 -0.0049950835997739891 0 9.460220984153537e-06 -0.0050051281331871577 0 7.9001781915039834e-09 -0.0050000107578887197 0 9.7094144436172308e-05 -0.0047183481864525719 0 0.00011249399196646693 -0.0048205785405199099 0 -8.0478350956305571e-08 -0.0049996087373962318 0 0.00011249399196646693 -0.0048205785405199099 0 0.00010281338433197809 -0.0049114813971447664 0 -8.0478350956305571e-08 -0.0049996087373962318 0 9.460220984153537e-06 -0.0050051281331871577 0 7.9001781915039834e-09 -0.0050000107578887197 0 -1.8138395020948645e-09 -0.0050000029011099565 0 5.9807932322659489e-05 -0.0048654041740749969 0 1.5538024658657436e-08 -0.0049999481480910574 0 0.00017199415127417422 -0.004743802568085158 0 9.7094144436172308e-05 -0.0047183481864525719 0 0.00011249399196646693 -0.0048205785405199099 0 0.00018034932732810413 -0.0048899515339045525 0 0.00010281338433197809 -0.0049114813971447664 0 8.7106544835404307e-05 -0.0049942165391733372 0 9.6450489822438103e-05 -0.0049186260880304186 0 4.8385763705586013e-05 -0.0049934289215062769 0 0.00018034932732810413 -0.0048899515339045525 0 0.00011249399196646693 -0.0048205785405199099 0 0.00010281338433197809 -0.0049114813971447664 0 0.00010281338433197809 -0.0049114813971447664 0 -8.0478350956305571e-08 -0.0049996087373962318 0 2.1431225939492961e-05 -0.0049826572012694938 0 -8.0478350956305571e-08 -0.0049996087373962318 0 2.1431225939492961e-05 -0.0049826572012694938 0 5.2629796428152096e-08 -0.0050001126213989099 0 0.00010281338433197809 -0.0049114813971447664 0 2.1431225939492961e-05 -0.0049826572012694938 0 2.1302238520052735e-05 -0.0050125821374163056 0 2.1431225939492961e-05 -0.0049826572012694938 0 5.2629796428152096e-08 -0.0050001126213989099 0 2.1302238520052735e-05 -0.0050125821374163056 0 5.2629796428152096e-08 -0.0050001126213989099 0 2.1302238520052735e-05 -0.0050125821374163056 0 -2.3658563084946668e-08 -0.0049999628991635641 0 0.0001176977513740032 -0.0046830719881100283 0 0.00025206247336245427 -0.0046187993934473492 0 6.2950116336598177e-05 -0.0049905830006381135 0 5.5364603138639544e-05 -0.0050168688928647412 0 8.7106544835404307e-05 -0.0049942165391733372 0 6.2950116336598177e-05 -0.0049905830006381135 0 5.5364603138639544e-05 -0.0050168688928647412 0 3.4828654215510323e-05 -0.0050369077768784602 0 4.8385763705586013e-05 -0.0049934289215062769 0 -9.5033860238727134e-06 -0.0050245899572767668 0 2.3270286048113643e-06 -0.0049938705297058461 0 4.0045489911866746e-09 -0.0049999728802992806 0 3.165425691102056e-06 -0.0049924591547688812 0 0.0001176977513740032 -0.0046830719881100283 0 -9.5033860238727134e-06 -0.0050245899572767668 0 0.00043225369952385178 -0.0042303241364823945 0 0.00035476471914475512 -0.0042305378829725617 0 0.00033396797581569589 -0.0041609176669293486 0 0.00043225369952385178 -0.0042303241364823945 0 0.00035476471914475512 -0.0042305378829725617 0 0.00039514623225449615 -0.0042689629293767946 0 0.0001176977513740032 -0.0046830719881100283 0 0.00018987102736131459 -0.0045694704053105707 0 0.00025557326731630775 -0.0046303371527589123 0 0.00025206247336245427 -0.0046187993934473492 0 0.00035476471914475512 -0.0042305378829725617 0 0.0003565055468463022 -0.0042641980716585058 0 0.00039514623225449615 -0.0042689629293767946 0 0.0003565055468463022 -0.0042641980716585058 0 0.00039514623225449615 -0.0042689629293767946 0 0.00034445601482542093 -0.0042943307604648203 0 0.00035510236381100307 -0.0043612773062868858 0 0.00039514623225449615 -0.0042689629293767946 0 0.00034445601482542093 -0.0042943307604648203 0 0.00010281338433197809 -0.0049114813971447664 0 6.2950116336598177e-05 -0.0049905830006381135 0 8.7106544835404307e-05 -0.0049942165391733372 0 0.00027867732269006994 -0.0043229832388572663 0 0.00034445601482542093 -0.0042943307604648203 0 0.00031204975684279645 -0.0042570762244147978 0 0.0003565055468463022 -0.0042641980716585058 0 0.00034445601482542093 -0.0042943307604648203 0 0.00031204975684279645 -0.0042570762244147978 0 0.00035476471914475512 -0.0042305378829725617 0 0.0003565055468463022 -0.0042641980716585058 0 0.00031204975684279645 -0.0042570762244147978 0 0.00027867732269006994 -0.0043229832388572663 0 0.00021109281678009776 -0.0042887598606827079 0 0.00024474359713643027 -0.0042379897430772674 0 0.00027867732269006994 -0.0043229832388572663 0 0.00031204975684279645 -0.0042570762244147978 0 0.00024474359713643027 -0.0042379897430772674 0 0.00018661922108808164 -0.0042299644158828361 0 0.00021109281678009776 -0.0042887598606827079 0 0.00024474359713643027 -0.0042379897430772674 0 0.00020687057504015298 -0.0041785486530659987 0 0.00024474359713643027 -0.0042379897430772674 0 0.00027911211329740459 -0.0041927745130643018 0 0.00020687057504015298 -0.0041785486530659987 0 0.00018661922108808164 -0.0042299644158828361 0 0.00024474359713643027 -0.0042379897430772674 0 0.00035476471914475512 -0.0042305378829725617 0 0.00031204975684279645 -0.0042570762244147978 0 0.00027911211329740459 -0.0041927745130643018 0 0.00035476471914475512 -0.0042305378829725617 0 0.00027911211329740459 -0.0041927745130643018 0 0.00033396797581569589 -0.0041609176669293486 0 0.00031204975684279645 -0.0042570762244147978 0 0.00024474359713643027 -0.0042379897430772674 0 0.00027911211329740459 -0.0041927745130643018 0 0.00018987102736131459 -0.0045694704053105707 0 0.00011933657109790777 -0.0045105925189487259 0 0.00027911211329740459 -0.0041927745130643018 0 0.00033396797581569589 -0.0041609176669293486 0 0.00023314271745137133 -0.0041097826583858885 0 0.00020687057504015298 -0.0041785486530659987 0 0.00027911211329740459 -0.0041927745130643018 0 0.00023314271745137133 -0.0041097826583858885 0 5.1448901076018883e-06 -0.0049845724517746564 0 6.7620094515217345e-06 -0.0049828575079179224 0 1.5360738695070812e-05 -0.0049632601265405451 0 5.1448901076018883e-06 -0.0049845724517746564 0 6.7620094515217345e-06 -0.0049828575079179224 0 3.165425691102056e-06 -0.0049924591547688812 0 5.1448901076018883e-06 -0.0049845724517746564 0 4.0933027329564642e-09 -0.0049999856978501884 0 3.165425691102056e-06 -0.0049924591547688812 0 4.0045489911866746e-09 -0.0049999728802992806 0 4.0933027329564642e-09 -0.0049999856978501884 0 3.165425691102056e-06 -0.0049924591547688812 0 2.3270286048113643e-06 -0.0049938705297058461 0 6.7620094515217345e-06 -0.0049828575079179224 0 3.165425691102056e-06 -0.0049924591547688812 0 2.0725580155542638e-06 -0.0049870101164871811 0 -3.0203460471197357e-06 -0.0049768589950272245 0 -8.9563251057875012e-07 -0.0049714526146521004 0 2.0725580155542638e-06 -0.0049870101164871811 0 5.7020625106511134e-10 -0.004999981964352084 0 4.7906015821311924e-09 -0.0049999750205173311 0 2.0725580155542638e-06 -0.0049870101164871811 0 5.7020625106511134e-10 -0.004999981964352084 0 -1.1188253311560786e-06 -0.0049864084042320024 0 2.0725580155542638e-06 -0.0049870101164871811 0 -1.1188253311560786e-06 -0.0049864084042320024 0 -3.0203460471197357e-06 -0.0049768589950272245 0 -1.1188253311560786e-06 -0.0049864084042320024 0 -3.0203460471197357e-06 -0.0049768589950272245 0 -7.4792711220174605e-06 -0.0049723758646218153 0 -3.0203460471197357e-06 -0.0049768589950272245 0 -7.4792711220174605e-06 -0.0049723758646218153 0 -8.425675765379562e-06 -0.0049660707767768143 0 -1.3347348294329648e-05 -0.0049615692752956863 0 -7.4792711220174605e-06 -0.0049723758646218153 0 -8.425675765379562e-06 -0.0049660707767768143 0 -1.3347348294329648e-05 -0.0049615692752956863 0 -7.4792711220174605e-06 -0.0049723758646218153 0 -1.4330048027840722e-05 -0.0049630007068536958 0 -8.425675765379562e-06 -0.0049660707767768143 0 -8.9563251057875012e-07 -0.0049714526146521004 0 -1.2471077938749731e-05 -0.0049563418969826986 0 -1.3347348294329648e-05 -0.0049615692752956863 0 -8.425675765379562e-06 -0.0049660707767768143 0 -1.7107870122322437e-05 -0.0049530363066968225 0 -8.425675765379562e-06 -0.0049660707767768143 0 -1.2471077938749731e-05 -0.0049563418969826986 0 -1.7107870122322437e-05 -0.0049530363066968225 0 -3.0203460471197357e-06 -0.0049768589950272245 0 -8.425675765379562e-06 -0.0049660707767768143 0 -8.9563251057875012e-07 -0.0049714526146521004 0 -8.9563251057875012e-07 -0.0049714526146521004 0 -1.2471077938749731e-05 -0.0049563418969826986 0 -9.8232538101341315e-06 -0.004952987469623236 0 2.0261954828482686e-05 -0.004937572749524239 0 1.8992132752952843e-05 -0.0049536120440654904 0 -8.9563251057875012e-07 -0.0049714526146521004 0 -9.8232538101341315e-06 -0.004952987469623236 0 1.8416732439115219e-05 -0.0049573917834157492 0 -8.9563251057875012e-07 -0.0049714526146521004 0 1.8416732439115219e-05 -0.0049573917834157492 0 8.5519452000088344e-06 -0.0049797865582337135 0 2.0725580155542638e-06 -0.0049870101164871811 0 -8.9563251057875012e-07 -0.0049714526146521004 0 8.5519452000088344e-06 -0.0049797865582337135 0 2.0725580155542638e-06 -0.0049870101164871811 0 8.5519452000088344e-06 -0.0049797865582337135 0 4.7906015821311924e-09 -0.0049999750205173311 0 8.5519452000088344e-06 -0.0049797865582337135 0 4.7906015821311924e-09 -0.0049999750205173311 0 1.8497873996481747e-08 -0.0049999491041354755 0 1.8416732439115219e-05 -0.0049573917834157492 0 8.5519452000088344e-06 -0.0049797865582337135 0 1.8497873996481747e-08 -0.0049999491041354755 0 1.8416732439115219e-05 -0.0049573917834157492 0 1.8497873996481747e-08 -0.0049999491041354755 0 1.3904384210074157e-05 -0.0049739538674774663 0 1.8497873996481747e-08 -0.0049999491041354755 0 1.3904384210074157e-05 -0.0049739538674774663 0 9.4011282298453718e-09 -0.0049999458356194777 0 1.8416732439115219e-05 -0.0049573917834157492 0 1.3904384210074157e-05 -0.0049739538674774663 0 3.4229342367084519e-05 -0.0049434590204708593 0 1.3904384210074157e-05 -0.0049739538674774663 0 3.4229342367084519e-05 -0.0049434590204708593 0 9.4011282298453718e-09 -0.0049999458356194777 0 9.4011282298453718e-09 -0.0049999458356194777 0 1.7976270953432314e-05 -0.0049685225058022581 0 3.7636125849181222e-09 -0.0049999715079732266 0 3.4229342367084519e-05 -0.0049434590204708593 0 9.4011282298453718e-09 -0.0049999458356194777 0 1.7976270953432314e-05 -0.0049685225058022581 0 4.5408882474550929e-05 -0.0049889597510547065 0 1.0186776431273296e-05 -0.0049950835997739891 0 1.7976270953432314e-05 -0.0049685225058022581 0 1.0186776431273296e-05 -0.0049950835997739891 0 1.7976270953432314e-05 -0.0049685225058022581 0 3.7636125849181222e-09 -0.0049999715079732266 0 4.5408882474550929e-05 -0.0049889597510547065 0 1.7976270953432314e-05 -0.0049685225058022581 0 9.4363537937762847e-05 -0.0048713651260317648 0 3.4229342367084519e-05 -0.0049434590204708593 0 1.7976270953432314e-05 -0.0049685225058022581 0 9.4363537937762847e-05 -0.0048713651260317648 0 0.00019922315414196598 -0.0047042943148069751 0 9.4363537937762847e-05 -0.0048713651260317648 0 8.7332951202368075e-05 -0.0047478645815077934 0 0.00011470690713387441 -0.0048478798945308941 0 9.6515653692403044e-05 -0.0048724669867881137 0 9.4363537937762847e-05 -0.0048713651260317648 0 5.5356102219448146e-05 -0.0049170189873190473 0 3.3732447535452594e-05 -0.0048904233818444299 0 3.4229342367084519e-05 -0.0049434590204708593 0 9.4363537937762847e-05 -0.0048713651260317648 0 5.5356102219448146e-05 -0.0049170189873190473 0 5.0555422701093508e-05 -0.0049193748009488418 0 1.8416732439115219e-05 -0.0049573917834157492 0 5.5356102219448146e-05 -0.0049170189873190473 0 1.8416732439115219e-05 -0.0049573917834157492 0 3.4229342367084519e-05 -0.0049434590204708593 0 5.5356102219448146e-05 -0.0049170189873190473 0 5.0555422701093508e-05 -0.0049193748009488418 0 5.5356102219448146e-05 -0.0049170189873190473 0 3.3732447535452594e-05 -0.0048904233818444299 0 9.4363537937762847e-05 -0.0048713651260317648 0 3.3732447535452594e-05 -0.0048904233818444299 0 2.8221056599182457e-05 -0.0048275864107995706 0 3.3732447535452594e-05 -0.0048904233818444299 0 9.850877071644905e-07 -0.0048930329417131886 0 -2.5980581089625171e-05 -0.0048541678311652212 0 3.3732447535452594e-05 -0.0048904233818444299 0 2.8221056599182457e-05 -0.0048275864107995706 0 -2.5980581089625171e-05 -0.0048541678311652212 0 9.4363537937762847e-05 -0.0048713651260317648 0 2.8221056599182457e-05 -0.0048275864107995706 0 8.7332951202368075e-05 -0.0047478645815077934 0 2.8221056599182457e-05 -0.0048275864107995706 0 1.5796737895132718e-05 -0.0047342630508616116 0 -3.7017906845561522e-05 -0.0047915807785050817 0 2.8221056599182457e-05 -0.0048275864107995706 0 1.5796737895132718e-05 -0.0047342630508616116 0 8.7332951202368075e-05 -0.0047478645815077934 0 -4.3457829457113882e-05 -0.0046891949512081806 0 -7.8115032387744362e-05 -0.0046982898814589774 0 -4.4391492197196441e-05 -0.0046947247397785413 0 -6.2600886601470344e-05 -0.004626080981301281 0 -6.7625118304118364e-05 -0.0046153305710417225 0 1.5796737895132718e-05 -0.0047342630508616116 0 -4.4391492197196441e-05 -0.0046947247397785413 0 -3.7017906845561522e-05 -0.0047915807785050817 0 -3.7017906845561522e-05 -0.0047915807785050817 0 -8.0487250048352524e-05 -0.0048150611851059668 0 -0.00010063906794208788 -0.0047686328053112639 0 -4.4391492197196441e-05 -0.0046947247397785413 0 -3.7017906845561522e-05 -0.0047915807785050817 0 -0.00010063906794208788 -0.0047686328053112639 0 -8.0487250048352524e-05 -0.0048150611851059668 0 -2.5980581089625171e-05 -0.0048541678311652212 0 -9.0518426420134097e-05 -0.0048522895545632149 0 -3.7017906845561522e-05 -0.0047915807785050817 0 -8.0487250048352524e-05 -0.0048150611851059668 0 -2.5980581089625171e-05 -0.0048541678311652212 0 2.8221056599182457e-05 -0.0048275864107995706 0 -3.7017906845561522e-05 -0.0047915807785050817 0 -2.5980581089625171e-05 -0.0048541678311652212 0 9.850877071644905e-07 -0.0048930329417131886 0 -2.5980581089625171e-05 -0.0048541678311652212 0 -3.622144856800232e-05 -0.0048923246447770208 0 -2.5980581089625171e-05 -0.0048541678311652212 0 -3.622144856800232e-05 -0.0048923246447770208 0 -9.0518426420134097e-05 -0.0048522895545632149 0 -7.1907614408316949e-05 -0.004887158194527042 0 -5.7926896984753638e-05 -0.0049127655093588567 0 -3.622144856800232e-05 -0.0048923246447770208 0 -7.1907614408316949e-05 -0.004887158194527042 0 -3.622144856800232e-05 -0.0048923246447770208 0 -9.0518426420134097e-05 -0.0048522895545632149 0 -5.7926896984753638e-05 -0.0049127655093588567 0 -4.757301567896194e-05 -0.0049195269141583788 0 -5.7343883526129099e-05 -0.0049039206825376063 0 -5.7926896984753638e-05 -0.0049127655093588567 0 -3.7292855734919653e-05 -0.0049234979552797084 0 -3.622144856800232e-05 -0.0048923246447770208 0 -5.7926896984753638e-05 -0.0049127655093588567 0 -4.757301567896194e-05 -0.0049195269141583788 0 -3.7292855734919653e-05 -0.0049234979552797084 0 -3.5186960933579634e-05 -0.0049259565321344168 0 -2.6663605337579885e-06 -0.0049302874326248728 0 -3.7292855734919653e-05 -0.0049234979552797084 0 -2.1732745984961959e-05 -0.0049409084364408782 0 -3.298423020017371e-05 -0.0049326662071403123 0 -4.757301567896194e-05 -0.0049195269141583788 0 -3.7292855734919653e-05 -0.0049234979552797084 0 -3.298423020017371e-05 -0.0049326662071403123 0 -3.7292855734919653e-05 -0.0049234979552797084 0 -3.622144856800232e-05 -0.0048923246447770208 0 1.8873060798629291e-05 -0.0049211284947897182 0 9.850877071644905e-07 -0.0048930329417131886 0 -3.622144856800232e-05 -0.0048923246447770208 0 1.8873060798629291e-05 -0.0049211284947897182 0 3.3732447535452594e-05 -0.0048904233818444299 0 9.850877071644905e-07 -0.0048930329417131886 0 1.8873060798629291e-05 -0.0049211284947897182 0 5.0555422701093508e-05 -0.0049193748009488418 0 3.3732447535452594e-05 -0.0048904233818444299 0 1.8873060798629291e-05 -0.0049211284947897182 0 2.0261954828482686e-05 -0.004937572749524239 0 -2.6663605337579885e-06 -0.0049302874326248728 0 -1.2471077938749731e-05 -0.0049563418969826986 0 -2.1732745984961959e-05 -0.0049409084364408782 0 -1.7107870122322437e-05 -0.0049530363066968225 0 -1.2471077938749731e-05 -0.0049563418969826986 0 -9.8232538101341315e-06 -0.004952987469623236 0 -2.1732745984961959e-05 -0.0049409084364408782 0 -2.1732745984961959e-05 -0.0049409084364408782 0 -2.4079527260811811e-05 -0.0049440383358743938 0 -3.298423020017371e-05 -0.0049326662071403123 0 -2.1732745984961959e-05 -0.0049409084364408782 0 -2.4079527260811811e-05 -0.0049440383358743938 0 -1.7107870122322437e-05 -0.0049530363066968225 0 -2.4079527260811811e-05 -0.0049440383358743938 0 -2.8163893428001287e-05 -0.0049426854838151343 0 -3.298423020017371e-05 -0.0049326662071403123 0 -2.4079527260811811e-05 -0.0049440383358743938 0 -1.7107870122322437e-05 -0.0049530363066968225 0 -2.0364178244945551e-05 -0.004952764592521349 0 -1.3347348294329648e-05 -0.0049615692752956863 0 -2.0364178244945551e-05 -0.004952764592521349 0 -1.4330048027840722e-05 -0.0049630007068536958 0 -1.3347348294329648e-05 -0.0049615692752956863 0 -1.7107870122322437e-05 -0.0049530363066968225 0 -2.0364178244945551e-05 -0.004952764592521349 0 -2.0364178244945551e-05 -0.004952764592521349 0 -2.8163893428001287e-05 -0.0049426854838151343 0 -2.6853985685713638e-05 -0.0049475161659637175 0 -2.4079527260811811e-05 -0.0049440383358743938 0 -2.0364178244945551e-05 -0.004952764592521349 0 -2.8163893428001287e-05 -0.0049426854838151343 0 -2.8163893428001287e-05 -0.0049426854838151343 0 -3.7109125892713748e-05 -0.0049325306582941363 0 -3.298423020017371e-05 -0.0049326662071403123 0 -2.8163893428001287e-05 -0.0049426854838151343 0 -3.7109125892713748e-05 -0.0049325306582941363 0 -3.297944095519564e-05 -0.0049389798067137934 0 -3.7109125892713748e-05 -0.0049325306582941363 0 -4.091413751753836e-05 -0.0049304805023886542 0 -3.297944095519564e-05 -0.0049389798067137934 0 -3.7109125892713748e-05 -0.0049325306582941363 0 -4.091413751753836e-05 -0.0049304805023886542 0 -4.5236542505901495e-05 -0.0049235867907091472 0 -4.091413751753836e-05 -0.0049304805023886542 0 -4.5236542505901495e-05 -0.0049235867907091472 0 -5.0431978611516758e-05 -0.0049204831133194717 0 -3.7109125892713748e-05 -0.0049325306582941363 0 -4.5236542505901495e-05 -0.0049235867907091472 0 -4.2416774536957623e-05 -0.0049252492630117543 0 -4.757301567896194e-05 -0.0049195269141583788 0 -4.2416774536957623e-05 -0.0049252492630117543 0 -3.298423020017371e-05 -0.0049326662071403123 0 -4.757301567896194e-05 -0.0049195269141583788 0 -4.8354841980343281e-05 -0.0049179984986707009 0 -5.7343883526129099e-05 -0.0049039206825376063 0 -4.5236542505901495e-05 -0.0049235867907091472 0 -4.2416774536957623e-05 -0.0049252492630117543 0 -4.8354841980343281e-05 -0.0049179984986707009 0 -4.757301567896194e-05 -0.0049195269141583788 0 -4.2416774536957623e-05 -0.0049252492630117543 0 -4.8354841980343281e-05 -0.0049179984986707009 0 -3.7109125892713748e-05 -0.0049325306582941363 0 -4.2416774536957623e-05 -0.0049252492630117543 0 -3.298423020017371e-05 -0.0049326662071403123 0 -6.3416522691969558e-05 -0.0049018522434715094 0 -7.2607164498012723e-05 -0.0048969500887378163 0 -7.1943353610798356e-05 -0.0048873526335158806 0 -6.3416522691969558e-05 -0.0049018522434715094 0 -7.1943353610798356e-05 -0.0048873526335158806 0 -5.7343883526129099e-05 -0.0049039206825376063 0 -6.3416522691969558e-05 -0.0049018522434715094 0 -5.4442401393111225e-05 -0.0049126530529194842 0 -5.7343883526129099e-05 -0.0049039206825376063 0 -4.8354841980343281e-05 -0.0049179984986707009 0 -5.4442401393111225e-05 -0.0049126530529194842 0 -5.7343883526129099e-05 -0.0049039206825376063 0 -4.5236542505901495e-05 -0.0049235867907091472 0 -4.8354841980343281e-05 -0.0049179984986707009 0 -5.4442401393111225e-05 -0.0049126530529194842 0 -5.4442401393111225e-05 -0.0049126530529194842 0 -5.0431978611516758e-05 -0.0049204831133194717 0 -6.2068548032857108e-05 -0.0049079152341513048 0 -4.5236542505901495e-05 -0.0049235867907091472 0 -5.4442401393111225e-05 -0.0049126530529194842 0 -5.0431978611516758e-05 -0.0049204831133194717 0 -5.0431978611516758e-05 -0.0049204831133194717 0 -6.2068548032857108e-05 -0.0049079152341513048 0 -5.854835772834795e-05 -0.0049151388847423058 0 -6.3416522691969558e-05 -0.0049018522434715094 0 -5.4442401393111225e-05 -0.0049126530529194842 0 -6.2068548032857108e-05 -0.0049079152341513048 0 -6.3416522691969558e-05 -0.0049018522434715094 0 -6.2068548032857108e-05 -0.0049079152341513048 0 -7.2607164498012723e-05 -0.0048969500887378163 0 -6.2068548032857108e-05 -0.0049079152341513048 0 -7.0183170200906919e-05 -0.0049038564728243915 0 -7.2607164498012723e-05 -0.0048969500887378163 0 -6.2068548032857108e-05 -0.0049079152341513048 0 -7.0183170200906919e-05 -0.0049038564728243915 0 -5.854835772834795e-05 -0.0049151388847423058 0 -7.0183170200906919e-05 -0.0049038564728243915 0 -8.1726434384105003e-05 -0.0048934158765312902 0 -7.8764989674081476e-05 -0.0049001243610629014 0 -7.0183170200906919e-05 -0.0049038564728243915 0 -8.1726434384105003e-05 -0.0048934158765312902 0 -7.2607164498012723e-05 -0.0048969500887378163 0 -8.1726434384105003e-05 -0.0048934158765312902 0 -9.4205887545484546e-05 -0.0048815772451411303 0 -9.1365887330497318e-05 -0.0048899725296197502 0 -8.1726434384105003e-05 -0.0048934158765312902 0 -9.4205887545484546e-05 -0.0048815772451411303 0 -8.4427579455778726e-05 -0.0048838328429647183 0 -9.4205887545484546e-05 -0.0048815772451411303 0 -8.4427579455778726e-05 -0.0048838328429647183 0 -9.6097911279617235e-05 -0.0048749266649646171 0 -8.4427579455778726e-05 -0.0048838328429647183 0 -9.6097911279617235e-05 -0.0048749266649646171 0 -9.1381616900910466e-05 -0.0048712787269488368 0 -7.2607164498012723e-05 -0.0048969500887378163 0 -8.4427579455778726e-05 -0.0048838328429647183 0 -7.1943353610798356e-05 -0.0048873526335158806 0 -8.1726434384105003e-05 -0.0048934158765312902 0 -7.2607164498012723e-05 -0.0048969500887378163 0 -8.4427579455778726e-05 -0.0048838328429647183 0 -7.1943353610798356e-05 -0.0048873526335158806 0 -8.0117520872708103e-05 -0.0048681636245007202 0 -6.242192506518395e-05 -0.0048883456638086362 0 -8.4427579455778726e-05 -0.0048838328429647183 0 -7.1943353610798356e-05 -0.0048873526335158806 0 -8.1859623908378916e-05 -0.0048779564780092313 0 -7.1943353610798356e-05 -0.0048873526335158806 0 -8.1859623908378916e-05 -0.0048779564780092313 0 -8.0117520872708103e-05 -0.0048681636245007202 0 -9.1381616900910466e-05 -0.0048712787269488368 0 -8.0117520872708103e-05 -0.0048681636245007202 0 -0.0001025603378380504 -0.0048544700967553854 0 -9.6097911279617235e-05 -0.0048749266649646171 0 -9.1381616900910466e-05 -0.0048712787269488368 0 -0.00010266932553655624 -0.0048663846752772235 0 -8.4427579455778726e-05 -0.0048838328429647183 0 -8.1859623908378916e-05 -0.0048779564780092313 0 -9.1381616900910466e-05 -0.0048712787269488368 0 -8.1859623908378916e-05 -0.0048779564780092313 0 -9.1381616900910466e-05 -0.0048712787269488368 0 -8.0117520872708103e-05 -0.0048681636245007202 0 -0.00021455638865107313 -0.0048641395380633655 0 -0.00018439147352508788 -0.0048742160647036988 0 -0.00018977392010925649 -0.0048516901659225288 0 -0.00020124543248225104 -0.0048830487571958313 0 -0.00021455638865107313 -0.0048641395380633655 0 -0.00018977392010925649 -0.0048516901659225288 0 -0.00013882013231685805 -0.0048750361146837678 0 -0.0001447413009682463 -0.0048558140650308184 0 -0.00020124543248225104 -0.0048830487571958313 0 -0.00018066067462747329 -0.0048641595586057153 0 -0.00012921601108232571 -0.0049065795321064027 0 -0.00020124543248225104 -0.0048830487571958313 0 -0.00018066067462747329 -0.0048641595586057153 0 -0.00021455638865107313 -0.0048641395380633655 0 -0.00012921601108232571 -0.0049065795321064027 0 -9.0518426420134097e-05 -0.0048522895545632149 0 -0.00014804372392800461 -0.0048425392746737619 0 -0.00018066067462747329 -0.0048641595586057153 0 -0.00012921601108232571 -0.0049065795321064027 0 -0.00014804372392800461 -0.0048425392746737619 0 -0.00013882013231685805 -0.0048750361146837678 0 -9.6661236981146785e-05 -0.0048970056604104766 0 -7.1943353610798356e-05 -0.0048873526335158806 0 -6.242192506518395e-05 -0.0048883456638086362 0 -5.7343883526129099e-05 -0.0049039206825376063 0 -6.1808766782700948e-05 -0.0049100591942963798 0 -9.6661236981146785e-05 -0.0048970056604104766 0 -5.7926896984753638e-05 -0.0049127655093588567 0 -6.242192506518395e-05 -0.0048883456638086362 0 -5.7343883526129099e-05 -0.0049039206825376063 0 -7.1907614408316949e-05 -0.004887158194527042 0 -0.00012921601108232571 -0.0049065795321064027 0 -9.0518426420134097e-05 -0.0048522895545632149 0 -7.1907614408316949e-05 -0.004887158194527042 0 -5.7926896984753638e-05 -0.0049127655093588567 0 -0.00012921601108232571 -0.0049065795321064027 0 -9.0518426420134097e-05 -0.0048522895545632149 0 -0.00014804372392800461 -0.0048425392746737619 0 -0.00014369727716672653 -0.0047906597664005455 0 -8.0487250048352524e-05 -0.0048150611851059668 0 -9.0518426420134097e-05 -0.0048522895545632149 0 -0.00014369727716672653 -0.0047906597664005455 0 -0.00012773726404293809 -0.0047345213977839978 0 -7.8115032387744362e-05 -0.0046982898814589774 0 -8.0487250048352524e-05 -0.0048150611851059668 0 -0.00014369727716672653 -0.0047906597664005455 0 -0.00010063906794208788 -0.0047686328053112639 0 -0.00010125320683023626 -0.0046729922639145915 0 -6.2600886601470344e-05 -0.004626080981301281 0 -8.9807281958942931e-05 -0.0046060606805150379 0 -0.00010125320683023626 -0.0046729922639145915 0 -0.00013546122899398702 -0.0045793036960441518 0 -0.00017313990721684933 -0.0046022671005599919 0 -0.00010125320683023626 -0.0046729922639145915 0 -0.00013546122899398702 -0.0045793036960441518 0 -8.9807281958942931e-05 -0.0046060606805150379 0 -0.00013546122899398702 -0.0045793036960441518 0 -0.0001123591934264868 -0.0045626979479240831 0 -8.9807281958942931e-05 -0.0046060606805150379 0 -0.00016570331869661568 -0.004516933549075691 0 -0.00013546122899398702 -0.0045793036960441518 0 -0.0001123591934264868 -0.0045626979479240831 0 -0.0001123591934264868 -0.0045626979479240831 0 -6.7625118304118364e-05 -0.0046153305710417225 0 -8.9807281958942931e-05 -0.0046060606805150379 0 -6.2600886601470344e-05 -0.004626080981301281 0 -6.7625118304118364e-05 -0.0046153305710417225 0 -8.9807281958942931e-05 -0.0046060606805150379 0 -0.00030915055906727458 -0.0042946882537629365 0 -0.00021486572892173245 -0.0045053377527168158 0 -0.0003395802908537768 -0.0044820972272265015 0 -0.00021486572892173245 -0.0045053377527168158 0 -0.00025257328776906289 -0.0046463683810049668 0 -0.0003395802908537768 -0.0044820972272265015 0 -0.00013546122899398702 -0.0045793036960441518 0 -0.00021486572892173245 -0.0045053377527168158 0 -0.00017313990721684933 -0.0046022671005599919 0 -0.00016570331869661568 -0.004516933549075691 0 -0.00013546122899398702 -0.0045793036960441518 0 -0.00021486572892173245 -0.0045053377527168158 0 -0.00010125320683023626 -0.0046729922639145915 0 -0.00017313990721684933 -0.0046022671005599919 0 -0.00025257328776906289 -0.0046463683810049668 0 -0.00021486572892173245 -0.0045053377527168158 0 -0.00017313990721684933 -0.0046022671005599919 0 -0.00025257328776906289 -0.0046463683810049668 0 -0.00025257328776906289 -0.0046463683810049668 0 -0.00039946187231082686 -0.004581785510340484 0 -0.0003395802908537768 -0.0044820972272265015 0 -0.00025257328776906289 -0.0046463683810049668 0 -0.00030863592886019549 -0.0047076312240927481 0 -0.00039946187231082686 -0.004581785510340484 0 -0.00025257328776906289 -0.0046463683810049668 0 -0.00030863592886019549 -0.0047076312240927481 0 -0.00021068188876654864 -0.0047929557154994433 0 -0.00030863592886019549 -0.0047076312240927481 0 -0.00021068188876654864 -0.0047929557154994433 0 -0.00030729695056205093 -0.0047858488720490099 0 -0.00012773726404293809 -0.0047345213977839978 0 -0.00020810139718578719 -0.0047912287625115346 0 -0.00010125320683023626 -0.0046729922639145915 0 -0.00025257328776906289 -0.0046463683810049668 0 -0.00021068188876654864 -0.0047929557154994433 0 -0.00014804372392800461 -0.0048425392746737619 0 -0.00014369727716672653 -0.0047906597664005455 0 -0.00021068188876654864 -0.0047929557154994433 0 -0.00018066067462747329 -0.0048641595586057153 0 -0.00014804372392800461 -0.0048425392746737619 0 -0.00021068188876654864 -0.0047929557154994433 0 -0.00018066067462747329 -0.0048641595586057153 0 -0.00021068188876654864 -0.0047929557154994433 0 -0.00021455638865107313 -0.0048641395380633655 0 -0.00024029764400874387 -0.0048614537586128938 0 -0.00021845762464646565 -0.0048901302386356472 0 -0.00030729695056205093 -0.0047858488720490099 0 -0.00021455638865107313 -0.0048641395380633655 0 -0.00035635271128655189 -0.0048538041048680845 0 -0.00021068188876654864 -0.0047929557154994433 0 -0.00030729695056205093 -0.0047858488720490099 0 -0.00021455638865107313 -0.0048641395380633655 0 -0.00035635271128655189 -0.0048538041048680845 0 -0.00040090178293865467 -0.0047869783123248221 0 -0.00049395537226899061 -0.0048271157115707692 0 -0.00018439147352508788 -0.0048742160647036988 0 -0.00014091573219144276 -0.0048679479101986145 0 -0.00016080365932509883 -0.0048631350127895491 0 -0.00021845762464646565 -0.0048901302386356472 0 -0.00049355613317207615 -0.0041657401212234126 0 -0.00030729695056205093 -0.0047858488720490099 0 -0.00035635271128655189 -0.0048538041048680845 0 -0.00040090178293865467 -0.0047869783123248221 0 -0.00064523597123720001 -0.0040459464017394862 0 -0.00069281856496348614 -0.0041533578612192607 0 -0.00051634570458135483 -0.0040642588992885502 0 -0.00056758868652774421 -0.0046131591603768667 0 -0.00071570364658640523 -0.003529847764840899 0 -0.00049355613317207615 -0.0041657401212234126 0 -0.00056758868652774421 -0.0046131591603768667 0 -0.00040090178293865467 -0.0047869783123248221 0 -0.00049395537226899061 -0.0048271157115707692 0 -0.00045787843856541125 -0.0047514508749393839 0 -0.00049355613317207615 -0.0041657401212234126 0 -0.00071570364658640523 -0.003529847764840899 0 -0.00048983828975145301 -0.0047017586217251474 0 -0.00059132010035351206 -0.0046590994876991891 0 -0.00061463853311547606 -0.0047351011593135635 0 -0.00048983828975145301 -0.0047017586217251474 0 -0.00050145754756761285 -0.0046203078193361212 0 -0.00059132010035351206 -0.0046590994876991891 0 -0.00047800158600016336 -0.0047603532688470888 0 -0.00038605038246091074 -0.0047178323908250259 0 -0.00039946187231082686 -0.004581785510340484 0 -0.00030863592886019549 -0.0047076312240927481 0 -0.00038605038246091074 -0.0047178323908250259 0 -0.00039946187231082686 -0.004581785510340484 0 -0.00048983828975145301 -0.0047017586217251474 0 -0.00050145754756761285 -0.0046203078193361212 0 -0.00039946187231082686 -0.004581785510340484 0 -0.00056758868652774421 -0.0046131591603768667 0 -0.0003997902751722427 -0.0046231100085253928 0 -0.00030863592886019549 -0.0047076312240927481 0 -0.00030729695056205093 -0.0047858488720490099 0 -0.00038605038246091074 -0.0047178323908250259 0 -0.00030729695056205093 -0.0047858488720490099 0 -0.00040090178293865467 -0.0047869783123248221 0 -0.00038605038246091074 -0.0047178323908250259 0 -0.00056758868652774421 -0.0046131591603768667 0 -0.0004193746847718258 -0.0046796704547670525 0 -0.00040090178293865467 -0.0047869783123248221 0 -0.00045787843856541125 -0.0047514508749393839 0 -0.00038605038246091074 -0.0047178323908250259 0 -0.00050145754756761285 -0.0046203078193361212 0 -0.00053064005383173234 -0.0045340623991819359 0 -0.00059132010035351206 -0.0046590994876991891 0 -0.00039946187231082686 -0.004581785510340484 0 -0.00053064005383173234 -0.0045340623991819359 0 -0.00045334886339594291 -0.0044348919468203433 0 -0.00050145754756761285 -0.0046203078193361212 0 -0.00039946187231082686 -0.004581785510340484 0 -0.00053064005383173234 -0.0045340623991819359 0 -0.00050564152780451681 -0.0042938384039208971 0 -0.00052669772782447486 -0.0043958967449667227 0 -0.00045334886339594291 -0.0044348919468203433 0 -0.00050564152780451681 -0.0042938384039208971 0 -0.00052669772782447486 -0.0043958967449667227 0 -0.00061645538263744725 -0.0043669703607032142 0 -0.00053064005383173234 -0.0045340623991819359 0 -0.00052669772782447486 -0.0043958967449667227 0 -0.00045334886339594291 -0.0044348919468203433 0 -0.00053064005383173234 -0.0045340623991819359 0 -0.00052669772782447486 -0.0043958967449667227 0 -0.00061645538263744725 -0.0043669703607032142 0 -0.00040883598857105311 -0.0043408944725227758 0 -0.00045334886339594291 -0.0044348919468203433 0 -0.0003395802908537768 -0.0044820972272265015 0 -0.00039946187231082686 -0.004581785510340484 0 -0.00045334886339594291 -0.0044348919468203433 0 -0.0003395802908537768 -0.0044820972272265015 0 -0.0012118436104045689 -0.00038911735042784936 0 -0.0012079222363833191 -0.00039965248178734848 0 -0.0012037741858284658 -0.00040661390828076712 0 -0.0012118436104045689 -0.00038911735042784936 0 -0.0012037741858284658 -0.00040661390828076712 0 -0.0012093297858653249 -0.00040138286619177628 0 -0.0012118436104045689 -0.00038911735042784936 0 -0.0012093297858653249 -0.00040138286619177628 0 -0.0012137101172817746 -0.00038767684502355053 0 -0.0012167669129631833 -0.00037918568475113289 0 -0.0012118436104045689 -0.00038911735042784936 0 -0.0012158388146110363 -0.00037425293118570948 0 -0.0012166150360235133 -0.00038936206810314718 0 -0.0012118436104045689 -0.00038911735042784936 0 -0.0012079222363833191 -0.00039965248178734848 0 -0.00061288440266854712 -0.00420209629419628 0 -0.00061645538263744725 -0.0043669703607032142 0 -0.00066437082654137827 -0.0045824012610269299 0 -0.0012178479544169831 -0.00039523081977994049 0 -0.0012166150360235133 -0.00038936206810314718 0 -0.0012079222363833191 -0.00039965248178734848 0 -0.0012178479544169831 -0.00039523081977994049 0 -0.0012079222363833191 -0.00039965248178734848 0 -0.0011871926330974875 -0.00042461248372018765 0 -0.00091747028966812421 -0.0023195460822917949 0 -0.00094127893899157745 -0.0025464052246531896 0 -0.00053064005383173234 -0.0045340623991819359 0 -0.00061645538263744725 -0.0043669703607032142 0 -0.00066437082654137827 -0.0045824012610269299 0 -0.00053064005383173234 -0.0045340623991819359 0 -0.00066437082654137827 -0.0045824012610269299 0 -0.00059132010035351206 -0.0046590994876991891 0 -0.0012079222363833191 -0.00039965248178734848 0 -0.0011871926330974875 -0.00042461248372018765 0 -0.0012037741858284658 -0.00040661390828076712 0 -0.0011871926330974875 -0.00042461248372018765 0 -0.0012020397990705643 -0.00041872792059658256 0 -0.0011982383456843385 -0.00044427350664640557 0 -0.0011871926330974875 -0.00042461248372018765 0 -0.0012020397990705643 -0.00041872792059658256 0 -0.0012037741858284658 -0.00040661390828076712 0 -0.0012020397990705643 -0.00041872792059658256 0 -0.0012037741858284658 -0.00040661390828076712 0 -0.0012093297858653249 -0.00040138286619177628 0 -0.0012020397990705643 -0.00041872792059658256 0 -0.0012093297858653249 -0.00040138286619177628 0 -0.0012092860158465122 -0.00041972727206092945 0 -0.0011982383456843385 -0.00044427350664640557 0 -0.0011820824756654399 -0.00047346831125350902 0 -0.0012131110000697535 -0.00045049285044695974 0 -0.0012020397990705643 -0.00041872792059658256 0 -0.0011982383456843385 -0.00044427350664640557 0 -0.0012092860158465122 -0.00041972727206092945 0 -0.0011871926330974875 -0.00042461248372018765 0 -0.0011982383456843385 -0.00044427350664640557 0 -0.0011820824756654399 -0.00047346831125350902 0 -0.0011982383456843385 -0.00044427350664640557 0 -0.0012092860158465122 -0.00041972727206092945 0 -0.0012104122687342143 -0.00043579627339396997 0 -0.0011982383456843385 -0.00044427350664640557 0 -0.0012131110000697535 -0.00045049285044695974 0 -0.0012104122687342143 -0.00043579627339396997 0 -0.00066437082654137827 -0.0045824012610269299 0 -0.00059132010035351206 -0.0046590994876991891 0 -0.00066859491059439796 -0.0047185300953516791 0 -0.00094127893899157745 -0.0025464052246531896 0 -0.00083630130537057292 -0.0023659905869340123 0 -0.00059132010035351206 -0.0046590994876991891 0 -0.00061463853311547606 -0.0047351011593135635 0 -0.00066859491059439796 -0.0047185300953516791 0 -0.00088345869161034804 -0.0027538509570147638 0 -0.00075679303985117983 -0.0027715226838273851 0 -0.00073820061420497112 -0.0026808137737792926 0 -0.00071570364658640523 -0.003529847764840899 0 -0.00083630130537057292 -0.0023659905869340123 0 -0.00071570364658640523 -0.003529847764840899 0 -0.00090385840180308961 -0.0021058508304294473 0 -0.00070068290459024917 -0.0032268878395431523 0 -0.00065241926470296387 -0.0031981379759075026 0 -0.00069237304489247616 -0.0031659159696514473 0 -0.00075794237977278901 -0.0032223473012751706 0 -0.00070068290459024917 -0.0032268878395431523 0 -0.00069237304489247616 -0.0031659159696514473 0 -0.0011075914971899812 -0.0012063272194506546 0 -0.0010857059643864945 -0.0012112742262994718 0 -0.0010840026597795881 -0.001184267847149436 0 -0.00083630130537057292 -0.0023659905869340123 0 -0.001234358512010263 -0.00074105105605459906 0 -0.0011089565024758755 -0.0012161283561735034 0 -0.0011075914971899812 -0.0012063272194506546 0 -0.0010857059643864945 -0.0012112742262994718 0 -0.00083630130537057292 -0.0023659905869340123 0 -0.00090385840180308961 -0.0021058508304294473 0 -0.0011593901250500287 -0.0012484399399063709 0 -0.0011423363273172088 -0.0011676452103394892 0 -0.0011024376130704509 -0.0012077234361858218 0 -0.00090385840180308961 -0.0021058508304294473 0 -0.0010921866862673637 -0.0011140455218723283 0 -0.00090385840180308961 -0.0021058508304294473 0 -0.00088853936872382972 -0.0021646472468817321 0 -0.0006315542555007488 -0.0030861782111146893 0 -0.00070627221304471184 -0.0031022744799561182 0 -0.00065573527362480398 -0.0029905550271352144 0 -0.00075794237977278901 -0.0032223473012751706 0 -0.00070627221304471184 -0.0031022744799561182 0 -0.00069237304489247616 -0.0031659159696514473 0 -0.00065241926470296387 -0.0031981379759075026 0 -0.0006315542555007488 -0.0030861782111146893 0 -0.00069237304489247616 -0.0031659159696514473 0 -0.0006315542555007488 -0.0030861782111146893 0 -0.00070627221304471184 -0.0031022744799561182 0 -0.00069237304489247616 -0.0031659159696514473 0 -0.00049355613317207615 -0.0041657401212234126 0 -0.00039964769163303008 -0.0039425874399840318 0 -0.00014091573219144276 -0.0048679479101986145 0 -0.00011988290614889973 -0.0048484437999497809 0 -0.00013093149333439196 -0.004855625255518004 0 -0.00014091573219144276 -0.0048679479101986145 0 -0.00013093149333439196 -0.004855625255518004 0 -0.00016080365932509883 -0.0048631350127895491 0 -0.00013093149333439196 -0.004855625255518004 0 -0.00016080365932509883 -0.0048631350127895491 0 -0.00018977392010925649 -0.0048516901659225288 0 -0.0001319394304537184 -0.00485491773061986 0 -0.0001447413009682463 -0.0048558140650308184 0 -0.00013093149333439196 -0.004855625255518004 0 -0.0001025603378380504 -0.0048544700967553854 0 -0.0001150551968137105 -0.0048602059234618099 0 -0.00018439147352508788 -0.0048742160647036988 0 -0.00016080365932509883 -0.0048631350127895491 0 -0.00018977392010925649 -0.0048516901659225288 0 -9.1381616900910466e-05 -0.0048712787269488368 0 -0.0001025603378380504 -0.0048544700967553854 0 -0.00010266932553655624 -0.0048663846752772235 0 -0.0001025603378380504 -0.0048544700967553854 0 -0.00010266932553655624 -0.0048663846752772235 0 -0.0001150551968137105 -0.0048602059234618099 0 -0.00010266932553655624 -0.0048663846752772235 0 -0.0001150551968137105 -0.0048602059234618099 0 -0.0001060186774644396 -0.0048702724927633077 0 -0.00011988290614889973 -0.0048484437999497809 0 -0.00013093149333439196 -0.004855625255518004 0 -0.0001150551968137105 -0.0048602059234618099 0 -0.00011988290614889973 -0.0048484437999497809 0 -0.0001150551968137105 -0.0048602059234618099 0 -0.00011383058836623086 -0.0048637485193310636 0 -0.0001150551968137105 -0.0048602059234618099 0 -0.00011383058836623086 -0.0048637485193310636 0 -0.0001060186774644396 -0.0048702724927633077 0 -0.00011383058836623086 -0.0048637485193310636 0 -0.0001060186774644396 -0.0048702724927633077 0 -0.00010577862661628505 -0.0048752008036616204 0 -9.6097911279617235e-05 -0.0048749266649646171 0 -0.00010266932553655624 -0.0048663846752772235 0 -0.0001060186774644396 -0.0048702724927633077 0 -9.4205887545484546e-05 -0.0048815772451411303 0 -0.0001060186774644396 -0.0048702724927633077 0 -0.00010577862661628505 -0.0048752008036616204 0 -9.4205887545484546e-05 -0.0048815772451411303 0 -9.6097911279617235e-05 -0.0048749266649646171 0 -0.0001060186774644396 -0.0048702724927633077 0 -9.4205887545484546e-05 -0.0048815772451411303 0 -0.00010577862661628505 -0.0048752008036616204 0 -9.1365887330497318e-05 -0.0048899725296197502 0 -0.00010577862661628505 -0.0048752008036616204 0 -0.00010941269391895135 -0.0048791829651662032 0 -9.1365887330497318e-05 -0.0048899725296197502 0 -0.00010577862661628505 -0.0048752008036616204 0 -0.00011482269990908251 -0.0048687543244305973 0 -0.00010941269391895135 -0.0048791829651662032 0 -0.00011383058836623086 -0.0048637485193310636 0 -0.00010577862661628505 -0.0048752008036616204 0 -0.00011482269990908251 -0.0048687543244305973 0 -0.00011482269990908251 -0.0048687543244305973 0 -0.0001203646909570956 -0.0048599763632898212 0 -0.00011763285826126727 -0.0048650080632452412 0 -0.00011383058836623086 -0.0048637485193310636 0 -0.00011482269990908251 -0.0048687543244305973 0 -0.0001203646909570956 -0.0048599763632898212 0 -0.00061133533049759139 -0.0029807650368084745 0 -0.00065573527362480398 -0.0029905550271352144 0 -0.00060695686779185635 -0.002885459833763307 0 -0.00088296542299362969 -0.0019806174438412273 0 -0.00067519951780706136 -0.0022423993872061967 0 -0.0004026535812029581 -0.003954840171207028 0 -0.00030802485329856847 -0.0037671433181797787 0 -0.0011423363273172088 -0.0011676452103394892 0 -0.0011237941059796281 -0.0011039025139132222 0 -0.001090356180785922 -0.0011409430975016616 0 -0.0006315542555007488 -0.0030861782111146893 0 -0.00061133533049759139 -0.0029807650368084745 0 -0.00065573527362480398 -0.0029905550271352144 0 -0.00088853936872382972 -0.0021646472468817321 0 -0.00088296542299362969 -0.0019806174438412273 0 -0.00011988290614889973 -0.0048484437999497809 0 -0.00011383058836623086 -0.0048637485193310636 0 -0.0001203646909570956 -0.0048599763632898212 0 -0.00039964769163303008 -0.0039425874399840318 0 -0.0004026535812029581 -0.003954840171207028 0 -0.00017313901536198268 -0.0046690059048825304 0 -1.5388306501518704e-05 -0.0046621555088102382 0 7.6844609978106923e-05 -0.0047718251543775276 0 -9.7138532945908681e-05 -0.0047510650000739205 0 6.6898393879265042e-05 -0.0047747332747863887 0 -0.00017313901536198268 -0.0046690059048825304 0 -0.00014554715178449789 -0.0045789963688708671 0 -8.2305098393266156e-05 -0.0046243050508980119 0 -0.00014554715178449789 -0.0045789963688708671 0 -8.2305098393266156e-05 -0.0046243050508980119 0 -1.8943730633865869e-05 -0.0045573726013716882 0 -8.2305098393266156e-05 -0.0046243050508980119 0 -1.5388306501518704e-05 -0.0046621555088102382 0 -1.8943730633865869e-05 -0.0045573726013716882 0 -0.00017313901536198268 -0.0046690059048825304 0 -8.2305098393266156e-05 -0.0046243050508980119 0 -1.5388306501518704e-05 -0.0046621555088102382 0 7.6844609978106923e-05 -0.0047718251543775276 0 0.00010462028000270348 -0.0048109631259813978 0 0.00021600763885165758 -0.0045891510733696824 0 7.1096873578429428e-05 -0.0046276496298198327 0 -1.5388306501518704e-05 -0.0046621555088102382 0 -1.8943730633865869e-05 -0.0045573726013716882 0 7.1096873578429428e-05 -0.0046276496298198327 0 9.4174742270355935e-05 -0.0045433338172086316 0 -1.8943730633865869e-05 -0.0045573726013716882 0 7.1096873578429428e-05 -0.0046276496298198327 0 9.4174742270355935e-05 -0.0045433338172086316 0 0.00021600763885165758 -0.0045891510733696824 0 7.1096873578429428e-05 -0.0046276496298198327 0 7.6844609978106923e-05 -0.0047718251543775276 0 0.00021600763885165758 -0.0045891510733696824 0 7.1096873578429428e-05 -0.0046276496298198327 0 -1.5388306501518704e-05 -0.0046621555088102382 0 7.6844609978106923e-05 -0.0047718251543775276 0 7.6844609978106923e-05 -0.0047718251543775276 0 0.00010462028000270348 -0.0048109631259813978 0 -2.6511406221312194e-05 -0.0048604424876826533 0 -0.00061133533049759139 -0.0029807650368084745 0 -0.00060695686779185635 -0.002885459833763307 0 -0.00058944732717529629 -0.0028813155849393155 0 -0.0001203646909570956 -0.0048599763632898212 0 -0.00011875659629744348 -0.0048537435144355616 0 -0.00011763285826126727 -0.0048650080632452412 0 -0.00030802485329856847 -0.0037671433181797787 0 -3.7043087833083733e-05 -0.0049113640111301139 0 -0.00030802485329856847 -0.0037671433181797787 0 -0.00067519951780706136 -0.0022423993872061967 0 -5.0563885902322641e-05 -0.0048268476113400493 0 -2.6511406221312194e-05 -0.0048604424876826533 0 -7.2916540979221521e-05 -0.0048599936458529371 0 -5.0563885902322641e-05 -0.0048268476113400493 0 7.6844609978106923e-05 -0.0047718251543775276 0 -2.6511406221312194e-05 -0.0048604424876826533 0 -7.2916540979221521e-05 -0.0048599936458529371 0 -7.7074997173888778e-05 -0.0048811936880997419 0 -8.8184756263517421e-05 -0.004879899362739938 0 -3.7043087833083733e-05 -0.0049113640111301139 0 -9.7736942411344343e-05 -0.0048777908075238654 0 -2.6511406221312194e-05 -0.0048604424876826533 0 -7.2916540979221521e-05 -0.0048599936458529371 0 -7.7074997173888778e-05 -0.0048811936880997419 0 -0.00011482269990908251 -0.0048687543244305973 0 -0.00011763285826126727 -0.0048650080632452412 0 -0.00010941269391895135 -0.0048791829651662032 0 -9.7736942411344343e-05 -0.0048777908075238654 0 -8.9669036631434144e-05 -0.0048873171526130381 0 -7.7074997173888778e-05 -0.0048811936880997419 0 -8.8184756263517421e-05 -0.004879899362739938 0 -9.1365887330497318e-05 -0.0048899725296197502 0 -7.2916540979221521e-05 -0.0048599936458529371 0 -8.8184756263517421e-05 -0.004879899362739938 0 -8.8330550528712315e-05 -0.0048721397192097978 0 -8.8184756263517421e-05 -0.004879899362739938 0 -8.8330550528712315e-05 -0.0048721397192097978 0 -8.6608234234714288e-05 -0.0048894764375942822 0 -9.7138532945908681e-05 -0.0047510650000739205 0 -0.00024893040829150436 -0.0047254462705080824 0 -0.00017313901536198268 -0.0046690059048825304 0 -0.00037474675440057588 -0.0045986686397568397 0 -0.00026484366848984102 -0.004565500672841334 0 -5.0563885902322641e-05 -0.0048268476113400493 0 -7.2916540979221521e-05 -0.0048599936458529371 0 -8.8330550528712315e-05 -0.0048721397192097978 0 -0.00017313901536198268 -0.0046690059048825304 0 -0.00014554715178449789 -0.0045789963688708671 0 -0.00026484366848984102 -0.004565500672841334 0 -0.00020804121072112749 -0.0045142007474187314 0 -0.00035001846553843545 -0.0044862736105272328 0 -0.00010389210064220492 -0.0043845957608239618 0 4.9144386987771935e-05 -0.0049136787824980328 0 -5.7289625892977518e-06 -0.0049277050293528328 0 0.00012619243509780445 -0.0049054054834583184 0 -0.00019531388922360717 -0.0046871032370250912 0 1.3103156734743527e-05 -0.0047485198948783213 0 -0.00014554715178449789 -0.0045789963688708671 0 -0.00020804121072112749 -0.0045142007474187314 0 -0.00026484366848984102 -0.004565500672841334 0 -0.00037474675440057588 -0.0045986686397568397 0 -0.00026484366848984102 -0.004565500672841334 0 -0.00035001846553843545 -0.0044862736105272328 0 -0.00020804121072112749 -0.0045142007474187314 0 -0.00026484366848984102 -0.004565500672841334 0 -0.00035001846553843545 -0.0044862736105272328 0 -0.00037474675440057588 -0.0045986686397568397 0 -0.00035001846553843545 -0.0044862736105272328 0 -0.00054641857350569379 -0.0045554909937809401 0 -0.00019531388922360717 -0.0046871032370250912 0 -0.00022867396470585663 -0.0048114596681675679 0 5.8667875192731762e-05 -0.0049201499887805708 0 -3.4040125888087382e-05 -0.0049399716320899772 0 -5.7289625892977518e-06 -0.0049277050293528328 0 -5.1594308623437171e-05 -0.0049295907690381094 0 -0.00013871216399340491 -0.0049512486919467118 0 4.9144386987771935e-05 -0.0049136787824980328 0 -5.7289625892977518e-06 -0.0049277050293528328 0 -5.1594308623437171e-05 -0.0049295907690381094 0 6.690592800128546e-05 -0.0049298961749684109 0 -1.4932293880394085e-05 -0.0049456591370484202 0 1.6657264357128768e-05 -0.004910345583149245 0 -1.4932293880394085e-05 -0.0049456591370484202 0 1.6657264357128768e-05 -0.004910345583149245 0 -2.9079189001706278e-05 -0.0049155559292811289 0 1.3838885754565358e-05 -0.0048724599399343673 0 -6.4098713986592947e-05 -0.0048947462164634272 0 -2.9079189001706278e-05 -0.0049155559292811289 0 1.6657264357128768e-05 -0.004910345583149245 0 1.3838885754565358e-05 -0.0048724599399343673 0 -2.9079189001706278e-05 -0.0049155559292811289 0 1.6657264357128768e-05 -0.004910345583149245 0 1.3838885754565358e-05 -0.0048724599399343673 0 5.6556151855433547e-05 -0.004885240116758012 0 1.3838885754565358e-05 -0.0048724599399343673 0 5.6556151855433547e-05 -0.004885240116758012 0 8.9279647969078089e-05 -0.0048329688082977386 0 6.690592800128546e-05 -0.0049298961749684109 0 5.6556151855433547e-05 -0.004885240116758012 0 9.9831764300045372e-05 -0.0048798885125215102 0 6.690592800128546e-05 -0.0049298961749684109 0 1.6657264357128768e-05 -0.004910345583149245 0 5.6556151855433547e-05 -0.004885240116758012 0 5.6556151855433547e-05 -0.004885240116758012 0 9.9831764300045372e-05 -0.0048798885125215102 0 8.9279647969078089e-05 -0.0048329688082977386 0 5.8667875192731762e-05 -0.0049201499887805708 0 0.00013822350865701222 -0.0048992030446021401 0 9.9831764300045372e-05 -0.0048798885125215102 0 0.00014130457188122667 -0.0048535219364710443 0 8.9279647969078089e-05 -0.0048329688082977386 0 4.9144386987771935e-05 -0.0049136787824980328 0 0.00012619243509780445 -0.0049054054834583184 0 0.00014740616866990974 -0.0048963116126142748 0 6.690592800128546e-05 -0.0049298961749684109 0 9.9831764300045372e-05 -0.0048798885125215102 0 0.00014740616866990974 -0.0048963116126142748 0 9.9831764300045372e-05 -0.0048798885125215102 0 0.00014130457188122667 -0.0048535219364710443 0 0.00014740616866990974 -0.0048963116126142748 0 -0.00020804121072112749 -0.0045142007474187314 0 -0.00010389210064220492 -0.0043845957608239618 0 -0.00010207625901264849 -0.0044975463914548233 0 -0.00010389210064220492 -0.0043845957608239618 0 -0.00010207625901264849 -0.0044975463914548233 0 -2.5745285157589302e-05 -0.0044543683493668664 0 -0.00010207625901264849 -0.0044975463914548233 0 -1.8943730633865869e-05 -0.0045573726013716882 0 -2.5745285157589302e-05 -0.0044543683493668664 0 -0.00014554715178449789 -0.0045789963688708671 0 -0.00010207625901264849 -0.0044975463914548233 0 -1.8943730633865869e-05 -0.0045573726013716882 0 -0.00014554715178449789 -0.0045789963688708671 0 -0.00020804121072112749 -0.0045142007474187314 0 -0.00010207625901264849 -0.0044975463914548233 0 0.00014777707235945171 -0.0044903342723956949 0 9.4174742270355935e-05 -0.0045433338172086316 0 6.3920799817206929e-05 -0.0044576579629545176 0 -1.8943730633865869e-05 -0.0045573726013716882 0 -2.5745285157589302e-05 -0.0044543683493668664 0 6.3920799817206929e-05 -0.0044576579629545176 0 9.4174742270355935e-05 -0.0045433338172086316 0 -1.8943730633865869e-05 -0.0045573726013716882 0 6.3920799817206929e-05 -0.0044576579629545176 0 5.5073603933533154e-05 -0.0043901337796812432 0 -2.5745285157589302e-05 -0.0044543683493668664 0 6.3920799817206929e-05 -0.0044576579629545176 0 -0.00010389210064220492 -0.0043845957608239618 0 5.5073603933533154e-05 -0.0043901337796812432 0 -2.5745285157589302e-05 -0.0044543683493668664 0 0.00014777707235945171 -0.0044903342723956949 0 6.3920799817206929e-05 -0.0044576579629545176 0 0.00015649842505493638 -0.0044039748124362326 0 5.5073603933533154e-05 -0.0043901337796812432 0 6.3920799817206929e-05 -0.0044576579629545176 0 0.00015649842505493638 -0.0044039748124362326 0 0.00012619243509780445 -0.0049054054834583184 0 0.00014740616866990974 -0.0048963116126142748 0 0.00024287927728481129 -0.0048674326044745794 0 -0.00010389210064220492 -0.0043845957608239618 0 5.5073603933533154e-05 -0.0043901337796812432 0 0.00018785281216536747 -0.0042743993330691251 0 0.00014740616866990974 -0.0048963116126142748 0 0.0001885353759698315 -0.0048556633918374415 0 0.00024287927728481129 -0.0048674326044745794 0 1.3103156734743527e-05 -0.0047485198948783213 0 0.00013995429116050209 -0.0037734438311870819 0 5.5073603933533154e-05 -0.0043901337796812432 0 0.00018785281216536747 -0.0042743993330691251 0 0.00015649842505493638 -0.0044039748124362326 0 0.00014130457188122667 -0.0048535219364710443 0 0.00014740616866990974 -0.0048963116126142748 0 0.0001885353759698315 -0.0048556633918374415 0 0.0001885353759698315 -0.0048556633918374415 0 0.0001825393548809143 -0.004802783524537689 0 0.00024287927728481129 -0.0048674326044745794 0 0.00032404840795102725 -0.0031486211253765528 0 0.00024854689386967483 -0.0030591425552071003 0 0.00024489707323903755 -0.0031380376145510027 0 0.00027461163140140183 -0.004002629345757216 0 0.00013995429116050209 -0.0037734438311870819 0 0.00014130457188122667 -0.0048535219364710443 0 0.0001885353759698315 -0.0048556633918374415 0 0.0001825393548809143 -0.004802783524537689 0 0.00032404840795102725 -0.0031486211253765528 0 0.00030703418840427545 -0.003210166427745958 0 0.00024489707323903755 -0.0031380376145510027 0 0.00014130457188122667 -0.0048535219364710443 0 0.0001825393548809143 -0.004802783524537689 0 8.9279647969078089e-05 -0.0048329688082977386 0 0.0001825393548809143 -0.004802783524537689 0 0.00013141609511694113 -0.004736137911043636 0 8.9279647969078089e-05 -0.0048329688082977386 0 0.00027461163140140183 -0.004002629345757216 0 0.00027900302413359513 -0.0040362020241147458 0 0.00032006584316837786 -0.0032334982232825596 0 0.0002336069499414601 -0.0032296991093259042 0 0.00040750039945569707 -0.0032470060640098402 0 0.00030703418840427545 -0.003210166427745958 0 0.00035297064196387738 -0.003289918736011217 0 0.00032404840795102725 -0.0031486211253765528 0 0.00040750039945569707 -0.0032470060640098402 0 0.00030703418840427545 -0.003210166427745958 0 0.00030703418840427545 -0.003210166427745958 0 0.00035297064196387738 -0.003289918736011217 0 0.00022534694000778409 -0.0032159909438949463 0 0.00026717053390470143 -0.003281935784725556 0 0.00028746172974693343 -0.0032495346075465188 0 0.00024367248118382549 -0.0032611433564373351 0 0.00028746172974693343 -0.0032495346075465188 0 0.00022534694000778409 -0.0032159909438949463 0 0.00024367248118382549 -0.0032611433564373351 0 0.00026717053390470143 -0.003281935784725556 0 0.00028746172974693343 -0.0032495346075465188 0 0.00029726969123971376 -0.0033074039848616874 0 0.00032006584316837786 -0.0032334982232825596 0 0.00035724978743094816 -0.0036305122884459479 0 0.00040750039945569707 -0.0032470060640098402 0 0.00035297064196387738 -0.003289918736011217 0 0.00049398521124232664 -0.0033577052048979835 0 0.00028746172974693343 -0.0032495346075465188 0 0.00029726969123971376 -0.0033074039848616874 0 0.00035139542804495946 -0.0032859177036640547 0 0.00029726969123971376 -0.0033074039848616874 0 0.00034633392686030958 -0.0033379397790278273 0 0.00031902844645852608 -0.003358457046052068 0 0.00026717053390470143 -0.003281935784725556 0 0.00024093496465542652 -0.0033090967652873657 0 0.00024367248118382549 -0.0032611433564373351 0 0.00029726969123971376 -0.0033074039848616874 0 0.00024093496465542652 -0.0033090967652873657 0 0.00027102788405418524 -0.0033577048182133517 0 0.00026717053390470143 -0.003281935784725556 0 0.00029726969123971376 -0.0033074039848616874 0 0.00024093496465542652 -0.0033090967652873657 0 0.00018442885562947883 -0.0039849315090208868 0 0.00035724978743094816 -0.0036305122884459479 0 0.00038917093761023347 -0.0033540525212693599 0 0.00038790071403031718 -0.0033583774836313208 0 0.00038807336704088581 -0.0033551078119700129 0 0.00038917093761023347 -0.0033540525212693599 0 0.0004004183002437006 -0.0033677336311825471 0 0.00038807336704088581 -0.0033551078119700129 0 0.00034633392686030958 -0.0033379397790278273 0 0.00035139542804495946 -0.0032859177036640547 0 0.00038807336704088581 -0.0033551078119700129 0 0.00029726969123971376 -0.0033074039848616874 0 0.00034633392686030958 -0.0033379397790278273 0 0.00035139542804495946 -0.0032859177036640547 0 0.00035724978743094816 -0.0036305122884459479 0 0.00035857932222650122 -0.003252174117272068 0 0.00027900302413359513 -0.0040362020241147458 0 0.00035724978743094816 -0.0036305122884459479 0 0.00013141609511694113 -0.004736137911043636 0 7.6381852881631773e-05 -0.0046574357127374096 0 2.2778484857381273e-05 -0.004762544181139694 0 7.6381852881631773e-05 -0.0046574357127374096 0 1.5304837804721616e-05 -0.0046889446511346545 0 2.2778484857381273e-05 -0.004762544181139694 0 -7.6271266503206902e-06 -0.0046183763845328253 0 7.6381852881631773e-05 -0.0046574357127374096 0 1.5304837804721616e-05 -0.0046889446511346545 0 -7.6271266503206902e-06 -0.0046183763845328253 0 1.5304837804721616e-05 -0.0046889446511346545 0 -9.0085891056765525e-05 -0.004730827498194908 0 1.5304837804721616e-05 -0.0046889446511346545 0 2.2778484857381273e-05 -0.004762544181139694 0 -9.0085891056765525e-05 -0.004730827498194908 0 0.00013141609511694113 -0.004736137911043636 0 2.2778484857381273e-05 -0.004762544181139694 0 8.9279647969078089e-05 -0.0048329688082977386 0 1.3838885754565358e-05 -0.0048724599399343673 0 2.2778484857381273e-05 -0.004762544181139694 0 8.9279647969078089e-05 -0.0048329688082977386 0 1.3838885754565358e-05 -0.0048724599399343673 0 2.2778484857381273e-05 -0.004762544181139694 0 -6.4098713986592947e-05 -0.0048947462164634272 0 -6.1520597395541463e-05 -0.0048470893234351152 0 -9.6725200937464075e-05 -0.0049403979360196073 0 -4.9488560366836644e-05 -0.0049293172174729744 0 -5.0653319494851112e-05 -0.0049291492963555866 0 -5.8613259149197581e-05 -0.0049173931675725296 0 -6.4098713986592947e-05 -0.0048947462164634272 0 -4.9488560366836644e-05 -0.0049293172174729744 0 -6.5801467196309298e-05 -0.0049450353376514801 0 -6.4098713986592947e-05 -0.0048947462164634272 0 -4.9488560366836644e-05 -0.0049293172174729744 0 -5.8613259149197581e-05 -0.0049173931675725296 0 -4.9488560366836644e-05 -0.0049293172174729744 0 -6.5801467196309298e-05 -0.0049450353376514801 0 -4.5956345051675775e-05 -0.0049477004874211071 0 2.2778484857381273e-05 -0.004762544181139694 0 -6.4098713986592947e-05 -0.0048947462164634272 0 -9.0085891056765525e-05 -0.004730827498194908 0 -9.6725200937464075e-05 -0.0049403979360196073 0 7.3445134446972096e-05 -0.0043434238607541545 0 -6.5801467196309298e-05 -0.0049450353376514801 0 -6.1155639628208288e-05 -0.0049636662800978818 0 -4.7552148451037217e-05 -0.0049594510953261603 0 -6.5801467196309298e-05 -0.0049450353376514801 0 -4.7552148451037217e-05 -0.0049594510953261603 0 -4.5956345051675775e-05 -0.0049477004874211071 0 -6.1155639628208288e-05 -0.0049636662800978818 0 -4.7552148451037217e-05 -0.0049594510953261603 0 -4.2460575040030096e-05 -0.0049738241811911133 0 0.00038917093761023347 -0.0033540525212693599 0 0.00041349425617976109 -0.0033628420681687797 0 0.0004004183002437006 -0.0033677336311825471 0 0.00018442885562947883 -0.0039849315090208868 0 7.3445134446972096e-05 -0.0043434238607541545 0 -7.6271266503206902e-06 -0.0046183763845328253 0 -9.0085891056765525e-05 -0.004730827498194908 0 -9.9107458602684052e-05 -0.0045783299420504471 0 -2.7509769304455768e-05 -0.0049684079177084511 0 -3.2597859797607954e-05 -0.0049572546039928049 0 -2.0696744376397984e-05 -0.0049664425237988608 0 -2.7509769304455768e-05 -0.0049684079177084511 0 -4.7552148451037217e-05 -0.0049594510953261603 0 -3.2597859797607954e-05 -0.0049572546039928049 0 -2.7509769304455768e-05 -0.0049684079177084511 0 -4.7552148451037217e-05 -0.0049594510953261603 0 -4.2460575040030096e-05 -0.0049738241811911133 0 -4.7552148451037217e-05 -0.0049594510953261603 0 -3.2597859797607954e-05 -0.0049572546039928049 0 -4.5956345051675775e-05 -0.0049477004874211071 0 -3.2597859797607954e-05 -0.0049572546039928049 0 -3.0906926009860851e-05 -0.0049529440692284259 0 -2.3780864474235661e-05 -0.0049610291488028013 0 -3.8977285950977526e-05 -0.0049455752751439517 0 -3.0906926009860851e-05 -0.0049529440692284259 0 -4.0654164127898664e-05 -0.0049408388817298475 0 -3.2597859797607954e-05 -0.0049572546039928049 0 -3.8977285950977526e-05 -0.0049455752751439517 0 -3.0906926009860851e-05 -0.0049529440692284259 0 -4.9488560366836644e-05 -0.0049293172174729744 0 -3.8977285950977526e-05 -0.0049455752751439517 0 -4.5956345051675775e-05 -0.0049477004874211071 0 -3.2597859797607954e-05 -0.0049572546039928049 0 -3.8977285950977526e-05 -0.0049455752751439517 0 -4.5956345051675775e-05 -0.0049477004874211071 0 -4.9488560366836644e-05 -0.0049293172174729744 0 -4.0654164127898664e-05 -0.0049408388817298475 0 -5.0653319494851112e-05 -0.0049291492963555866 0 -4.9488560366836644e-05 -0.0049293172174729744 0 -3.8977285950977526e-05 -0.0049455752751439517 0 -4.0654164127898664e-05 -0.0049408388817298475 0 -3.0906926009860851e-05 -0.0049529440692284259 0 -4.0654164127898664e-05 -0.0049408388817298475 0 -3.2351810441558816e-05 -0.0049491968570109452 0 -4.0654164127898664e-05 -0.0049408388817298475 0 -3.8800181732736384e-05 -0.0049425398934312033 0 -3.2351810441558816e-05 -0.0049491968570109452 0 -3.8800181732736384e-05 -0.0049425398934312033 0 -4.7417770535380202e-05 -0.0049346653660221852 0 -4.1918123186813134e-05 -0.0049385232154846633 0 -4.0654164127898664e-05 -0.0049408388817298475 0 -3.8800181732736384e-05 -0.0049425398934312033 0 -4.7417770535380202e-05 -0.0049346653660221852 0 -3.8800181732736384e-05 -0.0049425398934312033 0 -4.1918123186813134e-05 -0.0049385232154846633 0 -3.4643579456805638e-05 -0.0049457719356769932 0 -4.7417770535380202e-05 -0.0049346653660221852 0 -4.1918123186813134e-05 -0.0049385232154846633 0 -4.8833228309397963e-05 -0.0049327358977301694 0 -4.1918123186813134e-05 -0.0049385232154846633 0 -4.8833228309397963e-05 -0.0049327358977301694 0 -4.5168479197620527e-05 -0.004932871827656682 0 -4.1918123186813134e-05 -0.0049385232154846633 0 -4.5168479197620527e-05 -0.004932871827656682 0 -3.8013379310350609e-05 -0.0049401795032191342 0 -4.7417770535380202e-05 -0.0049346653660221852 0 -5.5132705370081388e-05 -0.0049295791869326143 0 -5.7377038678979273e-05 -0.0049266232410593658 0 -5.5132705370081388e-05 -0.0049295791869326143 0 -5.445015476673975e-05 -0.0049262889704396731 0 -6.1544766765526851e-05 -0.0049234005781868991 0 -5.5132705370081388e-05 -0.0049295791869326143 0 -5.9915247458177767e-05 -0.0049280219410110324 0 -6.1544766765526851e-05 -0.0049234005781868991 0 -4.8833228309397963e-05 -0.0049327358977301694 0 -5.5132705370081388e-05 -0.0049295791869326143 0 -5.445015476673975e-05 -0.0049262889704396731 0 -4.7417770535380202e-05 -0.0049346653660221852 0 -4.8833228309397963e-05 -0.0049327358977301694 0 -5.5132705370081388e-05 -0.0049295791869326143 0 -5.5132705370081388e-05 -0.0049295791869326143 0 -5.7377038678979273e-05 -0.0049266232410593658 0 -5.9915247458177767e-05 -0.0049280219410110324 0 -4.7417770535380202e-05 -0.0049346653660221852 0 -5.0653319494851112e-05 -0.0049291492963555866 0 -5.7377038678979273e-05 -0.0049266232410593658 0 -4.0654164127898664e-05 -0.0049408388817298475 0 -4.7417770535380202e-05 -0.0049346653660221852 0 -5.0653319494851112e-05 -0.0049291492963555866 0 -5.8613259149197581e-05 -0.0049173931675725296 0 -5.5668124532481261e-05 -0.0049198769908022164 0 -5.9140738832252702e-05 -0.004926955255942337 0 -5.8613259149197581e-05 -0.0049173931675725296 0 -5.7377038678979273e-05 -0.0049266232410593658 0 -5.9140738832252702e-05 -0.004926955255942337 0 -5.0653319494851112e-05 -0.0049291492963555866 0 -5.8613259149197581e-05 -0.0049173931675725296 0 -5.7377038678979273e-05 -0.0049266232410593658 0 -6.4098713986592947e-05 -0.0048947462164634272 0 -5.8613259149197581e-05 -0.0049173931675725296 0 -5.5668124532481261e-05 -0.0049198769908022164 0 -6.4098713986592947e-05 -0.0048947462164634272 0 -5.5668124532481261e-05 -0.0049198769908022164 0 -2.9079189001706278e-05 -0.0049155559292811289 0 -5.5668124532481261e-05 -0.0049198769908022164 0 -2.9079189001706278e-05 -0.0049155559292811289 0 -4.3857480028965284e-05 -0.0049298377685018388 0 -5.1594308623437171e-05 -0.0049295907690381094 0 -0.00015254262961162301 -0.0049465944918469212 0 -0.00013871216399340491 -0.0049512486919467118 0 -1.4932293880394085e-05 -0.0049456591370484202 0 -4.3857480028965284e-05 -0.0049298377685018388 0 -5.7707524383030374e-05 -0.0049372957052764696 0 -3.4040125888087382e-05 -0.0049399716320899772 0 -0.00010721378980440247 -0.0048903644563514249 0 -1.4932293880394085e-05 -0.0049456591370484202 0 -2.9079189001706278e-05 -0.0049155559292811289 0 -4.3857480028965284e-05 -0.0049298377685018388 0 -5.5668124532481261e-05 -0.0049198769908022164 0 -4.3857480028965284e-05 -0.0049298377685018388 0 -5.6183581192335199e-05 -0.0049301472259456625 0 -4.3857480028965284e-05 -0.0049298377685018388 0 -5.6183581192335199e-05 -0.0049301472259456625 0 -5.7707524383030374e-05 -0.0049372957052764696 0 -0.00010721378980440247 -0.0048903644563514249 0 -0.00022867396470585663 -0.0048114596681675679 0 -5.9178166034097747e-05 -0.0049339548681449005 0 -5.9430038077170694e-05 -0.0049326385462620855 0 -6.1544766765526851e-05 -0.0049234005781868991 0 -0.00010721378980440247 -0.0048903644563514249 0 -5.1553712574328664e-05 -0.0049210078283064337 0 -5.7377038678979273e-05 -0.0049266232410593658 0 -5.9140738832252702e-05 -0.004926955255942337 0 -5.9915247458177767e-05 -0.0049280219410110324 0 -5.5668124532481261e-05 -0.0049198769908022164 0 -5.6183581192335199e-05 -0.0049301472259456625 0 -5.9140738832252702e-05 -0.004926955255942337 0 -5.6183581192335199e-05 -0.0049301472259456625 0 -5.9140738832252702e-05 -0.004926955255942337 0 -5.9430038077170694e-05 -0.0049326385462620855 0 -0.00022867396470585663 -0.0048114596681675679 0 -7.9547504678756972e-05 -0.0048598187048214843 0 -5.9140738832252702e-05 -0.004926955255942337 0 -5.9430038077170694e-05 -0.0049326385462620855 0 -5.9915247458177767e-05 -0.0049280219410110324 0 -8.4524893557409264e-05 -0.0049127381953666229 0 -8.7939526983141694e-05 -0.004910431699710973 0 -7.4933999194399538e-05 -0.0049151889754758806 0 -5.6183581192335199e-05 -0.0049301472259456625 0 -5.7707524383030374e-05 -0.0049372957052764696 0 -5.9430038077170694e-05 -0.0049326385462620855 0 -0.00010721378980440247 -0.0048903644563514249 0 -9.0479831353550819e-05 -0.0048975284002829023 0 -5.9430038077170694e-05 -0.0049326385462620855 0 -5.9915247458177767e-05 -0.0049280219410110324 0 -6.1544766765526851e-05 -0.0049234005781868991 0 -7.4933999194399538e-05 -0.0049151889754758806 0 -7.3020810603267115e-05 -0.0049088006382726514 0 -6.1544766765526851e-05 -0.0049234005781868991 0 -8.4524893557409264e-05 -0.0049127381953666229 0 -7.4933999194399538e-05 -0.0049151889754758806 0 -6.1544766765526851e-05 -0.0049234005781868991 0 -7.4933999194399538e-05 -0.0049151889754758806 0 -7.3020810603267115e-05 -0.0049088006382726514 0 -8.1124288714057806e-05 -0.0049035778634699207 0 -8.428661049464465e-05 -0.0049063026210635742 0 -7.4933999194399538e-05 -0.0049151889754758806 0 -8.1124288714057806e-05 -0.0049035778634699207 0 -7.3020810603267115e-05 -0.0049088006382726514 0 -8.1124288714057806e-05 -0.0049035778634699207 0 -8.4739811676847943e-05 -0.0048962530090946917 0 -0.00024893040829150436 -0.0047254462705080824 0 -0.00022867396470585663 -0.0048114596681675679 0 -8.8184756263517421e-05 -0.004879899362739938 0 -8.6608234234714288e-05 -0.0048894764375942822 0 -8.4739811676847943e-05 -0.0048962530090946917 0 -8.8330550528712315e-05 -0.0048721397192097978 0 -8.428661049464465e-05 -0.0049063026210635742 0 -8.6608234234714288e-05 -0.0048894764375942822 0 -8.428661049464465e-05 -0.0049063026210635742 0 -8.1124288714057806e-05 -0.0049035778634699207 0 -8.4200259561423136e-05 -0.0048984363465632494 0 -8.428661049464465e-05 -0.0049063026210635742 0 -8.6608234234714288e-05 -0.0048894764375942822 0 -8.4200259561423136e-05 -0.0048984363465632494 0 -8.1124288714057806e-05 -0.0049035778634699207 0 -8.4200259561423136e-05 -0.0048984363465632494 0 -8.4739811676847943e-05 -0.0048962530090946917 0 -8.6608234234714288e-05 -0.0048894764375942822 0 -8.4200259561423136e-05 -0.0048984363465632494 0 -8.4739811676847943e-05 -0.0048962530090946917 0 -8.4739811676847943e-05 -0.0048962530090946917 0 -9.1365887330497318e-05 -0.0048899725296197502 0 -7.8764989674081476e-05 -0.0049001243610629014 0 -8.8184756263517421e-05 -0.004879899362739938 0 -8.4739811676847943e-05 -0.0048962530090946917 0 -9.1365887330497318e-05 -0.0048899725296197502 0 -8.1726434384105003e-05 -0.0048934158765312902 0 -9.1365887330497318e-05 -0.0048899725296197502 0 -7.8764989674081476e-05 -0.0049001243610629014 0 -7.3020810603267115e-05 -0.0049088006382726514 0 -7.8764989674081476e-05 -0.0049001243610629014 0 -6.7671629140281996e-05 -0.0049093822046918359 0 -7.3020810603267115e-05 -0.0049088006382726514 0 -8.4739811676847943e-05 -0.0048962530090946917 0 -7.8764989674081476e-05 -0.0049001243610629014 0 -7.0183170200906919e-05 -0.0049038564728243915 0 -7.8764989674081476e-05 -0.0049001243610629014 0 -6.7671629140281996e-05 -0.0049093822046918359 0 -7.0183170200906919e-05 -0.0049038564728243915 0 -6.7671629140281996e-05 -0.0049093822046918359 0 -5.854835772834795e-05 -0.0049151388847423058 0 -6.7671629140281996e-05 -0.0049093822046918359 0 -5.854835772834795e-05 -0.0049151388847423058 0 -5.9918919450620293e-05 -0.0049181654057718766 0 -5.854835772834795e-05 -0.0049151388847423058 0 -5.1427883509885736e-05 -0.004924712568975473 0 -5.9918919450620293e-05 -0.0049181654057718766 0 -5.0431978611516758e-05 -0.0049204831133194717 0 -5.854835772834795e-05 -0.0049151388847423058 0 -5.0987914562919318e-05 -0.0049225882174410455 0 -5.0431978611516758e-05 -0.0049204831133194717 0 -5.0987914562919318e-05 -0.0049225882174410455 0 -4.4262293472391446e-05 -0.0049296884221685369 0 -5.0987914562919318e-05 -0.0049225882174410455 0 -5.1427883509885736e-05 -0.004924712568975473 0 -4.4262293472391446e-05 -0.0049296884221685369 0 -5.854835772834795e-05 -0.0049151388847423058 0 -5.0987914562919318e-05 -0.0049225882174410455 0 -5.1427883509885736e-05 -0.004924712568975473 0 -5.1427883509885736e-05 -0.004924712568975473 0 -4.5168479197620527e-05 -0.004932871827656682 0 -5.445015476673975e-05 -0.0049262889704396731 0 -5.1427883509885736e-05 -0.004924712568975473 0 -4.5168479197620527e-05 -0.004932871827656682 0 -4.4262293472391446e-05 -0.0049296884221685369 0 -4.8833228309397963e-05 -0.0049327358977301694 0 -4.5168479197620527e-05 -0.004932871827656682 0 -5.445015476673975e-05 -0.0049262889704396731 0 -5.445015476673975e-05 -0.0049262889704396731 0 -6.1544766765526851e-05 -0.0049234005781868991 0 -5.9918919450620293e-05 -0.0049181654057718766 0 -7.3020810603267115e-05 -0.0049088006382726514 0 -6.1544766765526851e-05 -0.0049234005781868991 0 -5.9918919450620293e-05 -0.0049181654057718766 0 -7.3020810603267115e-05 -0.0049088006382726514 0 -6.7671629140281996e-05 -0.0049093822046918359 0 -5.9918919450620293e-05 -0.0049181654057718766 0 -5.1427883509885736e-05 -0.004924712568975473 0 -5.445015476673975e-05 -0.0049262889704396731 0 -5.9918919450620293e-05 -0.0049181654057718766 0 -3.0598996735361545e-05 -0.0049462081408815821 0 -2.1070911632016698e-05 -0.0049575315996669743 0 -2.5782146044913499e-05 -0.0049531812879765238 0 -3.0598996735361545e-05 -0.0049462081408815821 0 -2.6853985685713638e-05 -0.0049475161659637175 0 -2.1070911632016698e-05 -0.0049575315996669743 0 -3.0598996735361545e-05 -0.0049462081408815821 0 -3.838171046044999e-05 -0.0049374481496743932 0 -3.8013379310350609e-05 -0.0049401795032191342 0 -4.5168479197620527e-05 -0.004932871827656682 0 -3.838171046044999e-05 -0.0049374481496743932 0 -3.8013379310350609e-05 -0.0049401795032191342 0 -4.5168479197620527e-05 -0.004932871827656682 0 -3.838171046044999e-05 -0.0049374481496743932 0 -4.4262293472391446e-05 -0.0049296884221685369 0 -3.0598996735361545e-05 -0.0049462081408815821 0 -3.838171046044999e-05 -0.0049374481496743932 0 -3.5590762344295902e-05 -0.0049381733114149924 0 -3.838171046044999e-05 -0.0049374481496743932 0 -3.5590762344295902e-05 -0.0049381733114149924 0 -4.4262293472391446e-05 -0.0049296884221685369 0 -4.091413751753836e-05 -0.0049304805023886542 0 -5.0431978611516758e-05 -0.0049204831133194717 0 -4.4262293472391446e-05 -0.0049296884221685369 0 -4.091413751753836e-05 -0.0049304805023886542 0 -3.5590762344295902e-05 -0.0049381733114149924 0 -4.4262293472391446e-05 -0.0049296884221685369 0 -4.091413751753836e-05 -0.0049304805023886542 0 -3.5590762344295902e-05 -0.0049381733114149924 0 -3.297944095519564e-05 -0.0049389798067137934 0 -3.5590762344295902e-05 -0.0049381733114149924 0 -3.297944095519564e-05 -0.0049389798067137934 0 -2.6853985685713638e-05 -0.0049475161659637175 0 -3.0598996735361545e-05 -0.0049462081408815821 0 -3.5590762344295902e-05 -0.0049381733114149924 0 -2.6853985685713638e-05 -0.0049475161659637175 0 -2.8163893428001287e-05 -0.0049426854838151343 0 -3.297944095519564e-05 -0.0049389798067137934 0 -2.6853985685713638e-05 -0.0049475161659637175 0 -2.0364178244945551e-05 -0.004952764592521349 0 -2.6853985685713638e-05 -0.0049475161659637175 0 -1.9424760862030819e-05 -0.0049573161846783783 0 -2.0364178244945551e-05 -0.004952764592521349 0 -1.9424760862030819e-05 -0.0049573161846783783 0 -1.4330048027840722e-05 -0.0049630007068536958 0 -1.9424760862030819e-05 -0.0049573161846783783 0 -1.4330048027840722e-05 -0.0049630007068536958 0 -1.4090419196547529e-05 -0.0049664575218347383 0 -1.9424760862030819e-05 -0.0049573161846783783 0 -1.4090419196547529e-05 -0.0049664575218347383 0 -2.1070911632016698e-05 -0.0049575315996669743 0 -2.6853985685713638e-05 -0.0049475161659637175 0 -1.9424760862030819e-05 -0.0049573161846783783 0 -2.1070911632016698e-05 -0.0049575315996669743 0 -2.1070911632016698e-05 -0.0049575315996669743 0 -2.0804472532844846e-05 -0.0049595918943968805 0 -1.4896374239339009e-05 -0.004967649766333326 0 -2.1070911632016698e-05 -0.0049575315996669743 0 -2.0804472532844846e-05 -0.0049595918943968805 0 -2.5782146044913499e-05 -0.0049531812879765238 0 -1.4090419196547529e-05 -0.0049664575218347383 0 -2.1070911632016698e-05 -0.0049575315996669743 0 -1.4896374239339009e-05 -0.004967649766333326 0 -1.4896374239339009e-05 -0.004967649766333326 0 -1.5260818954888408e-05 -0.0049684775278804952 0 -1.0092714389019238e-05 -0.004976917901372023 0 -2.0804472532844846e-05 -0.0049595918943968805 0 -1.4896374239339009e-05 -0.004967649766333326 0 -2.022299907170224e-05 -0.0049614850810285362 0 -1.4896374239339009e-05 -0.004967649766333326 0 -2.022299907170224e-05 -0.0049614850810285362 0 -1.5260818954888408e-05 -0.0049684775278804952 0 -2.0804472532844846e-05 -0.0049595918943968805 0 -2.022299907170224e-05 -0.0049614850810285362 0 -2.5856660434931029e-05 -0.0049543626194121036 0 -2.5856660434931029e-05 -0.0049543626194121036 0 -3.4643579456805638e-05 -0.0049457719356769932 0 -2.4160713216251763e-05 -0.0049572924406862274 0 -2.022299907170224e-05 -0.0049614850810285362 0 -2.5856660434931029e-05 -0.0049543626194121036 0 -2.4160713216251763e-05 -0.0049572924406862274 0 -2.0804472532844846e-05 -0.0049595918943968805 0 -2.5856660434931029e-05 -0.0049543626194121036 0 -2.5782146044913499e-05 -0.0049531812879765238 0 -2.5856660434931029e-05 -0.0049543626194121036 0 -3.1022364263150827e-05 -0.0049478862715248081 0 -3.4643579456805638e-05 -0.0049457719356769932 0 -2.5856660434931029e-05 -0.0049543626194121036 0 -3.1022364263150827e-05 -0.0049478862715248081 0 -2.5782146044913499e-05 -0.0049531812879765238 0 -3.0598996735361545e-05 -0.0049462081408815821 0 -3.1022364263150827e-05 -0.0049478862715248081 0 -2.5782146044913499e-05 -0.0049531812879765238 0 -3.1022364263150827e-05 -0.0049478862715248081 0 -3.8013379310350609e-05 -0.0049401795032191342 0 -3.4643579456805638e-05 -0.0049457719356769932 0 -4.1918123186813134e-05 -0.0049385232154846633 0 -3.8013379310350609e-05 -0.0049401795032191342 0 -3.4643579456805638e-05 -0.0049457719356769932 0 -3.0598996735361545e-05 -0.0049462081408815821 0 -3.1022364263150827e-05 -0.0049478862715248081 0 -3.8013379310350609e-05 -0.0049401795032191342 0 -3.8800181732736384e-05 -0.0049425398934312033 0 -3.4643579456805638e-05 -0.0049457719356769932 0 -3.2351810441558816e-05 -0.0049491968570109452 0 -3.4643579456805638e-05 -0.0049457719356769932 0 -3.2351810441558816e-05 -0.0049491968570109452 0 -2.4160713216251763e-05 -0.0049572924406862274 0 -3.2351810441558816e-05 -0.0049491968570109452 0 -2.4160713216251763e-05 -0.0049572924406862274 0 -2.4436369878743063e-05 -0.0049582960309167024 0 -2.4160713216251763e-05 -0.0049572924406862274 0 -2.4436369878743063e-05 -0.0049582960309167024 0 -1.8432285261654449e-05 -0.0049646535334159714 0 -2.4436369878743063e-05 -0.0049582960309167024 0 -2.3780864474235661e-05 -0.0049610291488028013 0 -1.7112452948414441e-05 -0.0049663558969139819 0 -2.4436369878743063e-05 -0.0049582960309167024 0 -1.7112452948414441e-05 -0.0049663558969139819 0 -1.8432285261654449e-05 -0.0049646535334159714 0 -3.0906926009860851e-05 -0.0049529440692284259 0 -3.2351810441558816e-05 -0.0049491968570109452 0 -2.4436369878743063e-05 -0.0049582960309167024 0 -3.0906926009860851e-05 -0.0049529440692284259 0 -2.4436369878743063e-05 -0.0049582960309167024 0 -2.3780864474235661e-05 -0.0049610291488028013 0 -3.2597859797607954e-05 -0.0049572546039928049 0 -2.3780864474235661e-05 -0.0049610291488028013 0 -2.0696744376397984e-05 -0.0049664425237988608 0 -2.3780864474235661e-05 -0.0049610291488028013 0 -1.7112452948414441e-05 -0.0049663558969139819 0 -2.0696744376397984e-05 -0.0049664425237988608 0 -1.7112452948414441e-05 -0.0049663558969139819 0 -1.281645709829716e-05 -0.0049700139726668426 0 -2.0696744376397984e-05 -0.0049664425237988608 0 -1.7112452948414441e-05 -0.0049663558969139819 0 -1.281645709829716e-05 -0.0049700139726668426 0 -1.1048055597864554e-05 -0.0049724164824295255 0 -8.6021449759233798e-06 -0.0049780819538791758 0 -7.5369200307067599e-06 -0.004972787217541806 0 -1.1048055597864554e-05 -0.0049724164824295255 0 -8.6021449759233798e-06 -0.0049780819538791758 0 -7.5369200307067599e-06 -0.004972787217541806 0 -5.1973982428005213e-06 -0.0049734741219048329 0 -1.281645709829716e-05 -0.0049700139726668426 0 -7.5369200307067599e-06 -0.004972787217541806 0 -1.1048055597864554e-05 -0.0049724164824295255 0 -1.7112452948414441e-05 -0.0049663558969139819 0 -1.1048055597864554e-05 -0.0049724164824295255 0 -1.2656348380922274e-05 -0.00497226710228609 0 -1.1048055597864554e-05 -0.0049724164824295255 0 -1.2656348380922274e-05 -0.00497226710228609 0 -9.4157708053093225e-06 -0.0049793835466689293 0 -8.6021449759233798e-06 -0.0049780819538791758 0 -1.1048055597864554e-05 -0.0049724164824295255 0 -9.4157708053093225e-06 -0.0049793835466689293 0 -1.2656348380922274e-05 -0.00497226710228609 0 -1.5260818954888408e-05 -0.0049684775278804952 0 -1.0352288700398528e-05 -0.0049772564245940659 0 -1.2656348380922274e-05 -0.00497226710228609 0 -1.0352288700398528e-05 -0.0049772564245940659 0 -9.4157708053093225e-06 -0.0049793835466689293 0 -1.7112452948414441e-05 -0.0049663558969139819 0 -1.2656348380922274e-05 -0.00497226710228609 0 -1.8432285261654449e-05 -0.0049646535334159714 0 -1.2656348380922274e-05 -0.00497226710228609 0 -1.8432285261654449e-05 -0.0049646535334159714 0 -1.5260818954888408e-05 -0.0049684775278804952 0 -2.022299907170224e-05 -0.0049614850810285362 0 -2.4160713216251763e-05 -0.0049572924406862274 0 -1.5260818954888408e-05 -0.0049684775278804952 0 -2.4160713216251763e-05 -0.0049572924406862274 0 -1.8432285261654449e-05 -0.0049646535334159714 0 -1.5260818954888408e-05 -0.0049684775278804952 0 -1.5260818954888408e-05 -0.0049684775278804952 0 -1.0092714389019238e-05 -0.004976917901372023 0 -1.0352288700398528e-05 -0.0049772564245940659 0 -1.0092714389019238e-05 -0.004976917901372023 0 -7.1911476644220542e-06 -0.0049851470456787166 0 -1.0352288700398528e-05 -0.0049772564245940659 0 -6.562522049869155e-06 -0.0049840151181679759 0 -7.1911476644220542e-06 -0.0049851470456787166 0 -3.0493972494837961e-06 -0.0049925610599609949 0 -1.0092714389019238e-05 -0.004976917901372023 0 -6.562522049869155e-06 -0.0049840151181679759 0 -7.1911476644220542e-06 -0.0049851470456787166 0 -7.1911476644220542e-06 -0.0049851470456787166 0 -1.0352288700398528e-05 -0.0049772564245940659 0 -9.4157708053093225e-06 -0.0049793835466689293 0 -7.1911476644220542e-06 -0.0049851470456787166 0 -9.4157708053093225e-06 -0.0049793835466689293 0 -8.8881598648797606e-06 -0.0049844449785344299 0 -8.6021449759233798e-06 -0.0049780819538791758 0 -9.4157708053093225e-06 -0.0049793835466689293 0 -8.8881598648797606e-06 -0.0049844449785344299 0 -8.8881598648797606e-06 -0.0049844449785344299 0 -9.9121259236291012e-06 -0.0049872881942244129 0 -6.3887620227107862e-06 -0.0049900252911970772 0 -7.1911476644220542e-06 -0.0049851470456787166 0 -8.8881598648797606e-06 -0.0049844449785344299 0 -6.3887620227107862e-06 -0.0049900252911970772 0 -8.8881598648797606e-06 -0.0049844449785344299 0 -1.070945463706656e-05 -0.0049818811551782301 0 -9.9121259236291012e-06 -0.0049872881942244129 0 -8.6021449759233798e-06 -0.0049780819538791758 0 -8.8881598648797606e-06 -0.0049844449785344299 0 -1.070945463706656e-05 -0.0049818811551782301 0 -8.6021449759233798e-06 -0.0049780819538791758 0 -1.070945463706656e-05 -0.0049818811551782301 0 -9.2430330777884851e-06 -0.0049771698409643971 0 -4.1908047329848524e-06 -0.0049942194219063261 0 -9.9121259236291012e-06 -0.0049872881942244129 0 -8.8271689006372511e-09 -0.0049999834627244017 0 -4.1908047329848524e-06 -0.0049942194219063261 0 -3.2947198795892373e-09 -0.0049999897447053111 0 -8.8271689006372511e-09 -0.0049999834627244017 0 -4.1908047329848524e-06 -0.0049942194219063261 0 -9.9121259236291012e-06 -0.0049872881942244129 0 -6.3887620227107862e-06 -0.0049900252911970772 0 -4.1908047329848524e-06 -0.0049942194219063261 0 -6.3887620227107862e-06 -0.0049900252911970772 0 -3.3743678011116637e-06 -0.004994606425024274 0 -4.1908047329848524e-06 -0.0049942194219063261 0 -3.2947198795892373e-09 -0.0049999897447053111 0 -3.3743678011116637e-06 -0.004994606425024274 0 -3.2947198795892373e-09 -0.0049999897447053111 0 -3.3743678011116637e-06 -0.004994606425024274 0 -2.5908741632779733e-09 -0.0049999869432604972 0 -3.3743678011116637e-06 -0.004994606425024274 0 -4.3965819659439514e-06 -0.0049918990545208576 0 -2.5908741632779733e-09 -0.0049999869432604972 0 -6.6084612992192128e-06 -0.0049870743803810081 0 -3.7711726395486736e-06 -0.0049922277863695252 0 -7.1911476644220542e-06 -0.0049851470456787166 0 -6.3887620227107862e-06 -0.0049900252911970772 0 -4.3965819659439514e-06 -0.0049918990545208576 0 -6.3887620227107862e-06 -0.0049900252911970772 0 -3.3743678011116637e-06 -0.004994606425024274 0 -4.3965819659439514e-06 -0.0049918990545208576 0 -3.0493972494837961e-06 -0.0049925610599609949 0 -1.631969951697417e-06 -0.0049950118024222473 0 -3.5215982733376971e-06 -0.0049891106195663667 0 -6.562522049869155e-06 -0.0049840151181679759 0 -3.0493972494837961e-06 -0.0049925610599609949 0 -3.5215982733376971e-06 -0.0049891106195663667 0 -3.0493972494837961e-06 -0.0049925610599609949 0 -1.9440647648734989e-09 -0.0049999900731110807 0 -1.631969951697417e-06 -0.0049950118024222473 0 -3.7711726395486736e-06 -0.0049922277863695252 0 -1.3777928369622207e-09 -0.004999996118401101 0 -1.631969951697417e-06 -0.0049950118024222473 0 -1.4038186606166202e-09 -0.0049999873791502572 0 -3.5215982733376971e-06 -0.0049891106195663667 0 -1.9440647648734989e-09 -0.0049999900731110807 0 -1.631969951697417e-06 -0.0049950118024222473 0 -1.4038186606166202e-09 -0.0049999873791502572 0 -1.4038186606166202e-09 -0.0049999873791502572 0 -1.9198339977277476e-06 -0.0049922267816296419 0 -9.0115230733804747e-10 -0.0049999854136949431 0 -1.4038186606166202e-09 -0.0049999873791502572 0 -1.9198339977277476e-06 -0.0049922267816296419 0 -3.5215982733376971e-06 -0.0049891106195663667 0 -1.9198339977277476e-06 -0.0049922267816296419 0 -3.5215982733376971e-06 -0.0049891106195663667 0 -4.787613122532647e-06 -0.0049840802456814224 0 -6.562522049869155e-06 -0.0049840151181679759 0 -3.5215982733376971e-06 -0.0049891106195663667 0 -8.320235989025923e-06 -0.0049778437646508505 0 -1.0092714389019238e-05 -0.004976917901372023 0 -6.562522049869155e-06 -0.0049840151181679759 0 -8.320235989025923e-06 -0.0049778437646508505 0 -1.4896374239339009e-05 -0.004967649766333326 0 -1.0092714389019238e-05 -0.004976917901372023 0 -8.320235989025923e-06 -0.0049778437646508505 0 -1.4090419196547529e-05 -0.0049664575218347383 0 -1.4896374239339009e-05 -0.004967649766333326 0 -8.320235989025923e-06 -0.0049778437646508505 0 -8.320235989025923e-06 -0.0049778437646508505 0 -4.787613122532647e-06 -0.0049840802456814224 0 -8.2864583930291637e-06 -0.0049751773939215793 0 -3.5215982733376971e-06 -0.0049891106195663667 0 -8.320235989025923e-06 -0.0049778437646508505 0 -4.787613122532647e-06 -0.0049840802456814224 0 -4.787613122532647e-06 -0.0049840802456814224 0 -8.2864583930291637e-06 -0.0049751773939215793 0 -3.258017793846665e-06 -0.004985244347143712 0 -1.4090419196547529e-05 -0.0049664575218347383 0 -8.320235989025923e-06 -0.0049778437646508505 0 -8.2864583930291637e-06 -0.0049751773939215793 0 -1.4330048027840722e-05 -0.0049630007068536958 0 -1.4090419196547529e-05 -0.0049664575218347383 0 -8.2864583930291637e-06 -0.0049751773939215793 0 -7.4792711220174605e-06 -0.0049723758646218153 0 -1.4330048027840722e-05 -0.0049630007068536958 0 -8.2864583930291637e-06 -0.0049751773939215793 0 -7.4792711220174605e-06 -0.0049723758646218153 0 -8.2864583930291637e-06 -0.0049751773939215793 0 -3.258017793846665e-06 -0.004985244347143712 0 -1.1188253311560786e-06 -0.0049864084042320024 0 -7.4792711220174605e-06 -0.0049723758646218153 0 -3.258017793846665e-06 -0.004985244347143712 0 -1.1188253311560786e-06 -0.0049864084042320024 0 -9.0115230733804747e-10 -0.0049999854136949431 0 -3.258017793846665e-06 -0.004985244347143712 0 5.7020625106511134e-10 -0.004999981964352084 0 -1.1188253311560786e-06 -0.0049864084042320024 0 -9.0115230733804747e-10 -0.0049999854136949431 0 -1.9198339977277476e-06 -0.0049922267816296419 0 -9.0115230733804747e-10 -0.0049999854136949431 0 -3.258017793846665e-06 -0.004985244347143712 0 -1.9198339977277476e-06 -0.0049922267816296419 0 -4.787613122532647e-06 -0.0049840802456814224 0 -3.258017793846665e-06 -0.004985244347143712 0 -0.00032659438960122182 0.00058137494312033048 0 -0.00045223146000178979 0.00047424524293208681 0 -0.00039449505863941057 0.00065128171539721226 0 -0.00020853041346403499 0.0015584618275966986 0 -0.00022884725585724309 0.0013194702128570504 0 3.5797104899123435e-05 0.0014385629330803955 0 -0.00041783082468963343 0.0015252673865016595 0 -0.00020853041346403499 0.0015584618275966986 0 -0.00022884725585724309 0.0013194702128570504 0 -0.00022884725585724309 0.0013194702128570504 0 3.5797104899123435e-05 0.0014385629330803955 0 -9.4723695924920387e-05 0.0010169923256448236 0 -0.00022884725585724309 0.0013194702128570504 0 -0.00048480695275646455 0.0010267680114713898 0 -9.4723695924920387e-05 0.0010169923256448236 0 -0.00039356171107113948 0.0010860872163728616 0 -0.00042191237605557398 0.00069689241210493997 0 -0.00041783082468963343 0.0015252673865016595 0 -0.00022884725585724309 0.0013194702128570504 0 -0.00048480695275646455 0.0010267680114713898 0 -0.00032659438960122182 0.00058137494312033048 0 -0.00045223146000178979 0.00047424524293208681 0 -0.00037247195476068472 0.00038387458587408327 0 -0.00045223146000178979 0.00047424524293208681 0 -0.00045335948556028709 0.0003671519682527117 0 -0.00042485436122517755 0.00038866657981363338 0 -0.00036977707902356141 0.00051232100226555888 0 -0.00044497626859277425 0.00037611570388674848 0 -0.00045223146000178979 0.00047424524293208681 0 -0.00037247195476068472 0.00038387458587408327 0 -0.00042485436122517755 0.00038866657981363338 0 -0.00029886895010987368 0.00051709330763251835 0 -0.0004809190372149604 0.00046816133690691164 0 -0.00045335948556028709 0.0003671519682527117 0 -0.00029886895010987368 0.00051709330763251835 0 -0.0004809190372149604 0.00046816133690691164 0 -0.00045759888037829997 0.00061364980757264707 0 -0.0004809190372149604 0.00046816133690691164 0 -0.00045759888037829997 0.00061364980757264707 0 -0.00056601977747551774 0.00052670409326850156 0 -0.00045759888037829997 0.00061364980757264707 0 -0.00030836302492290096 0.00069375941131539348 0 -0.0003841889488675416 0.00081155336619820318 0 -0.00036977707902356141 0.00051232100226555888 0 -0.00027554155675578744 0.00064242053637930522 0 -0.00029886895010987368 0.00051709330763251835 0 -0.00030836302492290096 0.00069375941131539348 0 -0.00014022957536196073 0.00073672836887741903 0 -0.00029886895010987368 0.00051709330763251835 0 -0.00045759888037829997 0.00061364980757264707 0 -0.00030836302492290096 0.00069375941131539348 0 -0.00030836302492290096 0.00069375941131539348 0 -0.00025359726293965794 0.00080206138496044781 0 -0.00014022957536196073 0.00073672836887741903 0 -0.00030836302492290096 0.00069375941131539348 0 -0.00025359726293965794 0.00080206138496044781 0 -0.0003841889488675416 0.00081155336619820318 0 -0.00025359726293965794 0.00080206138496044781 0 -0.0001844030090731995 0.0009157208528653239 0 -0.00031364189659119292 0.00093501178473218616 0 -0.00025359726293965794 0.00080206138496044781 0 -0.0003841889488675416 0.00081155336619820318 0 -0.00031364189659119292 0.00093501178473218616 0 -0.00025359726293965794 0.00080206138496044781 0 -0.0001844030090731995 0.0009157208528653239 0 -0.00014022957536196073 0.00073672836887741903 0 -0.0003841889488675416 0.00081155336619820318 0 -0.00045586498757848134 0.00095077508949434548 0 -0.00063158212587062707 0.00084676096228228869 0 -0.0003841889488675416 0.00081155336619820318 0 -0.00052983784737621685 0.00072195504326200426 0 -0.00063158212587062707 0.00084676096228228869 0 -0.00045759888037829997 0.00061364980757264707 0 -0.0003841889488675416 0.00081155336619820318 0 -0.00052983784737621685 0.00072195504326200426 0 -0.00045586498757848134 0.00095077508949434548 0 -0.00061618311916672582 0.0010915491295903732 0 -0.00037448437094426832 0.0010830785040305099 0 -0.0003841889488675416 0.00081155336619820318 0 -0.00045586498757848134 0.00095077508949434548 0 -0.00031364189659119292 0.00093501178473218616 0 -0.00045586498757848134 0.00095077508949434548 0 -0.00031364189659119292 0.00093501178473218616 0 -0.00037448437094426832 0.0010830785040305099 0 -0.0001844030090731995 0.0009157208528653239 0 -0.00031364189659119292 0.00093501178473218616 0 -0.00024054377208758505 0.0010445697657570294 0 -0.00031364189659119292 0.00093501178473218616 0 -0.00024054377208758505 0.0010445697657570294 0 -0.00037448437094426832 0.0010830785040305099 0 -0.0001844030090731995 0.0009157208528653239 0 -0.00024054377208758505 0.0010445697657570294 0 -0.00012781349874160734 0.0010316561401794717 0 -0.00024054377208758505 0.0010445697657570294 0 -0.00012781349874160734 0.0010316561401794717 0 -0.00016093989140713986 0.0011201765436192528 0 -4.8909725925792455e-05 0.0010300887023802908 0 -0.00012781349874160734 0.0010316561401794717 0 -5.9497055395679827e-05 0.0011192607806975827 0 -4.8909725925792455e-05 0.0010300887023802908 0 -0.00012781349874160734 0.0010316561401794717 0 -9.5470204015672932e-05 0.0009404120424681147 0 -4.8909725925792455e-05 0.0010300887023802908 0 2.6749120538757735e-05 0.0010728541777047483 0 -5.9497055395679827e-05 0.0011192607806975827 0 -4.8909725925792455e-05 0.0010300887023802908 0 2.6749120538757735e-05 0.0010728541777047483 0 1.3266242315879426e-05 0.00098779361655312067 0 -0.00011065379851250433 0.0010836779954257402 0 -0.00017462976451638446 0.00122447268684518 0 -4.8909725925792455e-05 0.0010300887023802908 0 1.3266242315879426e-05 0.00098779361655312067 0 -9.5470204015672932e-05 0.0009404120424681147 0 -0.0001844030090731995 0.0009157208528653239 0 -0.00012781349874160734 0.0010316561401794717 0 -9.5470204015672932e-05 0.0009404120424681147 0 -0.00041783082468963343 0.0015252673865016595 0 -0.00035922215460611282 0.0018905999915749515 0 -0.00026727662294915699 0.0017168782378681113 0 -0.00017462976451638446 0.00122447268684518 0 -0.00027554155675578744 0.00064242053637930522 0 1.3266242315879426e-05 0.00098779361655312067 0 -9.5470204015672932e-05 0.0009404120424681147 0 -0.00014022957536196073 0.00073672836887741903 0 -0.00032659438960122182 0.00058137494312033048 0 -0.00029332118229305953 0.0008617976898808692 0 -0.00039449505863941057 0.00065128171539721226 0 -0.00039356171107113948 0.0010860872163728616 0 -0.00017462976451638446 0.00122447268684518 0 -0.0001844030090731995 0.0009157208528653239 0 -9.5470204015672932e-05 0.0009404120424681147 0 -0.00014022957536196073 0.00073672836887741903 0 -0.00020853041346403499 0.0015584618275966986 0 -0.00026727662294915699 0.0017168782378681113 0 -0.00013152266437789332 0.0017878498624858765 0 -0.00041783082468963343 0.0015252673865016595 0 -0.00020853041346403499 0.0015584618275966986 0 -0.00026727662294915699 0.0017168782378681113 0 -0.00026727662294915699 0.0017168782378681113 0 -0.00013152266437789332 0.0017878498624858765 0 -0.00025325315947303493 0.0018256437730753785 0 -9.1210219903673954e-05 0.0018093508054989752 0 -5.5514083714715414e-05 0.0017574093473359405 0 -1.7998828619954206e-05 0.0017369433245426275 0 -2.5843015207555646e-05 0.0018669515800623807 0 4.385359099745442e-05 0.0018296080602504294 0 -0.00013152266437789332 0.0017878498624858765 0 -0.00025325315947303493 0.0018256437730753785 0 -0.00025404593680105518 0.0021074695801210149 0 -0.00035922215460611282 0.0018905999915749515 0 -0.00025325315947303493 0.0018256437730753785 0 -0.00025404593680105518 0.0021074695801210149 0 -0.00035922215460611282 0.0018905999915749515 0 -0.00026727662294915699 0.0017168782378681113 0 -0.00025325315947303493 0.0018256437730753785 0 0.0001209651661822764 0.0017960663910307785 0 9.6562875394597402e-05 0.0017233234360750169 0 4.385359099745442e-05 0.0018296080602504294 0 -1.7998828619954206e-05 0.0017369433245426275 0 9.6562875394597402e-05 0.0017233234360750169 0 4.385359099745442e-05 0.0018296080602504294 0 0.0001209651661822764 0.0017960663910307785 0 0.00019534171914594838 0.0017977901927587493 0 0.00013657814121239144 0.0018494950833223616 0 0.0001209651661822764 0.0017960663910307785 0 0.00017361751043379542 0.0017467280735609678 0 0.00019534171914594838 0.0017977901927587493 0 0.0001209651661822764 0.0017960663910307785 0 0.00017361751043379542 0.0017467280735609678 0 9.6562875394597402e-05 0.0017233234360750169 0 0.00020607649162713074 0.0016306277389483638 0 9.6562875394597402e-05 0.0017233234360750169 0 3.5797104899123435e-05 0.0014385629330803955 0 0.00017361751043379542 0.0017467280735609678 0 0.00020607649162713074 0.0016306277389483638 0 9.6562875394597402e-05 0.0017233234360750169 0 0.00017361751043379542 0.0017467280735609678 0 0.00020607649162713074 0.0016306277389483638 0 0.00024164186318288507 0.0017370379401610756 0 -9.1210219903673954e-05 0.0018093508054989752 0 4.0706254711892684e-05 0.001426805150828355 0 -1.7998828619954206e-05 0.0017369433245426275 0 9.6562875394597402e-05 0.0017233234360750169 0 3.5797104899123435e-05 0.0014385629330803955 0 0.00022766439863052386 0.0017710525257879897 0 0.00026284043496674478 0.0017672694739025387 0 0.0002420884843492406 0.0018233453132114345 0 0.00023788838423619016 0.0017800952981181894 0 0.00026856810477308274 0.0017616010432414707 0 0.00027110755704484431 0.0018329783560204385 0 0.0002420884843492406 0.0018233453132114345 0 0.00026856810477308274 0.0017616010432414707 0 0.00018429455854722499 0.0017200987530619832 0 0.00018964880260212712 0.0017726298778445995 0 0.00026856810477308274 0.0017616010432414707 0 0.0002420884843492406 0.0018233453132114345 0 0.00023788838423619016 0.0017800952981181894 0 0.00019534171914594838 0.0017977901927587493 0 0.00023788838423619016 0.0017800952981181894 0 0.00019534171914594838 0.0017977901927587493 0 0.00024164186318288507 0.0017370379401610756 0 0.00017361751043379542 0.0017467280735609678 0 0.00019534171914594838 0.0017977901927587493 0 0.00024164186318288507 0.0017370379401610756 0 0.00020607649162713074 0.0016306277389483638 0 0.00024164186318288507 0.0017370379401610756 0 0.00030212589829250097 0.0017573506160749547 0 0.00024164186318288507 0.0017370379401610756 0 0.00030212589829250097 0.0017573506160749547 0 0.00026856810477308274 0.0017616010432414707 0 0.00023788838423619016 0.0017800952981181894 0 0.00024164186318288507 0.0017370379401610756 0 0.00026856810477308274 0.0017616010432414707 0 0.00018964880260212712 0.0017726298778445995 0 0.00026856810477308274 0.0017616010432414707 0 0.00023933879249775532 0.0017958640056228098 0 0.00030212589829250097 0.0017573506160749547 0 0.00026856810477308274 0.0017616010432414707 0 0.00023933879249775532 0.0017958640056228098 0 0.00018365982247589129 0.0018483094034643256 0 0.00023933879249775532 0.0017958640056228098 0 0.00024090003814241466 0.0018991894717718763 0 0.00030212589829250097 0.0017573506160749547 0 0.00023933879249775532 0.0017958640056228098 0 0.00024090003814241466 0.0018991894717718763 0 0.00030212589829250097 0.0017573506160749547 0 0.00024090003814241466 0.0018991894717718763 0 0.00037315140518745683 0.0019449385450190115 0 0.00030510378791475025 0.0017338218321709738 0 0.00033026126325293051 0.0016768300307569402 0 0.00020607649162713074 0.0016306277389483638 0 0.00030212589829250097 0.0017573506160749547 0 0.00030705280729583184 0.0014209643053406239 0 0.00037315140518745683 0.0019449385450190115 0 0.00039547481570323455 0.0020459576055245773 0 0.00030241494799320448 0.002046583034498332 0 0.00024090003814241466 0.0018991894717718763 0 0.00037315140518745683 0.0019449385450190115 0 0.00030241494799320448 0.002046583034498332 0 0.00021341121654132236 0.0020063052891240887 0 0.00024090003814241466 0.0018991894717718763 0 0.00030241494799320448 0.002046583034498332 0 -0.00020853041346403499 0.0015584618275966986 0 -0.00013152266437789332 0.0017878498624858765 0 3.5797104899123435e-05 0.0014385629330803955 0 0.00020607649162713074 0.0016306277389483638 0 0.00030705280729583184 0.0014209643053406239 0 3.5797104899123435e-05 0.0014385629330803955 0 0.00030705280729583184 0.0014209643053406239 0 3.5797104899123435e-05 0.0014385629330803955 0 0.00020812794631853643 0.0010528790003438906 0 0.00033026126325293051 0.0016768300307569402 0 0.00028724372055827967 0.0015298546570596751 0 3.5797104899123435e-05 0.0014385629330803955 0 0.00020812794631853643 0.0010528790003438906 0 -9.4723695924920387e-05 0.0010169923256448236 0 0.00020812794631853643 0.0010528790003438906 0 3.0449279051691899e-05 0.00061912501166029989 0 -9.4723695924920387e-05 0.0010169923256448236 0 0.00028724372055827967 0.0015298546570596751 0 0.00025843784944216519 0.0014114340689082041 0 0.00039547481570323455 0.0020459576055245773 0 0.00037188304202286088 0.0021294127751374761 0 0.00032862063903547803 0.0021228277914029734 0 0.00037188304202286088 0.0021294127751374761 0 0.00032862063903547803 0.0021228277914029734 0 0.00034964683017259815 0.0021539064570392143 0 0.00037188304202286088 0.0021294127751374761 0 0.00041091245859130912 0.0021063782783740121 0 0.0003809298342197 0.0021506213525809177 0 0.00039547481570323455 0.0020459576055245773 0 0.00037188304202286088 0.0021294127751374761 0 0.00041091245859130912 0.0021063782783740121 0 0.00020991112905539039 0.0021127420294862771 0 0.00030241494799320448 0.002046583034498332 0 0.00027562073691654034 0.0021309544378124079 0 0.00021341121654132236 0.0020063052891240887 0 0.00020991112905539039 0.0021127420294862771 0 0.00030241494799320448 0.002046583034498332 0 0.00039547481570323455 0.0020459576055245773 0 0.00030241494799320448 0.002046583034498332 0 0.00032862063903547803 0.0021228277914029734 0 0.00030241494799320448 0.002046583034498332 0 0.00032862063903547803 0.0021228277914029734 0 0.00027562073691654034 0.0021309544378124079 0 0.00032862063903547803 0.0021228277914029734 0 0.00027562073691654034 0.0021309544378124079 0 0.00027762474805066077 0.0021652271296695932 0 0.00020991112905539039 0.0021127420294862771 0 0.00027562073691654034 0.0021309544378124079 0 0.00024943295802583049 0.0021855766217331817 0 0.00027562073691654034 0.0021309544378124079 0 0.00024943295802583049 0.0021855766217331817 0 0.00027762474805066077 0.0021652271296695932 0 0.00025886566064348642 0.0021727875831662308 0 0.00024943295802583049 0.0021855766217331817 0 0.00026184320624770836 0.0021759211039628253 0 0.00024943295802583049 0.0021855766217331817 0 0.00027762474805066077 0.0021652271296695932 0 0.00026184320624770836 0.0021759211039628253 0 0.00027762474805066077 0.0021652271296695932 0 0.00026184320624770836 0.0021759211039628253 0 0.00027162468869751719 0.0021790950862781923 0 0.00031373570270346095 0.0021600524139774291 0 0.00027162468869751719 0.0021790950862781923 0 0.00035327018111370339 0.002181323284350751 0 0.00027762474805066077 0.0021652271296695932 0 0.00031373570270346095 0.0021600524139774291 0 0.00027162468869751719 0.0021790950862781923 0 0.00032862063903547803 0.0021228277914029734 0 0.00031373570270346095 0.0021600524139774291 0 0.00034964683017259815 0.0021539064570392143 0 0.00032862063903547803 0.0021228277914029734 0 0.00027762474805066077 0.0021652271296695932 0 0.00031373570270346095 0.0021600524139774291 0 -0.00013540155500157034 0.001041419036234307 0 -0.00014740002579392147 0.0010422407780685814 0 0.00025662480528007412 0.0021724404579940453 0 0.00033777147933026645 0.0022181424403525632 0 0.00026501355130023591 0.0021595973790682174 0 0.00027162468869751719 0.0021790950862781923 0 0.00022534123582131698 0.0021496035135316837 0 -0.00049978222501594961 -3.4980571548369695e-05 0 -0.00054244020686687296 -5.1211088490491744e-05 0 -0.0004671726683192133 -4.1909712001262813e-05 0 0.00026043858309882187 0.0021601705343197927 0 0.00026501355130023591 0.0021595973790682174 0 0.00026454439428027381 0.0021688494467652581 0 0.00026184320624770836 0.0021759211039628253 0 0.00027162468869751719 0.0021790950862781923 0 0.00026454439428027381 0.0021688494467652581 0 0.00026501355130023591 0.0021595973790682174 0 0.00027162468869751719 0.0021790950862781923 0 0.00026454439428027381 0.0021688494467652581 0 0.00026123600039479794 0.0021648006925963728 0 0.00026043858309882187 0.0021601705343197927 0 0.00026454439428027381 0.0021688494467652581 0 0.00025886566064348642 0.0021727875831662308 0 0.00026123600039479794 0.0021648006925963728 0 0.00026454439428027381 0.0021688494467652581 0 0.00025886566064348642 0.0021727875831662308 0 0.00026184320624770836 0.0021759211039628253 0 0.00026454439428027381 0.0021688494467652581 0 0.0003809298342197 0.0021506213525809177 0 0.00040699127710335187 0.0021606764677504879 0 0.00035327018111370339 0.002181323284350751 0 0.00041091245859130912 0.0021063782783740121 0 0.0003809298342197 0.0021506213525809177 0 0.00040699127710335187 0.0021606764677504879 0 0.00037188304202286088 0.0021294127751374761 0 0.0003809298342197 0.0021506213525809177 0 0.00034964683017259815 0.0021539064570392143 0 0.00031373570270346095 0.0021600524139774291 0 0.00034964683017259815 0.0021539064570392143 0 0.00035327018111370339 0.002181323284350751 0 0.0003809298342197 0.0021506213525809177 0 0.00034964683017259815 0.0021539064570392143 0 0.00035327018111370339 0.002181323284350751 0 0.00027162468869751719 0.0021790950862781923 0 0.00022506729202980907 0.0021631236526340426 0 0.00022534123582131698 0.0021496035135316837 0 0.00017191928944651621 0.0021414650945220347 0 0.00022506729202980907 0.0021631236526340426 0 0.00022534123582131698 0.0021496035135316837 0 -0.00049978222501594961 -3.4980571548369695e-05 0 -0.0004671726683192133 -4.1909712001262813e-05 0 -0.00047102106581137893 -3.0445325885202952e-05 0 -0.0004671726683192133 -4.1909712001262813e-05 0 -0.00045424923022573273 -2.5001000047318032e-05 0 -0.00043146729616945262 -1.5097684652587096e-05 0 -0.0004671726683192133 -4.1909712001262813e-05 0 -0.00047102106581137893 -3.0445325885202952e-05 0 -0.00045424923022573273 -2.5001000047318032e-05 0 -0.00046496952659423585 -2.0147136484032611e-05 0 -0.00047102106581137893 -3.0445325885202952e-05 0 -0.00045424923022573273 -2.5001000047318032e-05 0 -0.0004352598284330424 -1.0975697507182222e-05 0 -0.00045424923022573273 -2.5001000047318032e-05 0 -0.00043146729616945262 -1.5097684652587096e-05 0 3.4571824723211725e-05 0.0013088603406049434 0 -0.00014740002579392147 0.0010422407780685814 0 -0.00041863794034127048 -1.399687445489155e-05 0 -0.0004671726683192133 -4.1909712001262813e-05 0 -0.00043146729616945262 -1.5097684652587096e-05 0 3.4571824723211725e-05 0.0013088603406049434 0 0.00033777147933026645 0.0022181424403525632 0 -0.00041863794034127048 -1.399687445489155e-05 0 -0.00043146729616945262 -1.5097684652587096e-05 0 -0.00041011314069785775 2.4894745242322183e-06 0 -0.00041349869919501535 5.1592086612471151e-07 0 -0.0004352598284330424 -1.0975697507182222e-05 0 -0.00043146729616945262 -1.5097684652587096e-05 0 -0.00041349869919501535 5.1592086612471151e-07 0 -0.00043146729616945262 -1.5097684652587096e-05 0 -0.00041011314069785775 2.4894745242322183e-06 0 -0.00041863794034127048 -1.399687445489155e-05 0 -0.00041011314069785775 2.4894745242322183e-06 0 -0.00039754202352816701 1.3762392593935915e-05 0 -0.00041349869919501535 5.1592086612471151e-07 0 -0.00039901006922847125 1.8956022079402311e-05 0 -0.00041011314069785775 2.4894745242322183e-06 0 -0.00039788444899863616 1.2277847873974038e-05 0 -0.00039901006922847125 1.8956022079402311e-05 0 -0.0003976395871034071 3.0451019534876026e-05 0 -0.00039901006922847125 1.8956022079402311e-05 0 -0.00041011314069785775 2.4894745242322183e-06 0 -0.00039754202352816701 1.3762392593935915e-05 0 -0.00039901006922847125 1.8956022079402311e-05 0 -0.00039096098636877755 3.5126289676727452e-05 0 -0.00039754202352816701 1.3762392593935915e-05 0 -0.0004787515297973249 0.0001567165755730672 0 -0.00040073011934583212 0.0003960510114549009 0 -0.00039096098636877755 3.5126289676727452e-05 0 -0.00040841998925465989 8.8957606851722081e-05 0 -0.00038189041797064488 4.6886943390734223e-05 0 -0.00040796644220590102 2.9668470951203136e-05 0 -0.00040426836834073768 5.2045832068051979e-05 0 -0.0003976395871034071 3.0451019534876026e-05 0 -0.00039901006922847125 1.8956022079402311e-05 0 -0.0003976395871034071 3.0451019534876026e-05 0 -0.00039096098636877755 3.5126289676727452e-05 0 -0.00040426836834073768 5.2045832068051979e-05 0 -0.0003976395871034071 3.0451019534876026e-05 0 -0.00039096098636877755 3.5126289676727452e-05 0 -0.00040426836834073768 5.2045832068051979e-05 0 -0.00039096098636877755 3.5126289676727452e-05 0 -0.00040841998925465989 8.8957606851722081e-05 0 -0.00043757913891982059 0.00029686008416787994 0 -0.00039166860354065698 0.00026982328151548137 0 -0.00038126483001901638 0.00028435960336116418 0 -0.00040268047722373171 0.00030489501274229806 0 -0.00011194860451143568 0.00096303568479354782 0 -0.00043757913891982059 0.00029686008416787994 0 -0.00020894515918753404 0.00023044853886474456 0 -0.00028650632513506076 0.00039462403054560142 0 -0.00043954749588559001 0.00026209974211101328 0 -0.00043757913891982059 0.00029686008416787994 0 -0.00039166860354065698 0.00026982328151548137 0 -0.00042999027228585597 0.00017122954929694914 0 -0.00040073011934583212 0.0003960510114549009 0 -0.00043954749588559001 0.00026209974211101328 0 -0.00043757913891982059 0.00029686008416787994 0 -0.00044311527681053142 0.00026704785127227589 0 -0.00043757913891982059 0.00029686008416787994 0 -0.0004381470086622975 0.00036181912128995544 0 -0.00028650632513506076 0.00039462403054560142 0 -0.00043757913891982059 0.00029686008416787994 0 -0.0004381470086622975 0.00036181912128995544 0 -0.00044096180090884068 0.00031337706777253101 0 3.0449279051691899e-05 0.00061912501166029989 0 -0.00020894515918753404 0.00023044853886474456 0 -0.00028650632513506076 0.00039462403054560142 0 0.00041091245859130912 0.0021063782783740121 0 0.00040699127710335187 0.0021606764677504879 0 0.00043202016691949393 0.0021436743448630196 0 -4.3671128205210563e-05 0.00090898052568019923 0 -0.00018493193290639146 0.00090686888511579545 0 -0.00015981313337126626 0.00094126920089637549 0 3.4571824723211725e-05 0.0013088603406049434 0 -0.00040073011934583212 0.0003960510114549009 0 0.00025843784944216519 0.0014114340689082041 0 -0.00011194860451143568 0.00096303568479354782 0 3.4571824723211725e-05 0.0013088603406049434 0 -0.00011194860451143568 0.00096303568479354782 0 -0.00040073011934583212 0.0003960510114549009 0 -0.00011194860451143568 0.00096303568479354782 0 3.0449279051691899e-05 0.00061912501166029989 0 -0.00028650632513506076 0.00039462403054560142 0 -0.00025736374203063841 0.00066100591275611385 0 -0.0004381470086622975 0.00036181912128995544 0 -0.00041988101346253506 0.00035413611977821091 0 -0.00044096180090884068 0.00031337706777253101 0 -0.00044025332188646831 0.00038993065265366758 0 -0.00042191237605557398 0.00069689241210493997 0 -0.0004381470086622975 0.00036181912128995544 0 -0.00028650632513506076 0.00039462403054560142 0 -0.00025736374203063841 0.00066100591275611385 0 -0.0004381470086622975 0.00036181912128995544 0 -0.00025736374203063841 0.00066100591275611385 0 -0.00048480695275646455 0.0010267680114713898 0 -0.0004381470086622975 0.00036181912128995544 0 -0.00037247195476068472 0.00038387458587408327 0 -0.00041988101346253506 0.00035413611977821091 0 -0.00025736374203063841 0.00066100591275611385 0 -0.00048480695275646455 0.0010267680114713898 0 -9.4723695924920387e-05 0.0010169923256448236 0 3.0449279051691899e-05 0.00061912501166029989 0 -0.00025736374203063841 0.00066100591275611385 0 -9.4723695924920387e-05 0.0010169923256448236 0 -0.00045335948556028709 0.0003671519682527117 0 -0.00052215814446294659 0.00037111565422684445 0 -0.00051586665902686555 0.000321035729163692 0 -0.0004809190372149604 0.00046816133690691164 0 -0.00045335948556028709 0.0003671519682527117 0 -0.00052215814446294659 0.00037111565422684445 0 -0.00037247195476068472 0.00038387458587408327 0 -0.00042485436122517755 0.00038866657981363338 0 -0.00041988101346253506 0.00035413611977821091 0 -0.00045335948556028709 0.0003671519682527117 0 -0.00042485436122517755 0.00038866657981363338 0 -0.00041988101346253506 0.00035413611977821091 0 -0.00041988101346253506 0.00035413611977821091 0 -0.00044096180090884068 0.00031337706777253101 0 -0.00044960748825397185 0.00028647369357370897 0 -0.00041988101346253506 0.00035413611977821091 0 -0.00047434314491759779 0.00031122675636011295 0 -0.00044960748825397185 0.00028647369357370897 0 -0.00045335948556028709 0.0003671519682527117 0 -0.00041988101346253506 0.00035413611977821091 0 -0.00047434314491759779 0.00031122675636011295 0 -0.00047434314491759779 0.00031122675636011295 0 -0.0005109093300460231 0.00022531329757537346 0 -0.00044960748825397185 0.00028647369357370897 0 -0.00045335948556028709 0.0003671519682527117 0 -0.00047434314491759779 0.00031122675636011295 0 -0.00051586665902686555 0.000321035729163692 0 -0.00047434314491759779 0.00031122675636011295 0 -0.00051586665902686555 0.000321035729163692 0 -0.00054154847837463395 0.00027204892735842345 0 -0.00047434314491759779 0.00031122675636011295 0 -0.0005109093300460231 0.00022531329757537346 0 -0.00054154847837463395 0.00027204892735842345 0 -0.0005109093300460231 0.00022531329757537346 0 -0.00046688504654186433 0.00016785705378768735 0 -0.00055864869717241563 0.00010752119745280312 0 -0.0005109093300460231 0.00022531329757537346 0 -0.00046688504654186433 0.00016785705378768735 0 -0.00044960748825397185 0.00028647369357370897 0 -0.00043954749588559001 0.00026209974211101328 0 -0.00046688504654186433 0.00016785705378768735 0 -0.00044311527681053142 0.00026704785127227589 0 -0.00042999027228585597 0.00017122954929694914 0 -0.00047664461779516379 0.00017106859428852559 0 -0.00044096180090884068 0.00031337706777253101 0 -0.00044311527681053142 0.00026704785127227589 0 -0.00044960748825397185 0.00028647369357370897 0 -0.00043757913891982059 0.00029686008416787994 0 -0.00044096180090884068 0.00031337706777253101 0 -0.00044311527681053142 0.00026704785127227589 0 -0.00046688504654186433 0.00016785705378768735 0 -0.00044311527681053142 0.00026704785127227589 0 -0.00044960748825397185 0.00028647369357370897 0 -0.00040841998925465989 8.8957606851722081e-05 0 -0.00046688504654186433 0.00016785705378768735 0 -0.00042867813344845058 7.3914312756532733e-05 0 -0.00040426836834073768 5.2045832068051979e-05 0 -0.00040841998925465989 8.8957606851722081e-05 0 -0.00042867813344845058 7.3914312756532733e-05 0 -0.00040796644220590102 2.9668470951203136e-05 0 -0.00040426836834073768 5.2045832068051979e-05 0 -0.00042867813344845058 7.3914312756532733e-05 0 -0.00049258002156324734 5.15670041386869e-05 0 -0.00046688504654186433 0.00016785705378768735 0 -0.00042867813344845058 7.3914312756532733e-05 0 -0.00049258002156324734 5.15670041386869e-05 0 -0.00046688504654186433 0.00016785705378768735 0 -0.00055864869717241563 0.00010752119745280312 0 -0.00055165335792014582 1.048869014558642e-05 0 -0.00049258002156324734 5.15670041386869e-05 0 -0.00055864869717241563 0.00010752119745280312 0 -0.00055165335792014582 1.048869014558642e-05 0 -0.00055864869717241563 0.00010752119745280312 0 -0.00062389556655632243 1.7202175755122731e-05 0 -0.0005109093300460231 0.00022531329757537346 0 -0.00055864869717241563 0.00010752119745280312 0 -0.0006110732580498462 0.00019055161536720032 0 -0.0005109093300460231 0.00022531329757537346 0 -0.0006110732580498462 0.00019055161536720032 0 -0.00054154847837463395 0.00027204892735842345 0 -0.0006110732580498462 0.00019055161536720032 0 -0.00072141827049189064 6.3407964228698403e-05 0 -0.0007222595333658343 0.00019830531593318797 0 -0.0006110732580498462 0.00019055161536720032 0 -0.0007222595333658343 0.00019830531593318797 0 -0.00063049743630077182 0.00027344181459579574 0 -0.00055864869717241563 0.00010752119745280312 0 -0.0006110732580498462 0.00019055161536720032 0 -0.00072141827049189064 6.3407964228698403e-05 0 -0.00055864869717241563 0.00010752119745280312 0 -0.00062389556655632243 1.7202175755122731e-05 0 -0.00072141827049189064 6.3407964228698403e-05 0 -0.00083129819749892158 -0.0001894078491152052 0 -0.00062389556655632243 1.7202175755122731e-05 0 -0.00072141827049189064 6.3407964228698403e-05 0 -0.00083129819749892158 -0.0001894078491152052 0 -0.00072141827049189064 6.3407964228698403e-05 0 -0.00090958079951606252 6.5779106767442159e-05 0 -0.0010193246336953666 -0.0001420406078779354 0 -0.00083129819749892158 -0.0001894078491152052 0 -0.00090958079951606252 6.5779106767442159e-05 0 -0.00090958079951606252 6.5779106767442159e-05 0 -0.00087015092814370283 0.00027571955204136033 0 -0.0010745525201743204 0.00021764273010809504 0 -0.00090958079951606252 6.5779106767442159e-05 0 -0.0007222595333658343 0.00019830531593318797 0 -0.00087015092814370283 0.00027571955204136033 0 -0.00072141827049189064 6.3407964228698403e-05 0 -0.00090958079951606252 6.5779106767442159e-05 0 -0.0007222595333658343 0.00019830531593318797 0 -0.0007222595333658343 0.00019830531593318797 0 -0.00087015092814370283 0.00027571955204136033 0 -0.00072178566277495044 0.00034471315381119145 0 -0.00087015092814370283 0.00027571955204136033 0 -0.0010745525201743204 0.00021764273010809504 0 -0.0010000184720629908 0.00038666025251198071 0 -0.00087015092814370283 0.00027571955204136033 0 -0.00082339047438473247 0.00041906038375975533 0 -0.0010000184720629908 0.00038666025251198071 0 -0.00090182263502605782 -0.00025447500735348852 0 -0.0010084721096547907 -0.00028035979960852912 0 -0.00098716643284883321 -0.00022452635241621051 0 -0.00085269527776404635 9.8647781810205611e-05 0 -0.0010590288029810645 -0.00020762471486067505 0 -0.0010590288029810645 -0.00020762471486067505 0 -0.001007913364703561 -0.00070309717325246974 0 -0.00085269527776404635 9.8647781810205611e-05 0 -0.00070026440318645322 0.00012921970489828622 0 -0.00082339047438473247 0.00041906038375975533 0 -0.00072178566277495044 0.00034471315381119145 0 -0.00066750274374278117 0.00044406491121875056 0 -0.00087015092814370283 0.00027571955204136033 0 -0.00082339047438473247 0.00041906038375975533 0 -0.00072178566277495044 0.00034471315381119145 0 -0.00072178566277495044 0.00034471315381119145 0 -0.00062050531517288891 0.0003815100702511216 0 -0.00063049743630077182 0.00027344181459579574 0 -0.00070893186967590756 0.00036589701271682972 0 -0.00070026440318645322 0.00012921970489828622 0 -0.00062050531517288891 0.0003815100702511216 0 -0.00060565225502725911 0.00042209546111804771 0 -0.00065762524550297364 0.00042519727481136072 0 -0.00072178566277495044 0.00034471315381119145 0 -0.00062050531517288891 0.0003815100702511216 0 -0.00066750274374278117 0.00044406491121875056 0 -0.00062050531517288891 0.0003815100702511216 0 -0.00060565225502725911 0.00042209546111804771 0 -0.00057158231407995373 0.00040016947667274676 0 -0.00060565225502725911 0.00042209546111804771 0 -0.00057158231407995373 0.00040016947667274676 0 -0.00060472458900164971 0.00044184588567964183 0 -0.0004809190372149604 0.00046816133690691164 0 -0.00052215814446294659 0.00037111565422684445 0 -0.00057158231407995373 0.00040016947667274676 0 -0.00052215814446294659 0.00037111565422684445 0 -0.00057158231407995373 0.00040016947667274676 0 -0.00056530469556386311 0.00033665660648299437 0 -0.00052215814446294659 0.00037111565422684445 0 -0.00051586665902686555 0.000321035729163692 0 -0.00056530469556386311 0.00033665660648299437 0 -0.00062050531517288891 0.0003815100702511216 0 -0.00057158231407995373 0.00040016947667274676 0 -0.00056530469556386311 0.00033665660648299437 0 -0.00056530469556386311 0.00033665660648299437 0 -0.00054154847837463395 0.00027204892735842345 0 -0.00063049743630077182 0.00027344181459579574 0 -0.00062050531517288891 0.0003815100702511216 0 -0.00056530469556386311 0.00033665660648299437 0 -0.00063049743630077182 0.00027344181459579574 0 -0.00051586665902686555 0.000321035729163692 0 -0.00056530469556386311 0.00033665660648299437 0 -0.00054154847837463395 0.00027204892735842345 0 -0.0006110732580498462 0.00019055161536720032 0 -0.00054154847837463395 0.00027204892735842345 0 -0.00063049743630077182 0.00027344181459579574 0 -0.0007222595333658343 0.00019830531593318797 0 -0.00072178566277495044 0.00034471315381119145 0 -0.00063049743630077182 0.00027344181459579574 0 -0.0012092860158465122 -0.00041972727206092945 0 -0.0012156869669293783 -0.00040259456003060413 0 -0.001216081288534103 -0.00042302059261624582 0 -0.0012093297858653249 -0.00040138286619177628 0 -0.0012092860158465122 -0.00041972727206092945 0 -0.0012156869669293783 -0.00040259456003060413 0 -0.0012156869669293783 -0.00040259456003060413 0 -0.0012240746777837986 -0.00040016597012608473 0 -0.0012227661472753665 -0.00041458729720772713 0 -0.0012156869669293783 -0.00040259456003060413 0 -0.0012227661472753665 -0.00041458729720772713 0 -0.001216081288534103 -0.00042302059261624582 0 -0.0012156869669293783 -0.00040259456003060413 0 -0.0012137101172817746 -0.00038767684502355053 0 -0.0012169338193802157 -0.00038265926829937847 0 -0.0012156869669293783 -0.00040259456003060413 0 -0.0012169338193802157 -0.00038265926829937847 0 -0.0012240746777837986 -0.00040016597012608473 0 -0.0012093297858653249 -0.00040138286619177628 0 -0.0012156869669293783 -0.00040259456003060413 0 -0.0012137101172817746 -0.00038767684502355053 0 -0.0012137101172817746 -0.00038767684502355053 0 -0.0012158388146110363 -0.00037425293118570948 0 -0.0012169338193802157 -0.00038265926829937847 0 -0.0012118436104045689 -0.00038911735042784936 0 -0.0012137101172817746 -0.00038767684502355053 0 -0.0012158388146110363 -0.00037425293118570948 0 -0.0012189544703377808 -0.00035711232322066814 0 -0.0012158388146110363 -0.00037425293118570948 0 -0.0012186808553664187 -0.00036548853281702566 0 -0.0012158388146110363 -0.00037425293118570948 0 -0.0012169338193802157 -0.00038265926829937847 0 -0.0012186808553664187 -0.00036548853281702566 0 -0.0012186808553664187 -0.00036548853281702566 0 -0.0012311076269721246 -0.00037465783718531703 0 -0.001224177594656975 -0.00038323940931277287 0 -0.0012169338193802157 -0.00038265926829937847 0 -0.0012186808553664187 -0.00036548853281702566 0 -0.001224177594656975 -0.00038323940931277287 0 -0.0012189544703377808 -0.00035711232322066814 0 -0.0012186808553664187 -0.00036548853281702566 0 -0.0012197227437877522 -0.00033693973569799197 0 -0.0012186808553664187 -0.00036548853281702566 0 -0.0012197227437877522 -0.00033693973569799197 0 -0.0012311076269721246 -0.00037465783718531703 0 -0.0012311076269721246 -0.00037465783718531703 0 -0.0012326311769398233 -0.00039651413390334419 0 -0.0012499021995679403 -0.00039472074850495619 0 -0.0012311076269721246 -0.00037465783718531703 0 -0.001224177594656975 -0.00038323940931277287 0 -0.0012326311769398233 -0.00039651413390334419 0 -0.0012169338193802157 -0.00038265926829937847 0 -0.001224177594656975 -0.00038323940931277287 0 -0.0012240746777837986 -0.00040016597012608473 0 -0.001224177594656975 -0.00038323940931277287 0 -0.0012240746777837986 -0.00040016597012608473 0 -0.0012326311769398233 -0.00039651413390334419 0 -0.0012240746777837986 -0.00040016597012608473 0 -0.0012326311769398233 -0.00039651413390334419 0 -0.0012306635576970167 -0.00041145333606293463 0 -0.0012240746777837986 -0.00040016597012608473 0 -0.0012306635576970167 -0.00041145333606293463 0 -0.0012227661472753665 -0.00041458729720772713 0 -0.0012326311769398233 -0.00039651413390334419 0 -0.0012499021995679403 -0.00039472074850495619 0 -0.0012405133324553462 -0.00041055609353516596 0 -0.0012326311769398233 -0.00039651413390334419 0 -0.0012405133324553462 -0.00041055609353516596 0 -0.0012306635576970167 -0.00041145333606293463 0 -0.0012311076269721246 -0.00037465783718531703 0 -0.0012499021995679403 -0.00039472074850495619 0 -0.0012689364264109279 -0.00036922413314981835 0 -0.0012499021995679403 -0.00039472074850495619 0 -0.0012689364264109279 -0.00036922413314981835 0 -0.001273215470148304 -0.00040687435263886656 0 -0.0012245265101238571 -0.0002772575745834534 0 -0.0012197227437877522 -0.00033693973569799197 0 -0.0012689364264109279 -0.00036922413314981835 0 -0.0012267707200470173 -0.00026309608324418313 0 -0.0012124340076007374 -0.00018682153618209863 0 -0.0012197227437877522 -0.00033693973569799197 0 -0.0012311076269721246 -0.00037465783718531703 0 -0.0012689364264109279 -0.00036922413314981835 0 -0.0010193246336953666 -0.0001420406078779354 0 -0.0012245265101238571 -0.0002772575745834534 0 -0.0011613638631082566 1.2004789308930907e-05 0 -0.0010193246336953666 -0.0001420406078779354 0 -0.00090958079951606252 6.5779106767442159e-05 0 -0.0011613638631082566 1.2004789308930907e-05 0 -0.00090958079951606252 6.5779106767442159e-05 0 -0.0011613638631082566 1.2004789308930907e-05 0 -0.0010745525201743204 0.00021764273010809504 0 -0.0012124340076007374 -0.00018682153618209863 0 -0.0011729016803158018 -6.4519324339450137e-05 0 -0.0011729016803158018 -6.4519324339450137e-05 0 -0.0010590288029810645 -0.00020762471486067505 0 -0.001273215470148304 -0.00040687435263886656 0 -0.0012789346808662482 -0.00043097290505030511 0 -0.0012548490179206191 -0.00041363029807622674 0 -0.0010590288029810645 -0.00020762471486067505 0 -0.0012023926837703488 -0.00073117486479623908 0 -0.0010259233824283396 -0.00063971975284383184 0 -0.0010937641280700202 -0.00062682185035243371 0 -0.0011858480911531219 -0.00067804514917778824 0 -0.0010143002434487565 -0.0011961847227252331 0 -0.0010376282129887047 -0.0011892745367708042 0 -0.001003955121436928 -0.0011688527302382097 0 -0.0010658097951318571 -0.00092254227773634428 0 -0.001007913364703561 -0.00070309717325246974 0 -0.0010143002434487565 -0.0011961847227252331 0 -0.001003955121436928 -0.0011688527302382097 0 -0.00097575586780500355 -0.0011783259435109634 0 -0.0010259233824283396 -0.00063971975284383184 0 -0.0010937641280700202 -0.00062682185035243371 0 -0.0010019033610373269 -0.00057676355588221796 0 -0.0010658097951318571 -0.00092254227773634428 0 -0.0012023926837703488 -0.00073117486479623908 0 -0.0010143002434487565 -0.0011961847227252331 0 -0.0010376282129887047 -0.0011892745367708042 0 -0.0010443166113395111 -0.0012097094089867852 0 -0.0010376282129887047 -0.0011892745367708042 0 -0.0010443166113395111 -0.0012097094089867852 0 -0.0010542079121296348 -0.001200591207587617 0 -0.0012789346808662482 -0.00043097290505030511 0 -0.0012459896367275902 -0.00042719455303862882 0 -0.0012548490179206191 -0.00041363029807622674 0 -0.0012499021995679403 -0.00039472074850495619 0 -0.001273215470148304 -0.00040687435263886656 0 -0.0012548490179206191 -0.00041363029807622674 0 -0.0012459896367275902 -0.00042719455303862882 0 -0.0012458758881779637 -0.00041874568575720009 0 -0.0012548490179206191 -0.00041363029807622674 0 -0.0012459896367275902 -0.00042719455303862882 0 -0.0012458758881779637 -0.00041874568575720009 0 -0.0012397635663163808 -0.00042411013119517647 0 -0.0012023926837703488 -0.00073117486479623908 0 -0.0011965165811224263 -0.00058701003521081723 0 -0.0012458758881779637 -0.00041874568575720009 0 -0.0012548490179206191 -0.00041363029807622674 0 -0.0012405133324553462 -0.00041055609353516596 0 -0.0012499021995679403 -0.00039472074850495619 0 -0.0012548490179206191 -0.00041363029807622674 0 -0.0012405133324553462 -0.00041055609353516596 0 -0.0012458758881779637 -0.00041874568575720009 0 -0.0012405133324553462 -0.00041055609353516596 0 -0.0012404023336780965 -0.00041946535519262303 0 -0.0012362428057030455 -0.00041870705946942275 0 -0.0012405133324553462 -0.00041055609353516596 0 -0.0012306635576970167 -0.00041145333606293463 0 -0.0012362428057030455 -0.00041870705946942275 0 -0.0012405133324553462 -0.00041055609353516596 0 -0.0012404023336780965 -0.00041946535519262303 0 -0.0012306635576970167 -0.00041145333606293463 0 -0.001229168313848963 -0.00042461041125744505 0 -0.0012227661472753665 -0.00041458729720772713 0 -0.0012362428057030455 -0.00041870705946942275 0 -0.0012306635576970167 -0.00041145333606293463 0 -0.001229168313848963 -0.00042461041125744505 0 -0.0011548817394761747 -0.00066592848637335466 0 -0.0012138410089498114 -0.000519851268574844 0 -0.001229168313848963 -0.00042461041125744505 0 -0.0012455199272652161 -0.00044211909473461646 0 -0.0012240718123379516 -0.00043696270615648772 0 -0.0012023926837703488 -0.00073117486479623908 0 -0.0011548817394761747 -0.00066592848637335466 0 -0.0012005053773630002 -0.00069185822801627031 0 -0.0011629001541202417 -0.00068288120567597645 0 -0.0011796977903491327 -0.00068018294913578287 0 -0.0011548817394761747 -0.00066592848637335466 0 -0.0011965165811224263 -0.00058701003521081723 0 -0.0012091476757508264 -0.00045294318245703877 0 -0.0011965165811224263 -0.00058701003521081723 0 -0.0012362428057030455 -0.00041870705946942275 0 -0.001229168313848963 -0.00042461041125744505 0 -0.0012397635663163808 -0.00042411013119517647 0 -0.001229168313848963 -0.00042461041125744505 0 -0.0012455199272652161 -0.00044211909473461646 0 -0.0012548245639339261 -0.00044099721936408581 0 -0.0012458758881779637 -0.00041874568575720009 0 -0.0012404023336780965 -0.00041946535519262303 0 -0.0012397635663163808 -0.00042411013119517647 0 -0.0012362428057030455 -0.00041870705946942275 0 -0.0012404023336780965 -0.00041946535519262303 0 -0.0012397635663163808 -0.00042411013119517647 0 -0.0010443166113395111 -0.0012097094089867852 0 -0.0010581644149758862 -0.0012115837630422874 0 -0.0010542079121296348 -0.001200591207587617 0 -0.0010376282129887047 -0.0011892745367708042 0 -0.0010542079121296348 -0.001200591207587617 0 -0.0010587948983100716 -0.0011886908170049859 0 -0.0010542079121296348 -0.001200591207587617 0 -0.0010587948983100716 -0.0011886908170049859 0 -0.0010703382940913519 -0.0012019011250312794 0 -0.0010581644149758862 -0.0012115837630422874 0 -0.0010542079121296348 -0.001200591207587617 0 -0.0010703382940913519 -0.0012019011250312794 0 -0.0010581644149758862 -0.0012115837630422874 0 -0.0010703382940913519 -0.0012019011250312794 0 -0.0010857059643864945 -0.0012112742262994718 0 -0.0010703382940913519 -0.0012019011250312794 0 -0.0010857059643864945 -0.0012112742262994718 0 -0.0010840026597795881 -0.001184267847149436 0 -0.0010587948983100716 -0.0011886908170049859 0 -0.0010703382940913519 -0.0012019011250312794 0 -0.0010840026597795881 -0.001184267847149436 0 -0.0012131110000697535 -0.00045049285044695974 0 -0.0012169020869439052 -0.00043495006676677942 0 -0.0012104122687342143 -0.00043579627339396997 0 -0.0011548817394761747 -0.00066592848637335466 0 -0.001234358512010263 -0.00074105105605459906 0 -0.001236322662892894 -0.00043815906365013402 0 -0.0012131110000697535 -0.00045049285044695974 0 -0.0012240718123379516 -0.00043696270615648772 0 -0.0012131110000697535 -0.00045049285044695974 0 -0.0012240718123379516 -0.00043696270615648772 0 -0.0012169020869439052 -0.00043495006676677942 0 -0.0012240718123379516 -0.00043696270615648772 0 -0.0012169020869439052 -0.00043495006676677942 0 -0.0012215431263335643 -0.00042653019335742664 0 -0.0012169020869439052 -0.00043495006676677942 0 -0.0012215431263335643 -0.00042653019335742664 0 -0.001216081288534103 -0.00042302059261624582 0 -0.001229168313848963 -0.00042461041125744505 0 -0.0012240718123379516 -0.00043696270615648772 0 -0.0012215431263335643 -0.00042653019335742664 0 -0.001229168313848963 -0.00042461041125744505 0 -0.0012215431263335643 -0.00042653019335742664 0 -0.0012227661472753665 -0.00041458729720772713 0 -0.0012215431263335643 -0.00042653019335742664 0 -0.0012227661472753665 -0.00041458729720772713 0 -0.001216081288534103 -0.00042302059261624582 0 -0.0012092860158465122 -0.00041972727206092945 0 -0.001216081288534103 -0.00042302059261624582 0 -0.0012104122687342143 -0.00043579627339396997 0 -0.0012169020869439052 -0.00043495006676677942 0 -0.001216081288534103 -0.00042302059261624582 0 -0.0012104122687342143 -0.00043579627339396997 0 -0.0011423363273172088 -0.0011676452103394892 0 -0.001090356180785922 -0.0011409430975016616 0 -0.0011024376130704509 -0.0012077234361858218 0 -0.001090356180785922 -0.0011409430975016616 0 -0.0011024376130704509 -0.0012077234361858218 0 -0.00105645930862233 -0.0011638662753350837 0 -0.0010921866862673637 -0.0011140455218723283 0 -0.0010667862383526975 -0.0011852595308742663 0 -0.0010376282129887047 -0.0011892745367708042 0 -0.0010587948983100716 -0.0011886908170049859 0 -0.00105645930862233 -0.0011638662753350837 0 -0.0010587948983100716 -0.0011886908170049859 0 -0.0010840026597795881 -0.001184267847149436 0 -0.00105645930862233 -0.0011638662753350837 0 -0.001090356180785922 -0.0011409430975016616 0 -0.00105645930862233 -0.0011638662753350837 0 -0.0010549853439356589 -0.001130130875599713 0 -0.0010549853439356589 -0.001130130875599713 0 -0.0010293400270336343 -0.0011520156521366213 0 -0.0010250705775543432 -0.001111157616307111 0 -0.00105645930862233 -0.0011638662753350837 0 -0.0010549853439356589 -0.001130130875599713 0 -0.0010293400270336343 -0.0011520156521366213 0 -0.0010376282129887047 -0.0011892745367708042 0 -0.00105645930862233 -0.0011638662753350837 0 -0.0010293400270336343 -0.0011520156521366213 0 -0.0010376282129887047 -0.0011892745367708042 0 -0.0010293400270336343 -0.0011520156521366213 0 -0.001003955121436928 -0.0011688527302382097 0 -0.0010293400270336343 -0.0011520156521366213 0 -0.001003955121436928 -0.0011688527302382097 0 -0.0010003253642351093 -0.0011362275125569477 0 -0.001003955121436928 -0.0011688527302382097 0 -0.00097575586780500355 -0.0011783259435109634 0 -0.00097996934064288523 -0.0011505584877658892 0 -0.001003955121436928 -0.0011688527302382097 0 -0.0010003253642351093 -0.0011362275125569477 0 -0.00097996934064288523 -0.0011505584877658892 0 -0.0010003253642351093 -0.0011362275125569477 0 -0.00099605175193573131 -0.0011086843700404904 0 -0.0010250705775543432 -0.001111157616307111 0 -0.0010293400270336343 -0.0011520156521366213 0 -0.0010003253642351093 -0.0011362275125569477 0 -0.0010250705775543432 -0.001111157616307111 0 -0.00099124959402823744 -0.001080101009127393 0 -0.0010332484513546694 -0.0010811947568137809 0 -0.0010250705775543432 -0.001111157616307111 0 -0.00099605175193573131 -0.0011086843700404904 0 -0.00099124959402823744 -0.001080101009127393 0 -0.0010250705775543432 -0.001111157616307111 0 -0.00077328768922162595 0.00098194079861893026 0 -0.00079868351546274043 0.0010171191517522546 0 -0.00077397036398391345 0.0010329022022576042 0 -0.00099124959402823744 -0.001080101009127393 0 -0.0010332484513546694 -0.0010811947568137809 0 -0.0010157086929041849 -0.001052751354690257 0 -0.00088913501416734285 -3.0683134497230943e-05 0 -0.00091627023387108044 -7.8720903205855751e-06 0 -0.0010332484513546694 -0.0010811947568137809 0 -0.0010533980024310622 -0.0010603195273173804 0 -0.0010157086929041849 -0.001052751354690257 0 -0.0010332484513546694 -0.0010811947568137809 0 -0.0010250705775543432 -0.001111157616307111 0 -0.0010666739944389309 -0.001098543689431328 0 -0.0010549853439356589 -0.001130130875599713 0 -0.0010250705775543432 -0.001111157616307111 0 -0.0010666739944389309 -0.001098543689431328 0 -0.001090356180785922 -0.0011409430975016616 0 -0.0010549853439356589 -0.001130130875599713 0 -0.0010666739944389309 -0.001098543689431328 0 -0.0010666739944389309 -0.001098543689431328 0 -0.0010885792439217124 -0.0010721752878449205 0 -0.0010533980024310622 -0.0010603195273173804 0 -0.0010332484513546694 -0.0010811947568137809 0 -0.0010666739944389309 -0.001098543689431328 0 -0.0010533980024310622 -0.0010603195273173804 0 -0.0011237941059796281 -0.0011039025139132222 0 -0.0010885792439217124 -0.0010721752878449205 0 -0.0011091798385594526 -0.0010507552826228596 0 -0.0011237941059796281 -0.0011039025139132222 0 -0.0010666739944389309 -0.001098543689431328 0 -0.0010885792439217124 -0.0010721752878449205 0 -0.0011237941059796281 -0.0011039025139132222 0 -0.001090356180785922 -0.0011409430975016616 0 -0.0010666739944389309 -0.001098543689431328 0 -0.00053979640568381753 0.0002142663719489657 0 -0.00081737736257563194 5.39963889212835e-05 0 -0.00076966471861478669 0.00029910678213077897 0 -0.00056674364261856728 9.2443245702701372e-05 0 -0.00053979640568381753 0.0002142663719489657 0 -0.00078146146601102545 7.5505605473733748e-05 0 -0.00049395224564688811 0.0002970434438603952 0 -0.0008504145951304038 -0.00038437279998092082 0 -0.00045759888037829997 0.00061364980757264707 0 -0.00064285864112017437 0.00062255851527473754 0 -0.00052983784737621685 0.00072195504326200426 0 -0.00045759888037829997 0.00061364980757264707 0 -0.00064285864112017437 0.00062255851527473754 0 -0.00056601977747551774 0.00052670409326850156 0 -0.00053979640568381753 0.0002142663719489657 0 -0.00047465834190928385 0.00017577347292917691 0 -0.00044543951633978864 0.00047202079077043576 0 -0.00056674364261856728 9.2443245702701372e-05 0 -0.00053979640568381753 0.0002142663719489657 0 -0.00047465834190928385 0.00017577347292917691 0 -0.0004809190372149604 0.00046816133690691164 0 -0.00057158231407995373 0.00040016947667274676 0 -0.00060472458900164971 0.00044184588567964183 0 -0.00056674364261856728 9.2443245702701372e-05 0 -0.00047465834190928385 0.00017577347292917691 0 -0.00050096376115996112 -8.1443135475513877e-05 0 -0.00055764799263581565 0.00037930981489409603 0 -0.00062289597373790979 0.0002877849108584791 0 -0.0004809190372149604 0.00046816133690691164 0 -0.00056601977747551774 0.00052670409326850156 0 -0.00065386092900668606 0.00042287542025869462 0 -0.00064285864112017437 0.00062255851527473754 0 -0.00056601977747551774 0.00052670409326850156 0 -0.00065386092900668606 0.00042287542025869462 0 -0.0004882033166136874 0.00047433780271267679 0 -0.00062289597373790979 0.0002877849108584791 0 -0.00061897912766748159 0.00033031381768120621 0 -0.00062289597373790979 0.0002877849108584791 0 -0.00058087442837550022 -2.1405020456262375e-05 0 -0.00062300591278824184 -0.00011005557380045563 0 -0.00063236478090336102 1.4212204622517632e-05 0 -0.00056674364261856728 9.2443245702701372e-05 0 -0.00063236478090336102 1.4212204622517632e-05 0 -0.00078146146601102545 7.5505605473733748e-05 0 -0.00062289597373790979 0.0002877849108584791 0 -0.00070026440318645322 0.00012921970489828622 0 -0.00050096376115996112 -8.1443135475513877e-05 0 -0.00058087442837550022 -2.1405020456262375e-05 0 -0.00062300591278824184 -0.00011005557380045563 0 -0.00060565225502725911 0.00042209546111804771 0 -0.00060441091726629547 0.00043832592732379413 0 -0.00065762524550297364 0.00042519727481136072 0 -0.00056674364261856728 9.2443245702701372e-05 0 -0.00058087442837550022 -2.1405020456262375e-05 0 -0.00063236478090336102 1.4212204622517632e-05 0 -0.00056674364261856728 9.2443245702701372e-05 0 -0.00050096376115996112 -8.1443135475513877e-05 0 -0.00058087442837550022 -2.1405020456262375e-05 0 -0.00062300591278824184 -0.00011005557380045563 0 -0.00063236478090336102 1.4212204622517632e-05 0 -0.00078146146601102545 7.5505605473733748e-05 0 -0.00070026440318645322 0.00012921970489828622 0 -0.0008504145951304038 -0.00038437279998092082 0 -0.00090182263502605782 -0.00025447500735348852 0 -0.00079613778183070883 -0.00022811057986262367 0 -0.00086044513610111838 -0.00015417520629303067 0 -0.00090182263502605782 -0.00025447500735348852 0 -0.00086044513610111838 -0.00015417520629303067 0 -0.00098716643284883321 -0.00022452635241621051 0 -0.00089846346470345644 -0.0011325667428057453 0 -0.00097575586780500355 -0.0011783259435109634 0 -0.00095270579445122321 -0.0011327895776109178 0 -0.0008504145951304038 -0.00038437279998092082 0 -0.001007913364703561 -0.00070309717325246974 0 -0.00097575586780500355 -0.0011783259435109634 0 -0.00097996934064288523 -0.0011505584877658892 0 -0.00095270579445122321 -0.0011327895776109178 0 -0.0011124540812051742 -0.0013471314595996213 0 -0.00088478139094292849 -0.00026166052184821084 0 -0.0010003253642351093 -0.0011362275125569477 0 -0.00099605175193573131 -0.0011086843700404904 0 -0.00096777603446688534 -0.0011060783868175666 0 -0.0010003253642351093 -0.0011362275125569477 0 -0.00097996934064288523 -0.0011505584877658892 0 -0.00095270579445122321 -0.0011327895776109178 0 -0.0010003253642351093 -0.0011362275125569477 0 -0.00095270579445122321 -0.0011327895776109178 0 -0.00094522513100764826 -0.0010766018667206637 0 -0.00081737736257563194 5.39963889212835e-05 0 -0.00076966471861478669 0.00029910678213077897 0 -0.0010340633253397159 0.0003140402337781067 0 -0.0008504145951304038 -0.00038437279998092082 0 -0.00088478139094292849 -0.00026166052184821084 0 -0.00089846346470345644 -0.0011325667428057453 0 -0.00095270579445122321 -0.0011327895776109178 0 -0.00094522513100764826 -0.0010766018667206637 0 -0.00076966471861478669 0.00029910678213077897 0 -0.0010340633253397159 0.0003140402337781067 0 -0.00072881904906684587 0.00054624416308238612 0 -0.00074227028446249876 0.00093502884523245788 0 -0.00073268309425017107 0.0009943442090715889 0 -0.000687740001052117 0.00099346517740637585 0 -0.00088478139094292849 -0.00026166052184821084 0 -0.00066366317796263843 0.0008977529674891819 0 -0.00099605175193573131 -0.0011086843700404904 0 -0.00099124959402823744 -0.001080101009127393 0 -0.00096777603446688534 -0.0011060783868175666 0 -0.00077328768922162595 0.00098194079861893026 0 -0.00074227028446249876 0.00093502884523245788 0 -0.00073268309425017107 0.0009943442090715889 0 -0.00088913501416734285 -3.0683134497230943e-05 0 -0.00088478139094292849 -0.00026166052184821084 0 -0.00077328768922162595 0.00098194079861893026 0 -0.00074326147531385322 0.0010272871946376114 0 -0.00077397036398391345 0.0010329022022576042 0 -0.00077328768922162595 0.00098194079861893026 0 -0.00073268309425017107 0.0009943442090715889 0 -0.00074326147531385322 0.0010272871946376114 0 -0.00073268309425017107 0.0009943442090715889 0 -0.00071419644883384027 0.0010290339393256263 0 -0.000687740001052117 0.00099346517740637585 0 -0.00071419644883384027 0.0010290339393256263 0 -0.000687740001052117 0.00099346517740637585 0 -0.00068817641239518395 0.0010680511928099186 0 -0.00073268309425017107 0.0009943442090715889 0 -0.00071419644883384027 0.0010290339393256263 0 -0.00074326147531385322 0.0010272871946376114 0 -0.000687740001052117 0.00099346517740637585 0 -0.00064142182493976579 0.0010585000105850953 0 -0.00068817641239518395 0.0010680511928099186 0 -0.00066366317796263843 0.0008977529674891819 0 -0.00056972650238235013 0.00094729988653954053 0 -0.00072881904906684587 0.00054624416308238612 0 -0.00044543951633978864 0.00047202079077043576 0 -0.0004221258362685778 0.00077707266001292253 0 -0.00072881904906684587 0.00054624416308238612 0 -0.00062069815488648866 0.00038257274422178616 0 -0.00044543951633978864 0.00047202079077043576 0 -0.00053979640568381753 0.0002142663719489657 0 -0.00076966471861478669 0.00029910678213077897 0 -0.00062069815488648866 0.00038257274422178616 0 -0.00053979640568381753 0.0002142663719489657 0 -0.00062069815488648866 0.00038257274422178616 0 -0.00044543951633978864 0.00047202079077043576 0 -0.00076966471861478669 0.00029910678213077897 0 -0.00072881904906684587 0.00054624416308238612 0 -0.00062069815488648866 0.00038257274422178616 0 -0.00055764799263581565 0.00037930981489409603 0 -0.00053593686318795285 0.00066246345324188051 0 -0.00064285864112017437 0.00062255851527473754 0 -0.00052983784737621685 0.00072195504326200426 0 -0.00063158212587062707 0.00084676096228228869 0 -0.00053593686318795285 0.00066246345324188051 0 -0.00056972650238235013 0.00094729988653954053 0 -0.00045586498757848134 0.00095077508949434548 0 -0.00063158212587062707 0.00084676096228228869 0 -0.00061618311916672582 0.0010915491295903732 0 -0.00066296551762338768 0.0009256374935628194 0 -0.00056331514402026067 0.0011339038817470173 0 -0.00041104324752806645 0.0011379363577458861 0 -0.00056972650238235013 0.00094729988653954053 0 -0.00062170449111202339 0.0010877412768675447 0 -0.00056972650238235013 0.00094729988653954053 0 -0.00042191298073208911 0.0011910854135173314 0 -0.00064142182493976579 0.0010585000105850953 0 -0.00066281725473172964 0.0011031869117008866 0 -0.00064803203285577734 0.0011109704577588746 0 -0.00066281725473172964 0.0011031869117008866 0 -0.00064803203285577734 0.0011109704577588746 0 -0.00065132769649567368 0.0011270613408124375 0 -0.00066296551762338768 0.0009256374935628194 0 -0.00064803203285577734 0.0011109704577588746 0 -0.00056331514402026067 0.0011339038817470173 0 -0.00064803203285577734 0.0011109704577588746 0 -0.00065132769649567368 0.0011270613408124375 0 -0.00056331514402026067 0.0011339038817470173 0 -0.00065132769649567368 0.0011270613408124375 0 -0.00061777636117243875 0.0015312533404685039 0 -0.00045273000788855519 0.0013679776466978934 0 -0.00065132769649567368 0.0011270613408124375 0 -0.00066181153671032288 0.0011140609436013818 0 -0.00066008393616551599 0.0011176790773957956 0 -0.00065032636483949998 0.001143210432049798 0 -0.00063936583801063574 0.0013174263359095333 0 -0.00065132769649567368 0.0011270613408124375 0 -0.00056331514402026067 0.0011339038817470173 0 -0.00045273000788855519 0.0013679776466978934 0 -0.00066281725473172964 0.0011031869117008866 0 -0.00065132769649567368 0.0011270613408124375 0 -0.00066181153671032288 0.0011140609436013818 0 -0.00067706028116698601 0.0011003092803292109 0 -0.00069677147952825066 0.001091228101039366 0 -0.0006806134758158694 0.0011142834724722033 0 -0.00066181153671032288 0.0011140609436013818 0 -0.00067706028116698601 0.0011003092803292109 0 -0.0006806134758158694 0.0011142834724722033 0 -0.00066281725473172964 0.0011031869117008866 0 -0.00066181153671032288 0.0011140609436013818 0 -0.00067706028116698601 0.0011003092803292109 0 -0.00067706028116698601 0.0011003092803292109 0 -0.00068817641239518395 0.0010680511928099186 0 -0.00069677147952825066 0.001091228101039366 0 -0.00064142182493976579 0.0010585000105850953 0 -0.00066281725473172964 0.0011031869117008866 0 -0.00068817641239518395 0.0010680511928099186 0 -0.00066281725473172964 0.0011031869117008866 0 -0.00067706028116698601 0.0011003092803292109 0 -0.00068817641239518395 0.0010680511928099186 0 -0.00071419644883384027 0.0010290339393256263 0 -0.00068817641239518395 0.0010680511928099186 0 -0.00071582876456383938 0.0010618890141102962 0 -0.00071419644883384027 0.0010290339393256263 0 -0.00071582876456383938 0.0010618890141102962 0 -0.00074326147531385322 0.0010272871946376114 0 -0.00068817641239518395 0.0010680511928099186 0 -0.00071582876456383938 0.0010618890141102962 0 -0.00069677147952825066 0.001091228101039366 0 -0.00074326147531385322 0.0010272871946376114 0 -0.00074553292344573853 0.0010539477487892825 0 -0.00077397036398391345 0.0010329022022576042 0 -0.00071582876456383938 0.0010618890141102962 0 -0.00074326147531385322 0.0010272871946376114 0 -0.00074553292344573853 0.0010539477487892825 0 -0.00074553292344573853 0.0010539477487892825 0 -0.00077397036398391345 0.0010329022022576042 0 -0.00077795688671838774 0.0010661719309345615 0 -0.00072094121650256577 0.0010809349558501772 0 -0.00072690821066270078 0.0011081094131666037 0 -0.00074340040519227347 0.0010395210037831973 0 -0.00072094121650256577 0.0010809349558501772 0 -0.00074301585371598872 0.0010378665356914135 0 -0.00074340040519227347 0.0010395210037831973 0 -0.0007485459161651304 0.0010590807608479417 0 -0.00071038943489298151 0.0011423294020626788 0 -0.00074553292344573853 0.0010539477487892825 0 -0.00072094121650256577 0.0010809349558501772 0 -0.00077795688671838774 0.0010661719309345615 0 -0.00071582876456383938 0.0010618890141102962 0 -0.00069677147952825066 0.001091228101039366 0 -0.00072094121650256577 0.0010809349558501772 0 -0.00071582876456383938 0.0010618890141102962 0 -0.00074553292344573853 0.0010539477487892825 0 -0.00072094121650256577 0.0010809349558501772 0 -0.00069677147952825066 0.001091228101039366 0 -0.00072094121650256577 0.0010809349558501772 0 -0.00070036088123461005 0.0011122532514855497 0 -0.00070036088123461005 0.0011122532514855497 0 -0.00072690821066270078 0.0011081094131666037 0 -0.00069684284377747772 0.0011418671452252177 0 -0.00074092235223381696 0.0010480363024056589 0 -0.00075854410272661269 0.0010287840586759574 0 -0.00070036088123461005 0.0011122532514855497 0 -0.00069684284377747772 0.0011418671452252177 0 -0.00068307558431262487 0.0011270526005043729 0 -0.00072094121650256577 0.0010809349558501772 0 -0.00070036088123461005 0.0011122532514855497 0 -0.00072690821066270078 0.0011081094131666037 0 -0.00074092235223381696 0.0010480363024056589 0 -0.00074363497492794368 0.0010416667090254645 0 -0.0007716061359114378 0.00097733638275504281 0 -0.00074340040519227347 0.0010395210037831973 0 -0.00074430280760765118 0.00099042614542961972 0 -0.0007716061359114378 0.00097733638275504281 0 -0.00075169262855553877 0.0009681090492625027 0 -0.00076471398179312551 0.0009584402197345118 0 -0.0007716061359114378 0.00097733638275504281 0 -0.00075169262855553877 0.0009681090492625027 0 -0.00074430280760765118 0.00099042614542961972 0 -0.00076471398179312551 0.0009584402197345118 0 -0.0007436903579865269 0.00094555349469620448 0 -0.00077074373897168945 0.00095027715351441095 0 -0.00067209193013102536 0.00060803476102149184 0 -0.00050215161015028332 0.00066198856486734969 0 -0.00075169262855553877 0.0009681090492625027 0 -0.00076471398179312551 0.0009584402197345118 0 -0.0007436903579865269 0.00094555349469620448 0 -0.00076471398179312551 0.0009584402197345118 0 -0.000772960789174361 0.00095390472181135417 0 -0.00077074373897168945 0.00095027715351441095 0 -0.0007716061359114378 0.00097733638275504281 0 -0.00076471398179312551 0.0009584402197345118 0 -0.000772960789174361 0.00095390472181135417 0 -0.00069684284377747772 0.0011418671452252177 0 -0.00067390056824271705 0.0011421537149113941 0 -0.00067135509842440404 0.0011642966839067982 0 -0.00075854410272661269 0.0010287840586759574 0 -0.00059341445689202325 0.0011483944259561576 0 -0.00069684284377747772 0.0011418671452252177 0 -0.00067390056824271705 0.0011421537149113941 0 -0.00068307558431262487 0.0011270526005043729 0 -0.00067390056824271705 0.0011421537149113941 0 -0.0006683608589540535 0.0011259513538977785 0 -0.00068307558431262487 0.0011270526005043729 0 -0.00067390056824271705 0.0011421537149113941 0 -0.00065322805611495248 0.0011472218560341987 0 -0.00067135509842440404 0.0011642966839067982 0 -0.00054402869675410385 0.0018388784988699744 0 -0.00048978558065316418 0.0018377570643743372 0 -0.000460041379416353 0.0018039716186115595 0 -0.00054402869675410385 0.0018388784988699744 0 -0.00048978558065316418 0.0018377570643743372 0 -0.000450826547587344 0.0018780146149762129 0 -0.00054402869675410385 0.0018388784988699744 0 -0.000460041379416353 0.0018039716186115595 0 -0.00047699486063241425 0.0016706108112557593 0 -0.00067390056824271705 0.0011421537149113941 0 -0.00065322805611495248 0.0011472218560341987 0 -0.0006683608589540535 0.0011259513538977785 0 -0.00054402869675410385 0.0018388784988699744 0 -0.00061777636117243875 0.0015312533404685039 0 -0.00047699486063241425 0.0016706108112557593 0 -0.00054504520497722234 0.0014910995788087898 0 -0.00063936583801063574 0.0013174263359095333 0 -0.00065322805611495248 0.0011472218560341987 0 -0.00066008393616551599 0.0011176790773957956 0 -0.0006683608589540535 0.0011259513538977785 0 -0.00066181153671032288 0.0011140609436013818 0 -0.00066008393616551599 0.0011176790773957956 0 -0.0006683608589540535 0.0011259513538977785 0 -0.00066181153671032288 0.0011140609436013818 0 -0.0006683608589540535 0.0011259513538977785 0 -0.0006806134758158694 0.0011142834724722033 0 -0.00069677147952825066 0.001091228101039366 0 -0.00070036088123461005 0.0011122532514855497 0 -0.0006806134758158694 0.0011142834724722033 0 -0.00070036088123461005 0.0011122532514855497 0 -0.0006806134758158694 0.0011142834724722033 0 -0.00068307558431262487 0.0011270526005043729 0 -0.0006683608589540535 0.0011259513538977785 0 -0.0006806134758158694 0.0011142834724722033 0 -0.00068307558431262487 0.0011270526005043729 0 -0.00030802485329856847 -0.0037671433181797787 0 -0.00042815760533493818 -0.0029489235236628765 0 -0.00090810504434318253 -0.0013861576237552814 0 -0.00093031801824695556 -0.0013636355701862836 0 -0.00089782755678617524 -0.0013399509766937117 0 -0.0003920803289295314 -0.0031181710387554028 0 -0.00031324947135192335 -0.0029466707143484439 0 -0.00034839007502896743 -0.0031104563730465825 0 -0.00042815760533493818 -0.0029489235236628765 0 -0.00067519951780706136 -0.0022423993872061967 0 -0.00093031801824695556 -0.0013636355701862836 0 -0.00089782755678617524 -0.0013399509766937117 0 -0.00094797767322825843 -0.0013363475614643222 0 -0.00090810504434318253 -0.0013861576237552814 0 -0.00093031801824695556 -0.0013636355701862836 0 -0.00093291198001554899 -0.0013926248847629444 0 -0.0010885792439217124 -0.0010721752878449205 0 -0.0011091798385594526 -0.0010507552826228596 0 -0.0010754401068494603 -0.0010372337573694003 0 -0.00067519951780706136 -0.0022423993872061967 0 -0.0010909122447623409 -0.0011990668519444164 0 -0.0010885792439217124 -0.0010721752878449205 0 -0.0010754401068494603 -0.0010372337573694003 0 -0.0010533980024310622 -0.0010603195273173804 0 -0.0010754401068494603 -0.0010372337573694003 0 -0.0010533980024310622 -0.0010603195273173804 0 -0.0010406805375931623 -0.0010240523458824439 0 -0.00094797767322825843 -0.0013363475614643222 0 -0.00096889102321391315 -0.0013781551463808532 0 -0.0010016772178432715 -0.0013329207923309589 0 -0.00083653691489621188 -0.00016769009304353134 0 -0.00087794729001485351 -6.1090813514419768e-05 0 -0.0010909122447623409 -0.0011990668519444164 0 -0.00087794729001485351 -6.1090813514419768e-05 0 -0.00093031801824695556 -0.0013636355701862836 0 -0.00094797767322825843 -0.0013363475614643222 0 -0.00096889102321391315 -0.0013781551463808532 0 -0.00093031801824695556 -0.0013636355701862836 0 -0.00096889102321391315 -0.0013781551463808532 0 -0.00093291198001554899 -0.0013926248847629444 0 -0.00068251797444779914 0.0010039754065730366 0 -0.00070398776629027558 0.0010113992354793774 0 -0.00068347526758284999 0.0010338204575496622 0 -0.00065509628362558209 0.0009956679659520126 0 -0.00068251797444779914 0.0010039754065730366 0 -0.00068347526758284999 0.0010338204575496622 0 -0.00068251797444779914 0.0010039754065730366 0 -0.00070398776629027558 0.0010113992354793774 0 -0.00069839763669339225 0.00098474822322499786 0 -0.00070398776629027558 0.0010113992354793774 0 -0.00068347526758284999 0.0010338204575496622 0 -0.00072183541067418855 0.0010253002388293259 0 -0.0010533980024310622 -0.0010603195273173804 0 -0.0010406805375931623 -0.0010240523458824439 0 -0.0010157086929041849 -0.001052751354690257 0 -0.00082719446929345138 0.0010451495071520703 0 -0.0007955373575546439 0.0010411673296829148 0 -0.00079868351546274043 0.0010171191517522546 0 -0.00087794729001485351 -6.1090813514419768e-05 0 -0.00091627023387108044 -7.8720903205855751e-06 0 -0.0007955373575546439 0.0010411673296829148 0 -0.00079868351546274043 0.0010171191517522546 0 -0.00077397036398391345 0.0010329022022576042 0 -0.0007955373575546439 0.0010411673296829148 0 -0.00077397036398391345 0.0010329022022576042 0 -0.00077795688671838774 0.0010661719309345615 0 -0.00087794729001485351 -6.1090813514419768e-05 0 -0.00071038943489298151 0.0011423294020626788 0 -0.00082719446929345138 0.0010451495071520703 0 -0.0007955373575546439 0.0010411673296829148 0 -0.00077795688671838774 0.0010661719309345615 0 -0.00074301585371598872 0.0010378665356914135 0 -0.00072183541067418855 0.0010253002388293259 0 -0.00074340040519227347 0.0010395210037831973 0 -0.00068347526758284999 0.0010338204575496622 0 -0.00074301585371598872 0.0010378665356914135 0 -0.00072183541067418855 0.0010253002388293259 0 -0.00070398776629027558 0.0010113992354793774 0 -0.00072183541067418855 0.0010253002388293259 0 -0.00072162173874630163 0.0010029110011193693 0 -0.00072183541067418855 0.0010253002388293259 0 -0.00074340040519227347 0.0010395210037831973 0 -0.00072162173874630163 0.0010029110011193693 0 -0.00074340040519227347 0.0010395210037831973 0 -0.00074430280760765118 0.00099042614542961972 0 -0.00072162173874630163 0.0010029110011193693 0 -0.00074430280760765118 0.00099042614542961972 0 -0.00072162173874630163 0.0010029110011193693 0 -0.00072678263693159756 0.00097312258892346098 0 -0.00072162173874630163 0.0010029110011193693 0 -0.00072678263693159756 0.00097312258892346098 0 -0.00069839763669339225 0.00098474822322499786 0 -0.00075169262855553877 0.0009681090492625027 0 -0.00074430280760765118 0.00099042614542961972 0 -0.00072678263693159756 0.00097312258892346098 0 -0.00075169262855553877 0.0009681090492625027 0 -0.00072678263693159756 0.00097312258892346098 0 -0.0007436903579865269 0.00094555349469620448 0 -0.00067209193013102536 0.00060803476102149184 0 -0.00078021069582664211 0.00067422376154428027 0 -0.00072678263693159756 0.00097312258892346098 0 -0.0007436903579865269 0.00094555349469620448 0 -0.0006885407220410942 0.00094976414657922182 0 -0.00059171713019950988 0.00029035998979241525 0 -0.00089080535832809381 0.0001822463180325165 0 -0.00084121924997881167 0.00041946289973332366 0 -0.00089080535832809381 0.0001822463180325165 0 -0.0011246397473794621 0.0003196303116885227 0 -0.00084121924997881167 0.00041946289973332366 0 -0.0006885407220410942 0.00094976414657922182 0 -0.00069839763669339225 0.00098474822322499786 0 -0.00067090812329737124 0.00097739597272438828 0 -0.00072678263693159756 0.00097312258892346098 0 -0.0006885407220410942 0.00094976414657922182 0 -0.00069839763669339225 0.00098474822322499786 0 -0.00070398776629027558 0.0010113992354793774 0 -0.00072162173874630163 0.0010029110011193693 0 -0.00069839763669339225 0.00098474822322499786 0 -0.00068251797444779914 0.0010039754065730366 0 -0.00069839763669339225 0.00098474822322499786 0 -0.00067090812329737124 0.00097739597272438828 0 -0.00078021069582664211 0.00067422376154428027 0 -0.00075151383026275307 -0.00060248723114506638 0 -0.0006885407220410942 0.00094976414657922182 0 -0.00067090812329737124 0.00097739597272438828 0 -0.00062820909942104422 0.000953375308426073 0 -0.00065509628362558209 0.0009956679659520126 0 -0.00067090812329737124 0.00097739597272438828 0 -0.00062820909942104422 0.000953375308426073 0 -0.00065509628362558209 0.0009956679659520126 0 -0.00068251797444779914 0.0010039754065730366 0 -0.00067090812329737124 0.00097739597272438828 0 -0.00096889102321391315 -0.0013781551463808532 0 -0.00093605933293904563 -0.0014190423272155822 0 -0.00093291198001554899 -0.0013926248847629444 0 -0.00083653691489621188 -0.00016769009304353134 0 -0.00075151383026275307 -0.00060248723114506638 0 -0.001095577238305515 0.00018291874358132614 0 -0.001215641469967704 0.00010937329781264322 0 -0.0011819832687258133 6.9919613031013531e-05 0 -0.00089080535832809381 0.0001822463180325165 0 -0.001095577238305515 0.00018291874358132614 0 -0.0011819832687258133 6.9919613031013531e-05 0 -0.00089080535832809381 0.0001822463180325165 0 -0.0011246397473794621 0.0003196303116885227 0 -0.001095577238305515 0.00018291874358132614 0 -0.00074055500582293019 -0.00058151165285707965 0 -0.00056988160710660018 -0.0012964010904302319 0 -0.0011246397473794621 0.0003196303116885227 0 -0.001095577238305515 0.00018291874358132614 0 -0.001215641469967704 0.00010937329781264322 0 -0.00014007361053760533 -0.0029345737297237274 0 -0.00014761803357262541 -0.0029724260342637756 0 -0.00011478694378434594 -0.0029654617711720121 0 -0.00067784773663987006 -0.0017905119659539779 0 -0.00060654574424210501 -0.0014500053876124442 0 -0.00055976630122986219 -0.0019319567688794307 0 -0.00029895320918814881 -0.0013577870458651451 0 -0.00060654574424210501 -0.0014500053876124442 0 -0.00055976630122986219 -0.0019319567688794307 0 -0.00012213521416422492 -0.0027547762853458719 0 -0.00015062062884715986 -0.0022368232911229393 0 -0.00012213521416422492 -0.0027547762853458719 0 -0.00056988160710660018 -0.0012964010904302319 0 -0.00074055500582293019 -0.00058151165285707965 0 -0.00015062062884715986 -0.0022368232911229393 0 0.00020850592936298048 -0.0030684938824197122 0 0.00024854689386967483 -0.0030591425552071003 0 0.00024489707323903755 -0.0031380376145510027 0 -0.00015062062884715986 -0.0022368232911229393 0 0.00013995429116050209 -0.0037734438311870819 0 0.00025267307113531885 -0.0043507827621986064 0 0.00018785281216536747 -0.0042743993330691251 0 0.00015649842505493638 -0.0044039748124362326 0 -0.00012213521416422492 -0.0027547762853458719 0 0.00013995429116050209 -0.0037734438311870819 0 0.00025267307113531885 -0.0043507827621986064 0 0.00015649842505493638 -0.0044039748124362326 0 0.00023028414429511606 -0.0044575422324954457 0 0.00014777707235945171 -0.0044903342723956949 0 0.00015649842505493638 -0.0044039748124362326 0 0.00023028414429511606 -0.0044575422324954457 0 -0.00023296330446177013 -0.002082618111582214 0 -0.00012668878787661444 -0.0022104917115630084 0 -0.00019704521616865694 -0.0023634050966388387 0 -0.00012213521416422492 -0.0027547762853458719 0 -0.0003024470925560626 -0.003046347732078512 0 -0.00023296330446177013 -0.002082618111582214 0 -0.00030091861107859621 -0.0023985586217937518 0 -0.00019704521616865694 -0.0023634050966388387 0 -0.00056988160710660018 -0.0012964010904302319 0 -0.00075151383026275307 -0.00060248723114506638 0 -0.00045290088818683349 -0.0011204583174510116 0 -0.00034791123266347221 -0.0012465785565448514 0 -0.00054026704193628624 -0.0013116028890866258 0 -0.00075151383026275307 -0.00060248723114506638 0 -0.00052551411567262408 -0.0019191421550984024 0 -0.00056988160710660018 -0.0012964010904302319 0 -0.00052551411567262408 -0.0019191421550984024 0 -0.0003024470925560626 -0.003046347732078512 0 -0.00052551411567262408 -0.0019191421550984024 0 -0.00042815760533493818 -0.0029489235236628765 0 -0.00052551411567262408 -0.0019191421550984024 0 -0.00093605933293904563 -0.0014190423272155822 0 -0.00092235360426301712 -0.0014161656460944623 0 -0.00093291198001554899 -0.0013926248847629444 0 -0.00063422801814536241 -0.0028660821460570439 0 -0.00055109162268263795 -0.0024688379835513096 0 -0.00043533373617846263 -0.0024300643760576724 0 -0.00090810504434318253 -0.0013861576237552814 0 -0.00092235360426301712 -0.0014161656460944623 0 -0.00093291198001554899 -0.0013926248847629444 0 0.00014777707235945171 -0.0044903342723956949 0 0.00021600763885165758 -0.0045891510733696824 0 0.00024326397995534118 -0.0044513720872199434 0 -0.00042815760533493818 -0.0029489235236628765 0 -0.0003024470925560626 -0.003046347732078512 0 0.00014777707235945171 -0.0044903342723956949 0 9.4174742270355935e-05 -0.0045433338172086316 0 0.00021600763885165758 -0.0045891510733696824 0 -8.3976159755908274e-05 -0.0036857244690641001 0 -0.0003024470925560626 -0.003046347732078512 0 0.00022534694000778409 -0.0032159909438949463 0 0.00018987255130808491 -0.0031830898825629078 0 0.00021330904068670481 -0.0032416496832023034 0 0.00022534694000778409 -0.0032159909438949463 0 0.00024489707323903755 -0.0031380376145510027 0 0.00018987255130808491 -0.0031830898825629078 0 0.00030703418840427545 -0.003210166427745958 0 0.00022534694000778409 -0.0032159909438949463 0 0.00024489707323903755 -0.0031380376145510027 0 -0.00015062062884715986 -0.0022368232911229393 0 -1.2472905725630672e-05 -0.0022766827777067422 0 0.00020850592936298048 -0.0030684938824197122 0 0.00024489707323903755 -0.0031380376145510027 0 0.00018987255130808491 -0.0031830898825629078 0 -0.00074055500582293019 -0.00058151165285707965 0 -0.00068774148258278738 -0.00036281643022023603 0 -0.00024769606600940074 -0.0014003959192285501 0 -0.00024935171834030752 -0.0014041544023201112 0 -0.00024569293280569352 -0.0013987663504994902 0 -0.00074055500582293019 -0.00058151165285707965 0 -0.00093710862229319015 0.00048345269387349674 0 -0.00024769606600940074 -0.0014003959192285501 0 -0.00024832674613412843 -0.0013932612845059082 0 -0.00024569293280569352 -0.0013987663504994902 0 -0.0012865255955885383 0.00029335355515518056 0 -0.001099985109910808 0.00071833791692799435 0 -0.00091651850602090113 0.00041287611776700015 0 -1.2472905725630672e-05 -0.0022766827777067422 0 -5.3656864608735121e-05 -0.0023840943507534729 0 -0.00024832674613412843 -0.0013932612845059082 0 -0.00024569293280569352 -0.0013987663504994902 0 -0.00023981034501732436 -0.0014085263418719773 0 0.00018987255130808491 -0.0031830898825629078 0 0.00018348050161709617 -0.0032571706066115351 0 0.00021330904068670481 -0.0032416496832023034 0 -0.001099985109910808 0.00071833791692799435 0 -0.00091651850602090113 0.00041287611776700015 0 -0.00077562440838779118 0.00070677452391700089 0 -0.001099985109910808 0.00071833791692799435 0 -0.00086821698547370112 0.00086971506201975757 0 -0.00077562440838779118 0.00070677452391700089 0 -0.00091651850602090113 0.00041287611776700015 0 -0.00077562440838779118 0.00070677452391700089 0 -0.0005457883303605749 0.00053159862377660078 0 -0.00059171713019950988 0.00029035998979241525 0 -0.00084121924997881167 0.00041946289973332366 0 -0.0005457883303605749 0.00053159862377660078 0 -0.00093710862229319015 0.00048345269387349674 0 -0.00054870536304501465 0.0005128622277984279 0 -0.00077562440838779118 0.00070677452391700089 0 -0.0005457883303605749 0.00053159862377660078 0 -0.00052221341449022643 0.00084944396541332531 0 -0.00086821698547370112 0.00086971506201975757 0 -0.00077562440838779118 0.00070677452391700089 0 -0.00071668393342561845 0.00088885464953238503 0 -0.00077562440838779118 0.00070677452391700089 0 -0.00071668393342561845 0.00088885464953238503 0 -0.00052221341449022643 0.00084944396541332531 0 -0.00063277384274447554 0.001019491263272431 0 -0.00058232584538642869 0.0011798203114208186 0 -0.00052221341449022643 0.00084944396541332531 0 -0.00063277384274447554 0.001019491263272431 0 -0.00071668393342561845 0.00088885464953238503 0 -0.00052221341449022643 0.00084944396541332531 0 -0.00086821698547370112 0.00086971506201975757 0 -0.00071668393342561845 0.00088885464953238503 0 -0.0007751588409860439 0.0010096424096956058 0 -0.00063277384274447554 0.001019491263272431 0 -0.00071668393342561845 0.00088885464953238503 0 -0.0007751588409860439 0.0010096424096956058 0 -0.0007751588409860439 0.0010096424096956058 0 -0.00072211449321421344 0.0011299779810967838 0 -0.00087933721120650758 0.0011295096848725908 0 -0.00063277384274447554 0.001019491263272431 0 -0.0007751588409860439 0.0010096424096956058 0 -0.00072211449321421344 0.0011299779810967838 0 -0.00063277384274447554 0.001019491263272431 0 -0.00072211449321421344 0.0011299779810967838 0 -0.00064427144383036111 0.001123197870463725 0 -0.00072211449321421344 0.0011299779810967838 0 -0.00064427144383036111 0.001123197870463725 0 -0.00064181729070198433 0.0011603258602269106 0 -0.00063277384274447554 0.001019491263272431 0 -0.00064427144383036111 0.001123197870463725 0 -0.00058232584538642869 0.0011798203114208186 0 -0.00064427144383036111 0.001123197870463725 0 -0.00058232584538642869 0.0011798203114208186 0 -0.00064181729070198433 0.0011603258602269106 0 -0.00064181729070198433 0.0011603258602269106 0 -0.00058777723252841194 0.0011973745719538948 0 -0.00077597880085383949 0.001330499343470216 0 -0.00058232584538642869 0.0011798203114208186 0 -0.00064181729070198433 0.0011603258602269106 0 -0.00058777723252841194 0.0011973745719538948 0 -0.00035020017004784077 0.00058501297004014325 0 -0.00028253061140980312 0.00055220040428965685 0 -0.00033950173587316251 0.00053483833685248822 0 -0.00061729214591422035 0.0011117380147049559 0 -0.00023804422715168524 1.5004837365948683e-05 0 -0.00036142152686933143 0.00061331386783716854 0 -0.00035020017004784077 0.00058501297004014325 0 -0.00028253061140980312 0.00055220040428965685 0 -0.00072211449321421344 0.0011299779810967838 0 -0.00077597880085383949 0.001330499343470216 0 -0.00087933721120650758 0.0011295096848725908 0 -0.00072211449321421344 0.0011299779810967838 0 -0.00064181729070198433 0.0011603258602269106 0 -0.00077597880085383949 0.001330499343470216 0 -0.00053873386728585501 6.5457144781814828e-06 0 0.00017092666558649375 -0.0021540212088711859 0 -0.0005968680990762617 -0.00092994650888725131 0 -0.00030966596370630517 -0.00029991615796882016 0 0.00040392847446757792 -0.0010156619214745784 0 -0.00023804422715168524 1.5004837365948683e-05 0 -0.00053873386728585501 6.5457144781814828e-06 0 -0.00068774148258278738 -0.00036281643022023603 0 -0.00053873386728585501 6.5457144781814828e-06 0 -0.00086821698547370112 0.00086971506201975757 0 -0.0007751588409860439 0.0010096424096956058 0 -0.00090826855860773065 0.0011353329399863177 0 -0.001099985109910808 0.00071833791692799435 0 -0.00086821698547370112 0.00086971506201975757 0 -0.00090826855860773065 0.0011353329399863177 0 -0.0010363916535706427 0.0010185606925118941 0 -0.00053873386728585501 6.5457144781814828e-06 0 -0.00024832674613412843 -0.0013932612845059082 0 -0.00025930800902694768 -0.0014060323710293374 0 -0.00023981034501732436 -0.0014085263418719773 0 0.00018348050161709617 -0.0032571706066115351 0 0.00021419732928977761 -0.0032789041548843406 0 0.00017087561556922414 -0.0033164782859019535 0 -5.3656864608735121e-05 -0.0023840943507534729 0 0.00017092666558649375 -0.0021540212088711859 0 -0.00025930800902694768 -0.0014060323710293374 0 -0.00023981034501732436 -0.0014085263418719773 0 -0.00023945972821111974 -0.0014348158759553112 0 0.00024093496465542652 -0.0033090967652873657 0 0.00021419732928977761 -0.0032789041548843406 0 0.00017087561556922414 -0.0033164782859019535 0 0.00024093496465542652 -0.0033090967652873657 0 0.00021419732928977761 -0.0032789041548843406 0 0.00024367248118382549 -0.0032611433564373351 0 0.00021419732928977761 -0.0032789041548843406 0 0.00024367248118382549 -0.0032611433564373351 0 0.00021330904068670481 -0.0032416496832023034 0 0.00018348050161709617 -0.0032571706066115351 0 0.00021419732928977761 -0.0032789041548843406 0 0.00021330904068670481 -0.0032416496832023034 0 0.00022534694000778409 -0.0032159909438949463 0 0.00024367248118382549 -0.0032611433564373351 0 0.00021330904068670481 -0.0032416496832023034 0 -0.00040938966362390379 0.0011724030346493234 0 -0.00038016375650870549 0.0010896967972359806 0 -0.00048970871363882918 0.0011903614514311535 0 -0.00038854366991442345 0.00091693186659184836 0 -0.00030579734051594358 0.00097632851812908526 0 -0.00037167646029791435 0.0011477976628582551 0 -0.00040938966362390379 0.0011724030346493234 0 -0.00038016375650870549 0.0010896967972359806 0 -0.00037167646029791435 0.0011477976628582551 0 -0.00033541595510570876 0.0011409046466271768 0 -0.00035611847230767289 0.0011183366880032244 0 -0.00040938966362390379 0.0011724030346493234 0 -0.00038409930585320555 0.0011924884486644463 0 -0.00042099761171397141 0.0012358895916360364 0 -0.00037167646029791435 0.0011477976628582551 0 -0.00038409930585320555 0.0011924884486644463 0 -0.00033823521774486222 0.0011835775326032262 0 -0.00037167646029791435 0.0011477976628582551 0 -0.00040938966362390379 0.0011724030346493234 0 -0.00038409930585320555 0.0011924884486644463 0 -0.00038409930585320555 0.0011924884486644463 0 -0.00033823521774486222 0.0011835775326032262 0 -0.00035426867696860539 0.0012262496967325961 0 -0.00028216094309076634 0.0011552239881285828 0 -0.00031104164221363711 0.0011614976464648489 0 -0.00027685757792093423 0.001252064467641655 0 -0.00029688200436534575 0.00161321328767098 0 -0.00028819949913621787 0.0011008493405208826 0 -0.00033823521774486222 0.0011835775326032262 0 -0.00031104164221363711 0.0011614976464648489 0 -0.00027685757792093423 0.001252064467641655 0 -0.00028216094309076634 0.0011552239881285828 0 -0.00030078039587814044 0.0011366396430482664 0 -0.00031104164221363711 0.0011614976464648489 0 -0.00028945638986385599 0.001620426779699791 0 -0.0003458247603081186 0.001560156676155761 0 -0.00029698032554158199 0.0015053608610283047 0 -0.00029688200436534575 0.00161321328767098 0 -0.00036617051626790492 0.0014394369084095066 0 -0.00029688200436534575 0.00161321328767098 0 -0.00038955156273135969 0.0017763756253816863 0 -0.00037167646029791435 0.0011477976628582551 0 -0.00033823521774486222 0.0011835775326032262 0 -0.00033541595510570876 0.0011409046466271768 0 -0.00033823521774486222 0.0011835775326032262 0 -0.00031104164221363711 0.0011614976464648489 0 -0.00033541595510570876 0.0011409046466271768 0 -0.00030078039587814044 0.0011366396430482664 0 -0.00031104164221363711 0.0011614976464648489 0 -0.00033541595510570876 0.0011409046466271768 0 -0.00030078039587814044 0.0011366396430482664 0 -0.00033541595510570876 0.0011409046466271768 0 -0.00033065502822973589 0.0011058192909903434 0 -0.00033541595510570876 0.0011409046466271768 0 -0.00033065502822973589 0.0011058192909903434 0 -0.00035611847230767289 0.0011183366880032244 0 -0.00048975944624360542 0.0014124835411223238 0 -0.00051938594895890085 0.0014900674504234001 0 -0.00054756326663834513 0.0014637897511745248 0 -0.00048975944624360542 0.0014124835411223238 0 -0.00051938594895890085 0.0014900674504234001 0 -0.00048318662880076198 0.0015027805084437146 0 -0.00054504520497722234 0.0014910995788087898 0 -0.00038955156273135969 0.0017763756253816863 0 -0.00054402869675410385 0.0018388784988699744 0 -0.00048871992829745874 0.0020657801443897364 0 -0.000450826547587344 0.0018780146149762129 0 -0.00036617051626790492 0.0014394369084095066 0 -0.00043792506094685149 0.0013276308986925789 0 -0.00043792506094685149 0.0013276308986925789 0 -0.00059341445689202325 0.0011483944259561576 0 -0.0003458247603081186 0.001560156676155761 0 -0.00044183063181260141 0.0014570374162386373 0 -0.00029698032554158199 0.0015053608610283047 0 -0.00043792506094685149 0.0013276308986925789 0 -0.00038955156273135969 0.0017763756253816863 0 -0.00054504520497722234 0.0014910995788087898 0 -0.00059341445689202325 0.0011483944259561576 0 -0.000772960789174361 0.00095390472181135417 0 -0.00076398638521504956 0.00095581845990856532 0 -0.00076510446759700361 0.00095629759186428029 0 -0.00059341445689202325 0.0011483944259561576 0 -0.00038854366991442345 0.00091693186659184836 0 -0.00043792506094685149 0.0013276308986925789 0 -0.00038854366991442345 0.00091693186659184836 0 -0.00037167646029791435 0.0011477976628582551 0 -0.00038016375650870549 0.0010896967972359806 0 -0.00035611847230767289 0.0011183366880032244 0 -0.00033065502822973589 0.0011058192909903434 0 -0.00038016375650870549 0.0010896967972359806 0 -0.00035611847230767289 0.0011183366880032244 0 -0.00040108797744258532 0.0011805300525286173 0 -0.00052577526370250691 0.0010654784911360866 0 -0.00058484199954961962 0.0011185650624285107 0 -0.00038854366991442345 0.00091693186659184836 0 -0.00050215161015028332 0.00066198856486734969 0 0.00010042306531753817 0.00052281271995040658 0 -0.00024772856268334405 0.00040320011523894614 0 -0.00017437647401484551 0.00058733271626434664 0 -0.000772960789174361 0.00095390472181135417 0 -0.00076510446759700361 0.00095629759186428029 0 -0.00077074373897168945 0.00095027715351441095 0 -0.00024772856268334405 0.00040320011523894614 0 -0.00017437647401484551 0.00058733271626434664 0 -0.00034528906352652945 0.00060269420963435336 0 -0.00059171713019950988 0.00029035998979241525 0 -0.00043353142428643354 0.00045520778668142487 0 -0.0005457883303605749 0.00053159862377660078 0 -0.00059171713019950988 0.00029035998979241525 0 -0.00024772856268334405 0.00040320011523894614 0 -0.00043353142428643354 0.00045520778668142487 0 -0.00024772856268334405 0.00040320011523894614 0 -0.00043353142428643354 0.00045520778668142487 0 -0.00034528906352652945 0.00060269420963435336 0 -0.00043353142428643354 0.00045520778668142487 0 -0.00034528906352652945 0.00060269420963435336 0 -0.0005457883303605749 0.00053159862377660078 0 -0.00034528906352652945 0.00060269420963435336 0 -0.00052221341449022643 0.00084944396541332531 0 -0.00021778009642279452 0.00082615094184748672 0 -0.00034528906352652945 0.00060269420963435336 0 -0.0005457883303605749 0.00053159862377660078 0 -0.00052221341449022643 0.00084944396541332531 0 0.00010042306531753817 0.00052281271995040658 0 -0.00017437647401484551 0.00058733271626434664 0 -0.00021778009642279452 0.00082615094184748672 0 -0.00017437647401484551 0.00058733271626434664 0 -0.00034528906352652945 0.00060269420963435336 0 -0.00021778009642279452 0.00082615094184748672 0 -0.00040938966362390379 0.0011724030346493234 0 -0.00048970871363882918 0.0011903614514311535 0 -0.00042099761171397141 0.0012358895916360364 0 -0.00048970871363882918 0.0011903614514311535 0 -0.00046988518373408629 0.0012498624979286098 0 -0.00042099761171397141 0.0012358895916360364 0 -0.00048970871363882918 0.0011903614514311535 0 -0.00046988518373408629 0.0012498624979286098 0 -0.00053558496894334979 0.0012005927742949906 0 -0.00046988518373408629 0.0012498624979286098 0 -0.00053558496894334979 0.0012005927742949906 0 -0.00051577877610510861 0.0013056199896296723 0 -0.00058232584538642869 0.0011798203114208186 0 -0.00048970871363882918 0.0011903614514311535 0 -0.00053558496894334979 0.0012005927742949906 0 -0.00059423221002411885 0.0011929644256272955 0 -0.00030579734051594358 0.00097632851812908526 0 -0.00058232584538642869 0.0011798203114208186 0 -0.00052221341449022643 0.00084944396541332531 0 -0.00021778009642279452 0.00082615094184748672 0 -0.00058232584538642869 0.0011798203114208186 0 -0.00058777723252841194 0.0011973745719538948 0 -0.00053558496894334979 0.0012005927742949906 0 -0.00061729214591422035 0.0011117380147049559 0 -0.00056677770009495811 0.0012107474330125413 0 -0.00036142152686933143 0.00061331386783716854 0 -0.00035020017004784077 0.00058501297004014325 0 -0.00038577442616183723 0.00046730163622766218 0 -0.00062700124099248754 0.0012931537173720303 0 -0.00053558496894334979 0.0012005927742949906 0 -0.0005693402049720762 0.0013068891357009044 0 -0.00053558496894334979 0.0012005927742949906 0 -0.0005693402049720762 0.0013068891357009044 0 -0.00051577877610510861 0.0013056199896296723 0 -0.0005693402049720762 0.0013068891357009044 0 -0.00053839454182498536 0.0013537949975882574 0 -0.00051577877610510861 0.0013056199896296723 0 -0.0005693402049720762 0.0013068891357009044 0 -0.00053839454182498536 0.0013537949975882574 0 -0.00057971391390507741 0.001354419589256975 0 -0.00062700124099248754 0.0012931537173720303 0 -0.0005693402049720762 0.0013068891357009044 0 -0.00057971391390507741 0.001354419589256975 0 -0.00046988518373408629 0.0012498624979286098 0 -0.00044664695912329303 0.0013225381847447569 0 -0.00040799406867380201 0.0012903993303092147 0 -0.00046988518373408629 0.0012498624979286098 0 -0.00044664695912329303 0.0013225381847447569 0 -0.00051577877610510861 0.0013056199896296723 0 -0.00044664695912329303 0.0013225381847447569 0 -0.00051577877610510861 0.0013056199896296723 0 -0.00047320512551298139 0.0013649144977010295 0 -0.00053839454182498536 0.0013537949975882574 0 -0.00051577877610510861 0.0013056199896296723 0 -0.00047320512551298139 0.0013649144977010295 0 -0.00044664695912329303 0.0013225381847447569 0 -0.00047320512551298139 0.0013649144977010295 0 -0.00041638254905312743 0.00138454505453879 0 -0.00044664695912329303 0.0013225381847447569 0 -0.00039905779229323327 0.0013400697333047469 0 -0.00041638254905312743 0.00138454505453879 0 -0.00039905779229323327 0.0013400697333047469 0 -0.00035830908228827652 0.0013798130903880325 0 -0.00035730900241695432 0.001324182377797023 0 -0.00039905779229323327 0.0013400697333047469 0 -0.00035830908228827652 0.0013798130903880325 0 -0.00041638254905312743 0.00138454505453879 0 -0.00035730900241695432 0.001324182377797023 0 -0.00040799406867380201 0.0012903993303092147 0 -0.00035394874606336141 0.0012716390744210446 0 -0.00039905779229323327 0.0013400697333047469 0 -0.00035730900241695432 0.001324182377797023 0 -0.00040799406867380201 0.0012903993303092147 0 -0.00044664695912329303 0.0013225381847447569 0 -0.00039905779229323327 0.0013400697333047469 0 -0.00040799406867380201 0.0012903993303092147 0 -0.00046988518373408629 0.0012498624979286098 0 -0.00040799406867380201 0.0012903993303092147 0 -0.00042099761171397141 0.0012358895916360364 0 -0.00040799406867380201 0.0012903993303092147 0 -0.00035394874606336141 0.0012716390744210446 0 -0.00042099761171397141 0.0012358895916360364 0 -0.00038409930585320555 0.0011924884486644463 0 -0.00035426867696860539 0.0012262496967325961 0 -0.00042099761171397141 0.0012358895916360364 0 -0.00035394874606336141 0.0012716390744210446 0 -0.00035426867696860539 0.0012262496967325961 0 -0.00042099761171397141 0.0012358895916360364 0 -0.00035394874606336141 0.0012716390744210446 0 -0.00035426867696860539 0.0012262496967325961 0 -0.00027685757792093423 0.001252064467641655 0 -0.00033823521774486222 0.0011835775326032262 0 -0.00035426867696860539 0.0012262496967325961 0 -0.00027685757792093423 0.001252064467641655 0 -0.00035394874606336141 0.0012716390744210446 0 -0.00027685757792093423 0.001252064467641655 0 -0.0003018592166955283 0.001313024201547115 0 -0.00027685757792093423 0.001252064467641655 0 -0.0003018592166955283 0.001313024201547115 0 -0.00024388931581917361 0.0013244495210977961 0 -0.0003018592166955283 0.001313024201547115 0 -0.00026774849806283436 0.001365562849352852 0 -0.00024388931581917361 0.0013244495210977961 0 -0.0003018592166955283 0.001313024201547115 0 -0.00031460763069064522 0.0013604483807279388 0 -0.00026774849806283436 0.001365562849352852 0 -0.00035730900241695432 0.001324182377797023 0 -0.00035394874606336141 0.0012716390744210446 0 -0.0003018592166955283 0.001313024201547115 0 -0.00035730900241695432 0.001324182377797023 0 -0.0003018592166955283 0.001313024201547115 0 -0.00031460763069064522 0.0013604483807279388 0 -0.00035830908228827652 0.0013798130903880325 0 -0.00031460763069064522 0.0013604483807279388 0 -0.00029494228052570257 0.0014294488192972948 0 -0.00035830908228827652 0.0013798130903880325 0 -0.00035730900241695432 0.001324182377797023 0 -0.00031460763069064522 0.0013604483807279388 0 -0.00031460763069064522 0.0013604483807279388 0 -0.00026774849806283436 0.001365562849352852 0 -0.00029494228052570257 0.0014294488192972948 0 -0.00026774849806283436 0.001365562849352852 0 -0.00021939297613021767 0.0013618344581609741 0 -0.00023471348540569776 0.001411585374196684 0 -0.00026774849806283436 0.001365562849352852 0 -0.00024388931581917361 0.0013244495210977961 0 -0.00021939297613021767 0.0013618344581609741 0 -0.00024388931581917361 0.0013244495210977961 0 -0.00021317900444763857 0.0013202949895637552 0 -0.00023159388446885039 0.00129116884505965 0 -0.00021317900444763857 0.0013202949895637552 0 -0.00017676708220668862 0.0013543709400300767 0 -0.00019589693665071899 0.0012715466725414452 0 -0.00024388931581917361 0.0013244495210977961 0 -0.00021317900444763857 0.0013202949895637552 0 -0.00021939297613021767 0.0013618344581609741 0 -0.00021317900444763857 0.0013202949895637552 0 -0.00021939297613021767 0.0013618344581609741 0 -0.00017676708220668862 0.0013543709400300767 0 -0.00021939297613021767 0.0013618344581609741 0 -0.00019254424228451559 0.0013988512979470195 0 -0.00017676708220668862 0.0013543709400300767 0 -0.00021939297613021767 0.0013618344581609741 0 -0.00019254424228451559 0.0013988512979470195 0 -0.00023471348540569776 0.001411585374196684 0 -0.00015225897355197252 0.0014047866450079621 0 -0.00010608604769631768 0.0013955521261712017 0 -0.00017676708220668862 0.0013543709400300767 0 -0.00010608604769631768 0.0013955521261712017 0 -0.00017676708220668862 0.0013543709400300767 0 -0.00019589693665071899 0.0012715466725414452 0 -8.8450626963121633e-05 0.0022484628590843164 0 -0.00010561178616842335 0.002208471848531303 0 -0.00020537842551391979 0.0021510861236278939 0 -0.00019254424228451559 0.0013988512979470195 0 -0.00015225897355197252 0.0014047866450079621 0 -0.00017676708220668862 0.0013543709400300767 0 -9.8134650993001916e-05 0.0018183069568538286 0 -0.00020398301165519537 0.0017048524991351082 0 -0.00010561178616842335 0.002208471848531303 0 -0.0001379669180629128 0.0021634049361628749 0 -0.00024995845985635747 0.0021737262144596071 0 -0.00010561178616842335 0.002208471848531303 0 -0.00020631482846776315 0.0021066276580029414 0 -0.00020537842551391979 0.0021510861236278939 0 -0.00013488290001998114 0.0021893251385957033 0 -0.00020395292208632743 0.0021829532279585102 0 -0.0001379669180629128 0.0021634049361628749 0 -0.00024995845985635747 0.0021737262144596071 0 -0.00019042841685320785 0.0021249210004479573 0 -0.00033414172192659092 0.0019940433785411238 0 -0.00020631482846776315 0.0021066276580029414 0 -0.00020537842551391979 0.0021510861236278939 0 -0.00028274697311790679 0.0011733958502065977 0 -0.00027685757792093423 0.001252064467641655 0 -0.00019589693665071899 0.0012715466725414452 0 -0.00027685757792093423 0.001252064467641655 0 -0.00024388931581917361 0.0013244495210977961 0 -0.00023159388446885039 0.00129116884505965 0 -0.00027685757792093423 0.001252064467641655 0 -0.00023159388446885039 0.00129116884505965 0 -0.00019589693665071899 0.0012715466725414452 0 -0.00021317900444763857 0.0013202949895637552 0 -0.00023159388446885039 0.00129116884505965 0 -0.00019589693665071899 0.0012715466725414452 0 7.4192633598574506e-06 0.002219868066097478 0 3.2822583676962609e-05 0.0022377511970951354 0 9.2452694109787508e-06 0.0022421594797009375 0 7.4192633598574506e-06 0.002219868066097478 0 -5.0359281544049603e-06 0.0021827947633925836 0 3.5310779410728265e-05 0.0021980468914819394 0 7.4192633598574506e-06 0.002219868066097478 0 -4.187201830251442e-05 0.0022195849588394151 0 9.2452694109787508e-06 0.0022421594797009375 0 7.4192633598574506e-06 0.002219868066097478 0 -4.187201830251442e-05 0.0022195849588394151 0 -5.0359281544049603e-06 0.0021827947633925836 0 -8.8450626963121633e-05 0.0022484628590843164 0 -4.187201830251442e-05 0.0022195849588394151 0 9.2452694109787508e-06 0.0022421594797009375 0 -8.8450626963121633e-05 0.0022484628590843164 0 -0.00010561178616842335 0.002208471848531303 0 -4.187201830251442e-05 0.0022195849588394151 0 -0.00010561178616842335 0.002208471848531303 0 -4.187201830251442e-05 0.0022195849588394151 0 -6.2229687481117109e-05 0.0021762838680210658 0 -6.2229687481117109e-05 0.0021762838680210658 0 -1.1641647944837749e-05 0.0021276830508793814 0 -9.780675612620717e-05 0.0021200756415670056 0 -0.00010561178616842335 0.002208471848531303 0 -0.0001379669180629128 0.0021634049361628749 0 -6.2229687481117109e-05 0.0021762838680210658 0 -0.0001379669180629128 0.0021634049361628749 0 -6.2229687481117109e-05 0.0021762838680210658 0 -9.780675612620717e-05 0.0021200756415670056 0 -4.187201830251442e-05 0.0022195849588394151 0 -6.2229687481117109e-05 0.0021762838680210658 0 -5.0359281544049603e-06 0.0021827947633925836 0 -5.0359281544049603e-06 0.0021827947633925836 0 -1.1641647944837749e-05 0.0021276830508793814 0 3.8459790186732221e-05 0.002145302079067133 0 -6.2229687481117109e-05 0.0021762838680210658 0 -5.0359281544049603e-06 0.0021827947633925836 0 -1.1641647944837749e-05 0.0021276830508793814 0 -1.1641647944837749e-05 0.0021276830508793814 0 -4.6417046703277536e-06 0.0020636130833691178 0 4.2200899378644661e-05 0.0020824582362282723 0 -1.1641647944837749e-05 0.0021276830508793814 0 -5.4023878463101294e-05 0.0020465682049416378 0 -4.6417046703277536e-06 0.0020636130833691178 0 -9.780675612620717e-05 0.0021200756415670056 0 -5.4023878463101294e-05 0.0020465682049416378 0 -0.0001674868930420676 0.002044888812975848 0 -1.1641647944837749e-05 0.0021276830508793814 0 -9.780675612620717e-05 0.0021200756415670056 0 -5.4023878463101294e-05 0.0020465682049416378 0 -5.4023878463101294e-05 0.0020465682049416378 0 -4.4583743206915095e-07 0.0020043325410919054 0 -7.3977863817234702e-05 0.0019306264883947931 0 -5.4023878463101294e-05 0.0020465682049416378 0 -0.0001674868930420676 0.002044888812975848 0 -7.3977863817234702e-05 0.0019306264883947931 0 -5.4023878463101294e-05 0.0020465682049416378 0 -4.4583743206915095e-07 0.0020043325410919054 0 -4.6417046703277536e-06 0.0020636130833691178 0 -4.4583743206915095e-07 0.0020043325410919054 0 -4.6417046703277536e-06 0.0020636130833691178 0 4.2200899378644661e-05 0.0020824582362282723 0 -0.00029688200436534575 0.00161321328767098 0 -0.00020395292208632743 0.0021829532279585102 0 -0.00029688200436534575 0.00161321328767098 0 -0.00020398301165519537 0.0017048524991351082 0 -0.00036470586523539109 0.0020993095389357512 0 -0.00024995845985635747 0.0021737262144596071 0 -0.00028050917746606237 0.0020956410200140955 0 -0.00038955156273135969 0.0017763756253816863 0 -0.00028416106839809031 0.0020880896548161588 0 -0.00036470586523539109 0.0020993095389357512 0 -0.00036720830337234574 0.0020627749506778249 0 -0.00028050917746606237 0.0020956410200140955 0 -0.00024995845985635747 0.0021737262144596071 0 -0.00028050917746606237 0.0020956410200140955 0 -0.00019042841685320785 0.0021249210004479573 0 -0.0001379669180629128 0.0021634049361628749 0 -9.780675612620717e-05 0.0021200756415670056 0 -0.00019042841685320785 0.0021249210004479573 0 -9.780675612620717e-05 0.0021200756415670056 0 -0.00019042841685320785 0.0021249210004479573 0 -0.0001674868930420676 0.002044888812975848 0 -0.00028050917746606237 0.0020956410200140955 0 -0.00019042841685320785 0.0021249210004479573 0 -0.0001674868930420676 0.002044888812975848 0 -0.0001674868930420676 0.002044888812975848 0 -0.00022766545795536641 0.0019439170537764992 0 -0.00029694685143337153 0.0020174945617208021 0 -0.00028050917746606237 0.0020956410200140955 0 -0.0001674868930420676 0.002044888812975848 0 -0.00029694685143337153 0.0020174945617208021 0 -0.0001674868930420676 0.002044888812975848 0 -0.00022766545795536641 0.0019439170537764992 0 -7.3977863817234702e-05 0.0019306264883947931 0 -0.00048871992829745874 0.0020657801443897364 0 -0.0003651813220845723 0.001942591050675141 0 -0.000450826547587344 0.0018780146149762129 0 -0.00048871992829745874 0.0020657801443897364 0 -0.0003651813220845723 0.001942591050675141 0 -0.00029694685143337153 0.0020174945617208021 0 -0.00048871992829745874 0.0020657801443897364 0 -0.00028050917746606237 0.0020956410200140955 0 -0.00029694685143337153 0.0020174945617208021 0 -0.00022766545795536641 0.0019439170537764992 0 -0.0003651813220845723 0.001942591050675141 0 -0.00029694685143337153 0.0020174945617208021 0 -0.00022766545795536641 0.0019439170537764992 0 -0.0003651813220845723 0.001942591050675141 0 -0.00037537026364194793 0.0018337718238314886 0 -0.0003651813220845723 0.001942591050675141 0 -0.000450826547587344 0.0018780146149762129 0 -0.00037537026364194793 0.0018337718238314886 0 -0.000450826547587344 0.0018780146149762129 0 -0.000460041379416353 0.0018039716186115595 0 -0.00037537026364194793 0.0018337718238314886 0 -0.00048978558065316418 0.0018377570643743372 0 -0.000450826547587344 0.0018780146149762129 0 -0.000460041379416353 0.0018039716186115595 0 -0.00022766545795536641 0.0019439170537764992 0 -0.00037537026364194793 0.0018337718238314886 0 -0.00028034573019734442 0.0017468447052740206 0 -0.00037537026364194793 0.0018337718238314886 0 -0.00047699486063241425 0.0016706108112557593 0 -0.00028034573019734442 0.0017468447052740206 0 -0.000460041379416353 0.0018039716186115595 0 -0.00037537026364194793 0.0018337718238314886 0 -0.00047699486063241425 0.0016706108112557593 0 -0.00061777636117243875 0.0015312533404685039 0 -0.00047699486063241425 0.0016706108112557593 0 -0.00045273000788855519 0.0013679776466978934 0 -0.00047699486063241425 0.0016706108112557593 0 -0.00030832787647181153 0.0015509354523588884 0 -0.00045273000788855519 0.0013679776466978934 0 -0.00047699486063241425 0.0016706108112557593 0 -0.00030832787647181153 0.0015509354523588884 0 -0.00028034573019734442 0.0017468447052740206 0 -0.00030832787647181153 0.0015509354523588884 0 -0.00014527534454219005 0.0015929456969512265 0 -0.00020345749644596448 0.00137821478901885 0 -0.00030832787647181153 0.0015509354523588884 0 -0.00014527534454219005 0.0015929456969512265 0 -0.00028034573019734442 0.0017468447052740206 0 -0.00014527534454219005 0.0015929456969512265 0 -0.00028034573019734442 0.0017468447052740206 0 -7.3977863817234702e-05 0.0019306264883947931 0 -0.00022766545795536641 0.0019439170537764992 0 -0.00028034573019734442 0.0017468447052740206 0 -7.3977863817234702e-05 0.0019306264883947931 0 -7.3977863817234702e-05 0.0019306264883947931 0 3.2854891058854339e-06 0.0019581214535879525 0 -3.1085606577647335e-05 0.0019298830677927021 0 -7.5846935086149711e-05 0.0019436345476537035 0 3.2209777084512897e-05 0.0016880772712704998 0 -4.4583743206915095e-07 0.0020043325410919054 0 3.2854891058854339e-06 0.0019581214535879525 0 4.931867378085107e-05 0.0020149625700483626 0 -4.4583743206915095e-07 0.0020043325410919054 0 -7.3977863817234702e-05 0.0019306264883947931 0 3.2854891058854339e-06 0.0019581214535879525 0 3.2854891058854339e-06 0.0019581214535879525 0 -3.1085606577647335e-05 0.0019298830677927021 0 1.0437989775268363e-05 0.0019161069941658264 0 -0.00014527534454219005 0.0015929456969512265 0 5.8696946640522293e-05 0.0015388758049567994 0 -4.3333168066992974e-05 0.0013532402053925518 0 -0.00014527534454219005 0.0015929456969512265 0 -7.3977863817234702e-05 0.0019306264883947931 0 5.8696946640522293e-05 0.0015388758049567994 0 5.8696946640522293e-05 0.0015388758049567994 0 -4.3333168066992974e-05 0.0013532402053925518 0 0.00014006560652570478 0.0012203911120900633 0 2.3091212008599756e-05 0.0019485479022551681 0 -5.5514083714715414e-05 0.0017574093473359405 0 1.0437989775268363e-05 0.0019161069941658264 0 -2.5843015207555646e-05 0.0018669515800623807 0 2.4960855147395185e-05 0.0018789987272028325 0 3.2209777084512897e-05 0.0016880772712704998 0 -5.5514083714715414e-05 0.0017574093473359405 0 -3.1085606577647335e-05 0.0019298830677927021 0 1.0437989775268363e-05 0.0019161069941658264 0 -9.1216415156235069e-06 0.0018729126434640039 0 -2.5843015207555646e-05 0.0018669515800623807 0 4.385359099745442e-05 0.0018296080602504294 0 2.4960855147395185e-05 0.0018789987272028325 0 -0.00017462976451638446 0.00122447268684518 0 -5.5514083714715414e-05 0.0017574093473359405 0 2.6749120538757735e-05 0.0010728541777047483 0 1.7388260238317736e-05 0.00098975325445983375 0 0.00014006560652570478 0.0012203911120900633 0 -4.3333168066992974e-05 0.0013532402053925518 0 -0.0001156845243892244 0.0012193518257612027 0 -4.3571490830190053e-06 0.0011992460965630611 0 -4.3333168066992974e-05 0.0013532402053925518 0 0.00014006560652570478 0.0012203911120900633 0 -4.3571490830190053e-06 0.0011992460965630611 0 2.6749120538757735e-05 0.0010728541777047483 0 0.00014006560652570478 0.0012203911120900633 0 -4.3571490830190053e-06 0.0011992460965630611 0 2.6749120538757735e-05 0.0010728541777047483 0 -4.3571490830190053e-06 0.0011992460965630611 0 -5.9497055395679827e-05 0.0011192607806975827 0 -0.00012781349874160734 0.0010316561401794717 0 -5.9497055395679827e-05 0.0011192607806975827 0 -0.00016093989140713986 0.0011201765436192528 0 -0.0001156845243892244 0.0012193518257612027 0 -5.9497055395679827e-05 0.0011192607806975827 0 -0.00016093989140713986 0.0011201765436192528 0 -0.0001156845243892244 0.0012193518257612027 0 -4.3571490830190053e-06 0.0011992460965630611 0 -5.9497055395679827e-05 0.0011192607806975827 0 -0.00026056019130910849 0.0011867255475819947 0 -0.00042185774850323041 0.0012377055713695365 0 -0.00020345749644596448 0.00137821478901885 0 -0.0001156845243892244 0.0012193518257612027 0 -0.00016093989140713986 0.0011201765436192528 0 -0.00026056019130910849 0.0011867255475819947 0 -0.0001156845243892244 0.0012193518257612027 0 -0.00026056019130910849 0.0011867255475819947 0 -0.00020345749644596448 0.00137821478901885 0 -0.00024054377208758505 0.0010445697657570294 0 -0.00016093989140713986 0.0011201765436192528 0 -0.00026056019130910849 0.0011867255475819947 0 -0.00024054377208758505 0.0010445697657570294 0 -0.00026056019130910849 0.0011867255475819947 0 -0.00037448437094426832 0.0010830785040305099 0 -0.00061618311916672582 0.0010915491295903732 0 -0.00037448437094426832 0.0010830785040305099 0 -0.00042185774850323041 0.0012377055713695365 0 -0.00026056019130910849 0.0011867255475819947 0 -0.00037448437094426832 0.0010830785040305099 0 -0.00042185774850323041 0.0012377055713695365 0 -0.00042191298073208911 0.0011910854135173314 0 -0.00022459018656011408 0.0013525697953932546 0 -0.00030832787647181153 0.0015509354523588884 0 -0.00045273000788855519 0.0013679776466978934 0 -0.00020345749644596448 0.00137821478901885 0 -0.00041104324752806645 0.0011379363577458861 0 -0.00045273000788855519 0.0013679776466978934 0 -0.00020345749644596448 0.00137821478901885 0 -0.00056331514402026067 0.0011339038817470173 0 -0.00041104324752806645 0.0011379363577458861 0 -0.00045273000788855519 0.0013679776466978934 0 -0.00014527534454219005 0.0015929456969512265 0 -4.3333168066992974e-05 0.0013532402053925518 0 -0.00020345749644596448 0.00137821478901885 0 -4.3333168066992974e-05 0.0013532402053925518 0 -0.0001156845243892244 0.0012193518257612027 0 -0.00020345749644596448 0.00137821478901885 0 0.00015085699926991195 0.0019020467525852033 0 0.00020937302736748415 0.0018797350018667717 0 0.00021056580683758309 0.0019403055088199604 0 0.00025270355557267533 0.0018910622010280763 0 0.00020937302736748415 0.0018797350018667717 0 0.00021056580683758309 0.0019403055088199604 0 0.00025270355557267533 0.0018910622010280763 0 0.0002420884843492406 0.0018233453132114345 0 0.00020937302736748415 0.0018797350018667717 0 0.00027110755704484431 0.0018329783560204385 0 0.00025270355557267533 0.0018910622010280763 0 0.0002420884843492406 0.0018233453132114345 0 0.0002420884843492406 0.0018233453132114345 0 0.00020937302736748415 0.0018797350018667717 0 0.00018800286503407326 0.0018489755676651721 0 0.0002420884843492406 0.0018233453132114345 0 0.00019534171914594838 0.0017977901927587493 0 0.00018800286503407326 0.0018489755676651721 0 0.00015085699926991195 0.0019020467525852033 0 0.00018800286503407326 0.0018489755676651721 0 0.00013657814121239144 0.0018494950833223616 0 0.00015085699926991195 0.0019020467525852033 0 0.00020937302736748415 0.0018797350018667717 0 0.00018800286503407326 0.0018489755676651721 0 0.00019534171914594838 0.0017977901927587493 0 0.00018800286503407326 0.0018489755676651721 0 0.00013657814121239144 0.0018494950833223616 0 0.0001209651661822764 0.0017960663910307785 0 0.00013657814121239144 0.0018494950833223616 0 4.385359099745442e-05 0.0018296080602504294 0 0.00013657814121239144 0.0018494950833223616 0 4.385359099745442e-05 0.0018296080602504294 0 7.3332547727819882e-05 0.0018986048017084717 0 4.385359099745442e-05 0.0018296080602504294 0 2.4960855147395185e-05 0.0018789987272028325 0 7.3332547727819882e-05 0.0018986048017084717 0 1.0437989775268363e-05 0.0019161069941658264 0 2.4960855147395185e-05 0.0018789987272028325 0 7.3332547727819882e-05 0.0018986048017084717 0 1.0437989775268363e-05 0.0019161069941658264 0 7.3332547727819882e-05 0.0018986048017084717 0 5.7010361977909796e-05 0.0019586719166858691 0 0.00015085699926991195 0.0019020467525852033 0 7.3332547727819882e-05 0.0018986048017084717 0 0.00010755240941597878 0.0019462784351407802 0 0.00015085699926991195 0.0019020467525852033 0 0.00013657814121239144 0.0018494950833223616 0 7.3332547727819882e-05 0.0018986048017084717 0 0.00010755240941597878 0.0019462784351407802 0 5.7010361977909796e-05 0.0019586719166858691 0 0.00010716029538235043 0.0020084919793930743 0 0.00010755240941597878 0.0019462784351407802 0 0.00010716029538235043 0.0020084919793930743 0 0.00015672470302144546 0.0019776942868875952 0 7.3332547727819882e-05 0.0018986048017084717 0 0.00010755240941597878 0.0019462784351407802 0 5.7010361977909796e-05 0.0019586719166858691 0 3.2854891058854339e-06 0.0019581214535879525 0 1.0437989775268363e-05 0.0019161069941658264 0 5.7010361977909796e-05 0.0019586719166858691 0 3.2854891058854339e-06 0.0019581214535879525 0 5.7010361977909796e-05 0.0019586719166858691 0 4.931867378085107e-05 0.0020149625700483626 0 5.7010361977909796e-05 0.0019586719166858691 0 4.931867378085107e-05 0.0020149625700483626 0 0.00010716029538235043 0.0020084919793930743 0 0.00010716029538235043 0.0020084919793930743 0 0.00015672470302144546 0.0019776942868875952 0 0.00015388711242668681 0.0020622989207103402 0 0.00015672470302144546 0.0019776942868875952 0 0.00021177507844208235 0.002017788584644391 0 0.00015388711242668681 0.0020622989207103402 0 0.00015085699926991195 0.0019020467525852033 0 0.00015672470302144546 0.0019776942868875952 0 0.00021056580683758309 0.0019403055088199604 0 0.00015085699926991195 0.0019020467525852033 0 0.00010755240941597878 0.0019462784351407802 0 0.00015672470302144546 0.0019776942868875952 0 0.00027108835959973438 0.0019681517060681089 0 0.00021056580683758309 0.0019403055088199604 0 0.00021177507844208235 0.002017788584644391 0 0.00015672470302144546 0.0019776942868875952 0 0.00021056580683758309 0.0019403055088199604 0 0.00021177507844208235 0.002017788584644391 0 0.00021885990132152183 0.0021034934623450677 0 0.00021177507844208235 0.002017788584644391 0 0.00015388711242668681 0.0020622989207103402 0 0.00021885990132152183 0.0021034934623450677 0 0.00015388711242668681 0.0020622989207103402 0 0.00016798434474482008 0.0021358535172024662 0 0.00015388711242668681 0.0020622989207103402 0 0.0001321694861491277 0.0021117885353350717 0 0.00016798434474482008 0.0021358535172024662 0 0.00015388711242668681 0.0020622989207103402 0 0.0001321694861491277 0.0021117885353350717 0 8.6706917785708617e-05 0.0020905576257344636 0 0.00012067330467938499 0.0021583295673148913 0 0.00016798434474482008 0.0021358535172024662 0 0.00015726876939257587 0.002212045296685622 0 0.0001321694861491277 0.0021117885353350717 0 0.00012067330467938499 0.0021583295673148913 0 0.00016798434474482008 0.0021358535172024662 0 0.0001321694861491277 0.0021117885353350717 0 0.00012067330467938499 0.0021583295673148913 0 8.6706917785708617e-05 0.0020905576257344636 0 0.00021885990132152183 0.0021034934623450677 0 0.00022068871166232011 0.0021908555838189253 0 0.00016798434474482008 0.0021358535172024662 0 0.00022068871166232011 0.0021908555838189253 0 0.00016798434474482008 0.0021358535172024662 0 0.00015726876939257587 0.002212045296685622 0 -4.4583743206915095e-07 0.0020043325410919054 0 4.931867378085107e-05 0.0020149625700483626 0 4.2200899378644661e-05 0.0020824582362282723 0 4.931867378085107e-05 0.0020149625700483626 0 4.2200899378644661e-05 0.0020824582362282723 0 8.6706917785708617e-05 0.0020905576257344636 0 4.931867378085107e-05 0.0020149625700483626 0 0.00010716029538235043 0.0020084919793930743 0 8.6706917785708617e-05 0.0020905576257344636 0 0.00010716029538235043 0.0020084919793930743 0 0.00015388711242668681 0.0020622989207103402 0 8.6706917785708617e-05 0.0020905576257344636 0 0.00012067330467938499 0.0021583295673148913 0 8.6706917785708617e-05 0.0020905576257344636 0 7.8640956640364045e-05 0.0021802955330562706 0 8.6706917785708617e-05 0.0020905576257344636 0 3.8459790186732221e-05 0.002145302079067133 0 7.8640956640364045e-05 0.0021802955330562706 0 4.2200899378644661e-05 0.0020824582362282723 0 8.6706917785708617e-05 0.0020905576257344636 0 3.8459790186732221e-05 0.002145302079067133 0 -1.1641647944837749e-05 0.0021276830508793814 0 4.2200899378644661e-05 0.0020824582362282723 0 3.8459790186732221e-05 0.002145302079067133 0 3.8459790186732221e-05 0.002145302079067133 0 3.5310779410728265e-05 0.0021980468914819394 0 7.8640956640364045e-05 0.0021802955330562706 0 -5.0359281544049603e-06 0.0021827947633925836 0 3.8459790186732221e-05 0.002145302079067133 0 3.5310779410728265e-05 0.0021980468914819394 0 3.5310779410728265e-05 0.0021980468914819394 0 7.8640956640364045e-05 0.0021802955330562706 0 6.8336333513268873e-05 0.0022212825194043752 0 0.00012067330467938499 0.0021583295673148913 0 7.8640956640364045e-05 0.0021802955330562706 0 0.00010515433152349291 0.0022198346324049595 0 7.8640956640364045e-05 0.0021802955330562706 0 6.8336333513268873e-05 0.0022212825194043752 0 0.00010515433152349291 0.0022198346324049595 0 6.8336333513268873e-05 0.0022212825194043752 0 0.00010515433152349291 0.0022198346324049595 0 9.0553952221204419e-05 0.0022541058151659076 0 6.8336333513268873e-05 0.0022212825194043752 0 3.2822583676962609e-05 0.0022377511970951354 0 9.0553952221204419e-05 0.0022541058151659076 0 3.5310779410728265e-05 0.0021980468914819394 0 6.8336333513268873e-05 0.0022212825194043752 0 3.2822583676962609e-05 0.0022377511970951354 0 7.4192633598574506e-06 0.002219868066097478 0 3.5310779410728265e-05 0.0021980468914819394 0 3.2822583676962609e-05 0.0022377511970951354 0 0.00022068871166232011 0.0021908555838189253 0 0.00020714557446806169 0.0022758542025704152 0 0.00015726876939257587 0.002212045296685622 0 0.00012067330467938499 0.0021583295673148913 0 0.00015726876939257587 0.002212045296685622 0 0.00010515433152349291 0.0022198346324049595 0 0.00010515433152349291 0.0022198346324049595 0 0.00012792213100273897 0.0022655379258347398 0 9.0553952221204419e-05 0.0022541058151659076 0 0.00015726876939257587 0.002212045296685622 0 0.00010515433152349291 0.0022198346324049595 0 0.00012792213100273897 0.0022655379258347398 0 0.00020714557446806169 0.0022758542025704152 0 0.00015726876939257587 0.002212045296685622 0 0.00012792213100273897 0.0022655379258347398 0 0.00020714557446806169 0.0022758542025704152 0 0.00012792213100273897 0.0022655379258347398 0 0.00017854719386569179 0.0023332179151791701 0 0.00017854719386569179 0.0023332179151791701 0 0.0001157371776523096 0.0023883077895096006 0 0.00024195312142380538 0.0023905969347163694 0 0.00012792213100273897 0.0022655379258347398 0 0.00017854719386569179 0.0023332179151791701 0 0.00011635600595859711 0.0023759378538826654 0 3.0420533016732985e-05 0.0023145280027163117 0 0.0002842860518513338 0.0024299107195044933 0 0.00017854719386569179 0.0023332179151791701 0 0.00011635600595859711 0.0023759378538826654 0 0.0001157371776523096 0.0023883077895096006 0 0.00011040445912220009 0.0022723116379366735 0 0.00010983008581091729 0.002277101530018305 0 7.1439441824268948e-05 0.0022690174269407361 0 0.00012807794892812061 0.0022720081659300222 0 6.214189067028919e-05 0.0023145264007076007 0 0.00012792213100273897 0.0022655379258347398 0 0.00011040445912220009 0.0022723116379366735 0 9.0553952221204419e-05 0.0022541058151659076 0 0.00011040445912220009 0.0022723116379366735 0 9.0553952221204419e-05 0.0022541058151659076 0 7.1439441824268948e-05 0.0022690174269407361 0 6.214189067028919e-05 0.0023145264007076007 0 3.0420533016732985e-05 0.0023145280027163117 0 3.0420533016732985e-05 0.0023145280027163117 0 -7.0213166312303434e-05 0.0022606575548935722 0 -0.00035871515190762755 0.0022724255707531993 0 -0.00026612327776292068 0.0021724289661630997 0 -0.00015757536561983326 0.0022550923764343292 0 3.0420533016732985e-05 0.0023145280027163117 0 0.00012138036015473016 0.0024049916212511681 0 -0.00035871515190762755 0.0022724255707531993 0 -0.00026612327776292068 0.0021724289661630997 0 -0.00033836536425722657 0.0020513411121734128 0 3.0420533016732985e-05 0.0023145280027163117 0 -0.00016418254051921383 0.0021458530793761268 0 4.9567246192038904e-05 0.002296184703891336 0 5.2591771205023635e-05 0.0022988877104346567 0 5.1969623027173861e-05 0.0022988344497881104 0 0.00018696491981806443 0.0024431900776383567 0 0.00022684842767734529 0.0024787450925643027 0 0.00026551008162367635 0.0024397887080116094 0 0.00018696491981806443 0.0024431900776383567 0 0.00022684842767734529 0.0024787450925643027 0 0.00018983202503868125 0.0024979904135617632 0 3.2822583676962609e-05 0.0022377511970951354 0 7.1439441824268948e-05 0.0022690174269407361 0 2.4900962478645871e-05 0.0022382683060971358 0 3.2822583676962609e-05 0.0022377511970951354 0 2.4900962478645871e-05 0.0022382683060971358 0 9.2452694109787508e-06 0.0022421594797009375 0 3.2822583676962609e-05 0.0022377511970951354 0 9.0553952221204419e-05 0.0022541058151659076 0 7.1439441824268948e-05 0.0022690174269407361 0 -7.0213166312303434e-05 0.0022606575548935722 0 3.1086116551302125e-05 0.0022435708535578323 0 -0.00015757536561983326 0.0022550923764343292 0 2.4900962478645871e-05 0.0022382683060971358 0 -8.1311190784845639e-05 0.0020957957099093263 0 -0.00015757536561983326 0.0022550923764343292 0 -8.1311190784845639e-05 0.0020957957099093263 0 -0.0002090388147856898 0.0020751750971244941 0 -0.00026612327776292068 0.0021724289661630997 0 -0.00015757536561983326 0.0022550923764343292 0 -0.0002090388147856898 0.0020751750971244941 0 2.4900962478645871e-05 0.0022382683060971358 0 -8.1311190784845639e-05 0.0020957957099093263 0 7.4592914595811554e-05 0.0021162693047803069 0 -4.8268170149906527e-06 0.0017581774485623974 0 -8.1320422288091228e-06 0.0017420171391708281 0 2.1516306800294265e-05 0.0016662215815767983 0 -3.324113530143484e-05 0.0018139322291709618 0 -4.8268170149906527e-06 0.0017581774485623974 0 2.1516306800294265e-05 0.0016662215815767983 0 -6.5170731891473778e-05 0.0019702089192127027 0 -3.324113530143484e-05 0.0018139322291709618 0 7.4592914595811554e-05 0.0021162693047803069 0 -6.5170731891473778e-05 0.0019702089192127027 0 -8.1311190784845639e-05 0.0020957957099093263 0 7.4592914595811554e-05 0.0021162693047803069 0 -3.3522035067409082e-05 0.0018082261027979518 0 3.3360181583340038e-05 0.0018821113896411445 0 -6.5170731891473778e-05 0.0019702089192127027 0 -0.00018900647953349345 0.0019588884830157626 0 -0.00011481206789976109 0.0018526520208406356 0 -6.5170731891473778e-05 0.0019702089192127027 0 -8.1311190784845639e-05 0.0020957957099093263 0 -0.00018900647953349345 0.0019588884830157626 0 -8.1311190784845639e-05 0.0020957957099093263 0 -0.0002090388147856898 0.0020751750971244941 0 -0.00018900647953349345 0.0019588884830157626 0 0.0001490535237134751 0.0018958934701273492 0 0.00013824121139874112 0.0022173934461729109 0 -0.00018900647953349345 0.0019588884830157626 0 -0.00011481206789976109 0.0018526520208406356 0 -0.00030816618730972168 0.0018081894043993152 0 -0.00011481206789976109 0.0018526520208406356 0 8.1288893157083539e-06 0.001752393589205018 0 -0.00030816618730972168 0.0018081894043993152 0 0.00032475129429847466 0.0021092235071761799 0 0.00043008268997329587 0.0020938501142185066 0 0.0003830361657594795 0.0021305802929396738 0 -0.00011481206789976109 0.0018526520208406356 0 -3.324113530143484e-05 0.0018139322291709618 0 8.1288893157083539e-06 0.001752393589205018 0 -6.5170731891473778e-05 0.0019702089192127027 0 -0.00011481206789976109 0.0018526520208406356 0 -3.324113530143484e-05 0.0018139322291709618 0 -3.324113530143484e-05 0.0018139322291709618 0 8.1288893157083539e-06 0.001752393589205018 0 -4.8268170149906527e-06 0.0017581774485623974 0 8.1288893157083539e-06 0.001752393589205018 0 -4.8268170149906527e-06 0.0017581774485623974 0 -8.1320422288091228e-06 0.0017420171391708281 0 0.00021529263292613607 0.0025236806687444703 0 0.00018983202503868125 0.0024979904135617632 0 0.00018951677881601302 0.002553583136367854 0 0.00022684842767734529 0.0024787450925643027 0 0.00021529263292613607 0.0025236806687444703 0 0.00026387179275802795 0.0025019840181633437 0 0.00022684842767734529 0.0024787450925643027 0 0.00021529263292613607 0.0025236806687444703 0 0.00018983202503868125 0.0024979904135617632 0 5.2591771205023635e-05 0.0022988877104346567 0 5.1969623027173861e-05 0.0022988344497881104 0 5.5073346864517224e-05 0.0023030610793737423 0 -0.00016418254051921383 0.0021458530793761268 0 0.00013824121139874112 0.0022173934461729109 0 0.00012138036015473016 0.0024049916212511681 0 0.00024370101049745767 0.0024482334828063276 0 -0.00018900647953349345 0.0019588884830157626 0 -0.00033836536425722657 0.0020513411121734128 0 -0.00030816618730972168 0.0018081894043993152 0 -0.00026612327776292068 0.0021724289661630997 0 -0.0002090388147856898 0.0020751750971244941 0 -0.00033836536425722657 0.0020513411121734128 0 -0.0002090388147856898 0.0020751750971244941 0 -0.00018900647953349345 0.0019588884830157626 0 -0.00033836536425722657 0.0020513411121734128 0 0.00035362191499133095 0.0025426655974462664 0 0.00034804216272700604 0.0025434516414686542 0 0.00034981923827901405 0.0025279904328742351 0 5.1969623027173861e-05 0.0022988344497881104 0 5.3911887767613585e-05 0.0023029907183135501 0 5.5073346864517224e-05 0.0023030610793737423 0 0.00013824121139874112 0.0022173934461729109 0 0.00024370101049745767 0.0024482334828063276 0 0.00024370101049745767 0.0024482334828063276 0 0.00028690801715246526 0.0025489797052559702 0 0.00021529263292613607 0.0025236806687444703 0 0.00018951677881601302 0.002553583136367854 0 0.00024457933531403829 0.002545508464166576 0 0.00034564851794963766 0.0025464315983992677 0 0.00033048660947872802 0.0025362789624528456 0 0.00032292119862006684 0.0025462563329542755 0 0.00034564851794963766 0.0025464315983992677 0 0.00033048660947872802 0.0025362789624528456 0 0.00034981923827901405 0.0025279904328742351 0 0.00033048660947872802 0.0025362789624528456 0 0.00033594160587167301 0.0025241770989913475 0 0.00034981923827901405 0.0025279904328742351 0 0.00033594160587167301 0.0025241770989913475 0 0.00034729586311240703 0.0025132950046508227 0 0.00034981923827901405 0.0025279904328742351 0 0.00033048660947872802 0.0025362789624528456 0 0.00033594160587167301 0.0025241770989913475 0 0.00032013847887565173 0.0025296600512753516 0 0.00033594160587167301 0.0025241770989913475 0 0.00033585011935091224 0.0025002111393478766 0 0.00032013847887565173 0.0025296600512753516 0 0.00033594160587167301 0.0025241770989913475 0 0.00033585011935091224 0.0025002111393478766 0 0.00034729586311240703 0.0025132950046508227 0 0.00033585011935091224 0.0025002111393478766 0 0.00034729586311240703 0.0025132950046508227 0 0.00037518288912339297 0.0024768971654986652 0 0.00041337108425128102 0.0023672297895861167 0 0.00038813980975907963 0.0023748823892434561 0 0.00034729586311240703 0.0025132950046508227 0 0.00036366339544590868 0.0025194311014460802 0 0.00037518288912339297 0.0024768971654986652 0 0.00042377816084812245 0.0021820812980756174 0 0.00037645583689218396 0.0022321528444649431 0 0.00040944434247500134 0.0022813287895316046 0 0.00034729586311240703 0.0025132950046508227 0 0.00036366339544590868 0.0025194311014460802 0 0.00034981923827901405 0.0025279904328742351 0 0.00024370101049745767 0.0024482334828063276 0 0.00034525522320680139 0.0025602126900147932 0 0.00043008268997329587 0.0020938501142185066 0 0.00042377816084812245 0.0021820812980756174 0 0.00040415725454009466 0.0021446127901106208 0 0.00013824121139874112 0.0022173934461729109 0 0.00041337108425128102 0.0023672297895861167 0 0.00035362191499133095 0.0025426655974462664 0 0.00036366339544590868 0.0025194311014460802 0 0.00034981923827901405 0.0025279904328742351 0 0.00043008268997329587 0.0020938501142185066 0 0.00040415725454009466 0.0021446127901106208 0 0.0003830361657594795 0.0021305802929396738 0 0.00032475129429847466 0.0021092235071761799 0 0.0003830361657594795 0.0021305802929396738 0 0.000356225147009892 0.0021425493114639411 0 0.0003830361657594795 0.0021305802929396738 0 0.000356225147009892 0.0021425493114639411 0 0.00037875129056318721 0.0021727622645811933 0 0.000356225147009892 0.0021425493114639411 0 0.00037875129056318721 0.0021727622645811933 0 0.00033887833044893355 0.0021584253203451574 0 0.00042377816084812245 0.0021820812980756174 0 0.00040415725454009466 0.0021446127901106208 0 0.00037875129056318721 0.0021727622645811933 0 0.00040415725454009466 0.0021446127901106208 0 0.0003830361657594795 0.0021305802929396738 0 0.00037875129056318721 0.0021727622645811933 0 0.00032475129429847466 0.0021092235071761799 0 0.00033887833044893355 0.0021584253203451574 0 0.0002771891131374553 0.0021626800728487224 0 0.00032475129429847466 0.0021092235071761799 0 0.000356225147009892 0.0021425493114639411 0 0.00033887833044893355 0.0021584253203451574 0 0.00033887833044893355 0.0021584253203451574 0 0.0003271959227119462 0.002214581143311696 0 0.0002771891131374553 0.0021626800728487224 0 0.0003271959227119462 0.002214581143311696 0 0.00026104910168659953 0.002253814272272225 0 0.0002771891131374553 0.0021626800728487224 0 0.00042377816084812245 0.0021820812980756174 0 0.00037875129056318721 0.0021727622645811933 0 0.00037645583689218396 0.0022321528444649431 0 0.00037875129056318721 0.0021727622645811933 0 0.00033887833044893355 0.0021584253203451574 0 0.0003271959227119462 0.002214581143311696 0 0.00037875129056318721 0.0021727622645811933 0 0.0003271959227119462 0.002214581143311696 0 0.00037645583689218396 0.0022321528444649431 0 0.0003271959227119462 0.002214581143311696 0 0.00037645583689218396 0.0022321528444649431 0 0.00032897024098135265 0.0023093441407160656 0 0.00037645583689218396 0.0022321528444649431 0 0.00032897024098135265 0.0023093441407160656 0 0.00040944434247500134 0.0022813287895316046 0 0.0003271959227119462 0.002214581143311696 0 0.00032897024098135265 0.0023093441407160656 0 0.00026104910168659953 0.002253814272272225 0 0.00032897024098135265 0.0023093441407160656 0 0.00032943466023215761 0.0023824426416886894 0 0.00025238764868780602 0.0023612889395476641 0 0.00032897024098135265 0.0023093441407160656 0 0.00037018728580173385 0.0023952319626369106 0 0.00032943466023215761 0.0023824426416886894 0 0.00032897024098135265 0.0023093441407160656 0 0.00037018728580173385 0.0023952319626369106 0 0.00040944434247500134 0.0022813287895316046 0 0.00037545932501079602 0.0023953288626586836 0 0.00038813980975907963 0.0023748823892434561 0 0.00037018728580173385 0.0023952319626369106 0 0.00034032270493146606 0.0024555633783277459 0 0.00034178296767795849 0.0024084496745619718 0 0.00037018728580173385 0.0023952319626369106 0 0.00034032270493146606 0.0024555633783277459 0 0.00037518288912339297 0.0024768971654986652 0 0.00034032270493146606 0.0024555633783277459 0 0.00034178296767795849 0.0024084496745619718 0 0.00032068686835811028 0.0024437555987531765 0 0.00033585011935091224 0.0025002111393478766 0 0.00034032270493146606 0.0024555633783277459 0 0.00031742808263906781 0.0024964142788997776 0 0.00033585011935091224 0.0025002111393478766 0 0.00034032270493146606 0.0024555633783277459 0 0.00037518288912339297 0.0024768971654986652 0 0.00012428271886764548 0.0021101526920123824 0 0.00015568122237977466 0.0021376800930324128 0 0.00016232418204961948 0.0020997127876395869 0 0.00012428271886764548 0.0021101526920123824 0 0.00016232418204961948 0.0020997127876395869 0 0.00012884216118235658 0.0020993812126300312 0 0.00012428271886764548 0.0021101526920123824 0 0.00010785826662513072 0.0020895544326109102 0 9.2042973222525488e-05 0.0021049726093028361 0 0.00012428271886764548 0.0021101526920123824 0 0.00010930846403820583 0.0021394837502022972 0 9.2042973222525488e-05 0.0021049726093028361 0 0.00012428271886764548 0.0021101526920123824 0 0.00010930846403820583 0.0021394837502022972 0 0.00015568122237977466 0.0021376800930324128 0 0.00015568122237977466 0.0021376800930324128 0 0.00016232418204961948 0.0020997127876395869 0 0.00022816916421575833 0.0021525838266138685 0 0.0001692997049198627 0.0021777155118372581 0 0.00024036879206048098 0.0022559740300773503 0 0.00032897024098135265 0.0023093441407160656 0 0.00026104910168659953 0.002253814272272225 0 0.00025238764868780602 0.0023612889395476641 0 0.00026104910168659953 0.002253814272272225 0 0.00017290556907854416 0.0022540860642233113 0 0.00025238764868780602 0.0023612889395476641 0 0.00026104910168659953 0.002253814272272225 0 0.00017290556907854416 0.0022540860642233113 0 0.00019715617315549971 0.0021697029376459153 0 0.00026104910168659953 0.002253814272272225 0 0.00019715617315549971 0.0021697029376459153 0 0.0002771891131374553 0.0021626800728487224 0 0.00019715617315549971 0.0021697029376459153 0 0.0002771891131374553 0.0021626800728487224 0 0.00022041445778037239 0.0021136577046545315 0 0.00032475129429847466 0.0021092235071761799 0 0.0002771891131374553 0.0021626800728487224 0 0.00022041445778037239 0.0021136577046545315 0 0.0001490535237134751 0.0018958934701273492 0 8.7498041456173924e-05 0.00194844944985284 0 8.7498041456173924e-05 0.00194844944985284 0 -2.4682086094886359e-05 0.0019296513196677212 0 0.00019715617315549971 0.0021697029376459153 0 0.00022041445778037239 0.0021136577046545315 0 0.00011849251899949516 0.0021042757503767643 0 0.00022041445778037239 0.0021136577046545315 0 0.00011591280060544778 0.0020974621859260675 0 0.00011849251899949516 0.0021042757503767643 0 -4.3938741830721497e-05 0.0017712584658419288 0 -0.00017423119508449159 0.0017938371798856987 0 -0.00012315848050453054 0.0017284338326353282 0 0.0001692997049198627 0.0021777155118372581 0 0.00012248420168063767 0.0021100640799218999 0 0.00016232418204961948 0.0020997127876395869 0 0.00011849251899949516 0.0021042757503767643 0 0.00012884216118235658 0.0020993812126300312 0 0.00017290556907854416 0.0022540860642233113 0 0.00019715617315549971 0.0021697029376459153 0 0.00011849251899949516 0.0021042757503767643 0 0.00012428271886764548 0.0021101526920123824 0 0.00012884216118235658 0.0020993812126300312 0 0.00010785826662513072 0.0020895544326109102 0 0.00011849251899949516 0.0021042757503767643 0 0.00012884216118235658 0.0020993812126300312 0 0.00010785826662513072 0.0020895544326109102 0 0.00011591280060544778 0.0020974621859260675 0 0.00010785826662513072 0.0020895544326109102 0 8.8405523301025903e-05 0.0020721947856766074 0 -0.00017423119508449159 0.0017938371798856987 0 -0.00024244424248868337 0.0017559330640921618 0 -0.00032162864513520504 0.0018132904832390577 0 -2.4682086094886359e-05 0.0019296513196677212 0 -0.00013417673334916848 0.0020540561058948405 0 0.00011591280060544778 0.0020974621859260675 0 0.00011849251899949516 0.0021042757503767643 0 0.00010785826662513072 0.0020895544326109102 0 -0.00017423119508449159 0.0017938371798856987 0 -0.00024244424248868337 0.0017559330640921618 0 -0.0001853281202280298 0.00173305120566149 0 -0.00024244424248868337 0.0017559330640921618 0 -0.00022782140998499589 0.001702808969667646 0 -0.00030276964279696565 0.0017226849443813181 0 -0.00022782140998499589 0.001702808969667646 0 -0.0001853281202280298 0.00173305120566149 0 -0.00017443060052322581 0.0016809623501717293 0 -0.00022782140998499589 0.001702808969667646 0 -0.00017443060052322581 0.0016809623501717293 0 -0.00023056457681253575 0.0016341196785804415 0 -0.00024244424248868337 0.0017559330640921618 0 -0.00022782140998499589 0.001702808969667646 0 -0.0001853281202280298 0.00173305120566149 0 -0.00017423119508449159 0.0017938371798856987 0 -0.0001853281202280298 0.00173305120566149 0 -0.00012315848050453054 0.0017284338326353282 0 -0.00012315848050453054 0.0017284338326353282 0 -0.00017443060052322581 0.0016809623501717293 0 -0.00011636644421541451 0.0016618381060745414 0 -0.0001853281202280298 0.00173305120566149 0 -0.00012315848050453054 0.0017284338326353282 0 -0.00017443060052322581 0.0016809623501717293 0 -0.00017443060052322581 0.0016809623501717293 0 -0.00011636644421541451 0.0016618381060745414 0 -0.00016860078105265704 0.0016259400078673999 0 -0.00011636644421541451 0.0016618381060745414 0 -0.00016860078105265704 0.0016259400078673999 0 -0.00011169192347222217 0.0015933840981267103 0 -0.00016860078105265704 0.0016259400078673999 0 -0.00020196844221894136 0.0015939968809224718 0 -0.00017425463662200217 0.0015615294417146946 0 -0.00020196844221894136 0.0015939968809224718 0 -0.00023056457681253575 0.0016341196785804415 0 -0.00023449356886161331 0.0015541770666094013 0 -0.00016860078105265704 0.0016259400078673999 0 -0.00020196844221894136 0.0015939968809224718 0 -0.00023056457681253575 0.0016341196785804415 0 -0.00023056457681253575 0.0016341196785804415 0 -0.00023449356886161331 0.0015541770666094013 0 -0.00028242500951493836 0.0015685110413595368 0 -0.00022782140998499589 0.001702808969667646 0 -0.00023056457681253575 0.0016341196785804415 0 -0.0002958347539339717 0.0016431833805463604 0 -0.00017443060052322581 0.0016809623501717293 0 -0.00016860078105265704 0.0016259400078673999 0 -0.00023056457681253575 0.0016341196785804415 0 -4.3938741830721497e-05 0.0017712584658419288 0 -8.1320422288091228e-06 0.0017420171391708281 0 -3.0887310995267473e-05 0.0017081181552954868 0 8.1288893157083539e-06 0.001752393589205018 0 -4.3938741830721497e-05 0.0017712584658419288 0 -8.1320422288091228e-06 0.0017420171391708281 0 -4.3938741830721497e-05 0.0017712584658419288 0 -7.2456806269091637e-05 0.0017055278088655352 0 -3.0887310995267473e-05 0.0017081181552954868 0 -4.3938741830721497e-05 0.0017712584658419288 0 -0.00012315848050453054 0.0017284338326353282 0 -7.2456806269091637e-05 0.0017055278088655352 0 -0.00012315848050453054 0.0017284338326353282 0 -0.00011636644421541451 0.0016618381060745414 0 -7.2456806269091637e-05 0.0017055278088655352 0 -0.00011636644421541451 0.0016618381060745414 0 -7.2456806269091637e-05 0.0017055278088655352 0 -5.5063910169005767e-05 0.0016440674296723562 0 -0.00011636644421541451 0.0016618381060745414 0 -5.5063910169005767e-05 0.0016440674296723562 0 -0.00011169192347222217 0.0015933840981267103 0 -7.2456806269091637e-05 0.0017055278088655352 0 -5.5063910169005767e-05 0.0016440674296723562 0 -3.0887310995267473e-05 0.0017081181552954868 0 -5.5063910169005767e-05 0.0016440674296723562 0 2.1516306800294265e-05 0.0016662215815767983 0 -3.0887310995267473e-05 0.0017081181552954868 0 -8.1320422288091228e-06 0.0017420171391708281 0 2.1516306800294265e-05 0.0016662215815767983 0 -3.0887310995267473e-05 0.0017081181552954868 0 2.4900962478645871e-05 0.0022382683060971358 0 7.4592914595811554e-05 0.0021162693047803069 0 2.4266409374107541e-05 0.0022486436307144124 0 3.3360181583340038e-05 0.0018821113896411445 0 -8.3251242698876465e-06 0.0018810965380196211 0 -5.5063910169005767e-05 0.0016440674296723562 0 2.1516306800294265e-05 0.0016662215815767983 0 -3.2352709067659397e-05 0.0015276267217365627 0 -5.5063910169005767e-05 0.0016440674296723562 0 -3.2352709067659397e-05 0.0015276267217365627 0 -0.00011169192347222217 0.0015933840981267103 0 -3.2352709067659397e-05 0.0015276267217365627 0 -0.00011169192347222217 0.0015933840981267103 0 -0.0001224077541620281 0.0015284976148706604 0 -3.2352709067659397e-05 0.0015276267217365627 0 -0.0001224077541620281 0.0015284976148706604 0 -0.00012292427647738431 0.0014626818060212922 0 -0.00010608604769631768 0.0013955521261712017 0 -3.2352709067659397e-05 0.0015276267217365627 0 -0.00012292427647738431 0.0014626818060212922 0 -8.8450626963121633e-05 0.0022484628590843164 0 2.4266409374107541e-05 0.0022486436307144124 0 9.2452694109787508e-06 0.0022421594797009375 0 -9.8134650993001916e-05 0.0018183069568538286 0 -8.3251242698876465e-06 0.0018810965380196211 0 2.4900962478645871e-05 0.0022382683060971358 0 2.4266409374107541e-05 0.0022486436307144124 0 9.2452694109787508e-06 0.0022421594797009375 0 -0.00020485121556607192 0.0015213383669158268 0 -0.00026556959115855446 0.0015092406579195283 0 -0.00023449356886161331 0.0015541770666094013 0 -0.00020485121556607192 0.0015213383669158268 0 -0.00026556959115855446 0.0015092406579195283 0 -0.00022820515884885262 0.0014744824596352709 0 -0.00026556959115855446 0.0015092406579195283 0 -0.00023449356886161331 0.0015541770666094013 0 -0.00028242500951493836 0.0015685110413595368 0 -0.00020196844221894136 0.0015939968809224718 0 -0.00023449356886161331 0.0015541770666094013 0 -0.00017425463662200217 0.0015615294417146946 0 -0.00020485121556607192 0.0015213383669158268 0 -0.00023449356886161331 0.0015541770666094013 0 -0.00017425463662200217 0.0015615294417146946 0 -0.00016860078105265704 0.0016259400078673999 0 -0.00017425463662200217 0.0015615294417146946 0 -0.00011169192347222217 0.0015933840981267103 0 -0.00017425463662200217 0.0015615294417146946 0 -0.00011169192347222217 0.0015933840981267103 0 -0.0001224077541620281 0.0015284976148706604 0 -0.00017425463662200217 0.0015615294417146946 0 -0.0001224077541620281 0.0015284976148706604 0 -0.00017043658578221084 0.0014957017917331136 0 -0.00020485121556607192 0.0015213383669158268 0 -0.00017425463662200217 0.0015615294417146946 0 -0.00017043658578221084 0.0014957017917331136 0 -0.00017043658578221084 0.0014957017917331136 0 -0.00016803176955269237 0.0014381563831809309 0 -0.00020404901065058326 0.0014426564391261771 0 -0.00017043658578221084 0.0014957017917331136 0 -0.00012292427647738431 0.0014626818060212922 0 -0.00016803176955269237 0.0014381563831809309 0 -0.0001224077541620281 0.0015284976148706604 0 -0.00017043658578221084 0.0014957017917331136 0 -0.00012292427647738431 0.0014626818060212922 0 -0.00015225897355197252 0.0014047866450079621 0 -0.00010608604769631768 0.0013955521261712017 0 -0.00012292427647738431 0.0014626818060212922 0 -0.00015225897355197252 0.0014047866450079621 0 -0.00012292427647738431 0.0014626818060212922 0 -0.00016803176955269237 0.0014381563831809309 0 -0.00019254424228451559 0.0013988512979470195 0 -0.00015225897355197252 0.0014047866450079621 0 -0.00016803176955269237 0.0014381563831809309 0 -0.00020404901065058326 0.0014426564391261771 0 -0.00022820515884885262 0.0014744824596352709 0 -0.00023471348540569776 0.001411585374196684 0 -0.00019254424228451559 0.0013988512979470195 0 -0.00016803176955269237 0.0014381563831809309 0 -0.00020404901065058326 0.0014426564391261771 0 -0.00019254424228451559 0.0013988512979470195 0 -0.00020404901065058326 0.0014426564391261771 0 -0.00023471348540569776 0.001411585374196684 0 -0.00017043658578221084 0.0014957017917331136 0 -0.00020404901065058326 0.0014426564391261771 0 -0.00022820515884885262 0.0014744824596352709 0 -0.00020485121556607192 0.0015213383669158268 0 -0.00017043658578221084 0.0014957017917331136 0 -0.00022820515884885262 0.0014744824596352709 0 -0.00026556959115855446 0.0015092406579195283 0 -0.00022820515884885262 0.0014744824596352709 0 -0.00029494228052570257 0.0014294488192972948 0 -0.00026774849806283436 0.001365562849352852 0 -0.00023471348540569776 0.001411585374196684 0 -0.00029494228052570257 0.0014294488192972948 0 -0.00022820515884885262 0.0014744824596352709 0 -0.00023471348540569776 0.001411585374196684 0 -0.00029494228052570257 0.0014294488192972948 0 -0.00035830908228827652 0.0013798130903880325 0 -0.00029494228052570257 0.0014294488192972948 0 -0.0003685917235038794 0.0014404801527973879 0 -0.00029494228052570257 0.0014294488192972948 0 -0.00032008381984512775 0.0014994619456580823 0 -0.0003685917235038794 0.0014404801527973879 0 -0.00026556959115855446 0.0015092406579195283 0 -0.00029494228052570257 0.0014294488192972948 0 -0.00032008381984512775 0.0014994619456580823 0 -0.00026556959115855446 0.0015092406579195283 0 -0.00032008381984512775 0.0014994619456580823 0 -0.00028242500951493836 0.0015685110413595368 0 -0.00032008381984512775 0.0014994619456580823 0 -0.00034947006494977001 0.0015672385626754942 0 -0.00028242500951493836 0.0015685110413595368 0 -0.00039463714921405017 0.0015053012673268882 0 -0.00046404294961922615 0.0015103392248104128 0 -0.00042682621864479134 0.001569768822295748 0 -0.00034947006494977001 0.0015672385626754942 0 -0.00039463714921405017 0.0015053012673268882 0 -0.00042682621864479134 0.001569768822295748 0 -0.00032008381984512775 0.0014994619456580823 0 -0.00034947006494977001 0.0015672385626754942 0 -0.00039463714921405017 0.0015053012673268882 0 -0.00032008381984512775 0.0014994619456580823 0 -0.00039463714921405017 0.0015053012673268882 0 -0.0003685917235038794 0.0014404801527973879 0 -0.00039463714921405017 0.0015053012673268882 0 -0.00044222507074057911 0.0014429867693242756 0 -0.00046404294961922615 0.0015103392248104128 0 -0.00039463714921405017 0.0015053012673268882 0 -0.0003685917235038794 0.0014404801527973879 0 -0.00044222507074057911 0.0014429867693242756 0 -0.00035830908228827652 0.0013798130903880325 0 -0.0003685917235038794 0.0014404801527973879 0 -0.00041638254905312743 0.00138454505453879 0 -0.0003685917235038794 0.0014404801527973879 0 -0.00041638254905312743 0.00138454505453879 0 -0.00044222507074057911 0.0014429867693242756 0 -0.00047320512551298139 0.0013649144977010295 0 -0.00050133066553690101 0.00140449557469819 0 -0.00044222507074057911 0.0014429867693242756 0 -0.00047320512551298139 0.0013649144977010295 0 -0.00041638254905312743 0.00138454505453879 0 -0.00044222507074057911 0.0014429867693242756 0 -0.00053839454182498536 0.0013537949975882574 0 -0.00047320512551298139 0.0013649144977010295 0 -0.00050133066553690101 0.00140449557469819 0 -0.00050133066553690101 0.00140449557469819 0 -0.00050476877744864306 0.0014602081045607502 0 -0.00044222507074057911 0.0014429867693242756 0 -0.00050133066553690101 0.00140449557469819 0 -0.00050476877744864306 0.0014602081045607502 0 -0.00055226122195458911 0.0013935515862588716 0 -0.00050476877744864306 0.0014602081045607502 0 -0.00055226122195458911 0.0013935515862588716 0 -0.00055947373428306111 0.0015071145424101723 0 -0.00055285195704710642 0.0013783838645709831 0 -0.00056608414736323252 0.0015402338745814884 0 -0.00062700124099248754 0.0012931537173720303 0 -0.00057971391390507741 0.001354419589256975 0 -0.00057921700228187611 0.0014205714584829198 0 -0.00061729214591422035 0.0011117380147049559 0 -0.00047964753867141995 0.00087120006528385214 0 -0.00055226122195458911 0.0013935515862588716 0 -0.00057921700228187611 0.0014205714584829198 0 -0.00056783067908718413 0.0014301877919222928 0 -0.00057971391390507741 0.001354419589256975 0 -0.00055226122195458911 0.0013935515862588716 0 -0.00057921700228187611 0.0014205714584829198 0 -0.00053839454182498536 0.0013537949975882574 0 -0.00050133066553690101 0.00140449557469819 0 -0.00055226122195458911 0.0013935515862588716 0 -0.00053839454182498536 0.0013537949975882574 0 -0.00057971391390507741 0.001354419589256975 0 -0.00055226122195458911 0.0013935515862588716 0 -0.00056608414736323252 0.0015402338745814884 0 -0.00045354162405385868 0.0010810602468629942 0 -0.00038577442616183723 0.00046730163622766218 0 -0.00040568449916273416 0.00032959167450872758 0 -0.00034486580257689212 0.0004129343986894152 0 -0.00055947373428306111 0.0015071145424101723 0 -0.00050047979014071139 0.001560439433295574 0 -0.00056058171753913997 0.0016000554765287739 0 -0.00047964753867141995 0.00087120006528385214 0 -0.00045354162405385868 0.0010810602468629942 0 -0.00057921700228187611 0.0014205714584829198 0 -0.00056783067908718413 0.0014301877919222928 0 -0.00056171297105692792 0.001442418987380051 0 -0.00050476877744864306 0.0014602081045607502 0 -0.00044222507074057911 0.0014429867693242756 0 -0.00046404294961922615 0.0015103392248104128 0 -0.00050476877744864306 0.0014602081045607502 0 -0.00055947373428306111 0.0015071145424101723 0 -0.00050693203463016969 0.0015100295753351629 0 -0.00050476877744864306 0.0014602081045607502 0 -0.00046404294961922615 0.0015103392248104128 0 -0.00050693203463016969 0.0015100295753351629 0 -0.00046404294961922615 0.0015103392248104128 0 -0.00050693203463016969 0.0015100295753351629 0 -0.00050047979014071139 0.001560439433295574 0 -0.00055947373428306111 0.0015071145424101723 0 -0.00050693203463016969 0.0015100295753351629 0 -0.00050047979014071139 0.001560439433295574 0 -0.00046404294961922615 0.0015103392248104128 0 -0.00050047979014071139 0.001560439433295574 0 -0.00042682621864479134 0.001569768822295748 0 -0.00050047979014071139 0.001560439433295574 0 -0.00047021643214405478 0.0016305892011620612 0 -0.00042682621864479134 0.001569768822295748 0 -0.00050047979014071139 0.001560439433295574 0 -0.00047021643214405478 0.0016305892011620612 0 -0.00056058171753913997 0.0016000554765287739 0 -0.00021585786823419278 -3.3747596680930428e-05 0 -6.062803836416806e-05 -0.00028190654265210382 0 -0.00047021643214405478 0.0016305892011620612 0 -0.00056058171753913997 0.0016000554765287739 0 -0.00053624460101799412 0.0016987573364627675 0 -0.00040568449916273416 0.00032959167450872758 0 -0.00039977574903896611 0.00028032869274093703 0 -0.00034486580257689212 0.0004129343986894152 0 -0.00045354162405385868 0.0010810602468629942 0 -0.00021585786823419278 -3.3747596680930428e-05 0 -0.00045354162405385868 0.0010810602468629942 0 -0.00023981630787361526 0.00080393974430733629 0 -0.00021585786823419278 -3.3747596680930428e-05 0 3.923589616696968e-05 -0.00039120503405118336 0 -7.2705330327680549e-05 0.00034604634153294361 0 -8.5282035722373845e-05 0.00031337254502204461 0 -5.9625865252558844e-05 0.00027797841433621954 0 0.00012375236851119926 -0.00095495187945905766 0 0.00020662097018392332 -0.00099886757578755659 0 0.0001340569257161278 -0.0010453797179202301 0 -0.00032627754470233888 0.00075357169023085324 0 -0.00031577270061490553 0.00067374544108635441 0 -0.00034872263606856402 0.00059030604544930108 0 -0.00021585786823419278 -3.3747596680930428e-05 0 -0.00023981630787361526 0.00080393974430733629 0 -0.00047021643214405478 0.0016305892011620612 0 -0.00053624460101799412 0.0016987573364627675 0 -0.00041382881519246717 0.001717522215390429 0 -0.00041382881519246717 0.001717522215390429 0 -0.00030276964279696565 0.0017226849443813181 0 -0.00037820643943181609 0.0016397101552283481 0 -0.00047021643214405478 0.0016305892011620612 0 -0.00041382881519246717 0.001717522215390429 0 -0.00037820643943181609 0.0016397101552283481 0 -0.00022782140998499589 0.001702808969667646 0 -0.00030276964279696565 0.0017226849443813181 0 -0.0002958347539339717 0.0016431833805463604 0 -0.00030276964279696565 0.0017226849443813181 0 -0.0002958347539339717 0.0016431833805463604 0 -0.00037820643943181609 0.0016397101552283481 0 -0.00034947006494977001 0.0015672385626754942 0 -0.0002958347539339717 0.0016431833805463604 0 -0.00037820643943181609 0.0016397101552283481 0 -0.00023056457681253575 0.0016341196785804415 0 -0.00028242500951493836 0.0015685110413595368 0 -0.0002958347539339717 0.0016431833805463604 0 -0.00034947006494977001 0.0015672385626754942 0 -0.00028242500951493836 0.0015685110413595368 0 -0.0002958347539339717 0.0016431833805463604 0 -0.00034947006494977001 0.0015672385626754942 0 -0.00042682621864479134 0.001569768822295748 0 -0.00037820643943181609 0.0016397101552283481 0 -0.00047021643214405478 0.0016305892011620612 0 -0.00042682621864479134 0.001569768822295748 0 -0.00037820643943181609 0.0016397101552283481 0 0.00041723846607809052 -0.002397128200471351 0 0.00038066365249714003 -0.0024715885407295165 0 0.00044194740410826073 -0.0025197927582024425 0 0.00041723846607809052 -0.002397128200471351 0 0.00044194740410826073 -0.0025197927582024425 0 0.0005373410793798588 -0.0025248764647082234 0 0.00036851060770084912 -0.0029846001478242051 0 0.00037923685963296309 -0.0029226571569077858 0 0.00024093496465542652 -0.0033090967652873657 0 0.00021878218243881031 -0.003369989230131066 0 0.00027102788405418524 -0.0033577048182133517 0 0.00024093496465542652 -0.0033090967652873657 0 0.00021878218243881031 -0.003369989230131066 0 0.00017087561556922414 -0.0033164782859019535 0 0.00041723846607809052 -0.002397128200471351 0 0.00028311398305384984 -0.0022592318848718229 0 0.00025971726042762968 -0.0023757563051204442 0 0.00036851060770084912 -0.0029846001478242051 0 0.00017092666558649375 -0.0021540212088711859 0 0.00017092666558649375 -0.0021540212088711859 0 0.00029501650124731953 -0.0017398887537574904 0 0.00029501650124731953 -0.0017398887537574904 0 0.00027574141278547385 -0.0017228799895777295 0 0.00041723846607809052 -0.002397128200471351 0 0.00038066365249714003 -0.0024715885407295165 0 0.00025971726042762968 -0.0023757563051204442 0 0.00038066365249714003 -0.0024715885407295165 0 0.00027326071043425726 -0.0023791097118837099 0 0.00032586991629351915 -0.0025325593819687095 0 0.00027326071043425726 -0.0023791097118837099 0 0.00024077563346262785 -0.0025775033426323566 0 0.00032586991629351915 -0.0025325593819687095 0 0.00045784788508370635 -0.0025637205089554874 0 0.00029501650124731953 -0.0017398887537574904 0 0.00032735893562056868 -0.00080548856222130785 0 0.00017304584196162524 -0.00083981658877071757 0 0.00030146967099736022 -0.00093444537705957562 0 -0.00023804422715168524 1.5004837365948683e-05 0 0.00029501650124731953 -0.0017398887537574904 0 0.00022410520483443833 -0.00071535300418480989 0 0.00032735893562056868 -0.00080548856222130785 0 0.00017304584196162524 -0.00083981658877071757 0 -0.0005968680990762617 -0.00092994650888725131 0 0.00040392847446757792 -0.0010156619214745784 0 0.00027551106232635961 -0.0016320428769001703 0 -0.00028253061140980312 0.00055220040428965685 0 -0.00038577442616183723 0.00046730163622766218 0 -0.00034486580257689212 0.0004129343986894152 0 -0.00035020017004784077 0.00058501297004014325 0 -0.00038577442616183723 0.00046730163622766218 0 -0.00033950173587316251 0.00053483833685248822 0 -0.00028253061140980312 0.00055220040428965685 0 -0.00038577442616183723 0.00046730163622766218 0 -0.00033950173587316251 0.00053483833685248822 0 -0.00023804422715168524 1.5004837365948683e-05 0 -6.062803836416806e-05 -0.00028190654265210382 0 0.00019830580342739272 -0.00092844013888595818 0 0.00020662097018392332 -0.00099886757578755659 0 0.00030146967099736022 -0.00093444537705957562 0 0.00017304584196162524 -0.00083981658877071757 0 0.00019830580342739272 -0.00092844013888595818 0 0.00030146967099736022 -0.00093444537705957562 0 0.00012375236851119926 -0.00095495187945905766 0 0.00017304584196162524 -0.00083981658877071757 0 0.00019830580342739272 -0.00092844013888595818 0 0.00012375236851119926 -0.00095495187945905766 0 0.00019830580342739272 -0.00092844013888595818 0 0.00020662097018392332 -0.00099886757578755659 0 0.00024077563346262785 -0.0025775033426323566 0 0.0002892747287048165 -0.0026860962779568028 0 0.00023095875479056777 -0.0027414581783795108 0 0.00020662097018392332 -0.00099886757578755659 0 0.00030146967099736022 -0.00093444537705957562 0 0.000279077729684716 -0.0010579999668341666 0 0.00027574141278547385 -0.0017228799895777295 0 0.00025452474559684095 -0.0019041528404564387 0 0.00038066365249714003 -0.0024715885407295165 0 0.00032586991629351915 -0.0025325593819687095 0 0.00039162498419973964 -0.0025814260282236864 0 0.00032586991629351915 -0.0025325593819687095 0 0.00033041783344181058 -0.0026389979788758768 0 0.00039162498419973964 -0.0025814260282236864 0 0.00024077563346262785 -0.0025775033426323566 0 0.00032586991629351915 -0.0025325593819687095 0 0.00033041783344181058 -0.0026389979788758768 0 0.00024077563346262785 -0.0025775033426323566 0 0.0002892747287048165 -0.0026860962779568028 0 0.00033041783344181058 -0.0026389979788758768 0 0.00032534874712851014 -0.0027218040369737539 0 0.00033041783344181058 -0.0026389979788758768 0 0.00039306525328226138 -0.002692963188387952 0 0.0002892747287048165 -0.0026860962779568028 0 0.00032534874712851014 -0.0027218040369737539 0 0.00033041783344181058 -0.0026389979788758768 0 0.00033041783344181058 -0.0026389979788758768 0 0.00039306525328226138 -0.002692963188387952 0 0.00039162498419973964 -0.0025814260282236864 0 0.00039306525328226138 -0.002692963188387952 0 0.00047723938789812423 -0.0026972948734587908 0 0.00044129366113164058 -0.0027751294625768218 0 0.00039306525328226138 -0.002692963188387952 0 0.00039162498419973964 -0.0025814260282236864 0 0.00048353188029277752 -0.0026216217240095092 0 0.00039306525328226138 -0.002692963188387952 0 0.00047723938789812423 -0.0026972948734587908 0 0.00048353188029277752 -0.0026216217240095092 0 0.00039162498419973964 -0.0025814260282236864 0 0.00044194740410826073 -0.0025197927582024425 0 0.00048353188029277752 -0.0026216217240095092 0 0.00038066365249714003 -0.0024715885407295165 0 0.00039162498419973964 -0.0025814260282236864 0 0.00044194740410826073 -0.0025197927582024425 0 0.00045558495682648402 -0.0043281252587159379 0 0.00040785045213575437 -0.0042687198620587723 0 0.00038788428660331483 -0.0043591443706026949 0 0.00044129366113164058 -0.0027751294625768218 0 0.00036117563178718505 -0.0028092535835823004 0 0.00052272721700551052 -0.0027854863566624437 0 0.00045558495682648402 -0.0043281252587159379 0 0.00040785045213575437 -0.0042687198620587723 0 0.0004861003236214062 -0.0042494918803502122 0 0.00029113994063511119 -0.0032155518617014919 0 0.00051691821910600504 -0.0035229568176496561 0 0.00043932240309999101 -0.002586390390632287 0 0.00029113994063511119 -0.0032155518617014919 0 0.00039306525328226138 -0.002692963188387952 0 0.00044129366113164058 -0.0027751294625768218 0 0.00036117563178718505 -0.0028092535835823004 0 0.00031262032059417436 -0.0027706685788618092 0 0.00033724359531280121 -0.0027662090675923969 0 0.00029607097869171648 -0.0027936988058808471 0 0.00036438812431493101 -0.0030520566425038757 0 0.00029113994063511119 -0.0032155518617014919 0 0.00032534874712851014 -0.0027218040369737539 0 0.00039306525328226138 -0.002692963188387952 0 0.00035032994919098842 -0.0027650744246934967 0 0.00032534874712851014 -0.0027218040369737539 0 0.00031262032059417436 -0.0027706685788618092 0 0.00035032994919098842 -0.0027650744246934967 0 0.0002892747287048165 -0.0026860962779568028 0 0.00032534874712851014 -0.0027218040369737539 0 0.0002793282626873934 -0.0027617325511875928 0 0.00032534874712851014 -0.0027218040369737539 0 0.00031262032059417436 -0.0027706685788618092 0 0.0002793282626873934 -0.0027617325511875928 0 0.0002793282626873934 -0.0027617325511875928 0 0.00029607097869171648 -0.0027936988058808471 0 0.00026104528234461688 -0.0028045401379996832 0 0.00031262032059417436 -0.0027706685788618092 0 0.0002793282626873934 -0.0027617325511875928 0 0.00029607097869171648 -0.0027936988058808471 0 0.00029113994063511119 -0.0032155518617014919 0 0.00034557497043419423 -0.003678879422897784 0 0.00033724359531280121 -0.0027662090675923969 0 0.00029607097869171648 -0.0027936988058808471 0 0.00029478543407300014 -0.0028560826827465132 0 0.00029607097869171648 -0.0027936988058808471 0 0.00029478543407300014 -0.0028560826827465132 0 0.00026104528234461688 -0.0028045401379996832 0 0.00026842158862947657 -0.0011757715095936604 0 0.000279077729684716 -0.0010579999668341666 0 0.00020648059047367965 -0.0011486852521497485 0 0.00029478543407300014 -0.0028560826827465132 0 0.00022836498555334604 -0.002847116345509076 0 0.00026104528234461688 -0.0028045401379996832 0 0.00022836498555334604 -0.002847116345509076 0 0.00026104528234461688 -0.0028045401379996832 0 0.00023095875479056777 -0.0027414581783795108 0 0.00024815975120788189 -0.0020159016497914213 0 0.00025452474559684095 -0.0019041528404564387 0 0.0002793282626873934 -0.0027617325511875928 0 0.00026104528234461688 -0.0028045401379996832 0 0.00023095875479056777 -0.0027414581783795108 0 0.0002892747287048165 -0.0026860962779568028 0 0.0002793282626873934 -0.0027617325511875928 0 0.00023095875479056777 -0.0027414581783795108 0 0.00020662097018392332 -0.00099886757578755659 0 0.00019463898807769094 -0.0010771925656942532 0 0.0001340569257161278 -0.0010453797179202301 0 0.000279077729684716 -0.0010579999668341666 0 0.00019463898807769094 -0.0010771925656942532 0 0.00020648059047367965 -0.0011486852521497485 0 0.00020662097018392332 -0.00099886757578755659 0 0.000279077729684716 -0.0010579999668341666 0 0.00019463898807769094 -0.0010771925656942532 0 0.00021783112894322113 -0.0010477016867737451 0 0.00021787889072036375 -0.00072182499062871906 0 0.00019463898807769094 -0.0010771925656942532 0 0.00020648059047367965 -0.0011486852521497485 0 0.00014419974398780305 -0.0011362688284060351 0 0.00026842158862947657 -0.0011757715095936604 0 0.00020648059047367965 -0.0011486852521497485 0 0.00017905874771428115 -0.001206378930731798 0 0.00020648059047367965 -0.0011486852521497485 0 0.00017905874771428115 -0.001206378930731798 0 0.00017160853842552814 -0.001177141770546156 0 0.00026842158862947657 -0.0011757715095936604 0 0.00017905874771428115 -0.001206378930731798 0 0.00025643347036354898 -0.0013989596033976185 0 0.00024815975120788189 -0.0020159016497914213 0 0.00024390364723842433 -0.0021434090858823019 0 0.00017905874771428115 -0.001206378930731798 0 0.00018014849227595872 -0.0011710968944471972 0 0.00018229654990569875 -0.0011871337015536962 0 0.00017905874771428115 -0.001206378930731798 0 0.00014963960769965294 -0.001450976371183615 0 0.00025643347036354898 -0.0013989596033976185 0 0.00017626765515730717 -0.0012052915426863891 0 0.00016725749048256816 -0.0013333711399370178 0 0.00024346376784169861 -0.0029344783833056181 0 0.00026304820451826554 -0.002923426933503402 0 0.00024767944142830374 -0.0029522637165409022 0 0.00024797387689368838 -0.0029100386113111516 0 0.00024346376784169861 -0.0029344783833056181 0 0.00026304820451826554 -0.002923426933503402 0 0.00022567033121002143 -0.0029240556994349618 0 0.00024797387689368838 -0.0029100386113111516 0 0.00024346376784169861 -0.0029344783833056181 0 0.00024797387689368838 -0.0029100386113111516 0 0.00026473224673731352 -0.002920448657111975 0 0.00025151036335718292 -0.0028898004418730287 0 0.00027367060295569817 -0.0035134718306578422 0 0.0002810575862080267 -0.0035674861419418263 0 0.00024797387689368838 -0.0029100386113111516 0 0.00026304820451826554 -0.002923426933503402 0 0.00026473224673731352 -0.002920448657111975 0 0.00029478543407300014 -0.0028560826827465132 0 0.00022836498555334604 -0.002847116345509076 0 0.00026061112398036401 -0.0028801665991071853 0 0.00026473224673731352 -0.002920448657111975 0 0.00025151036335718292 -0.0028898004418730287 0 0.00026061112398036401 -0.0028801665991071853 0 0.00022836498555334604 -0.002847116345509076 0 0.00022567033121002143 -0.0029240556994349618 0 0.00024797387689368838 -0.0029100386113111516 0 0.00022836498555334604 -0.002847116345509076 0 0.00024797387689368838 -0.0029100386113111516 0 0.00025151036335718292 -0.0028898004418730287 0 0.00029478543407300014 -0.0028560826827465132 0 0.00026473224673731352 -0.002920448657111975 0 0.00026061112398036401 -0.0028801665991071853 0 0.00022836498555334604 -0.002847116345509076 0 0.00025151036335718292 -0.0028898004418730287 0 0.00026061112398036401 -0.0028801665991071853 0 0.00038788428660331483 -0.0043591443706026949 0 0.00040875081437167718 -0.0044105618987654947 0 0.00041187316083327665 -0.0044067893593263737 0 0.00034557497043419423 -0.003678879422897784 0 0.0002810575862080267 -0.0035674861419418263 0 0.00038788428660331483 -0.0043591443706026949 0 0.00041187316083327665 -0.0044067893593263737 0 0.00043183225065737089 -0.0044172849716478894 0 0.00041187316083327665 -0.0044067893593263737 0 0.00043183225065737089 -0.0044172849716478894 0 0.00041661086050233067 -0.0044182735851890399 0 0.00041060612816509496 -0.0044118077982489481 0 0.00040875081437167718 -0.0044105618987654947 0 0.00041187316083327665 -0.0044067893593263737 0 0.00041060612816509496 -0.0044118077982489481 0 0.00041187316083327665 -0.0044067893593263737 0 0.00041661086050233067 -0.0044182735851890399 0 0.00043183225065737089 -0.0044172849716478894 0 0.00041585926461761935 -0.0044281548389369452 0 0.00041661086050233067 -0.0044182735851890399 0 0.00045558495682648402 -0.0043281252587159379 0 0.00038788428660331483 -0.0043591443706026949 0 0.00043183225065737089 -0.0044172849716478894 0 -0.00013417673334916848 0.0020540561058948405 0 -0.00019907499370064644 0.0011471617004220856 0 8.8405523301025903e-05 0.0020721947856766074 0 3.8437641463344435e-05 0.0020643112392645054 0 5.5029109668571605e-05 0.0020997818222520475 0 0.00010785826662513072 0.0020895544326109102 0 8.8405523301025903e-05 0.0020721947856766074 0 9.2042973222525488e-05 0.0021049726093028361 0 8.8405523301025903e-05 0.0020721947856766074 0 5.5029109668571605e-05 0.0020997818222520475 0 9.2042973222525488e-05 0.0021049726093028361 0 -0.00041382881519246717 0.001717522215390429 0 -0.00030276964279696565 0.0017226849443813181 0 -0.00032162864513520504 0.0018132904832390577 0 -0.00024244424248868337 0.0017559330640921618 0 -0.00030276964279696565 0.0017226849443813181 0 -0.00032162864513520504 0.0018132904832390577 0 -0.00041382881519246717 0.001717522215390429 0 -0.00032162864513520504 0.0018132904832390577 0 -0.00047193942697550616 0.0018302764182794649 0 -0.00023981630787361526 0.00080393974430733629 0 -0.00019907499370064644 0.0011471617004220856 0 -8.7784779488620526e-05 0.00034160116028670136 0 -0.00010113739189337012 0.00026191694196896881 0 -0.0001518227822854218 0.00019570431945221497 0 -0.00053624460101799412 0.0016987573364627675 0 -0.00041382881519246717 0.001717522215390429 0 -0.00047193942697550616 0.0018302764182794649 0 -0.00010113739189337012 0.00026191694196896881 0 -8.9434873248387946e-05 0.00018377489241707499 0 -0.0001518227822854218 0.00019570431945221497 0 0.00019463898807769094 -0.0010771925656942532 0 0.0001340569257161278 -0.0010453797179202301 0 0.00014419974398780305 -0.0011362688284060351 0 3.923589616696968e-05 -0.00039120503405118336 0 0.00021787889072036375 -0.00072182499062871906 0 -5.9625865252558844e-05 0.00027797841433621954 0 -0.00010113739189337012 0.00026191694196896881 0 -8.9434873248387946e-05 0.00018377489241707499 0 -5.9625865252558844e-05 0.00027797841433621954 0 -4.5471412943678593e-05 0.00017301289039676232 0 -8.9434873248387946e-05 0.00018377489241707499 0 -8.5282035722373845e-05 0.00031337254502204461 0 -5.9625865252558844e-05 0.00027797841433621954 0 -0.00010113739189337012 0.00026191694196896881 0 -0.00023981630787361526 0.00080393974430733629 0 -0.00016366726556095264 0.0001801182791711428 0 0.00021787889072036375 -0.00072182499062871906 0 -4.4005626876116625e-05 -5.2748711817574295e-05 0 0.0001761236640291779 -0.0011785470502623829 0 0.00017160853842552814 -0.001177141770546156 0 0.00017840413744703103 -0.0011796745423715202 0 0.00017237600603992978 -0.0011781147915244968 0 0.0001761236640291779 -0.0011785470502623829 0 0.00017160853842552814 -0.001177141770546156 0 0.00020648059047367965 -0.0011486852521497485 0 0.0001688807697394491 -0.00115018707503815 0 0.00017160853842552814 -0.001177141770546156 0 0.00021787889072036375 -0.00072182499062871906 0 0.0002180889881918049 -0.0010954394744167185 0 -3.4739315394389446e-05 0.00044075042584410825 0 -4.5029439750429806e-06 0.00043844110782835808 0 1.0536964656776998e-05 0.00049677381740977295 0 -4.4005626876116625e-05 -5.2748711817574295e-05 0 6.1641922481294424e-05 -0.00052198702040285477 0 -0.00019907499370064644 0.0011471617004220856 0 0.00010002832064932123 0.0014768775081407818 0 -4.4005626876116625e-05 -5.2748711817574295e-05 0 -0.00019907499370064644 0.0011471617004220856 0 -4.5029439750429806e-06 0.00043844110782835808 0 1.0536964656776998e-05 0.00049677381740977295 0 2.5695660384746955e-05 0.00049548775454186732 0 0.00018717383057573461 -0.00117358390495356 0 0.00017840413744703103 -0.0011796745423715202 0 0.00018204379715571454 -0.0011814635577194457 0 0.0001761236640291779 -0.0011785470502623829 0 0.00018717383057573461 -0.00117358390495356 0 0.00017840413744703103 -0.0011796745423715202 0 0.00018717383057573461 -0.00117358390495356 0 0.00018204379715571454 -0.0011814635577194457 0 0.00018635627353605908 -0.0011730530423967581 0 0.00017160853842552814 -0.001177141770546156 0 0.00017798075924792107 -0.0011890292702415898 0 0.00017840413744703103 -0.0011796745423715202 0 0.00017905874771428115 -0.001206378930731798 0 0.00017160853842552814 -0.001177141770546156 0 0.00017798075924792107 -0.0011890292702415898 0 0.00017798075924792107 -0.0011890292702415898 0 0.00017840413744703103 -0.0011796745423715202 0 0.00018204379715571454 -0.0011814635577194457 0 0.00017905874771428115 -0.001206378930731798 0 0.00017798075924792107 -0.0011890292702415898 0 0.00018229654990569875 -0.0011871337015536962 0 0.00017798075924792107 -0.0011890292702415898 0 0.00018204379715571454 -0.0011814635577194457 0 0.00018229654990569875 -0.0011871337015536962 0 0.00018014849227595872 -0.0011710968944471972 0 0.00018229654990569875 -0.0011871337015536962 0 0.00018440919972601938 -0.0011783475098287805 0 0.00018204379715571454 -0.0011814635577194457 0 0.00018229654990569875 -0.0011871337015536962 0 0.00018440919972601938 -0.0011783475098287805 0 0.00018204379715571454 -0.0011814635577194457 0 0.00018440919972601938 -0.0011783475098287805 0 0.00018635627353605908 -0.0011730530423967581 0 0.00018440919972601938 -0.0011783475098287805 0 0.0001862269131057809 -0.0011719877625380234 0 0.00018635627353605908 -0.0011730530423967581 0 0.0001862269131057809 -0.0011719877625380234 0 0.00018635627353605908 -0.0011730530423967581 0 0.00018838278914714993 -0.001169130646433677 0 0.00018014849227595872 -0.0011710968944471972 0 0.00018440919972601938 -0.0011783475098287805 0 0.0001862269131057809 -0.0011719877625380234 0 0.00018717383057573461 -0.00117358390495356 0 0.00018635627353605908 -0.0011730530423967581 0 0.00018903602191635351 -0.0011657273044119408 0 0.00018635627353605908 -0.0011730530423967581 0 0.00018903602191635351 -0.0011657273044119408 0 0.00018838278914714993 -0.001169130646433677 0 0.00018717383057573461 -0.00117358390495356 0 0.00018903602191635351 -0.0011657273044119408 0 0.00019108234697353337 -0.0011577536636400018 0 0.00010919039433897603 0.000492619372621105 0 0.00010002832064932123 0.0014768775081407818 0 6.1641922481294424e-05 -0.00052198702040285477 0 0.00010919039433897603 0.000492619372621105 0 1.0536964656776998e-05 0.00049677381740977295 0 5.9355559009917352e-05 0.00054646530285391447 0 2.5695660384746955e-05 0.00049548775454186732 0 6.4852265510925022e-05 0.0021325159963178136 0 5.5029109668571605e-05 0.0020997818222520475 0 9.2042973222525488e-05 0.0021049726093028361 0 0.00010930846403820583 0.0021394837502022972 0 6.4852265510925022e-05 0.0021325159963178136 0 9.2042973222525488e-05 0.0021049726093028361 0 0.00010919039433897603 0.000492619372621105 0 0.00011454056016734427 -0.00048056793819907393 0 0.00010919039433897603 0.000492619372621105 0 0.00017835318525736546 0.0015084971382381099 0 0.00011269455548408865 0.00043854243356326942 0 0.00020029144347510731 0.00054315778408174111 0 0.00017106901452394198 0.00054759258091781208 0 0.00010930846403820583 0.0021394837502022972 0 6.4852265510925022e-05 0.0021325159963178136 0 9.0222962067715889e-05 0.0021875318628112768 0 0.00020029144347510731 0.00054315778408174111 0 0.00017106901452394198 0.00054759258091781208 0 0.00022737645797172814 0.00066471826838023483 0 0.00011454056016734427 -0.00048056793819907393 0 0.0004416378905729744 -0.00023550340768439763 0 0.00017961342616997671 -0.0011609036457858898 0 0.00016747858681260752 -0.0011878754719169113 0 0.00019022649336314837 -0.0011763990633960112 0 0.00018897657456303958 -0.0011696791656492784 0 0.00018959688762760929 -0.0011736674392071266 0 0.00019022649336314837 -0.0011763990633960112 0 0.00017961342616997671 -0.0011609036457858898 0 0.00018897657456303958 -0.0011696791656492784 0 0.00019022649336314837 -0.0011763990633960112 0 0.00017961342616997671 -0.0011609036457858898 0 0.00018897657456303958 -0.0011696791656492784 0 0.00018913844803703379 -0.0011643342391709419 0 0.00018897657456303958 -0.0011696791656492784 0 0.00018913844803703379 -0.0011643342391709419 0 0.00018959688762760929 -0.0011736674392071266 0 0.00019108234697353337 -0.0011577536636400018 0 0.00017961342616997671 -0.0011609036457858898 0 0.00018913844803703379 -0.0011643342391709419 0 0.00018903602191635351 -0.0011657273044119408 0 0.00019108234697353337 -0.0011577536636400018 0 0.00018913844803703379 -0.0011643342391709419 0 0.00018903602191635351 -0.0011657273044119408 0 0.00018913844803703379 -0.0011643342391709419 0 0.00018944833927273403 -0.0011698209329289353 0 0.00018903602191635351 -0.0011657273044119408 0 0.00018838278914714993 -0.001169130646433677 0 0.00018944833927273403 -0.0011698209329289353 0 0.00018838278914714993 -0.001169130646433677 0 0.00018944833927273403 -0.0011698209329289353 0 0.00018849905490297581 -0.0011705690685291502 0 0.00018014849227595872 -0.0011710968944471972 0 0.00018849905490297581 -0.0011705690685291502 0 0.00018988009960533517 -0.0011722400972278236 0 0.00018014849227595872 -0.0011710968944471972 0 0.0001862269131057809 -0.0011719877625380234 0 0.00018849905490297581 -0.0011705690685291502 0 0.0001862269131057809 -0.0011719877625380234 0 0.00018838278914714993 -0.001169130646433677 0 0.00018849905490297581 -0.0011705690685291502 0 0.00018944833927273403 -0.0011698209329289353 0 0.00018849905490297581 -0.0011705690685291502 0 0.00019059453258950571 -0.0011737168536989308 0 0.00018849905490297581 -0.0011705690685291502 0 0.00018988009960533517 -0.0011722400972278236 0 0.00019059453258950571 -0.0011737168536989308 0 0.00018988009960533517 -0.0011722400972278236 0 0.00019214893653446579 -0.0011744921033124283 0 0.00019480863728521818 -0.0011744606964047533 0 0.00018988009960533517 -0.0011722400972278236 0 0.00019214893653446579 -0.0011744921033124283 0 0.00019059453258950571 -0.0011737168536989308 0 0.00019059453258950571 -0.0011737168536989308 0 0.00018953433230385296 -0.0011761978920476527 0 0.00019282363424368625 -0.0011812699976690131 0 0.00019059453258950571 -0.0011737168536989308 0 0.00019363624754543273 -0.0011790557005399733 0 0.00019282363424368625 -0.0011812699976690131 0 0.00019214893653446579 -0.0011744921033124283 0 0.00019059453258950571 -0.0011737168536989308 0 0.00019363624754543273 -0.0011790557005399733 0 0.00019214893653446579 -0.0011744921033124283 0 0.00019363624754543273 -0.0011790557005399733 0 0.00019480863728521818 -0.0011744606964047533 0 0.00018913844803703379 -0.0011643342391709419 0 0.00018944833927273403 -0.0011698209329289353 0 0.00018959688762760929 -0.0011736674392071266 0 0.00018944833927273403 -0.0011698209329289353 0 0.00018953433230385296 -0.0011761978920476527 0 0.00018959688762760929 -0.0011736674392071266 0 0.00018944833927273403 -0.0011698209329289353 0 0.00019059453258950571 -0.0011737168536989308 0 0.00018953433230385296 -0.0011761978920476527 0 0.00018953433230385296 -0.0011761978920476527 0 0.00018959688762760929 -0.0011736674392071266 0 0.00018830796679489742 -0.0011801536247008624 0 0.00018953433230385296 -0.0011761978920476527 0 0.00018830796679489742 -0.0011801536247008624 0 0.00019332572372984282 -0.0011849190215250376 0 0.0003102566123190252 -0.0012216381921015128 0 0.00037827879605517221 -0.0012800298126069214 0 0.00029889078337371871 -0.0012824781923926501 0 0.0003102566123190252 -0.0012216381921015128 0 0.00029889078337371871 -0.0012824781923926501 0 0.00024492966066914321 -0.0012279686147565808 0 0.00018830796679489742 -0.0011801536247008624 0 0.00019332572372984282 -0.0011849190215250376 0 0.00019913392160090512 -0.0011966363475158827 0 0.00021830015404653206 -0.0010994088533352779 0 0.00032096591981011082 -0.0020991873313733734 0 0.00019363624754543273 -0.0011790557005399733 0 0.00019282363424368625 -0.0011812699976690131 0 0.0001995197167233848 -0.0011940916409726803 0 0.00019363624754543273 -0.0011790557005399733 0 0.00019480863728521818 -0.0011744606964047533 0 0.0001995197167233848 -0.0011940916409726803 0 0.0003102566123190252 -0.0012216381921015128 0 0.00037827879605517221 -0.0012800298126069214 0 0.00045956348746937646 -0.0012864417592904609 0 0.00018953433230385296 -0.0011761978920476527 0 0.00019282363424368625 -0.0011812699976690131 0 0.00019332572372984282 -0.0011849190215250376 0 0.00019282363424368625 -0.0011812699976690131 0 0.00019332572372984282 -0.0011849190215250376 0 0.0001995197167233848 -0.0011940916409726803 0 0.00019332572372984282 -0.0011849190215250376 0 0.0001995197167233848 -0.0011940916409726803 0 0.00019913392160090512 -0.0011966363475158827 0 0.00044774602972340636 -0.0013313724548104507 0 0.00037827879605517221 -0.0012800298126069214 0 0.00029889078337371871 -0.0012824781923926501 0 0.00045836056469486828 -0.0022748550023383605 0 0.00029974087330818754 -0.0014716764712474485 0 0.00049584383326377909 -0.0029155164497220087 0 0.00050067903485428013 -0.0029168948554164124 0 0.00048460468201648595 -0.0029643669492520918 0 0.0004773094252208275 -0.0019157479021762167 0 0.00064124024112159768 -0.0018487671019516631 0 0.00035444918353766993 -0.0017830955136049565 0 0.0004773094252208275 -0.0019157479021762167 0 0.00064124024112159768 -0.0018487671019516631 0 0.00060075048566751081 -0.0020481453785176408 0 0.00044774602972340636 -0.0013313724548104507 0 0.00037827879605517221 -0.0012800298126069214 0 0.00045956348746937646 -0.0012864417592904609 0 0.0004773094252208275 -0.0019157479021762167 0 0.00035444918353766993 -0.0017830955136049565 0 0.00031235905431314085 -0.0019833943394331941 0 0.00029191844332478612 -0.0013871022238234932 0 0.00056703800836600891 -0.0015324607970766471 0 0.00035444918353766993 -0.0017830955136049565 0 6.9449131211747256e-05 -0.0017175218165090904 0 0.00031235905431314085 -0.0019833943394331941 0 0.00029974087330818754 -0.0014716764712474485 0 0.00029191844332478612 -0.0013871022238234932 0 0.00066631730056018702 -0.0011487131854943581 0 0.00065832937452093979 -0.0012719843951659096 0 0.00076576251512041162 -0.001265070386743503 0 0.00061567920716698349 -0.0012013651609034772 0 0.00066631730056018702 -0.0011487131854943581 0 0.00065832937452093979 -0.0012719843951659096 0 0.00061567920716698349 -0.0012013651609034772 0 0.00066631730056018702 -0.0011487131854943581 0 0.00058763866542144605 -0.0011274227627392204 0 0.00029191844332478612 -0.0013871022238234932 0 0.00013867527550732813 -0.0011804322428727314 0 0.00017961342616997671 -0.0011609036457858898 0 0.00016747858681260752 -0.0011878754719169113 0 0.00015489417766869121 -0.0011937627913566949 0 0.00018174298103087262 -0.0012017262009518894 0 0.00016747858681260752 -0.0011878754719169113 0 0.00015489417766869121 -0.0011937627913566949 0 0.00029191844332478612 -0.0013871022238234932 0 0.0004416378905729744 -0.00023550340768439763 0 0.00018451579392909305 -0.0012332790866765436 0 0.00016747858681260752 -0.0011878754719169113 0 0.00019022649336314837 -0.0011763990633960112 0 0.00029889078337371871 -0.0012824781923926501 0 0.00018451579392909305 -0.0012332790866765436 0 0.00024492966066914321 -0.0012279686147565808 0 0.0003102566123190252 -0.0012216381921015128 0 0.00019022649336314837 -0.0011763990633960112 0 0.00024492966066914321 -0.0012279686147565808 0 0.00018959688762760929 -0.0011736674392071266 0 0.00018830796679489742 -0.0011801536247008624 0 0.00019022649336314837 -0.0011763990633960112 0 0.00021830015404653206 -0.0010994088533352779 0 0.00021236045756389401 -0.0012029630343964777 0 0.00018451579392909305 -0.0012332790866765436 0 0.00019022649336314837 -0.0011763990633960112 0 0.00024492966066914321 -0.0012279686147565808 0 0.00041726256133186299 -0.0044050933384089299 0 0.00040474024240535784 -0.0043805298040887636 0 0.00038507464921888764 -0.0044047994738683456 0 0.00041726256133186299 -0.0044050933384089299 0 0.00041585926461761935 -0.0044281548389369452 0 0.00041661086050233067 -0.0044182735851890399 0 0.00041726256133186299 -0.0044050933384089299 0 0.00041585926461761935 -0.0044281548389369452 0 0.00038507464921888764 -0.0044047994738683456 0 0.00041726256133186299 -0.0044050933384089299 0 0.00041661086050233067 -0.0044182735851890399 0 0.00043743179970050981 -0.0044023814790885738 0 0.00041726256133186299 -0.0044050933384089299 0 0.00043078434535563442 -0.0043791794492802254 0 0.00040474024240535784 -0.0043805298040887636 0 0.00041726256133186299 -0.0044050933384089299 0 0.00043078434535563442 -0.0043791794492802254 0 0.00043743179970050981 -0.0044023814790885738 0 0.00030622643102600855 -0.0037640222540316196 0 0.00032447765117330646 -0.0036932007398738646 0 0.0002212540816474256 -0.0029940051231994876 0 0.00024660833294567255 -0.0029432291773444142 0 0.00022794028503318688 -0.0029674861488051467 0 0.00018816735022031075 -0.0030374799101562924 0 0.00022297062751166341 -0.0029378928101228999 0 0.00043078434535563442 -0.0043791794492802254 0 0.00043743179970050981 -0.0044023814790885738 0 0.00045797988675287687 -0.0043685156970809927 0 0.00022794028503318688 -0.0029674861488051467 0 0.00024767944142830374 -0.0029522637165409022 0 0.00023910091531955164 -0.0029525792584830738 0 0.00022794028503318688 -0.0029674861488051467 0 0.00018816735022031075 -0.0030374799101562924 0 0.00019597426037727041 -0.0030665782817970943 0 0.00027367060295569817 -0.0035134718306578422 0 0.00024660833294567255 -0.0029432291773444142 0 0.00014868311125112421 -0.0031932589790753052 0 0.00018816735022031075 -0.0030374799101562924 0 0.00019597426037727041 -0.0030665782817970943 0 0.00027367060295569817 -0.0035134718306578422 0 0.00030622643102600855 -0.0037640222540316196 0 0.00041060612816509496 -0.0044118077982489481 0 0.00041661086050233067 -0.0044182735851890399 0 0.00043743179970050981 -0.0044023814790885738 0 0.00022567033121002143 -0.0029240556994349618 0 0.00024346376784169861 -0.0029344783833056181 0 0.00023910091531955164 -0.0029525792584830738 0 0.00024346376784169861 -0.0029344783833056181 0 0.00024767944142830374 -0.0029522637165409022 0 0.00023910091531955164 -0.0029525792584830738 0 0.00024390364723842433 -0.0021434090858823019 0 0.00020858522026367837 -0.0024396105620734503 0 0.00014963960769965294 -0.001450976371183615 0 0.00025643347036354898 -0.0013989596033976185 0 0.00020426185475179564 -0.0017348854017550377 0 0.00018014849227595872 -0.0011710968944471972 0 0.00018988009960533517 -0.0011722400972278236 0 0.00019480863728521818 -0.0011744606964047533 0 0.00014963960769965294 -0.001450976371183615 0 0.00020426185475179564 -0.0017348854017550377 0 0.0001425746407857835 -0.0017635301177200391 0 0.00022567033121002143 -0.0029240556994349618 0 0.00023910091531955164 -0.0029525792584830738 0 0.00024012598675681975 -0.0029678248430191436 0 0.00016725749048256816 -0.0013333711399370178 0 0.00016353915076898137 -0.0013745610533600786 0 0.00020426185475179564 -0.0017348854017550377 0 0.0001425746407857835 -0.0017635301177200391 0 0.00014189185851526634 -0.0020894922881373322 0 0.00022794028503318688 -0.0029674861488051467 0 0.00023910091531955164 -0.0029525792584830738 0 0.00024012598675681975 -0.0029678248430191436 0 0.00022794028503318688 -0.0029674861488051467 0 0.00024012598675681975 -0.0029678248430191436 0 0.00022297062751166341 -0.0029378928101228999 0 0.00026184148188920569 -0.0029032021867727879 0 0.00023580019627096867 -0.0028917300553630908 0 0.00022297062751166341 -0.0029378928101228999 0 0.00016353915076898137 -0.0013745610533600786 0 0.00023920301800199042 -0.0020880738512392941 0 0.00024012598675681975 -0.0029678248430191436 0 0.00026184148188920569 -0.0029032021867727879 0 0.00022297062751166341 -0.0029378928101228999 0 0.00020858522026367837 -0.0024396105620734503 0 0.00023920301800199042 -0.0020880738512392941 0 0.00023920301800199042 -0.0020880738512392941 0 0.00032096591981011082 -0.0020991873313733734 0 0.00048080132622862299 -0.0029953358439151383 0 0.00048056102515859798 -0.0030003783691800222 0 0.00048470885904263117 -0.0030035565685236493 0 0.00048080132622862299 -0.0029953358439151383 0 0.00048470885904263117 -0.0030035565685236493 0 0.00048527722241762571 -0.0030041025053171573 0 0.00026184148188920569 -0.0029032021867727879 0 0.00026215964944874346 -0.0028977690919928709 0 0.00023580019627096867 -0.0028917300553630908 0 0.00048470885904263117 -0.0030035565685236493 0 0.00048527722241762571 -0.0030041025053171573 0 0.00048357713567088106 -0.0029996812626928732 0 0.00032096591981011082 -0.0020991873313733734 0 0.00049716538679399922 -0.0033725492085431657 0 0.00030213245521574383 -0.0023278527111744635 0 0.00034300406576845096 -0.002174563983227175 0 0.00033868028967241458 -0.0023354735034476319 0 0.00045836056469486828 -0.0022748550023383605 0 0.00032096591981011082 -0.0020991873313733734 0 0.00032096591981011082 -0.0020991873313733734 0 0.0004987498177427053 -0.0025780691267281905 0 0.00045836056469486828 -0.0022748550023383605 0 0.0004987498177427053 -0.0025780691267281905 0 0.0004987498177427053 -0.0025780691267281905 0 0.00052774964512549848 -0.0027442278850083775 0 0.00049716538679399922 -0.0033725492085431657 0 0.00039452621080126015 -0.0039416586971487231 0 0.00047022676191672244 -0.0043278003728967618 0 0.0004400201998679031 -0.00432176661168409 0 0.00044045915303886948 -0.0043498703284286519 0 0.00046635992463524875 -0.0031568318681079706 0 0.00037912194777319738 -0.0031103739957233979 0 0.00034881352561664581 -0.0031260043454254629 0 0.00046635992463524875 -0.0031568318681079706 0 0.00037912194777319738 -0.0031103739957233979 0 0.00045386590728144899 -0.003067529512083595 0 0.00043880017844540032 -0.0038361818045291635 0 0.00043850230209110274 -0.0041069129930377344 0 0.00036240211351738896 -0.0031131287843459907 0 0.00037912194777319738 -0.0031103739957233979 0 0.00034881352561664581 -0.0031260043454254629 0 0.00040662789003215747 -0.003978570935063065 0 0.00041148045726975617 -0.003974605088953519 0 0.00042012554756116463 -0.0039780772391793595 0 0.00043880017844540032 -0.0038361818045291635 0 0.00039452621080126015 -0.0039416586971487231 0 0.00043880017844540032 -0.0038361818045291635 0 0.00043537727739954938 -0.0037947458563707768 0 0.00047022676191672244 -0.0043278003728967618 0 0.00044045915303886948 -0.0043498703284286519 0 0.00045797988675287687 -0.0043685156970809927 0 0.00043078434535563442 -0.0043791794492802254 0 0.00044045915303886948 -0.0043498703284286519 0 0.00045797988675287687 -0.0043685156970809927 0 0.00049716538679399922 -0.0033725492085431657 0 0.00032447765117330646 -0.0036932007398738646 0 0.00043078434535563442 -0.0043791794492802254 0 0.0004207426190461906 -0.0043601301539801509 0 0.00040474024240535784 -0.0043805298040887636 0 0.00043078434535563442 -0.0043791794492802254 0 0.00044045915303886948 -0.0043498703284286519 0 0.0004207426190461906 -0.0043601301539801509 0 0.0004207426190461906 -0.0043601301539801509 0 0.00042649348094157813 -0.004340207464492281 0 0.0004059760421453013 -0.0043541866019743128 0 0.00044045915303886948 -0.0043498703284286519 0 0.0004207426190461906 -0.0043601301539801509 0 0.00042649348094157813 -0.004340207464492281 0 0.00043502411266511818 -0.0043245160658458952 0 0.00042649348094157813 -0.004340207464492281 0 0.00039318823405803439 -0.0043310234974180233 0 0.00043850230209110274 -0.0041069129930377344 0 0.0004238100224123961 -0.0043171925654185168 0 0.00039452621080126015 -0.0039416586971487231 0 0.0003415062734956229 -0.0042960760982460574 0 0.0004400201998679031 -0.00432176661168409 0 0.00044045915303886948 -0.0043498703284286519 0 0.00042649348094157813 -0.004340207464492281 0 0.00044058196955059763 -0.0043259121548223185 0 0.00043502411266511818 -0.0043245160658458952 0 0.00042649348094157813 -0.004340207464492281 0 0.00046772763822722745 -0.0043259856587956422 0 0.00044870915878267032 -0.0043279522163862496 0 0.00045100124485397257 -0.0043044970004916779 0 0.00039452621080126015 -0.0039416586971487231 0 0.00043850230209110274 -0.0041069129930377344 0 0.00042649348094157813 -0.004340207464492281 0 0.00039318823405803439 -0.0043310234974180233 0 0.0004059760421453013 -0.0043541866019743128 0 0.00044061064701602119 -0.0043233953780299891 0 0.00035995946176009698 -0.0043306657236892743 0 0.00039297421231749798 -0.0043081591012201432 0 0.00043850230209110274 -0.0041069129930377344 0 0.00037466220815931205 -0.0043574185178077394 0 0.00039318823405803439 -0.0043310234974180233 0 0.0004059760421453013 -0.0043541866019743128 0 0.00037933295128826633 -0.0043653605348050644 0 0.0004059760421453013 -0.0043541866019743128 0 0.00040474024240535784 -0.0043805298040887636 0 0.00037933295128826633 -0.0043653605348050644 0 0.0004207426190461906 -0.0043601301539801509 0 0.0004059760421453013 -0.0043541866019743128 0 0.00040474024240535784 -0.0043805298040887636 0 0.0003827395809330032 -0.0042453537125004027 0 0.0003860357493554025 -0.0042125996048905344 0 0.00035071767343281863 -0.004225323560214142 0 0.0003827395809330032 -0.0042453537125004027 0 0.00033899972516961277 -0.0042647564765248246 0 0.00035071767343281863 -0.004225323560214142 0 0.0003827395809330032 -0.0042453537125004027 0 0.00042816822255956939 -0.0042208769291005848 0 0.0003860357493554025 -0.0042125996048905344 0 0.0003827395809330032 -0.0042453537125004027 0 0.00036806254047027834 -0.0042879422130536696 0 0.00040949234805026891 -0.00426782979533398 0 0.0003827395809330032 -0.0042453537125004027 0 0.00036806254047027834 -0.0042879422130536696 0 0.00033899972516961277 -0.0042647564765248246 0 0.00035995946176009698 -0.0043306657236892743 0 0.00036806254047027834 -0.0042879422130536696 0 0.00039297421231749798 -0.0043081591012201432 0 0.00036806254047027834 -0.0042879422130536696 0 0.00039297421231749798 -0.0043081591012201432 0 0.00040949234805026891 -0.00426782979533398 0 0.00039297421231749798 -0.0043081591012201432 0 0.00043047943165677494 -0.0042917904766040611 0 0.00040949234805026891 -0.00426782979533398 0 0.00044870915878267032 -0.0043279522163862496 0 0.00039297421231749798 -0.0043081591012201432 0 0.00043047943165677494 -0.0042917904766040611 0 0.00044870915878267032 -0.0043279522163862496 0 0.00045100124485397257 -0.0043044970004916779 0 0.00043047943165677494 -0.0042917904766040611 0 0.00045100124485397257 -0.0043044970004916779 0 0.00043047943165677494 -0.0042917904766040611 0 0.00046969664751397692 -0.0042852292278037123 0 0.00043047943165677494 -0.0042917904766040611 0 0.00045265421863479563 -0.0042580578064205753 0 0.00040949234805026891 -0.00426782979533398 0 0.00043047943165677494 -0.0042917904766040611 0 0.00045265421863479563 -0.0042580578064205753 0 0.00046969664751397692 -0.0042852292278037123 0 0.00045265421863479563 -0.0042580578064205753 0 0.00040949234805026891 -0.00426782979533398 0 0.00042816822255956939 -0.0042208769291005848 0 0.0003827395809330032 -0.0042453537125004027 0 0.00040949234805026891 -0.00426782979533398 0 0.00042816822255956939 -0.0042208769291005848 0 0.00045265421863479563 -0.0042580578064205753 0 0.00042816822255956939 -0.0042208769291005848 0 0.00048302354978626958 -0.0042210032867288074 0 0.00048302354978626958 -0.0042210032867288074 0 0.0004913026964493576 -0.0042548267431204321 0 0.00053451293660758685 -0.0042249231343907878 0 0.00048302354978626958 -0.0042210032867288074 0 0.00053451293660758685 -0.0042249231343907878 0 0.0005231047415990925 -0.0042001765909134925 0 0.00045265421863479563 -0.0042580578064205753 0 0.00048302354978626958 -0.0042210032867288074 0 0.0004913026964493576 -0.0042548267431204321 0 0.00045265421863479563 -0.0042580578064205753 0 0.0004913026964493576 -0.0042548267431204321 0 0.00046969664751397692 -0.0042852292278037123 0 0.00036288627434232586 -0.003112820848669606 0 0.00037912194777319738 -0.0031103739957233979 0 0.00047400260443690185 -0.0030063970202126957 0 0.00043880017844540032 -0.0038361818045291635 0 0.00047114024236481441 -0.0036922124150245228 0 0.00046772763822722745 -0.0043259856587956422 0 0.00046969664751397692 -0.0042852292278037123 0 0.00052868511359552587 -0.0042741934170010482 0 0.0004913026964493576 -0.0042548267431204321 0 0.00046969664751397692 -0.0042852292278037123 0 0.00052868511359552587 -0.0042741934170010482 0 0.00046772763822722745 -0.0043259856587956422 0 0.00045100124485397257 -0.0043044970004916779 0 0.00046969664751397692 -0.0042852292278037123 0 0.00037912194777319738 -0.0031103739957233979 0 0.00047400260443690185 -0.0030063970202126957 0 0.00045386590728144899 -0.003067529512083595 0 0.00046635992463524875 -0.0031568318681079706 0 0.00045386590728144899 -0.003067529512083595 0 0.00048357713567088106 -0.0029996812626928732 0 0.00049716538679399922 -0.0033725492085431657 0 0.00049393511191979356 -0.0028896843071992907 0 0.00048659092970281876 -0.0030052438675483031 0 0.00048470885904263117 -0.0030035565685236493 0 0.00048357713567088106 -0.0029996812626928732 0 0.0004987498177427053 -0.0025780691267281905 0 0.00049008901873262979 -0.0031495399158379266 0 0.00047400260443690185 -0.0030063970202126957 0 0.00045386590728144899 -0.003067529512083595 0 0.00048357713567088106 -0.0029996812626928732 0 0.00048659092970281876 -0.0030052438675483031 0 0.00048357713567088106 -0.0029996812626928732 0 0.00049376086551599209 -0.0029905543482874552 0 0.00048357713567088106 -0.0029996812626928732 0 0.00049376086551599209 -0.0029905543482874552 0 0.0005013301741496999 -0.0029793869344391273 0 0.00047400260443690185 -0.0030063970202126957 0 0.00048357713567088106 -0.0029996812626928732 0 0.0005013301741496999 -0.0029793869344391273 0 0.00052868511359552587 -0.0042741934170010482 0 0.00053451293660758685 -0.0042249231343907878 0 0.00059099580533500872 -0.0042148698597645889 0 0.00047114024236481441 -0.0036922124150245228 0 0.00056909774670749994 -0.0031088018928211846 0 0.0004913026964493576 -0.0042548267431204321 0 0.00052868511359552587 -0.0042741934170010482 0 0.00053451293660758685 -0.0042249231343907878 0 0.00053451293660758685 -0.0042249231343907878 0 0.00054660480232836392 -0.0042053772855433968 0 0.0005231047415990925 -0.0042001765909134925 0 0.00053451293660758685 -0.0042249231343907878 0 0.00059099580533500872 -0.0042148698597645889 0 0.00057928491351814785 -0.0042038407365701195 0 0.00053451293660758685 -0.0042249231343907878 0 0.00054660480232836392 -0.0042053772855433968 0 0.00057928491351814785 -0.0042038407365701195 0 0.00055951973532333756 -0.0041816734600952539 0 0.00054660480232836392 -0.0042053772855433968 0 0.00057928491351814785 -0.0042038407365701195 0 0.00055951973532333756 -0.0041816734600952539 0 0.00054660480232836392 -0.0042053772855433968 0 0.0005231047415990925 -0.0042001765909134925 0 0.0005231047415990925 -0.0042001765909134925 0 0.00052691897530456142 -0.0041736785530307489 0 0.00049871002890355595 -0.0041862285490687845 0 0.00055951973532333756 -0.0041816734600952539 0 0.0005231047415990925 -0.0042001765909134925 0 0.00052691897530456142 -0.0041736785530307489 0 0.00055951973532333756 -0.0041816734600952539 0 0.00052691897530456142 -0.0041736785530307489 0 0.00054388774112733784 -0.004143586082124155 0 0.00055951973532333756 -0.0041816734600952539 0 0.00054388774112733784 -0.004143586082124155 0 0.00058030017783843783 -0.0041477573179346675 0 0.00054388774112733784 -0.004143586082124155 0 0.00058030017783843783 -0.0041477573179346675 0 0.00057268433973592663 -0.0040924630576342422 0 0.00054388774112733784 -0.004143586082124155 0 0.0005172475742410567 -0.004116564762478043 0 0.00057268433973592663 -0.0040924630576342422 0 0.00054388774112733784 -0.004143586082124155 0 0.0004953315072031419 -0.0041570230784174836 0 0.0005172475742410567 -0.004116564762478043 0 0.00052691897530456142 -0.0041736785530307489 0 0.00054388774112733784 -0.004143586082124155 0 0.0004953315072031419 -0.0041570230784174836 0 0.0004953315072031419 -0.0041570230784174836 0 0.0005172475742410567 -0.004116564762478043 0 0.00046590288505335171 -0.0041201483176727741 0 0.0004953315072031419 -0.0041570230784174836 0 0.00046590288505335171 -0.0041201483176727741 0 0.00044227888205338942 -0.0041674839901715407 0 0.0004953315072031419 -0.0041570230784174836 0 0.00046768327570902434 -0.0041900272426107265 0 0.00044227888205338942 -0.0041674839901715407 0 0.0004953315072031419 -0.0041570230784174836 0 0.00046768327570902434 -0.0041900272426107265 0 0.00049871002890355595 -0.0041862285490687845 0 0.00052691897530456142 -0.0041736785530307489 0 0.0004953315072031419 -0.0041570230784174836 0 0.00049871002890355595 -0.0041862285490687845 0 0.00048302354978626958 -0.0042210032867288074 0 0.0005231047415990925 -0.0042001765909134925 0 0.00049871002890355595 -0.0041862285490687845 0 0.00042816822255956939 -0.0042208769291005848 0 0.00048302354978626958 -0.0042210032867288074 0 0.00046768327570902434 -0.0041900272426107265 0 0.00048302354978626958 -0.0042210032867288074 0 0.00046768327570902434 -0.0041900272426107265 0 0.00049871002890355595 -0.0041862285490687845 0 0.00042816822255956939 -0.0042208769291005848 0 0.00046768327570902434 -0.0041900272426107265 0 0.00044227888205338942 -0.0041674839901715407 0 0.00042816822255956939 -0.0042208769291005848 0 0.00044227888205338942 -0.0041674839901715407 0 0.00040199901562391714 -0.0041811383846870505 0 0.00042816822255956939 -0.0042208769291005848 0 0.00040199901562391714 -0.0041811383846870505 0 0.0003860357493554025 -0.0042125996048905344 0 0.00046590288505335171 -0.0041201483176727741 0 0.00041695732551058889 -0.0041445778593609713 0 0.00043251826466812992 -0.0041108546444000018 0 0.00046590288505335171 -0.0041201483176727741 0 0.00044227888205338942 -0.0041674839901715407 0 0.00041695732551058889 -0.0041445778593609713 0 0.00044227888205338942 -0.0041674839901715407 0 0.00041695732551058889 -0.0041445778593609713 0 0.00040199901562391714 -0.0041811383846870505 0 0.00041695732551058889 -0.0041445778593609713 0 0.00036378877141952595 -0.0041606311141138752 0 0.00040199901562391714 -0.0041811383846870505 0 0.00041695732551058889 -0.0041445778593609713 0 0.00036378877141952595 -0.0041606311141138752 0 0.00039360553912053624 -0.0041226369655050091 0 0.00036378877141952595 -0.0041606311141138752 0 0.00034784802616896396 -0.0041285920387986903 0 0.00039360553912053624 -0.0041226369655050091 0 0.00036378877141952595 -0.0041606311141138752 0 0.00036500705119430236 -0.0041926111978885664 0 0.00040199901562391714 -0.0041811383846870505 0 0.00036500705119430236 -0.0041926111978885664 0 0.00040199901562391714 -0.0041811383846870505 0 0.0003860357493554025 -0.0042125996048905344 0 0.00036500705119430236 -0.0041926111978885664 0 0.0003860357493554025 -0.0042125996048905344 0 0.00035071767343281863 -0.004225323560214142 0 0.0006113329176764444 -0.0013789245796064016 0 0.00065832937452093979 -0.0012719843951659096 0 0.00075797365768278822 -0.0013715465216159759 0 0.00061567920716698349 -0.0012013651609034772 0 0.00065832937452093979 -0.0012719843951659096 0 0.00053292092985485662 -0.0012622889533749086 0 0.0006113329176764444 -0.0013789245796064016 0 0.00065832937452093979 -0.0012719843951659096 0 0.00053292092985485662 -0.0012622889533749086 0 0.00065832937452093979 -0.0012719843951659096 0 0.00076576251512041162 -0.001265070386743503 0 0.00075797365768278822 -0.0013715465216159759 0 0.00056703800836600891 -0.0015324607970766471 0 0.00049330654555792262 -0.0024361632711457611 0 0.00031235905431314085 -0.0019833943394331941 0 0.00060075048566751081 -0.0020481453785176408 0 0.00055886258794391624 -0.0022502360385741184 0 0.0004773094252208275 -0.0019157479021762167 0 0.00031235905431314085 -0.0019833943394331941 0 0.00060075048566751081 -0.0020481453785176408 0 0.00045836056469486828 -0.0022748550023383605 0 0.00053361183158428822 -0.0025440245536650628 0 0.00050067903485428013 -0.0029168948554164124 0 0.00049376086551599209 -0.0029905543482874552 0 0.00048460468201648595 -0.0029643669492520918 0 0.00085463523981731788 -0.001402253884577484 0 0.00085987486428620202 -0.0013799447303339807 0 0.00075797365768278822 -0.0013715465216159759 0 0.00049376086551599209 -0.0029905543482874552 0 0.00048460468201648595 -0.0029643669492520918 0 0.00049990576957258278 -0.0029855100708729185 0 0.00053361183158428822 -0.0025440245536650628 0 0.00049330654555792262 -0.0024361632711457611 0 0.00049376086551599209 -0.0029905543482874552 0 0.00049990576957258278 -0.0029855100708729185 0 0.0005013301741496999 -0.0029793869344391273 0 0.00063211326003663037 -0.0025701493508146021 0 0.00049330654555792262 -0.0024361632711457611 0 0.00062421140699033602 -0.0027307626413690259 0 0.00057808160048546597 -0.0029467090869319166 0 0.00048665814127686423 -0.0028508443117531358 0 0.00049330654555792262 -0.0024361632711457611 0 0.00056909774670749994 -0.0031088018928211846 0 0.00063211326003663037 -0.0025701493508146021 0 0.00056909774670749994 -0.0031088018928211846 0 0.00059946675433956368 -0.0042025010510371363 0 0.00058963593471220307 -0.0042098599649001986 0 0.00057928491351814785 -0.0042038407365701195 0 0.00056909774670749994 -0.0031088018928211846 0 0.0007676148024226972 -0.0035162871764784424 0 0.00076576251512041162 -0.001265070386743503 0 0.00085987486428620202 -0.0013799447303339807 0 0.00075797365768278822 -0.0013715465216159759 0 0.00063211326003663037 -0.0025701493508146021 0 0.00074385992836458338 -0.0014571531445712201 0 0.00053382857204488539 -0.001808357521288526 0 0.00059346023717010276 -0.0017385151569233365 0 0.00056009118505455997 -0.0017105483018321991 0 0.00085463523981731788 -0.001402253884577484 0 0.00075797365768278822 -0.0013715465216159759 0 0.00076701848685296664 -0.0014724650699156521 0 0.00059946675433956368 -0.0042025010510371363 0 0.0006245509220815001 -0.0041154675790620694 0 0.00058030017783843783 -0.0041477573179346675 0 0.00063211326003663037 -0.0025701493508146021 0 0.00057624844921246715 -0.0030123080664983958 0 0.00055951973532333756 -0.0041816734600952539 0 0.00059946675433956368 -0.0042025010510371363 0 0.00058030017783843783 -0.0041477573179346675 0 0.00055951973532333756 -0.0041816734600952539 0 0.00059946675433956368 -0.0042025010510371363 0 0.00057928491351814785 -0.0042038407365701195 0 0.0006245509220815001 -0.0041154675790620694 0 0.00058030017783843783 -0.0041477573179346675 0 0.00057268433973592663 -0.0040924630576342422 0 0.00059346023717010276 -0.0017385151569233365 0 0.00056009118505455997 -0.0017105483018321991 0 0.00059161118026427391 -0.0016871700844442135 0 0.00076701848685296664 -0.0014724650699156521 0 0.00067754834291392624 -0.0015482349292969685 0 0.0006782357160781252 -0.0014579583374150185 0 0.00059346023717010276 -0.0017385151569233365 0 0.00060474965462509536 -0.0016800683202984248 0 0.00059161118026427391 -0.0016871700844442135 0 0.00074385992836458338 -0.0014571531445712201 0 0.00061714080524173512 -0.0016424128469453415 0 0.0006113329176764444 -0.0013789245796064016 0 0.00075797365768278822 -0.0013715465216159759 0 0.0006782357160781252 -0.0014579583374150185 0 0.00075797365768278822 -0.0013715465216159759 0 0.00076701848685296664 -0.0014724650699156521 0 0.0006782357160781252 -0.0014579583374150185 0 0.0006113329176764444 -0.0013789245796064016 0 0.0006782357160781252 -0.0014579583374150185 0 0.00056298068434101694 -0.0015044558394876428 0 0.00067754834291392624 -0.0015482349292969685 0 0.0006782357160781252 -0.0014579583374150185 0 0.00056298068434101694 -0.0015044558394876428 0 0.00056298068434101694 -0.0015044558394876428 0 0.00048253600384809658 -0.0013951617318519306 0 0.00044524769325729599 -0.0015179322881661013 0 0.00048477611689799239 -0.00052589191500752744 0 0.00040958345136843621 -0.0007330094199182464 0 0.0006113329176764444 -0.0013789245796064016 0 0.00056298068434101694 -0.0015044558394876428 0 0.00048253600384809658 -0.0013951617318519306 0 0.0006113329176764444 -0.0013789245796064016 0 0.00048253600384809658 -0.0013951617318519306 0 0.00053292092985485662 -0.0012622889533749086 0 0.00048477611689799239 -0.00052589191500752744 0 0.00054713745367639631 -0.00042065510684314477 0 0.00047973148436664982 0.00031549986778892628 0 0.0004677021718825315 0.00042462902125899645 0 0.00040522547041794787 0.000409189959981559 0 0.00047973148436664982 0.00031549986778892628 0 0.0004677021718825315 0.00042462902125899645 0 0.00052573626427212118 0.00044118899960388222 0 0.0004677021718825315 0.00042462902125899645 0 0.00040522547041794787 0.000409189959981559 0 0.00047096475326509791 0.00048722929969447013 0 0.0004677021718825315 0.00042462902125899645 0 0.00052573626427212118 0.00044118899960388222 0 0.00047096475326509791 0.00048722929969447013 0 0.00024469738211402341 0.0023442270015248093 0 0.00029915981183250277 0.0023502912903590441 0 0.00026327479285633595 0.0023160969968871832 0 0.00032581885646766021 0.0013788024280034037 0 0.00034821380504164657 0.0013986687321814418 0 0.00024469738211402341 0.0023442270015248093 0 0.00019772332851788739 0.0023074325794199529 0 0.00026327479285633595 0.0023160969968871832 0 0.00032581885646766021 0.0013788024280034037 0 0.0002860743856688567 0.0013102343918826619 0 0.00040522547041794787 0.000409189959981559 0 0.00032963233580682484 0.00031721288140742929 0 0.0003996770878503543 0.0002682664088515459 0 0.00047973148436664982 0.00031549986778892628 0 0.00040522547041794787 0.000409189959981559 0 0.0003996770878503543 0.0002682664088515459 0 0.00024469738211402341 0.0023442270015248093 0 0.00028126731470282757 0.0023568853852332285 0 0.00029915981183250277 0.0023502912903590441 0 0.0002860743856688567 0.0013102343918826619 0 0.0003516300429773224 0.0014162545371058375 0 0.00032963233580682484 0.00031721288140742929 0 0.0003996770878503543 0.0002682664088515459 0 0.00033976955212084976 0.00021614837943100286 0 0.00032963233580682484 0.00031721288140742929 0 0.00033976955212084976 0.00021614837943100286 0 0.00024427433586303161 0.00021591167044409664 0 0.00047973148436664982 0.00031549986778892628 0 0.0003996770878503543 0.0002682664088515459 0 0.00042520217755946665 0.00016786153316326698 0 0.0003996770878503543 0.0002682664088515459 0 0.00042520217755946665 0.00016786153316326698 0 0.00033976955212084976 0.00021614837943100286 0 0.0003516300429773224 0.0014162545371058375 0 0.00049909688662780479 0.00056268022451937691 0 0.00033976955212084976 0.00021614837943100286 0 0.00024427433586303161 0.00021591167044409664 0 0.00029725854631807499 0.00010892803699067525 0 0.00042520217755946665 0.00016786153316326698 0 0.00033976955212084976 0.00021614837943100286 0 0.00029725854631807499 0.00010892803699067525 0 0.00031417540160131837 0.0023382788290092558 0 0.00031001022162309726 0.0023340948867614703 0 0.00030790923171013533 0.0023549845334254337 0 0.00053371944661939716 0.0012867251364627997 0 0.00045260823939516869 0.0011766958097414266 0 0.00071120782813728623 0.00097501829443965161 0 0.0003516300429773224 0.0014162545371058375 0 0.00042724527628232355 0.001736830551890718 0 0.00046998630639197465 0.0022418774930173446 0 0.00041595348970507905 0.0022425302898035331 0 0.00041660440656797308 0.00230223922495283 0 0.00031001022162309726 0.0023340948867614703 0 0.0003102912836351698 0.0023564720195662567 0 0.00030790923171013533 0.0023549845334254337 0 0.00042724527628232355 0.001736830551890718 0 0.00033213467868531898 0.0024332245987036343 0 0.00028126731470282757 0.0023568853852332285 0 0.00029878875685442817 0.0023595333337377991 0 0.00030790923171013533 0.0023549845334254337 0 0.0003516300429773224 0.0014162545371058375 0 0.0001697163049026144 0.0025952363521055907 0 0.000354037862051199 0.0022614488127536791 0 0.00038728661117517777 0.0022667933660753298 0 0.00037798436273420014 0.0022143972214064443 0 0.000354037862051199 0.0022614488127536791 0 0.00038728661117517777 0.0022667933660753298 0 0.00036881499617203269 0.0022978571487360126 0 0.00041595348970507905 0.0022425302898035331 0 0.00038728661117517777 0.0022667933660753298 0 0.00037798436273420014 0.0022143972214064443 0 0.00041595348970507905 0.0022425302898035331 0 0.00041660440656797308 0.00230223922495283 0 0.00038728661117517777 0.0022667933660753298 0 0.00041660440656797308 0.00230223922495283 0 0.00038728661117517777 0.0022667933660753298 0 0.00036881499617203269 0.0022978571487360126 0 0.000354037862051199 0.0022614488127536791 0 0.00036881499617203269 0.0022978571487360126 0 0.00032672004693758524 0.0023056229273347539 0 0.00036336170316278237 0.0023501042009588993 0 0.00032128716525302043 0.0023470882525746849 0 0.00032672004693758524 0.0023056229273347539 0 0.00036881499617203269 0.0022978571487360126 0 0.00036336170316278237 0.0023501042009588993 0 0.00032672004693758524 0.0023056229273347539 0 0.00033213467868531898 0.0024332245987036343 0 0.00035361921459540184 0.0023308075601579949 0 0.00041660440656797308 0.00230223922495283 0 0.00036881499617203269 0.0022978571487360126 0 0.00036336170316278237 0.0023501042009588993 0 0.0003102912836351698 0.0023564720195662567 0 0.00032153564824096011 0.0023560600291191798 0 0.00031425827786648355 0.0023549091393178668 0 0.00032153564824096011 0.0023560600291191798 0 0.00032112496952758408 0.002351973993544614 0 0.00032614664729782312 0.0023641928997945945 0 0.00032153564824096011 0.0023560600291191798 0 0.00031425827786648355 0.0023549091393178668 0 0.00032112496952758408 0.002351973993544614 0 0.00035361921459540184 0.0023308075601579949 0 0.0003124721665856603 0.0023853121928885182 0 0.00036336170316278237 0.0023501042009588993 0 0.00031581515233800224 0.00237850806159553 0 0.00032128716525302043 0.0023470882525746849 0 0.00030790923171013533 0.0023549845334254337 0 0.00031425827786648355 0.0023549091393178668 0 0.00029915981183250277 0.0023502912903590441 0 0.00028126731470282757 0.0023568853852332285 0 0.00030790923171013533 0.0023549845334254337 0 0.00029915981183250277 0.0023502912903590441 0 0.0003102912836351698 0.0023564720195662567 0 0.00030790923171013533 0.0023549845334254337 0 0.00031425827786648355 0.0023549091393178668 0 0.00031425827786648355 0.0023549091393178668 0 0.00032112496952758408 0.002351973993544614 0 0.00029915981183250277 0.0023502912903590441 0 0.00032112496952758408 0.002351973993544614 0 0.00029915981183250277 0.0023502912903590441 0 0.00032850193871221644 0.0023434715984977047 0 0.00029915981183250277 0.0023502912903590441 0 0.00032850193871221644 0.0023434715984977047 0 0.00026327479285633595 0.0023160969968871832 0 0.00032112496952758408 0.002351973993544614 0 0.00032850193871221644 0.0023434715984977047 0 0.00032614664729782312 0.0023641928997945945 0 0.00032850193871221644 0.0023434715984977047 0 0.00032614664729782312 0.0023641928997945945 0 0.00033971547875874368 0.0023927487025340649 0 0.00032850193871221644 0.0023434715984977047 0 0.00032740843114943907 0.0023964935984478225 0 0.00033971547875874368 0.0023927487025340649 0 0.00032850193871221644 0.0023434715984977047 0 0.00028872678907710747 0.0022361191049347236 0 0.00026327479285633595 0.0023160969968871832 0 0.00032693585773033195 0.0023408724374742807 0 0.00030507959429916455 0.002314858034528024 0 0.00033021797529651423 0.0023922338795281969 0 0.00031470664074412095 0.0024113106897632763 0 0.00031581515233800224 0.00237850806159553 0 0.00032153564824096011 0.0023560600291191798 0 0.00032614664729782312 0.0023641928997945945 0 0.00031581515233800224 0.00237850806159553 0 0.00032614664729782312 0.0023641928997945945 0 0.00033021797529651423 0.0023922338795281969 0 0.00033971547875874368 0.0023927487025340649 0 0.00032614664729782312 0.0023641928997945945 0 0.00033021797529651423 0.0023922338795281969 0 0.00031581515233800224 0.00237850806159553 0 0.00033021797529651423 0.0023922338795281969 0 0.00034178296767795849 0.0024084496745619718 0 0.00031470664074412095 0.0024113106897632763 0 0.00033021797529651423 0.0023922338795281969 0 0.00034178296767795849 0.0024084496745619718 0 0.00033971547875874368 0.0023927487025340649 0 0.00037018728580173385 0.0023952319626369106 0 0.00034178296767795849 0.0024084496745619718 0 0.00033971547875874368 0.0023927487025340649 0 0.00034178296767795849 0.0024084496745619718 0 0.00031470664074412095 0.0024113106897632763 0 0.00032068686835811028 0.0024437555987531765 0 0.00032740843114943907 0.0023964935984478225 0 0.00033971547875874368 0.0023927487025340649 0 0.00032943466023215761 0.0023824426416886894 0 0.00037018728580173385 0.0023952319626369106 0 0.00033971547875874368 0.0023927487025340649 0 0.00032943466023215761 0.0023824426416886894 0 0.00028872678907710747 0.0022361191049347236 0 0.00022816916421575833 0.0021525838266138685 0 0.00022266052875264785 0.0022519650839766814 0 0.00032740843114943907 0.0023964935984478225 0 0.00032943466023215761 0.0023824426416886894 0 0.00025238764868780602 0.0023612889395476641 0 0.00030507959429916455 0.002314858034528024 0 0.00024036879206048098 0.0022559740300773503 0 0.00022816916421575833 0.0021525838266138685 0 0.00015541623486406046 0.0021897779575492421 0 0.00022266052875264785 0.0022519650839766814 0 0.00015568122237977466 0.0021376800930324128 0 0.00022816916421575833 0.0021525838266138685 0 0.00015541623486406046 0.0021897779575492421 0 0.00010930846403820583 0.0021394837502022972 0 0.00015568122237977466 0.0021376800930324128 0 0.00015541623486406046 0.0021897779575492421 0 0.00010930846403820583 0.0021394837502022972 0 9.0222962067715889e-05 0.0021875318628112768 0 0.00015541623486406046 0.0021897779575492421 0 9.0222962067715889e-05 0.0021875318628112768 0 0.00015541623486406046 0.0021897779575492421 0 0.00012804766969682564 0.0022524333606896174 0 0.00017835318525736546 0.0015084971382381099 0 0.00022131774527125509 0.001433361277397274 0 0.00015541623486406046 0.0021897779575492421 0 0.00012804766969682564 0.0022524333606896174 0 0.00022266052875264785 0.0022519650839766814 0 0.00022131774527125509 0.001433361277397274 0 0.00016239405351792431 0.0024945727655904439 0 0.00016330470456082219 0.0022586749102542795 0 0.00019772332851788739 0.0023074325794199529 0 0.00022266052875264785 0.0022519650839766814 0 0.00020029144347510731 0.00054315778408174111 0 0.00028626423735095789 0.00065659888763158617 0 0.00022737645797172814 0.00066471826838023483 0 0.00022131774527125509 0.001433361277397274 0 0.0004416378905729744 -0.00023550340768439763 0 0.00052573626427212118 0.00044118899960388222 0 0.00052516943115818329 0.00055925247051201682 0 0.00056885650506943188 0.0005461064815778068 0 0.00061567920716698349 -0.0012013651609034772 0 0.00053292092985485662 -0.0012622889533749086 0 0.00058763866542144605 -0.0011274227627392204 0 0.00054713745367639631 -0.00042065510684314477 0 0.0004416378905729744 -0.00023550340768439763 0 0.00022131774527125509 0.001433361277397274 0 0.00034821380504164657 0.0013986687321814418 0 0.00052573626427212118 0.00044118899960388222 0 0.00052516943115818329 0.00055925247051201682 0 0.00047096475326509791 0.00048722929969447013 0 0.00019772332851788739 0.0023074325794199529 0 0.00026327479285633595 0.0023160969968871832 0 0.00022266052875264785 0.0022519650839766814 0 0.00028872678907710747 0.0022361191049347236 0 0.00026327479285633595 0.0023160969968871832 0 0.00022266052875264785 0.0022519650839766814 0 -4.8167711545885265e-06 -0.0049988442347115511 0 -8.784958439999345e-06 -0.0049987019533756887 0 -1.3926012181572537e-05 -0.0049938946040549801 0 -4.8167711545885265e-06 -0.0049988442347115511 0 -4.7159285769088252e-06 -0.0049983281387745836 0 -8.784958439999345e-06 -0.0049987019533756887 0 -4.8167711545885265e-06 -0.0049988442347115511 0 -2.4173554961659188e-09 -0.0049999987110822741 0 -4.2412987896803799e-09 -0.0049999983339999009 0 -4.8167711545885265e-06 -0.0049988442347115511 0 -2.4173554961659188e-09 -0.0049999987110822741 0 -4.7159285769088252e-06 -0.0049983281387745836 0 -2.4173554961659188e-09 -0.0049999987110822741 0 -4.7159285769088252e-06 -0.0049983281387745836 0 -1.9743733428406084e-06 -0.004999123202454183 0 -4.7159285769088252e-06 -0.0049983281387745836 0 -8.0640403401609037e-06 -0.004995494159528705 0 -8.784958439999345e-06 -0.0049987019533756887 0 -4.7159285769088252e-06 -0.0049983281387745836 0 -8.0640403401609037e-06 -0.004995494159528705 0 -3.4165512544110389e-06 -0.0049972177134045602 0 -8.1411773067911217e-06 -0.0049785740363059534 0 2.1379221788282401e-05 -0.0049404326106429527 0 -8.4007153576885544e-06 -0.0049892470107899909 0 -8.4764570133413669e-06 -0.0050016431515484752 0 2.0173741260995481e-05 -0.0049796055155297662 0 -8.0640403401609037e-06 -0.004995494159528705 0 -8.4007153576885544e-06 -0.0049892470107899909 0 -8.4764570133413669e-06 -0.0050016431515484752 0 -1.1027005758447275e-05 -0.0049570931368232499 0 -5.9903881536336882e-06 -0.0049805984273830328 0 1.2339701166434391e-05 -0.0049643165437781864 0 -8.1411773067911217e-06 -0.0049785740363059534 0 -1.3746557675496318e-05 -0.0049918553378147813 0 -8.0640403401609037e-06 -0.004995494159528705 0 -8.4764570133413669e-06 -0.0050016431515484752 0 -8.784958439999345e-06 -0.0049987019533756887 0 -8.4764570133413669e-06 -0.0050016431515484752 0 -8.784958439999345e-06 -0.0049987019533756887 0 -1.3926012181572537e-05 -0.0049938946040549801 0 -1.1027005758447275e-05 -0.0049570931368232499 0 -1.3926012181572537e-05 -0.0049938946040549801 0 -5.9903881536336882e-06 -0.0049805984273830328 0 -1.3926012181572537e-05 -0.0049938946040549801 0 -5.9903881536336882e-06 -0.0049805984273830328 0 -1.1812446546913971e-05 -0.0049907381077003623 0 -5.9903881536336882e-06 -0.0049805984273830328 0 -1.1812446546913971e-05 -0.0049907381077003623 0 8.1738202502174909e-06 -0.0049879993006604808 0 -1.1812446546913971e-05 -0.0049907381077003623 0 -1.4952248498585092e-05 -0.0049930154859027772 0 -2.1927912530587296e-05 -0.0049916822581666321 0 -2.5624555550569283e-05 -0.0048879960701593466 0 1.6451551393775367e-06 -0.0048416656323845 0 -1.1812446546913971e-05 -0.0049907381077003623 0 -2.1927912530587296e-05 -0.0049916822581666321 0 8.1738202502174909e-06 -0.0049879993006604808 0 -1.4952248498585092e-05 -0.0049930154859027772 0 -1.196133053221574e-05 -0.0049906606739331481 0 -2.1927912530587296e-05 -0.0049916822581666321 0 -1.3926012181572537e-05 -0.0049938946040549801 0 -1.4952248498585092e-05 -0.0049930154859027772 0 -6.7248145247319687e-06 -0.0049963205896224726 0 -1.3926012181572537e-05 -0.0049938946040549801 0 -1.1812446546913971e-05 -0.0049907381077003623 0 -1.4952248498585092e-05 -0.0049930154859027772 0 -1.4952248498585092e-05 -0.0049930154859027772 0 -6.7248145247319687e-06 -0.0049963205896224726 0 -1.196133053221574e-05 -0.0049906606739331481 0 -6.7248145247319687e-06 -0.0049963205896224726 0 -2.5936897826068997e-10 -0.0049999919082203016 0 -1.196133053221574e-05 -0.0049906606739331481 0 -4.8167711545885265e-06 -0.0049988442347115511 0 -1.3926012181572537e-05 -0.0049938946040549801 0 -6.7248145247319687e-06 -0.0049963205896224726 0 -4.8167711545885265e-06 -0.0049988442347115511 0 -6.7248145247319687e-06 -0.0049963205896224726 0 -4.2412987896803799e-09 -0.0049999983339999009 0 -6.7248145247319687e-06 -0.0049963205896224726 0 -4.2412987896803799e-09 -0.0049999983339999009 0 -2.5936897826068997e-10 -0.0049999919082203016 0 -2.5936897826068997e-10 -0.0049999919082203016 0 -1.196133053221574e-05 -0.0049906606739331481 0 -8.4380304711159135e-06 -0.0049846609997687289 0 -1.196133053221574e-05 -0.0049906606739331481 0 -8.4380304711159135e-06 -0.0049846609997687289 0 -3.2709735761162548e-05 -0.0049559071287172555 0 -8.4380304711159135e-06 -0.0049846609997687289 0 -1.9449110799303539e-05 -0.0049733309629190238 0 -3.2709735761162548e-05 -0.0049559071287172555 0 -2.5936897826068997e-10 -0.0049999919082203016 0 -8.4380304711159135e-06 -0.0049846609997687289 0 -7.4309471616089234e-09 -0.0049999760096776933 0 -8.4380304711159135e-06 -0.0049846609997687289 0 -7.4309471616089234e-09 -0.0049999760096776933 0 -1.1726310300280724e-05 -0.004983814719246929 0 -7.4309471616089234e-09 -0.0049999760096776933 0 -1.1726310300280724e-05 -0.004983814719246929 0 -8.8271689006372511e-09 -0.0049999834627244017 0 -1.1726310300280724e-05 -0.004983814719246929 0 -1.9449110799303539e-05 -0.0049733309629190238 0 -2.0484658449959181e-05 -0.0049725837820563433 0 -8.4380304711159135e-06 -0.0049846609997687289 0 -1.1726310300280724e-05 -0.004983814719246929 0 -1.9449110799303539e-05 -0.0049733309629190238 0 -9.9121259236291012e-06 -0.0049872881942244129 0 -1.1726310300280724e-05 -0.004983814719246929 0 -1.4533185675880456e-05 -0.0049797660692457004 0 -9.9121259236291012e-06 -0.0049872881942244129 0 -1.1726310300280724e-05 -0.004983814719246929 0 -8.8271689006372511e-09 -0.0049999834627244017 0 -9.2430330777884851e-06 -0.0049771698409643971 0 -1.4533185675880456e-05 -0.0049797660692457004 0 -1.3867003132883712e-05 -0.0049712819403918296 0 -1.070945463706656e-05 -0.0049818811551782301 0 -9.2430330777884851e-06 -0.0049771698409643971 0 -1.4533185675880456e-05 -0.0049797660692457004 0 -9.2430330777884851e-06 -0.0049771698409643971 0 -1.3867003132883712e-05 -0.0049712819403918296 0 -4.1470877795642149e-06 -0.0049688317606709767 0 -1.070945463706656e-05 -0.0049818811551782301 0 -9.9121259236291012e-06 -0.0049872881942244129 0 -1.4533185675880456e-05 -0.0049797660692457004 0 -1.4533185675880456e-05 -0.0049797660692457004 0 -2.0484658449959181e-05 -0.0049725837820563433 0 -1.3867003132883712e-05 -0.0049712819403918296 0 -1.1726310300280724e-05 -0.004983814719246929 0 -1.4533185675880456e-05 -0.0049797660692457004 0 -2.0484658449959181e-05 -0.0049725837820563433 0 -1.9449110799303539e-05 -0.0049733309629190238 0 -2.0484658449959181e-05 -0.0049725837820563433 0 -3.2709735761162548e-05 -0.0049559071287172555 0 -2.0484658449959181e-05 -0.0049725837820563433 0 -1.3867003132883712e-05 -0.0049712819403918296 0 -1.5241383507851537e-05 -0.0049545941319010167 0 -1.3867003132883712e-05 -0.0049712819403918296 0 -1.5241383507851537e-05 -0.0049545941319010167 0 -4.1470877795642149e-06 -0.0049688317606709767 0 -1.5241383507851537e-05 -0.0049545941319010167 0 -3.2709735761162548e-05 -0.0049559071287172555 0 -2.1971042342071371e-05 -0.004881675242211018 0 -1.5241383507851537e-05 -0.0049545941319010167 0 -2.1971042342071371e-05 -0.004881675242211018 0 1.0241947277026853e-05 -0.0049553682671133348 0 -2.0484658449959181e-05 -0.0049725837820563433 0 -1.5241383507851537e-05 -0.0049545941319010167 0 -3.2709735761162548e-05 -0.0049559071287172555 0 -1.196133053221574e-05 -0.0049906606739331481 0 -3.2709735761162548e-05 -0.0049559071287172555 0 -2.1927912530587296e-05 -0.0049916822581666321 0 -3.3566517674305966e-05 -0.0049450033483026904 0 -2.5624555550569283e-05 -0.0048879960701593466 0 -3.2709735761162548e-05 -0.0049559071287172555 0 -2.1971042342071371e-05 -0.004881675242211018 0 -3.85067852799339e-05 -0.0047855260153734074 0 -2.1971042342071371e-05 -0.004881675242211018 0 -3.85067852799339e-05 -0.0047855260153734074 0 5.6045016717796948e-06 -0.0048131438916587301 0 -3.85067852799339e-05 -0.0047855260153734074 0 5.6045016717796948e-06 -0.0048131438916587301 0 7.0595307021243458e-06 -0.0047684032552341429 0 5.6045016717796948e-06 -0.0048131438916587301 0 2.950307912817405e-05 -0.0047784512814815 0 2.0283987452153064e-05 -0.0048191204056223357 0 5.6045016717796948e-06 -0.0048131438916587301 0 2.950307912817405e-05 -0.0047784512814815 0 7.0595307021243458e-06 -0.0047684032552341429 0 2.950307912817405e-05 -0.0047784512814815 0 2.0283987452153064e-05 -0.0048191204056223357 0 6.2094581202188677e-05 -0.0047740854133404894 0 2.950307912817405e-05 -0.0047784512814815 0 6.2094581202188677e-05 -0.0047740854133404894 0 5.99234071425305e-05 -0.0047346625920141822 0 1.0691975831193567e-05 -0.0048870194101207388 0 2.6006563942827361e-05 -0.004895314640074055 0 2.0283987452153064e-05 -0.0048191204056223357 0 6.4349360696540375e-05 -0.0048216383254525456 0 6.2094581202188677e-05 -0.0047740854133404894 0 -2.1971042342071371e-05 -0.004881675242211018 0 5.6045016717796948e-06 -0.0048131438916587301 0 2.0283987452153064e-05 -0.0048191204056223357 0 -2.5870755491238763e-05 -0.0048779298441104053 0 1.0691975831193567e-05 -0.0048870194101207388 0 1.0241947277026853e-05 -0.0049553682671133348 0 -4.1470877795642149e-06 -0.0049688317606709767 0 -1.253292407106553e-06 -0.0049703388229187942 0 -1.5241383507851537e-05 -0.0049545941319010167 0 1.0241947277026853e-05 -0.0049553682671133348 0 -4.1470877795642149e-06 -0.0049688317606709767 0 1.0241947277026853e-05 -0.0049553682671133348 0 -1.253292407106553e-06 -0.0049703388229187942 0 -6.5146582519392307e-06 -0.0049736454214685949 0 -7.5369200307067599e-06 -0.004972787217541806 0 -1.253292407106553e-06 -0.0049703388229187942 0 -5.1973982428005213e-06 -0.0049734741219048329 0 -1.281645709829716e-05 -0.0049700139726668426 0 -7.5369200307067599e-06 -0.004972787217541806 0 -1.253292407106553e-06 -0.0049703388229187942 0 -4.1470877795642149e-06 -0.0049688317606709767 0 -1.253292407106553e-06 -0.0049703388229187942 0 -5.1973982428005213e-06 -0.0049734741219048329 0 -8.6021449759233798e-06 -0.0049780819538791758 0 -9.2430330777884851e-06 -0.0049771698409643971 0 -5.1973982428005213e-06 -0.0049734741219048329 0 -9.2430330777884851e-06 -0.0049771698409643971 0 -4.1470877795642149e-06 -0.0049688317606709767 0 -5.1973982428005213e-06 -0.0049734741219048329 0 -1.281645709829716e-05 -0.0049700139726668426 0 -2.0696744376397984e-05 -0.0049664425237988608 0 -2.1984513527876481e-05 -0.0049747340378332484 0 -1.281645709829716e-05 -0.0049700139726668426 0 -6.5146582519392307e-06 -0.0049736454214685949 0 -2.1984513527876481e-05 -0.0049747340378332484 0 -2.7509769304455768e-05 -0.0049684079177084511 0 -2.0696744376397984e-05 -0.0049664425237988608 0 -2.1984513527876481e-05 -0.0049747340378332484 0 -1.281645709829716e-05 -0.0049700139726668426 0 -1.253292407106553e-06 -0.0049703388229187942 0 -6.5146582519392307e-06 -0.0049736454214685949 0 6.4349360696540375e-05 -0.0048216383254525456 0 0.00013817477127120201 -0.0048030304772916036 0 0.00012441024938874019 -0.0048416271581599888 0 2.6006563942827361e-05 -0.004895314640074055 0 6.2604031706251095e-05 -0.0049181728867373174 0 6.4349360696540375e-05 -0.0048216383254525456 0 0.00011850379774819153 -0.0047575818963473899 0 0.00013817477127120201 -0.0048030304772916036 0 6.4349360696540375e-05 -0.0048216383254525456 0 6.2094581202188677e-05 -0.0047740854133404894 0 0.00011850379774819153 -0.0047575818963473899 0 6.2094581202188677e-05 -0.0047740854133404894 0 9.4632283856579787e-05 -0.0047204094778752412 0 5.99234071425305e-05 -0.0047346625920141822 0 6.2094581202188677e-05 -0.0047740854133404894 0 0.00011850379774819153 -0.0047575818963473899 0 9.4632283856579787e-05 -0.0047204094778752412 0 9.4632283856579787e-05 -0.0047204094778752412 0 0.00010779683322652014 -0.0046728498687197053 0 7.466553195283793e-05 -0.0046910765825056936 0 0.00010779683322652014 -0.0046728498687197053 0 9.4127430815369817e-05 -0.0046485483087410932 0 0.00012863059684739631 -0.004633539880366468 0 0.00010779683322652014 -0.0046728498687197053 0 9.4127430815369817e-05 -0.0046485483087410932 0 7.466553195283793e-05 -0.0046910765825056936 0 9.4127430815369817e-05 -0.0046485483087410932 0 7.466553195283793e-05 -0.0046910765825056936 0 5.6444859557008724e-05 -0.0046486045607194073 0 7.466553195283793e-05 -0.0046910765825056936 0 3.2491910927233747e-05 -0.0047232936965644692 0 5.6444859557008724e-05 -0.0046486045607194073 0 9.4632283856579787e-05 -0.0047204094778752412 0 7.466553195283793e-05 -0.0046910765825056936 0 5.99234071425305e-05 -0.0047346625920141822 0 7.466553195283793e-05 -0.0046910765825056936 0 5.99234071425305e-05 -0.0047346625920141822 0 3.2491910927233747e-05 -0.0047232936965644692 0 2.950307912817405e-05 -0.0047784512814815 0 3.2491910927233747e-05 -0.0047232936965644692 0 7.0595307021243458e-06 -0.0047684032552341429 0 2.950307912817405e-05 -0.0047784512814815 0 5.99234071425305e-05 -0.0047346625920141822 0 3.2491910927233747e-05 -0.0047232936965644692 0 -3.85067852799339e-05 -0.0047855260153734074 0 7.0595307021243458e-06 -0.0047684032552341429 0 3.5793786416019142e-06 -0.0047339402747447416 0 -3.85067852799339e-05 -0.0047855260153734074 0 3.5793786416019142e-06 -0.0047339402747447416 0 -5.5403034636685882e-06 -0.0046967353613818989 0 3.2491910927233747e-05 -0.0047232936965644692 0 7.0595307021243458e-06 -0.0047684032552341429 0 3.5793786416019142e-06 -0.0047339402747447416 0 3.2491910927233747e-05 -0.0047232936965644692 0 3.5793786416019142e-06 -0.0047339402747447416 0 1.0232915148869257e-05 -0.0046996300826838327 0 1.0232915148869257e-05 -0.0046996300826838327 0 -5.5403034636685882e-06 -0.0046967353613818989 0 2.2842112625806805e-05 -0.0046836449727926536 0 3.5793786416019142e-06 -0.0047339402747447416 0 1.0232915148869257e-05 -0.0046996300826838327 0 -5.5403034636685882e-06 -0.0046967353613818989 0 -5.9903881536336882e-06 -0.0049805984273830328 0 8.1738202502174909e-06 -0.0049879993006604808 0 1.2339701166434391e-05 -0.0049643165437781864 0 1.2880067987502145e-05 -0.0046955433937646146 0 5.0657465284207877e-05 -0.0046661862621792559 0 1.0232915148869257e-05 -0.0046996300826838327 0 2.2842112625806805e-05 -0.0046836449727926536 0 4.2474411354438102e-05 -0.0046848098696884097 0 3.2491910927233747e-05 -0.0047232936965644692 0 1.0232915148869257e-05 -0.0046996300826838327 0 5.6444859557008724e-05 -0.0046486045607194073 0 2.2842112625806805e-05 -0.0046836449727926536 0 1.8503179998674889e-05 -0.0046653679532276913 0 4.3440912767148219e-05 -0.0046631430894571776 0 1.6451551393775367e-06 -0.0048416656323845 0 3.1970467658633966e-05 -0.0048061605754910084 0 8.1738202502174909e-06 -0.0049879993006604808 0 1.2339701166434391e-05 -0.0049643165437781864 0 4.6371693562654452e-05 -0.004946755030001488 0 -5.5403034636685882e-06 -0.0046967353613818989 0 2.2842112625806805e-05 -0.0046836449727926536 0 1.8503179998674889e-05 -0.0046653679532276913 0 -1.1027005758447275e-05 -0.0049570931368232499 0 1.2339701166434391e-05 -0.0049643165437781864 0 2.2048259508711076e-05 -0.0049032719110235854 0 1.2339701166434391e-05 -0.0049643165437781864 0 4.6371693562654452e-05 -0.004946755030001488 0 2.2048259508711076e-05 -0.0049032719110235854 0 1.8503179998674889e-05 -0.0046653679532276913 0 4.3440912767148219e-05 -0.0046631430894571776 0 3.6588822536148753e-05 -0.0046355458747525521 0 4.6371693562654452e-05 -0.004946755030001488 0 8.6873838287336173e-05 -0.0048884478409399563 0 2.2048259508711076e-05 -0.0049032719110235854 0 3.1970467658633966e-05 -0.0048061605754910084 0 6.2821180445903215e-05 -0.0047586752008998865 0 4.3440912767148219e-05 -0.0046631430894571776 0 6.1344609975523922e-05 -0.0046486533055556112 0 3.6588822536148753e-05 -0.0046355458747525521 0 6.1344609975523922e-05 -0.0046486533055556112 0 7.2150419715444927e-05 -0.0046705015778767079 0 8.5912406317661808e-05 -0.0046464195843194571 0 4.3440912767148219e-05 -0.0046631430894571776 0 6.1344609975523922e-05 -0.0046486533055556112 0 7.2150419715444927e-05 -0.0046705015778767079 0 8.7786894627047102e-05 -0.0046358034414240726 0 5.0657465284207877e-05 -0.0046661862621792559 0 9.4127430815369817e-05 -0.0046485483087410932 0 0.00010412126167430258 -0.0045964202302013115 0 0.00012863059684739631 -0.004633539880366468 0 9.4127430815369817e-05 -0.0046485483087410932 0 0.00010412126167430258 -0.0045964202302013115 0 5.6444859557008724e-05 -0.0046486045607194073 0 2.2842112625806805e-05 -0.0046836449727926536 0 4.3440912767148219e-05 -0.0046631430894571776 0 4.2474411354438102e-05 -0.0046848098696884097 0 4.3440912767148219e-05 -0.0046631430894571776 0 7.2150419715444927e-05 -0.0046705015778767079 0 4.2474411354438102e-05 -0.0046848098696884097 0 0.00015089114809338893 -0.0045776410266629526 0 0.00013334682250618597 -0.004586963503458291 0 0.00015490177392175046 -0.0045437737766602987 0 0.00016252488407045309 -0.0045836431813785052 0 0.00015089114809338893 -0.0045776410266629526 0 0.00014924236125551815 -0.0046039822087724502 0 0.00016252488407045309 -0.0045836431813785052 0 0.00015089114809338893 -0.0045776410266629526 0 0.00016013167221527502 -0.0045635821474589496 0 0.00016252488407045309 -0.0045836431813785052 0 0.00017333356453480594 -0.0045697617145761061 0 0.00016013167221527502 -0.0045635821474589496 0 0.00017333356453480594 -0.0045697617145761061 0 0.00017888746363885934 -0.0045465979720507484 0 0.00018973820146360633 -0.0045712805405078195 0 0.00017333356453480594 -0.0045697617145761061 0 0.000175682485512173 -0.0045840671214246219 0 0.00018973820146360633 -0.0045712805405078195 0 0.00016252488407045309 -0.0045836431813785052 0 0.00017333356453480594 -0.0045697617145761061 0 0.000175682485512173 -0.0045840671214246219 0 0.00016252488407045309 -0.0045836431813785052 0 0.000175682485512173 -0.0045840671214246219 0 0.00016598274124236646 -0.0046015645098025108 0 0.000175682485512173 -0.0045840671214246219 0 0.00018108612294190897 -0.004599843605410975 0 0.00018973820146360633 -0.0045712805405078195 0 0.000175682485512173 -0.0045840671214246219 0 0.00018108612294190897 -0.004599843605410975 0 0.00016598274124236646 -0.0046015645098025108 0 0.00016598274124236646 -0.0046015645098025108 0 0.00014924236125551815 -0.0046039822087724502 0 0.00016299399108321149 -0.004625170257565263 0 0.00016252488407045309 -0.0045836431813785052 0 0.00016598274124236646 -0.0046015645098025108 0 0.00014924236125551815 -0.0046039822087724502 0 0.00014924236125551815 -0.0046039822087724502 0 0.00013334682250618597 -0.004586963503458291 0 0.00012863059684739631 -0.004633539880366468 0 0.00010412126167430258 -0.0045964202302013115 0 0.00013334682250618597 -0.004586963503458291 0 0.00015490177392175046 -0.0045437737766602987 0 0.00010412126167430258 -0.0045964202302013115 0 0.00013334682250618597 -0.004586963503458291 0 0.00012863059684739631 -0.004633539880366468 0 0.00015089114809338893 -0.0045776410266629526 0 0.00014924236125551815 -0.0046039822087724502 0 0.00013334682250618597 -0.004586963503458291 0 8.7786894627047102e-05 -0.0046358034414240726 0 0.00013288820454170416 -0.004578520246010874 0 7.2150419715444927e-05 -0.0046705015778767079 0 8.5912406317661808e-05 -0.0046464195843194571 0 0.00010175018559595955 -0.0046557177051086522 0 0.00015089114809338893 -0.0045776410266629526 0 0.00015490177392175046 -0.0045437737766602987 0 0.00016013167221527502 -0.0045635821474589496 0 0.00015490177392175046 -0.0045437737766602987 0 0.00016013167221527502 -0.0045635821474589496 0 0.00017888746363885934 -0.0045465979720507484 0 0.00017333356453480594 -0.0045697617145761061 0 0.00016013167221527502 -0.0045635821474589496 0 0.00017888746363885934 -0.0045465979720507484 0 0.00013288820454170416 -0.004578520246010874 0 0.00021088622842659662 -0.0044836414525266646 0 0.00015490177392175046 -0.0045437737766602987 0 0.00017888746363885934 -0.0045465979720507484 0 0.00020073253483597565 -0.0044939397281684359 0 0.00017888746363885934 -0.0045465979720507484 0 0.00021048833719728785 -0.0045404753892414476 0 0.00020073253483597565 -0.0044939397281684359 0 0.00021048833719728785 -0.0045404753892414476 0 0.00023341297841814358 -0.0045129665614754245 0 0.00020073253483597565 -0.0044939397281684359 0 0.00021048833719728785 -0.0045404753892414476 0 0.00023341297841814358 -0.0045129665614754245 0 0.00023790889201006916 -0.0045497767700708293 0 0.00023341297841814358 -0.0045129665614754245 0 0.00023790889201006916 -0.0045497767700708293 0 0.00026310144011359288 -0.0045146502671924724 0 0.00023790889201006916 -0.0045497767700708293 0 0.00021501847977492864 -0.0045721239754907498 0 0.000229409379420526 -0.0045995123563472035 0 0.00023790889201006916 -0.0045497767700708293 0 0.000229409379420526 -0.0045995123563472035 0 0.00028004368173949076 -0.0045549381881324364 0 0.00021048833719728785 -0.0045404753892414476 0 0.00023790889201006916 -0.0045497767700708293 0 0.00021501847977492864 -0.0045721239754907498 0 0.00017888746363885934 -0.0045465979720507484 0 0.00021048833719728785 -0.0045404753892414476 0 0.00018973820146360633 -0.0045712805405078195 0 0.00021048833719728785 -0.0045404753892414476 0 0.00018973820146360633 -0.0045712805405078195 0 0.00021501847977492864 -0.0045721239754907498 0 0.00018973820146360633 -0.0045712805405078195 0 0.00021501847977492864 -0.0045721239754907498 0 0.00020494559547184259 -0.004596901811613277 0 0.00018108612294190897 -0.004599843605410975 0 0.00018973820146360633 -0.0045712805405078195 0 0.00020494559547184259 -0.004596901811613277 0 0.00020494559547184259 -0.004596901811613277 0 0.00021082362472523144 -0.0046237585789617296 0 0.00018614041230682085 -0.0046258666902104758 0 0.00018108612294190897 -0.004599843605410975 0 0.00020494559547184259 -0.004596901811613277 0 0.00018614041230682085 -0.0046258666902104758 0 0.00020494559547184259 -0.004596901811613277 0 0.00021082362472523144 -0.0046237585789617296 0 0.000229409379420526 -0.0045995123563472035 0 0.00021501847977492864 -0.0045721239754907498 0 0.00020494559547184259 -0.004596901811613277 0 0.000229409379420526 -0.0045995123563472035 0 0.00021082362472523144 -0.0046237585789617296 0 0.00018614041230682085 -0.0046258666902104758 0 0.00019705456663192991 -0.0046537229825809705 0 0.000229409379420526 -0.0045995123563472035 0 0.00024353153902100761 -0.0046498632487161047 0 0.00034105311851930674 -0.0045688354337527848 0 0.00021082362472523144 -0.0046237585789617296 0 0.000229409379420526 -0.0045995123563472035 0 0.00024353153902100761 -0.0046498632487161047 0 0.0004464172520810636 -0.0044609049737756191 0 0.00036601447032219656 -0.0044867253775549435 0 0.00065745323143756595 -0.0042786693709963627 0 0.00065822629940306585 -0.004251100435934475 0 0.0006800162157362163 -0.0042714035091516974 0 0.00065745323143756595 -0.0042786693709963627 0 0.00065822629940306585 -0.004251100435934475 0 0.00064129579232481964 -0.0042573624619804606 0 0.00065745323143756595 -0.0042786693709963627 0 0.00064129579232481964 -0.0042573624619804606 0 0.00061996742788999776 -0.0042722313336912973 0 0.00065822629940306585 -0.004251100435934475 0 0.00064129579232481964 -0.0042573624619804606 0 0.00064628455313702523 -0.0042388619799321892 0 0.00019705456663192991 -0.0046537229825809705 0 0.00022476311161774334 -0.0046641230683037802 0 0.00017608138347088441 -0.0047041777446919812 0 0.00021082362472523144 -0.0046237585789617296 0 0.00024353153902100761 -0.0046498632487161047 0 0.00019705456663192991 -0.0046537229825809705 0 0.00024353153902100761 -0.0046498632487161047 0 0.00019705456663192991 -0.0046537229825809705 0 0.00022476311161774334 -0.0046641230683037802 0 0.00036601447032219656 -0.0044867253775549435 0 0.00015591971874898716 -0.0047296480324573774 0 0.00025811590314439494 -0.004679779371281138 0 0.00019687575827448002 -0.004709960137704884 0 0.0002387758245845565 -0.0047221573464280549 0 0.00019705456663192991 -0.0046537229825809705 0 0.0001698051027724692 -0.0046567647164346554 0 0.00017608138347088441 -0.0047041777446919812 0 0.0001698051027724692 -0.0046567647164346554 0 0.00014554662383080278 -0.0046783593431724063 0 0.00017608138347088441 -0.0047041777446919812 0 0.00018614041230682085 -0.0046258666902104758 0 0.00019705456663192991 -0.0046537229825809705 0 0.0001698051027724692 -0.0046567647164346554 0 0.00018614041230682085 -0.0046258666902104758 0 0.0001698051027724692 -0.0046567647164346554 0 0.00016299399108321149 -0.004625170257565263 0 0.0001698051027724692 -0.0046567647164346554 0 0.00016299399108321149 -0.004625170257565263 0 0.00014554662383080278 -0.0046783593431724063 0 0.00018108612294190897 -0.004599843605410975 0 0.00016598274124236646 -0.0046015645098025108 0 0.00016299399108321149 -0.004625170257565263 0 0.00018108612294190897 -0.004599843605410975 0 0.00018614041230682085 -0.0046258666902104758 0 0.00016299399108321149 -0.004625170257565263 0 0.00010779683322652014 -0.0046728498687197053 0 0.00012863059684739631 -0.004633539880366468 0 0.00014554662383080278 -0.0046783593431724063 0 0.00016299399108321149 -0.004625170257565263 0 0.00012863059684739631 -0.004633539880366468 0 0.00014554662383080278 -0.0046783593431724063 0 0.00014924236125551815 -0.0046039822087724502 0 0.00016299399108321149 -0.004625170257565263 0 0.00012863059684739631 -0.004633539880366468 0 9.4632283856579787e-05 -0.0047204094778752412 0 0.00010779683322652014 -0.0046728498687197053 0 0.00014554662383080278 -0.0046783593431724063 0 0.00011850379774819153 -0.0047575818963473899 0 9.4632283856579787e-05 -0.0047204094778752412 0 0.00014554662383080278 -0.0046783593431724063 0 0.00011850379774819153 -0.0047575818963473899 0 0.00014554662383080278 -0.0046783593431724063 0 0.00017608138347088441 -0.0047041777446919812 0 0.00011850379774819153 -0.0047575818963473899 0 0.00019687575827448002 -0.004709960137704884 0 0.00017331699298965409 -0.0047685973421489822 0 0.00013367548377406951 -0.0047453469721717165 0 0.00015591971874898716 -0.0047296480324573774 0 0.00019687575827448002 -0.004709960137704884 0 0.00017331699298965409 -0.0047685973421489822 0 0.00021750783667850271 -0.0047611738615949643 0 0.00017331699298965409 -0.0047685973421489822 0 0.00019789714157096209 -0.0048077631859153166 0 0.00021750783667850271 -0.0047611738615949643 0 0.00017331699298965409 -0.0047685973421489822 0 0.00013817477127120201 -0.0048030304772916036 0 0.00019789714157096209 -0.0048077631859153166 0 0.00011850379774819153 -0.0047575818963473899 0 0.00017331699298965409 -0.0047685973421489822 0 0.00013817477127120201 -0.0048030304772916036 0 0.00013817477127120201 -0.0048030304772916036 0 0.00012441024938874019 -0.0048416271581599888 0 0.00016758349250204925 -0.0048334416646666706 0 0.00013817477127120201 -0.0048030304772916036 0 0.00019789714157096209 -0.0048077631859153166 0 0.00016758349250204925 -0.0048334416646666706 0 0.00019789714157096209 -0.0048077631859153166 0 0.00016758349250204925 -0.0048334416646666706 0 0.00019305226525422438 -0.0048687355186042159 0 -6.4720883121771705e-05 -0.0049979959791930685 0 3.6420666463792371e-05 -0.0048561332321323909 0 0.00012441024938874019 -0.0048416271581599888 0 0.00016758349250204925 -0.0048334416646666706 0 0.00019305226525422438 -0.0048687355186042159 0 -2.7509769304455768e-05 -0.0049684079177084511 0 -2.1984513527876481e-05 -0.0049747340378332484 0 -3.1570586112158283e-05 -0.0049705539974607962 0 6.2604031706251095e-05 -0.0049181728867373174 0 3.6420666463792371e-05 -0.0048561332321323909 0 7.3445134446972096e-05 -0.0043434238607541545 0 0.00039917807490575931 -0.0041306040096225237 0 0.00041349425617976109 -0.0033628420681687797 0 0.0004004183002437006 -0.0033677336311825471 0 0.00042155067833035269 -0.0033983714656764964 0 0.0004004183002437006 -0.0033677336311825471 0 0.00042155067833035269 -0.0033983714656764964 0 0.00039399281838330678 -0.0033835681196018432 0 7.3445134446972096e-05 -0.0043434238607541545 0 3.6420666463792371e-05 -0.0048561332321323909 0 3.6420666463792371e-05 -0.0048561332321323909 0 0.00039917807490575931 -0.0041306040096225237 0 0.00022819254563409184 -0.0045130626822229587 0 5.2765071022846432e-05 -0.0044433919148422355 0 0.00022020237944333818 -0.0043486901084363741 0 0.00019789714157096209 -0.0048077631859153166 0 0.00019305226525422438 -0.0048687355186042159 0 0.00026390877515183728 -0.0048280328595381719 0 0.00019789714157096209 -0.0048077631859153166 0 0.00026390877515183728 -0.0048280328595381719 0 0.00024032605972941606 -0.0047922595730645473 0 0.00039917807490575931 -0.0041306040096225237 0 0.00055579311848043646 -0.003725927448568278 0 0.00066415649058388759 -0.0040968726863213666 0 0.00063983590940569436 -0.0041608213849582566 0 0.00060830658912506847 -0.0041290631742277135 0 0.00042155067833035269 -0.0033983714656764964 0 0.00039314973616424119 -0.0034150080718107607 0 0.00039399281838330678 -0.0033835681196018432 0 0.00063983590940569436 -0.0041608213849582566 0 0.00066489758289928658 -0.0041936724257543674 0 0.00059387170852509574 -0.0041952721019380863 0 0.00039917807490575931 -0.0041306040096225237 0 0.00048701659509612998 -0.0045384809626485001 0 0.00066415649058388759 -0.0040968726863213666 0 0.00063983590940569436 -0.0041608213849582566 0 0.00067253543419594139 -0.0041845848922892346 0 0.00063983590940569436 -0.0041608213849582566 0 0.00067253543419594139 -0.0041845848922892346 0 0.00066489758289928658 -0.0041936724257543674 0 0.00019789714157096209 -0.0048077631859153166 0 0.00024032605972941606 -0.0047922595730645473 0 0.00021750783667850271 -0.0047611738615949643 0 0.00026390877515183728 -0.0048280328595381719 0 0.00026115977484405747 -0.0047584098520744422 0 0.00024032605972941606 -0.0047922595730645473 0 0.00026115977484405747 -0.0047584098520744422 0 0.00024032605972941606 -0.0047922595730645473 0 0.00023957085930252677 -0.0047649578310171269 0 0.00026115977484405747 -0.0047584098520744422 0 0.00023957085930252677 -0.0047649578310171269 0 0.00023924419944818442 -0.0047474654889030554 0 0.00024032605972941606 -0.0047922595730645473 0 0.00023957085930252677 -0.0047649578310171269 0 0.00021750783667850271 -0.0047611738615949643 0 0.00023957085930252677 -0.0047649578310171269 0 0.00021750783667850271 -0.0047611738615949643 0 0.00023924419944818442 -0.0047474654889030554 0 0.00019687575827448002 -0.004709960137704884 0 0.00021750783667850271 -0.0047611738615949643 0 0.0002387758245845565 -0.0047221573464280549 0 0.00036601447032219656 -0.0044867253775549435 0 0.00048701659509612998 -0.0045384809626485001 0 0.00025811590314439494 -0.004679779371281138 0 0.00026115977484405747 -0.0047584098520744422 0 0.0002387758245845565 -0.0047221573464280549 0 0.00021750783667850271 -0.0047611738615949643 0 0.00023924419944818442 -0.0047474654889030554 0 0.0002387758245845565 -0.0047221573464280549 0 0.00026115977484405747 -0.0047584098520744422 0 0.00023924419944818442 -0.0047474654889030554 0 0.0002387758245845565 -0.0047221573464280549 0 0.00065822629940306585 -0.004251100435934475 0 0.0006800162157362163 -0.0042714035091516974 0 0.00066489758289928658 -0.0041936724257543674 0 0.00065822629940306585 -0.004251100435934475 0 0.00066489758289928658 -0.0041936724257543674 0 0.00064628455313702523 -0.0042388619799321892 0 0.00066489758289928658 -0.0041936724257543674 0 0.00062442331641778871 -0.0042391617912901011 0 0.00060866434172997469 -0.0042202264765240248 0 0.00067355854811544723 -0.0041863652593238905 0 0.00057765593497159943 -0.0042459178732006881 0 0.0006800162157362163 -0.0042714035091516974 0 0.00067253543419594139 -0.0041845848922892346 0 0.00066489758289928658 -0.0041936724257543674 0 0.00066489758289928658 -0.0041936724257543674 0 0.00064628455313702523 -0.0042388619799321892 0 0.00062442331641778871 -0.0042391617912901011 0 0.00064129579232481964 -0.0042573624619804606 0 0.00064628455313702523 -0.0042388619799321892 0 0.00062442331641778871 -0.0042391617912901011 0 0.00062442331641778871 -0.0042391617912901011 0 0.00060866434172997469 -0.0042202264765240248 0 0.00059521787018739576 -0.0042639641478590109 0 0.00059387170852509574 -0.0041952721019380863 0 0.00053503589260261596 -0.0041990655820700433 0 0.0005575560422613979 -0.0041530890346723939 0 0.00060866434172997469 -0.0042202264765240248 0 0.00057097157092969022 -0.0042509528075373665 0 0.00059521787018739576 -0.0042639641478590109 0 0.00060866434172997469 -0.0042202264765240248 0 0.00055623704643936668 -0.0042348487800919592 0 0.00057097157092969022 -0.0042509528075373665 0 0.00053503589260261596 -0.0041990655820700433 0 0.0005575560422613979 -0.0041530890346723939 0 0.00051089444911632195 -0.0041719918147564775 0 0.00057765593497159943 -0.0042459178732006881 0 0.00060195734729254994 -0.0037667755034234197 0 0.00060195734729254994 -0.0037667755034234197 0 0.00069557714477289437 -0.0040978114501624583 0 0.00040582438187584605 -0.0038470247504659885 0 0.00045903225832054714 -0.0032852147176135457 0 0.00059387170852509574 -0.0041952721019380863 0 0.0005575560422613979 -0.0041530890346723939 0 0.00060830658912506847 -0.0041290631742277135 0 0.00063983590940569436 -0.0041608213849582566 0 0.00059387170852509574 -0.0041952721019380863 0 0.00060830658912506847 -0.0041290631742277135 0 0.00040582438187584605 -0.0038470247504659885 0 0.00055579311848043646 -0.003725927448568278 0 0.00039314973616424119 -0.0034150080718107607 0 0.00036017227986280439 -0.0033857536300545181 0 0.00039399281838330678 -0.0033835681196018432 0 0.00035455890401196608 -0.0034372419934328973 0 0.00039314973616424119 -0.0034150080718107607 0 0.00036017227986280439 -0.0033857536300545181 0 0.00035455890401196608 -0.0034372419934328973 0 0.00036017227986280439 -0.0033857536300545181 0 0.00031382368302635435 -0.0034028742123218816 0 0.00036017227986280439 -0.0033857536300545181 0 0.00031902844645852608 -0.003358457046052068 0 0.00031382368302635435 -0.0034028742123218816 0 0.00034633392686030958 -0.0033379397790278273 0 0.00036017227986280439 -0.0033857536300545181 0 0.00038807336704088581 -0.0033551078119700129 0 0.00034633392686030958 -0.0033379397790278273 0 0.00036017227986280439 -0.0033857536300545181 0 0.00031902844645852608 -0.003358457046052068 0 0.00036017227986280439 -0.0033857536300545181 0 0.00038807336704088581 -0.0033551078119700129 0 0.00039399281838330678 -0.0033835681196018432 0 0.0004004183002437006 -0.0033677336311825471 0 0.00038807336704088581 -0.0033551078119700129 0 0.00039399281838330678 -0.0033835681196018432 0 0.00027102788405418524 -0.0033577048182133517 0 0.00031902844645852608 -0.003358457046052068 0 0.00031382368302635435 -0.0034028742123218816 0 0.00029726969123971376 -0.0033074039848616874 0 0.00027102788405418524 -0.0033577048182133517 0 0.00031902844645852608 -0.003358457046052068 0 0.00021878218243881031 -0.003369989230131066 0 0.00027102788405418524 -0.0033577048182133517 0 0.0002663297627968773 -0.003417799095124816 0 0.00027102788405418524 -0.0033577048182133517 0 0.00031382368302635435 -0.0034028742123218816 0 0.0002663297627968773 -0.003417799095124816 0 0.0005373410793798588 -0.0025248764647082234 0 0.00048353188029277752 -0.0026216217240095092 0 0.00066150877806081163 -0.0026522292966494466 0 0.00044194740410826073 -0.0025197927582024425 0 0.0005373410793798588 -0.0025248764647082234 0 0.00048353188029277752 -0.0026216217240095092 0 0.00037923685963296309 -0.0029226571569077858 0 0.00045903225832054714 -0.0032852147176135457 0 0.00031382368302635435 -0.0034028742123218816 0 0.0002663297627968773 -0.003417799095124816 0 0.00031078071360856962 -0.0034603135112303506 0 0.00035455890401196608 -0.0034372419934328973 0 0.00031382368302635435 -0.0034028742123218816 0 0.00031078071360856962 -0.0034603135112303506 0 0.00060220392075636931 -0.0027787797156040976 0 0.00057293439196242529 -0.0027462559953790712 0 0.0005285557737129856 -0.0027592711780199952 0 0.00060220392075636931 -0.0027787797156040976 0 0.0005285557737129856 -0.0027592711780199952 0 0.00052272721700551052 -0.0027854863566624437 0 0.00060195734729254994 -0.0037667755034234197 0 0.00051691821910600504 -0.0035229568176496561 0 0.00060195734729254994 -0.0037667755034234197 0 0.00045903225832054714 -0.0032852147176135457 0 0.00045903225832054714 -0.0032852147176135457 0 0.00060199272786243729 -0.0027125556958388936 0 0.00048353188029277752 -0.0026216217240095092 0 0.00066150877806081163 -0.0026522292966494466 0 0.00055534116484801154 -0.0027076807923942688 0 0.00047723938789812423 -0.0026972948734587908 0 0.00048353188029277752 -0.0026216217240095092 0 0.00055534116484801154 -0.0027076807923942688 0 0.00044129366113164058 -0.0027751294625768218 0 0.0005285557737129856 -0.0027592711780199952 0 0.00052272721700551052 -0.0027854863566624437 0 0.00043582437867149143 -0.0027837277845559841 0 0.00060199272786243729 -0.0027125556958388936 0 0.00047723938789812423 -0.0026972948734587908 0 0.00044129366113164058 -0.0027751294625768218 0 0.00055534116484801154 -0.0027076807923942688 0 0.00045558495682648402 -0.0043281252587159379 0 0.0004861003236214062 -0.0042494918803502122 0 0.00050186501348135513 -0.004316994127755951 0 0.0004861003236214062 -0.0042494918803502122 0 0.00050186501348135513 -0.004316994127755951 0 0.00051492698764226774 -0.0042815228820771373 0 0.00045558495682648402 -0.0043281252587159379 0 0.00050186501348135513 -0.004316994127755951 0 0.00052241303485245556 -0.0043602823652648037 0 0.00050186501348135513 -0.004316994127755951 0 0.00054205004197205862 -0.0043039135855716011 0 0.00052241303485245556 -0.0043602823652648037 0 0.00054205004197205862 -0.0043039135855716011 0 0.00059117673387957734 -0.0043129919836489847 0 0.00052241303485245556 -0.0043602823652648037 0 0.00050186501348135513 -0.004316994127755951 0 0.00054205004197205862 -0.0043039135855716011 0 0.00051492698764226774 -0.0042815228820771373 0 0.00054205004197205862 -0.0043039135855716011 0 0.00054134685412055364 -0.0042679375031638885 0 0.00056752404782357694 -0.0042807716058627914 0 0.00055645308468819834 -0.0042336678195295597 0 0.0004861003236214062 -0.0042494918803502122 0 0.00054134685412055364 -0.0042679375031638885 0 0.00054205004197205862 -0.0043039135855716011 0 0.00051492698764226774 -0.0042815228820771373 0 0.00054134685412055364 -0.0042679375031638885 0 0.0004861003236214062 -0.0042494918803502122 0 0.00051492698764226774 -0.0042815228820771373 0 0.00054134685412055364 -0.0042679375031638885 0 0.00054134685412055364 -0.0042679375031638885 0 0.00057097157092969022 -0.0042509528075373665 0 0.00056752404782357694 -0.0042807716058627914 0 0.00056752404782357694 -0.0042807716058627914 0 0.00059521787018739576 -0.0042639641478590109 0 0.00059117673387957734 -0.0043129919836489847 0 0.00055645308468819834 -0.0042336678195295597 0 0.00054134685412055364 -0.0042679375031638885 0 0.00057097157092969022 -0.0042509528075373665 0 0.00057097157092969022 -0.0042509528075373665 0 0.00056752404782357694 -0.0042807716058627914 0 0.00059521787018739576 -0.0042639641478590109 0 0.00065745323143756595 -0.0042786693709963627 0 0.00061996742788999776 -0.0042722313336912973 0 0.00059117673387957734 -0.0043129919836489847 0 0.00059521787018739576 -0.0042639641478590109 0 0.00061996742788999776 -0.0042722313336912973 0 0.00059117673387957734 -0.0043129919836489847 0 0.00062442331641778871 -0.0042391617912901011 0 0.00059521787018739576 -0.0042639641478590109 0 0.00061996742788999776 -0.0042722313336912973 0 0.00064129579232481964 -0.0042573624619804606 0 0.00062442331641778871 -0.0042391617912901011 0 0.00061996742788999776 -0.0042722313336912973 0 0.000229409379420526 -0.0045995123563472035 0 0.00034105311851930674 -0.0045688354337527848 0 0.00032935542343390549 -0.0045047100065333089 0 0.0004464172520810636 -0.0044609049737756191 0 0.00046472914844235399 -0.0044423416077101138 0 0.00046472914844235399 -0.0044423416077101138 0 0.00046517996050821574 -0.0044233786858215345 0 0.00054205004197205862 -0.0043039135855716011 0 0.00056752404782357694 -0.0042807716058627914 0 0.00059117673387957734 -0.0043129919836489847 0 0.00034105311851930674 -0.0045688354337527848 0 0.00032935542343390549 -0.0045047100065333089 0 0.00041648901831556735 -0.0044846053546226316 0 0.00030502639833794831 -0.00453134574973919 0 0.00037721708950135994 -0.0044717713078903489 0 0.00023228384038508057 -0.0045930941361417956 0 0.00030502639833794831 -0.00453134574973919 0 0.00023790889201006916 -0.0045497767700708293 0 0.00028004368173949076 -0.0045549381881324364 0 0.00026310144011359288 -0.0045146502671924724 0 0.00023341297841814358 -0.0045129665614754245 0 0.00026310144011359288 -0.0045146502671924724 0 0.0002429281701117919 -0.0044699270611129804 0 0.00028004368173949076 -0.0045549381881324364 0 0.00026310144011359288 -0.0045146502671924724 0 0.00029950958183620855 -0.0045030648721361014 0 0.00026310144011359288 -0.0045146502671924724 0 0.00029950958183620855 -0.0045030648721361014 0 0.00028395596007928524 -0.0044793964330099361 0 0.00028004368173949076 -0.0045549381881324364 0 0.00029950958183620855 -0.0045030648721361014 0 0.00034678849410585579 -0.0045039668325256299 0 0.00029950958183620855 -0.0045030648721361014 0 0.00034678849410585579 -0.0045039668325256299 0 0.00032001152382441693 -0.004464588253773551 0 0.00029950958183620855 -0.0045030648721361014 0 0.00032001152382441693 -0.004464588253773551 0 0.00028395596007928524 -0.0044793964330099361 0 0.00043183225065737089 -0.0044172849716478894 0 0.00041585926461761935 -0.0044281548389369452 0 0.00040959116167278692 -0.0044409339902305774 0 0.00041427658892648613 -0.0044328879613052229 0 0.00037721708950135994 -0.0044717713078903489 0 0.00045558495682648402 -0.0043281252587159379 0 0.00043183225065737089 -0.0044172849716478894 0 0.00052241303485245556 -0.0043602823652648037 0 0.00043183225065737089 -0.0044172849716478894 0 0.00040959116167278692 -0.0044409339902305774 0 0.00041648901831556735 -0.0044846053546226316 0 0.00043223356693366128 -0.0044207282002057136 0 0.00046517996050821574 -0.0044233786858215345 0 0.00032935542343390549 -0.0045047100065333089 0 0.00040959116167278692 -0.0044409339902305774 0 0.00041648901831556735 -0.0044846053546226316 0 0.00033532086318108071 -0.0044203120047352374 0 0.00038507464921888764 -0.0044047994738683456 0 0.00034146957272297403 -0.0043767636388673111 0 0.00033532086318108071 -0.0044203120047352374 0 0.00038507464921888764 -0.0044047994738683456 0 0.00036179439008262638 -0.0044424975667107774 0 0.00040474024240535784 -0.0043805298040887636 0 0.00038507464921888764 -0.0044047994738683456 0 0.00037933295128826633 -0.0043653605348050644 0 0.00041585926461761935 -0.0044281548389369452 0 0.00038507464921888764 -0.0044047994738683456 0 0.00036179439008262638 -0.0044424975667107774 0 0.00041585926461761935 -0.0044281548389369452 0 0.00034678849410585579 -0.0045039668325256299 0 0.00036179439008262638 -0.0044424975667107774 0 0.00034678849410585579 -0.0045039668325256299 0 0.00036179439008262638 -0.0044424975667107774 0 0.00032001152382441693 -0.004464588253773551 0 0.00033532086318108071 -0.0044203120047352374 0 0.00036179439008262638 -0.0044424975667107774 0 0.00032001152382441693 -0.004464588253773551 0 0.00033532086318108071 -0.0044203120047352374 0 0.00032001152382441693 -0.004464588253773551 0 0.00028706001989765894 -0.0044347257398003907 0 0.00032001152382441693 -0.004464588253773551 0 0.00028395596007928524 -0.0044793964330099361 0 0.00028706001989765894 -0.0044347257398003907 0 0.00026310144011359288 -0.0045146502671924724 0 0.00028395596007928524 -0.0044793964330099361 0 0.0002429281701117919 -0.0044699270611129804 0 0.00028395596007928524 -0.0044793964330099361 0 0.0002429281701117919 -0.0044699270611129804 0 0.00028706001989765894 -0.0044347257398003907 0 0.0002429281701117919 -0.0044699270611129804 0 0.00024382916986825793 -0.004412601843926979 0 0.00028706001989765894 -0.0044347257398003907 0 0.00024382916986825793 -0.004412601843926979 0 0.00028706001989765894 -0.0044347257398003907 0 0.00029670952474611958 -0.0043808949313119232 0 0.00033532086318108071 -0.0044203120047352374 0 0.00028706001989765894 -0.0044347257398003907 0 0.00029670952474611958 -0.0043808949313119232 0 0.00024382916986825793 -0.004412601843926979 0 0.00024128561413231861 -0.0043353881323392601 0 0.00017173435998184202 -0.0043441515670475219 0 0.00024382916986825793 -0.004412601843926979 0 0.00029670952474611958 -0.0043808949313119232 0 0.00024128561413231861 -0.0043353881323392601 0 0.00024128561413231861 -0.0043353881323392601 0 0.00028647257066859557 -0.004329441212515407 0 0.00026319737648272765 -0.0042955558991899052 0 0.00029670952474611958 -0.0043808949313119232 0 0.00024128561413231861 -0.0043353881323392601 0 0.00033550629469325483 -0.0043306325601850642 0 0.00024433540248918915 -0.0043359988688703392 0 0.0003107931478724799 -0.0043271819334075633 0 0.00029670952474611958 -0.0043808949313119232 0 0.00033550629469325483 -0.0043306325601850642 0 0.00034146957272297403 -0.0043767636388673111 0 0.00033550629469325483 -0.0043306325601850642 0 0.00034146957272297403 -0.0043767636388673111 0 0.00037933295128826633 -0.0043653605348050644 0 0.00033532086318108071 -0.0044203120047352374 0 0.00029670952474611958 -0.0043808949313119232 0 0.00034146957272297403 -0.0043767636388673111 0 0.00038507464921888764 -0.0044047994738683456 0 0.00034146957272297403 -0.0043767636388673111 0 0.00037933295128826633 -0.0043653605348050644 0 0.00035995946176009698 -0.0043306657236892743 0 0.00028647257066859557 -0.004329441212515407 0 0.00032917239196643579 -0.0043001156672990122 0 0.00039318823405803439 -0.0043310234974180233 0 0.00033550629469325483 -0.0043306325601850642 0 0.00037933295128826633 -0.0043653605348050644 0 0.00037466220815931205 -0.0043574185178077394 0 0.0003107931478724799 -0.0043271819334075633 0 0.00035995946176009698 -0.0043306657236892743 0 0.00036806254047027834 -0.0042879422130536696 0 0.00032917239196643579 -0.0043001156672990122 0 0.00032917239196643579 -0.0043001156672990122 0 0.00029693015432181557 -0.0042848927967202629 0 0.00033899972516961277 -0.0042647564765248246 0 0.00036806254047027834 -0.0042879422130536696 0 0.00032917239196643579 -0.0043001156672990122 0 0.00033899972516961277 -0.0042647564765248246 0 0.00028647257066859557 -0.004329441212515407 0 0.00029693015432181557 -0.0042848927967202629 0 0.00026319737648272765 -0.0042955558991899052 0 0.00028647257066859557 -0.004329441212515407 0 0.00032917239196643579 -0.0043001156672990122 0 0.00029693015432181557 -0.0042848927967202629 0 0.00029693015432181557 -0.0042848927967202629 0 0.00026662603484016196 -0.0042600587033595275 0 0.00026319737648272765 -0.0042955558991899052 0 0.00029693015432181557 -0.0042848927967202629 0 0.00029619188027478602 -0.0042301572322895331 0 0.00026662603484016196 -0.0042600587033595275 0 0.00033899972516961277 -0.0042647564765248246 0 0.00035071767343281863 -0.004225323560214142 0 0.00029619188027478602 -0.0042301572322895331 0 0.00029693015432181557 -0.0042848927967202629 0 0.00033899972516961277 -0.0042647564765248246 0 0.00029619188027478602 -0.0042301572322895331 0 0.00035071767343281863 -0.004225323560214142 0 0.00029619188027478602 -0.0042301572322895331 0 0.00031775160145544671 -0.0041884166380551941 0 0.00036500705119430236 -0.0041926111978885664 0 0.00035071767343281863 -0.004225323560214142 0 0.00031775160145544671 -0.0041884166380551941 0 0.00029619188027478602 -0.0042301572322895331 0 0.00026006320564086891 -0.0041911705285639263 0 0.00031775160145544671 -0.0041884166380551941 0 0.00029619188027478602 -0.0042301572322895331 0 0.00026006320564086891 -0.0041911705285639263 0 0.00023695229538291549 -0.0042241635761396243 0 0.00026006320564086891 -0.0041911705285639263 0 0.0002806286410012061 -0.0041598619494468154 0 0.00023494191444003074 -0.0041583016242964796 0 0.00026006320564086891 -0.0041911705285639263 0 0.0002806286410012061 -0.0041598619494468154 0 0.00031775160145544671 -0.0041884166380551941 0 0.0002806286410012061 -0.0041598619494468154 0 0.00032125617673380626 -0.0041564880241502121 0 0.00031775160145544671 -0.0041884166380551941 0 0.00036378877141952595 -0.0041606311141138752 0 0.00032125617673380626 -0.0041564880241502121 0 0.00034784802616896396 -0.0041285920387986903 0 0.00036378877141952595 -0.0041606311141138752 0 0.00036500705119430236 -0.0041926111978885664 0 0.00031775160145544671 -0.0041884166380551941 0 0.00036378877141952595 -0.0041606311141138752 0 0.00032125617673380626 -0.0041564880241502121 0 0.00031775160145544671 -0.0041884166380551941 0 0.00019329776067917684 -0.004165869079077374 0 0.00021695382671968304 -0.0041817921147079889 0 0.00019967230005806061 -0.0041514652614259382 0 0.00019230996793373549 -0.004191133744141113 0 0.00021695382671968304 -0.0041817921147079889 0 0.00020542285115443236 -0.004215466963962025 0 0.00019230996793373549 -0.004191133744141113 0 0.00019329776067917684 -0.004165869079077374 0 0.00021695382671968304 -0.0041817921147079889 0 0.00026006320564086891 -0.0041911705285639263 0 0.00021695382671968304 -0.0041817921147079889 0 0.00023494191444003074 -0.0041583016242964796 0 0.00026006320564086891 -0.0041911705285639263 0 0.00021695382671968304 -0.0041817921147079889 0 0.00023695229538291549 -0.0042241635761396243 0 0.00023695229538291549 -0.0042241635761396243 0 0.00020542285115443236 -0.004215466963962025 0 0.00020480679320638781 -0.0042471262022009942 0 0.00021695382671968304 -0.0041817921147079889 0 0.00023695229538291549 -0.0042241635761396243 0 0.00020542285115443236 -0.004215466963962025 0 0.00023695229538291549 -0.0042241635761396243 0 0.00020480679320638781 -0.0042471262022009942 0 0.00023683450979622255 -0.0042573393150653234 0 0.00020480679320638781 -0.0042471262022009942 0 0.00023683450979622255 -0.0042573393150653234 0 0.00022947598102663073 -0.0042856177719652368 0 0.00029619188027478602 -0.0042301572322895331 0 0.00023695229538291549 -0.0042241635761396243 0 0.00026662603484016196 -0.0042600587033595275 0 0.00023695229538291549 -0.0042241635761396243 0 0.00023683450979622255 -0.0042573393150653234 0 0.00026662603484016196 -0.0042600587033595275 0 0.00023683450979622255 -0.0042573393150653234 0 0.00026662603484016196 -0.0042600587033595275 0 0.00026319737648272765 -0.0042955558991899052 0 0.00024128561413231861 -0.0043353881323392601 0 0.00026319737648272765 -0.0042955558991899052 0 0.00022947598102663073 -0.0042856177719652368 0 0.00023683450979622255 -0.0042573393150653234 0 0.00026319737648272765 -0.0042955558991899052 0 0.00022947598102663073 -0.0042856177719652368 0 0.00024128561413231861 -0.0043353881323392601 0 0.00022947598102663073 -0.0042856177719652368 0 0.00018582226191254562 -0.0042902753190935689 0 0.00020480679320638781 -0.0042471262022009942 0 0.00022947598102663073 -0.0042856177719652368 0 0.00018582226191254562 -0.0042902753190935689 0 0.00018582226191254562 -0.0042902753190935689 0 0.00012560243639373934 -0.0042907243223567291 0 0.00015879881204251085 -0.004252372421994827 0 0.00018582226191254562 -0.0042902753190935689 0 0.00012560243639373934 -0.0042907243223567291 0 0.00017173435998184202 -0.0043441515670475219 0 0.00015879881204251085 -0.004252372421994827 0 0.00014001909573577113 -0.0042290343026818158 0 0.00011796894695325796 -0.0042414788856383586 0 0.00012560243639373934 -0.0042907243223567291 0 0.00015879881204251085 -0.004252372421994827 0 0.00011796894695325796 -0.0042414788856383586 0 0.00020480679320638781 -0.0042471262022009942 0 0.00015879881204251085 -0.004252372421994827 0 0.00017159767769813486 -0.0042187000775789915 0 0.00020480679320638781 -0.0042471262022009942 0 0.00018582226191254562 -0.0042902753190935689 0 0.00015879881204251085 -0.004252372421994827 0 0.00019230996793373549 -0.004191133744141113 0 0.00020542285115443236 -0.004215466963962025 0 0.00017159767769813486 -0.0042187000775789915 0 0.00020542285115443236 -0.004215466963962025 0 0.00020480679320638781 -0.0042471262022009942 0 0.00017159767769813486 -0.0042187000775789915 0 0.00015879881204251085 -0.004252372421994827 0 0.00017159767769813486 -0.0042187000775789915 0 0.00014001909573577113 -0.0042290343026818158 0 0.00017159767769813486 -0.0042187000775789915 0 0.00014001909573577113 -0.0042290343026818158 0 0.0001347385558991773 -0.0042071778837356067 0 0.00017159767769813486 -0.0042187000775789915 0 0.0001347385558991773 -0.0042071778837356067 0 0.00017081488517473181 -0.0041803640369112056 0 0.00014001909573577113 -0.0042290343026818158 0 0.0001347385558991773 -0.0042071778837356067 0 0.00011803155958031762 -0.0042230590712825002 0 0.0001347385558991773 -0.0042071778837356067 0 0.00014154226141890078 -0.0041701182853065427 0 0.00017081488517473181 -0.0041803640369112056 0 0.00019230996793373549 -0.004191133744141113 0 0.00017159767769813486 -0.0042187000775789915 0 0.00017081488517473181 -0.0041803640369112056 0 0.00019230996793373549 -0.004191133744141113 0 0.00019329776067917684 -0.004165869079077374 0 0.00017081488517473181 -0.0041803640369112056 0 0.00016797256080181675 -0.0043784790702014039 0 0.00020117904922368381 -0.0044100311504496935 0 0.00018598217272349589 -0.0046041724486792649 0 0.00023392648279775346 -0.0046261590870095405 0 0.00020260776432518514 -0.0046302085184612238 0 0.00016092287065156812 -0.0042127776610637489 0 0.00015443188478717255 -0.0042448436346865809 0 0.00019002574681639675 -0.0042519277944727636 0 0.00018598217272349589 -0.0046041724486792649 0 0.00023392648279775346 -0.0046261590870095405 0 0.00019002862679827199 -0.0045583021519374801 0 0.00013501414706292269 -0.0041810982863175758 0 0.00016797256080181675 -0.0043784790702014039 0 0.0001347385558991773 -0.0042071778837356067 0 0.00014154226141890078 -0.0041701182853065427 0 9.4798247910821723e-05 -0.0042036788010420692 0 0.00012570527478243239 -0.0042388971459387552 0 0.00016092287065156812 -0.0042127776610637489 0 0.00015443188478717255 -0.0042448436346865809 0 0.00016327491064472611 -0.0044188143527979498 0 0.00016850757560432479 -0.0044269118429093694 0 0.00015765446419253523 -0.0044337174484693799 0 0.0001347385558991773 -0.0042071778837356067 0 9.4798247910821723e-05 -0.0042036788010420692 0 0.00010237487725188105 -0.0042155224875227125 0 0.00016797256080181675 -0.0043784790702014039 0 0.00012171518793251743 -0.0043030003149679289 0 0.0001347385558991773 -0.0042071778837356067 0 0.00010237487725188105 -0.0042155224875227125 0 0.00011803155958031762 -0.0042230590712825002 0 0.00012171518793251743 -0.0043030003149679289 0 9.9981586355984726e-05 -0.0042227525132262078 0 0.00010237487725188105 -0.0042155224875227125 0 0.00011803155958031762 -0.0042230590712825002 0 0.00011796894695325796 -0.0042414788856383586 0 0.00014001909573577113 -0.0042290343026818158 0 0.00011803155958031762 -0.0042230590712825002 0 0.00011796894695325796 -0.0042414788856383586 0 0.00010204655095513272 -0.0042181916651454227 0 8.6436508434820542e-05 -0.0042455602498368897 0 0.00011796894695325796 -0.0042414788856383586 0 0.00012171518793251743 -0.0043030003149679289 0 0.00013734615411621729 -0.0044175331171784852 0 0.00019211674249303113 -0.0045849822764681266 0 0.00013734615411621729 -0.0044175331171784852 0 0.00015765446419253523 -0.0044337174484693799 0 0.00014523133830173055 -0.0044326132577961943 0 0.00015797850638500291 -0.0044463212604720827 0 0.00016850757560432479 -0.0044269118429093694 0 0.00015765446419253523 -0.0044337174484693799 0 0.00015797850638500291 -0.0044463212604720827 0 0.00023392648279775346 -0.0046261590870095405 0 0.00020260776432518514 -0.0046302085184612238 0 0.00019783384556602078 -0.0046530992601937641 0 0.00016327491064472611 -0.0044188143527979498 0 0.00015765446419253523 -0.0044337174484693799 0 0.00014523133830173055 -0.0044326132577961943 0 0.00016797256080181675 -0.0043784790702014039 0 0.00019211674249303113 -0.0045849822764681266 0 0.00020260776432518514 -0.0046302085184612238 0 0.00019783384556602078 -0.0046530992601937641 0 0.00018379960535203326 -0.0046385540866139881 0 0.00018598217272349589 -0.0046041724486792649 0 0.00020260776432518514 -0.0046302085184612238 0 0.00018379960535203326 -0.0046385540866139881 0 0.00019211674249303113 -0.0045849822764681266 0 0.00020423800654633238 -0.0046223815231095002 0 0.00019677064909888635 -0.0046567961995596903 0 0.00019530174678882622 -0.0046790854977874757 0 0.00017252198931802854 -0.0046753211067379627 0 0.00013543260023778499 -0.0043173606585974779 0 0.0001410973535542632 -0.0043472577055466734 0 0.00011926263175697433 -0.004345990627958725 0 0.00019530174678882622 -0.0046790854977874757 0 0.0002220794700615312 -0.0046841697889373722 0 0.00019005259147522995 -0.004700190209002161 0 0.00019530174678882622 -0.0046790854977874757 0 0.00019005259147522995 -0.004700190209002161 0 0.00017252198931802854 -0.0046753211067379627 0 0.00019677064909888635 -0.0046567961995596903 0 0.00019530174678882622 -0.0046790854977874757 0 0.0002220794700615312 -0.0046841697889373722 0 0.0002220794700615312 -0.0046841697889373722 0 0.00019005259147522995 -0.004700190209002161 0 0.00019503760161123114 -0.0047319569851843419 0 0.00013734615411621729 -0.0044175331171784852 0 0.00015687463567175351 -0.0045428465956376847 0 0.00019005259147522995 -0.004700190209002161 0 0.00019503760161123114 -0.0047319569851843419 0 0.0001772841786344426 -0.0047194399204852841 0 0.00013646827130829269 -0.0042951094021431366 0 0.00013734615411621729 -0.0044175331171784852 0 0.00012560243639373934 -0.0042907243223567291 0 8.6436508434820542e-05 -0.0042455602498368897 0 0.00011796894695325796 -0.0042414788856383586 0 0.00016948545058732842 -0.0043507520413568635 0 0.00013543260023778499 -0.0043173606585974779 0 0.0001410973535542632 -0.0043472577055466734 0 0.00016948545058732842 -0.0043507520413568635 0 0.0001410973535542632 -0.0043472577055466734 0 0.00014022587187965716 -0.0043755527705983677 0 0.0001410973535542632 -0.0043472577055466734 0 0.00011926263175697433 -0.004345990627958725 0 0.00014022587187965716 -0.0043755527705983677 0 0.00011926263175697433 -0.004345990627958725 0 0.00014022587187965716 -0.0043755527705983677 0 0.0001017281802648379 -0.0043762251471392176 0 0.00011540407170161471 -0.0044163214096779087 0 0.00014022587187965716 -0.0043755527705983677 0 0.0001017281802648379 -0.0043762251471392176 0 0.00011540407170161471 -0.0044163214096779087 0 0.00016212591330572865 -0.0044174975906576559 0 0.00014022587187965716 -0.0043755527705983677 0 0.00016948545058732842 -0.0043507520413568635 0 0.00016980471589350034 -0.0043819765489958506 0 0.00014022587187965716 -0.0043755527705983677 0 0.00016212591330572865 -0.0044174975906576559 0 0.00016980471589350034 -0.0043819765489958506 0 0.00014022587187965716 -0.0043755527705983677 0 0.00016948545058732842 -0.0043507520413568635 0 0.00016980471589350034 -0.0043819765489958506 0 0.00020776567742761571 -0.0043851223651371644 0 0.00013646827130829269 -0.0042951094021431366 0 0.00019451875898218547 -0.0043705703526992915 0 0.00024128561413231861 -0.0043353881323392601 0 0.00018582226191254562 -0.0042902753190935689 0 0.00017173435998184202 -0.0043441515670475219 0 0.00023851231355472412 -0.0044084795196155041 0 0.00019451875898218547 -0.0043705703526992915 0 0.00024382916986825793 -0.004412601843926979 0 0.00020776567742761571 -0.0043851223651371644 0 0.00020352568446045847 -0.0044382717149521311 0 0.00016212591330572865 -0.0044174975906576559 0 0.00016980471589350034 -0.0043819765489958506 0 0.00020776567742761571 -0.0043851223651371644 0 0.00016212591330572865 -0.0044174975906576559 0 0.00020776567742761571 -0.0043851223651371644 0 0.00020352568446045847 -0.0044382717149521311 0 0.00016212591330572865 -0.0044174975906576559 0 0.00020352568446045847 -0.0044382717149521311 0 0.00016638005209075704 -0.0044678194964951744 0 0.0002429281701117919 -0.0044699270611129804 0 0.00024382916986825793 -0.004412601843926979 0 0.00020352568446045847 -0.0044382717149521311 0 0.0002429281701117919 -0.0044699270611129804 0 0.00020352568446045847 -0.0044382717149521311 0 0.00020073253483597565 -0.0044939397281684359 0 0.00023341297841814358 -0.0045129665614754245 0 0.0002429281701117919 -0.0044699270611129804 0 0.00020073253483597565 -0.0044939397281684359 0 0.00020352568446045847 -0.0044382717149521311 0 0.00020073253483597565 -0.0044939397281684359 0 0.00016638005209075704 -0.0044678194964951744 0 0.00013288820454170416 -0.004578520246010874 0 0.00011125152520237035 -0.00455183674472998 0 0.00014572624595253199 -0.0045144958781896541 0 0.00020073253483597565 -0.0044939397281684359 0 0.00016638005209075704 -0.0044678194964951744 0 0.00014572624595253199 -0.0045144958781896541 0 0.00016638005209075704 -0.0044678194964951744 0 0.00012914627611486238 -0.0044623869543339804 0 8.5912406317661808e-05 -0.0046464195843194571 0 0.00010175018559595955 -0.0046557177051086522 0 9.0744188615943689e-05 -0.0046287335755721883 0 8.5912406317661808e-05 -0.0046464195843194571 0 9.0744188615943689e-05 -0.0046287335755721883 0 6.8748325723117992e-05 -0.00462808054290678 0 0.00011540407170161471 -0.0044163214096779087 0 0.00016212591330572865 -0.0044174975906576559 0 0.00012914627611486238 -0.0044623869543339804 0 8.9582127619252687e-05 -0.0044840625364412322 0 0.00011125152520237035 -0.00455183674472998 0 8.0183459852572241e-05 -0.0046022328620804178 0 9.0744188615943689e-05 -0.0046287335755721883 0 6.8748325723117992e-05 -0.00462808054290678 0 0.00016212591330572865 -0.0044174975906576559 0 0.00016638005209075704 -0.0044678194964951744 0 0.00012914627611486238 -0.0044623869543339804 0 8.6873838287336173e-05 -0.0048884478409399563 0 6.7479298773986897e-05 -0.0048421570918734547 0 0.00012766636845738409 -0.0048251121517945391 0 6.2821180445903215e-05 -0.0047586752008998865 0 8.796722193605564e-05 -0.0047297085910954721 0 6.8748325723117992e-05 -0.00462808054290678 0 3.6588822536148753e-05 -0.0046355458747525521 0 5.37285041415844e-05 -0.0046056425880996333 0 8.0183459852572241e-05 -0.0046022328620804178 0 6.8748325723117992e-05 -0.00462808054290678 0 5.37285041415844e-05 -0.0046056425880996333 0 6.1344609975523922e-05 -0.0046486533055556112 0 8.5912406317661808e-05 -0.0046464195843194571 0 6.8748325723117992e-05 -0.00462808054290678 0 6.1344609975523922e-05 -0.0046486533055556112 0 6.8748325723117992e-05 -0.00462808054290678 0 3.6588822536148753e-05 -0.0046355458747525521 0 8.6873838287336173e-05 -0.0048884478409399563 0 2.2048259508711076e-05 -0.0049032719110235854 0 6.7479298773986897e-05 -0.0048421570918734547 0 2.1379221788282401e-05 -0.0049404326106429527 0 6.9206662790969638e-05 -0.004874055743015933 0 2.0173741260995481e-05 -0.0049796055155297662 0 2.3045460967786556e-05 -0.0048973709360825984 0 -1.6585479447562223e-05 -0.004916129219425254 0 2.0173741260995481e-05 -0.0049796055155297662 0 2.3045460967786556e-05 -0.0048973709360825984 0 7.1516423113628441e-05 -0.0049048181524860681 0 2.3045460967786556e-05 -0.0048973709360825984 0 7.1516423113628441e-05 -0.0049048181524860681 0 4.235009484810791e-05 -0.0048483402578283945 0 7.1516423113628441e-05 -0.0049048181524860681 0 7.5731979053234301e-05 -0.0048211122166514431 0 0.00012273389093261526 -0.0048220012585807439 0 7.1516423113628441e-05 -0.0049048181524860681 0 4.235009484810791e-05 -0.0048483402578283945 0 7.5731979053234301e-05 -0.0048211122166514431 0 2.3045460967786556e-05 -0.0048973709360825984 0 -9.3834737083218682e-06 -0.004826601738676317 0 -1.6585479447562223e-05 -0.004916129219425254 0 2.3045460967786556e-05 -0.0048973709360825984 0 4.235009484810791e-05 -0.0048483402578283945 0 -9.3834737083218682e-06 -0.004826601738676317 0 -9.3834737083218682e-06 -0.004826601738676317 0 2.1829508793448342e-05 -0.0047793005897737812 0 5.1864837580245444e-06 -0.0047402327769473732 0 -3.0981587858831493e-06 -0.0049134876541563162 0 1.1269331274224571e-05 -0.0048672315938686128 0 4.235009484810791e-05 -0.0048483402578283945 0 -9.3834737083218682e-06 -0.004826601738676317 0 4.2650392362441745e-05 -0.0047957990602683883 0 -9.3834737083218682e-06 -0.004826601738676317 0 4.2650392362441745e-05 -0.0047957990602683883 0 2.1829508793448342e-05 -0.0047793005897737812 0 4.235009484810791e-05 -0.0048483402578283945 0 4.2650392362441745e-05 -0.0047957990602683883 0 7.5731979053234301e-05 -0.0048211122166514431 0 4.2650392362441745e-05 -0.0047957990602683883 0 7.5731979053234301e-05 -0.0048211122166514431 0 7.3887203167885733e-05 -0.0047714709786531506 0 7.5731979053234301e-05 -0.0048211122166514431 0 0.00010139019057673635 -0.0047855509878653255 0 7.3887203167885733e-05 -0.0047714709786531506 0 0.00010139019057673635 -0.0047855509878653255 0 0.00012273389093261526 -0.0048220012585807439 0 0.0001202447830468204 -0.0047712830420375977 0 0.00012273389093261526 -0.0048220012585807439 0 0.00014220508255193047 -0.0047524125312747778 0 0.0001202447830468204 -0.0047712830420375977 0 7.5731979053234301e-05 -0.0048211122166514431 0 0.00010139019057673635 -0.0047855509878653255 0 0.00012273389093261526 -0.0048220012585807439 0 6.9206662790969638e-05 -0.004874055743015933 0 0.00011959364894028384 -0.004803282525854575 0 6.7479298773986897e-05 -0.0048421570918734547 0 0.0001168545082263762 -0.0047845571886326954 0 0.00012766636845738409 -0.0048251121517945391 0 0.0001168545082263762 -0.0047845571886326954 0 0.00012766636845738409 -0.0048251121517945391 0 0.00016527324050531002 -0.004767809148814057 0 8.9582127619252687e-05 -0.0044840625364412322 0 0.00011668843714849308 -0.0046001839466081841 0 8.796722193605564e-05 -0.0047297085910954721 0 0.00011668843714849308 -0.0046001839466081841 0 8.0183459852572241e-05 -0.0046022328620804178 0 5.37285041415844e-05 -0.0046056425880996333 0 7.0425995020937149e-05 -0.0045763037971650183 0 0.0001168545082263762 -0.0047845571886326954 0 0.00016527324050531002 -0.004767809148814057 0 0.00015994545976431103 -0.0047488803458319096 0 0.00011959364894028384 -0.004803282525854575 0 0.0001622954599001079 -0.0047416979156379496 0 0.00011668843714849308 -0.0046001839466081841 0 0.00017274420430877445 -0.0047681762159224525 0 0.00019503760161123114 -0.0047319569851843419 0 0.00016898312477951904 -0.0047722915692330718 0 0.00015994545976431103 -0.0047488803458319096 0 0.00015687463567175351 -0.0045428465956376847 0 0.00011668843714849308 -0.0046001839466081841 0 0.00012273389093261526 -0.0048220012585807439 0 0.00014220508255193047 -0.0047524125312747778 0 0.00016524896778715006 -0.0047372010745385419 0 0.0001168545082263762 -0.0047845571886326954 0 0.00015994545976431103 -0.0047488803458319096 0 0.00016524896778715006 -0.0047372010745385419 0 0.00014220508255193047 -0.0047524125312747778 0 0.00014620278118238327 -0.0047256945226573106 0 0.00016524896778715006 -0.0047372010745385419 0 0.00014620278118238327 -0.0047256945226573106 0 0.0001618134716316396 -0.0047223793972223866 0 0.00016524896778715006 -0.0047372010745385419 0 0.0001618134716316396 -0.0047223793972223866 0 0.0001772841786344426 -0.0047194399204852841 0 0.00016524896778715006 -0.0047372010745385419 0 0.00019503760161123114 -0.0047319569851843419 0 0.00015994545976431103 -0.0047488803458319096 0 0.00016524896778715006 -0.0047372010745385419 0 0.00019503760161123114 -0.0047319569851843419 0 0.0001772841786344426 -0.0047194399204852841 0 0.00016524896778715006 -0.0047372010745385419 0 0.00010139019057673635 -0.0047855509878653255 0 0.00010742961342766749 -0.0047548588952362556 0 0.0001202447830468204 -0.0047712830420375977 0 0.00010139019057673635 -0.0047855509878653255 0 0.00010742961342766749 -0.0047548588952362556 0 7.3887203167885733e-05 -0.0047714709786531506 0 0.00010742961342766749 -0.0047548588952362556 0 0.0001202447830468204 -0.0047712830420375977 0 0.00012797194787475752 -0.0047436052880157316 0 0.00014220508255193047 -0.0047524125312747778 0 0.0001202447830468204 -0.0047712830420375977 0 0.00012797194787475752 -0.0047436052880157316 0 0.00014220508255193047 -0.0047524125312747778 0 0.00014620278118238327 -0.0047256945226573106 0 0.00012797194787475752 -0.0047436052880157316 0 0.00014620278118238327 -0.0047256945226573106 0 0.00012806682718121117 -0.0047246980906954384 0 0.00012797194787475752 -0.0047436052880157316 0 0.00012806682718121117 -0.0047246980906954384 0 0.00012797194787475752 -0.0047436052880157316 0 0.0001075571266250005 -0.0047251847181794294 0 0.00010742961342766749 -0.0047548588952362556 0 0.00012797194787475752 -0.0047436052880157316 0 0.0001075571266250005 -0.0047251847181794294 0 0.00010742961342766749 -0.0047548588952362556 0 0.0001075571266250005 -0.0047251847181794294 0 8.406372557490151e-05 -0.0047416833290662135 0 0.0001075571266250005 -0.0047251847181794294 0 0.00013030086103527609 -0.004704564195514664 0 0.00010149852051541211 -0.0046962699568223925 0 0.00012806682718121117 -0.0047246980906954384 0 0.0001075571266250005 -0.0047251847181794294 0 0.00013030086103527609 -0.004704564195514664 0 0.00014620278118238327 -0.0047256945226573106 0 0.00012806682718121117 -0.0047246980906954384 0 0.00013030086103527609 -0.004704564195514664 0 0.00013030086103527609 -0.004704564195514664 0 0.00010149852051541211 -0.0046962699568223925 0 0.00011735891862293561 -0.004671935968144485 0 0.00013030086103527609 -0.004704564195514664 0 0.00014701401317700349 -0.0046832125408079166 0 0.00011735891862293561 -0.004671935968144485 0 0.00010149852051541211 -0.0046962699568223925 0 0.00011735891862293561 -0.004671935968144485 0 7.5746054519707274e-05 -0.0046771531017781734 0 0.00019005259147522995 -0.004700190209002161 0 0.0001772841786344426 -0.0047194399204852841 0 0.00016074374506450594 -0.0047062640064493297 0 0.0001618134716316396 -0.0047223793972223866 0 0.0001772841786344426 -0.0047194399204852841 0 0.00016074374506450594 -0.0047062640064493297 0 0.00014620278118238327 -0.0047256945226573106 0 0.00013030086103527609 -0.004704564195514664 0 0.00016074374506450594 -0.0047062640064493297 0 0.00013030086103527609 -0.004704564195514664 0 0.00016074374506450594 -0.0047062640064493297 0 0.00014701401317700349 -0.0046832125408079166 0 0.00014620278118238327 -0.0047256945226573106 0 0.0001618134716316396 -0.0047223793972223866 0 0.00016074374506450594 -0.0047062640064493297 0 0.00016074374506450594 -0.0047062640064493297 0 0.00014701401317700349 -0.0046832125408079166 0 0.00017252198931802854 -0.0046753211067379627 0 0.00019005259147522995 -0.004700190209002161 0 0.00016074374506450594 -0.0047062640064493297 0 0.00017252198931802854 -0.0046753211067379627 0 0.00019937132329321525 -0.0046553297007209766 0 0.00017252198931802854 -0.0046753211067379627 0 0.00018379960535203326 -0.0046385540866139881 0 0.00017252198931802854 -0.0046753211067379627 0 0.00018379960535203326 -0.0046385540866139881 0 0.00015174077737447833 -0.0046542154194177772 0 0.00019211674249303113 -0.0045849822764681266 0 0.00016232357394468239 -0.0046551752868608277 0 0.00018379960535203326 -0.0046385540866139881 0 0.00016078574400005412 -0.0046251524548959764 0 0.00015174077737447833 -0.0046542154194177772 0 0.00016078574400005412 -0.0046251524548959764 0 0.00015174077737447833 -0.0046542154194177772 0 0.00012909224225291275 -0.0046331730592770546 0 0.00014701401317700349 -0.0046832125408079166 0 0.00017252198931802854 -0.0046753211067379627 0 0.00015174077737447833 -0.0046542154194177772 0 0.00014701401317700349 -0.0046832125408079166 0 0.00015174077737447833 -0.0046542154194177772 0 0.00011735891862293561 -0.004671935968144485 0 0.00015174077737447833 -0.0046542154194177772 0 0.00011735891862293561 -0.004671935968144485 0 0.00012909224225291275 -0.0046331730592770546 0 0.00011735891862293561 -0.004671935968144485 0 9.8485551958211318e-05 -0.0046437272201477944 0 7.5746054519707274e-05 -0.0046771531017781734 0 9.8485551958211318e-05 -0.0046437272201477944 0 0.00012909224225291275 -0.0046331730592770546 0 0.00010257974008596542 -0.0046084502320810081 0 0.00011735891862293561 -0.004671935968144485 0 9.8485551958211318e-05 -0.0046437272201477944 0 0.00012909224225291275 -0.0046331730592770546 0 0.00012909224225291275 -0.0046331730592770546 0 0.00010257974008596542 -0.0046084502320810081 0 0.00015294870686914018 -0.0045961338954239967 0 0.00010257974008596542 -0.0046084502320810081 0 0.00015294870686914018 -0.0045961338954239967 0 0.00010561458220265147 -0.0045695999903053054 0 0.00010257974008596542 -0.0046084502320810081 0 7.100572352043195e-05 -0.0045723355638642004 0 0.00010561458220265147 -0.0045695999903053054 0 0.00018598217272349589 -0.0046041724486792649 0 0.00015294870686914018 -0.0045961338954239967 0 0.00019002862679827199 -0.0045583021519374801 0 0.00018598217272349589 -0.0046041724486792649 0 0.00018379960535203326 -0.0046385540866139881 0 0.00016078574400005412 -0.0046251524548959764 0 0.00018598217272349589 -0.0046041724486792649 0 0.00016078574400005412 -0.0046251524548959764 0 0.00015294870686914018 -0.0045961338954239967 0 0.00016078574400005412 -0.0046251524548959764 0 0.00012909224225291275 -0.0046331730592770546 0 0.00015294870686914018 -0.0045961338954239967 0 9.7288141597296125e-05 -0.0048600623415073216 0 4.6371755256441778e-05 -0.004970673263764709 0 -1.7020477121525062e-05 -0.0049249387404129742 0 6.5412644796726947e-05 -0.0047209080699984344 0 3.4274987934804735e-05 -0.0048130388076016821 0 3.526885860785667e-05 -0.0045843065889779547 0 6.7347034906422415e-05 -0.0046283129320298152 0 2.0701078991256031e-05 -0.004660608490855111 0 0.00010257974008596542 -0.0046084502320810081 0 6.7347034906422415e-05 -0.0046283129320298152 0 7.100572352043195e-05 -0.0045723355638642004 0 3.526885860785667e-05 -0.0045843065889779547 0 6.7347034906422415e-05 -0.0046283129320298152 0 7.100572352043195e-05 -0.0045723355638642004 0 9.8485551958211318e-05 -0.0046437272201477944 0 6.7347034906422415e-05 -0.0046283129320298152 0 7.5746054519707274e-05 -0.0046771531017781734 0 6.7347034906422415e-05 -0.0046283129320298152 0 2.0701078991256031e-05 -0.004660608490855111 0 7.5746054519707274e-05 -0.0046771531017781734 0 9.8485551958211318e-05 -0.0046437272201477944 0 0.00010257974008596542 -0.0046084502320810081 0 6.7347034906422415e-05 -0.0046283129320298152 0 2.0701078991256031e-05 -0.004660608490855111 0 6.5223966742532851e-05 -0.0047164622610251557 0 5.1864837580245444e-06 -0.0047402327769473732 0 4.6371755256441778e-05 -0.004970673263764709 0 1.5782439986575737e-05 -0.0049956167630948603 0 4.1797778475280903e-06 -0.0049811943379747623 0 3.4274987934804735e-05 -0.0048130388076016821 0 1.1269331274224571e-05 -0.0048672315938686128 0 2.0701078991256031e-05 -0.004660608490855111 0 7.5746054519707274e-05 -0.0046771531017781734 0 6.5223966742532851e-05 -0.0047164622610251557 0 0.00010149852051541211 -0.0046962699568223925 0 7.5746054519707274e-05 -0.0046771531017781734 0 6.5223966742532851e-05 -0.0047164622610251557 0 0.0001075571266250005 -0.0047251847181794294 0 0.00010149852051541211 -0.0046962699568223925 0 6.5223966742532851e-05 -0.0047164622610251557 0 0.0001075571266250005 -0.0047251847181794294 0 6.5223966742532851e-05 -0.0047164622610251557 0 8.406372557490151e-05 -0.0047416833290662135 0 6.5223966742532851e-05 -0.0047164622610251557 0 8.406372557490151e-05 -0.0047416833290662135 0 4.8457803397504529e-05 -0.0047549026551780352 0 4.2650392362441745e-05 -0.0047957990602683883 0 4.8457803397504529e-05 -0.0047549026551780352 0 7.3887203167885733e-05 -0.0047714709786531506 0 8.406372557490151e-05 -0.0047416833290662135 0 4.8457803397504529e-05 -0.0047549026551780352 0 7.3887203167885733e-05 -0.0047714709786531506 0 0.00010742961342766749 -0.0047548588952362556 0 8.406372557490151e-05 -0.0047416833290662135 0 7.3887203167885733e-05 -0.0047714709786531506 0 1.9517760557219378e-06 -0.0050016374457490234 0 1.5782439986575737e-05 -0.0049956167630948603 0 6.4383780621146505e-06 -0.0049986456089470537 0 6.5223966742532851e-05 -0.0047164622610251557 0 4.8457803397504529e-05 -0.0047549026551780352 0 5.1864837580245444e-06 -0.0047402327769473732 0 4.2650392362441745e-05 -0.0047957990602683883 0 2.1829508793448342e-05 -0.0047793005897737812 0 4.8457803397504529e-05 -0.0047549026551780352 0 2.1829508793448342e-05 -0.0047793005897737812 0 4.8457803397504529e-05 -0.0047549026551780352 0 5.1864837580245444e-06 -0.0047402327769473732 0 5.6333450977284326e-06 -0.0049983929584402828 0 -3.6458751811466949e-06 -0.0049924904982338409 0 6.4383780621146505e-06 -0.0049986456089470537 0 4.9388310759791864e-06 -0.0049906553654910854 0 -9.6397780681235331e-06 -0.0049863484401374445 0 6.4383780621146505e-06 -0.0049986456089470537 0 3.3057938540892387e-07 -0.0049984620760046301 0 1.7318220580183756e-06 -0.0050006031630911484 0 1.5782439986575737e-05 -0.0049956167630948603 0 6.4383780621146505e-06 -0.0049986456089470537 0 4.9388310759791864e-06 -0.0049906553654910854 0 3.3057938540892387e-07 -0.0049984620760046301 0 -3.4674036987447857e-08 -0.00500040257688738 0 1.7318220580183756e-06 -0.0050006031630911484 0 3.3057938540892387e-07 -0.0049984620760046301 0 -3.2456994879884315e-07 -0.0049999007946332002 0 -3.4674036987447857e-08 -0.00500040257688738 0 -9.6397780681235331e-06 -0.0049863484401374445 0 4.1797778475280903e-06 -0.0049811943379747623 0 -1.3261007116787342e-05 -0.004964962931558136 0 -9.6397780681235331e-06 -0.0049863484401374445 0 -1.3261007116787342e-05 -0.004964962931558136 0 -1.2765587101732014e-05 -0.0049768146653653188 0 4.9388310759791864e-06 -0.0049906553654910854 0 -9.6397780681235331e-06 -0.0049863484401374445 0 4.1797778475280903e-06 -0.0049811943379747623 0 1.5782439986575737e-05 -0.0049956167630948603 0 4.9388310759791864e-06 -0.0049906553654910854 0 4.1797778475280903e-06 -0.0049811943379747623 0 4.6371755256441778e-05 -0.004970673263764709 0 1.7456640457006567e-06 -0.0049620858647092553 0 -1.7020477121525062e-05 -0.0049249387404129742 0 4.6371755256441778e-05 -0.004970673263764709 0 4.1797778475280903e-06 -0.0049811943379747623 0 1.7456640457006567e-06 -0.0049620858647092553 0 1.7456640457006567e-06 -0.0049620858647092553 0 -1.3261007116787342e-05 -0.004964962931558136 0 -1.7020477121525062e-05 -0.0049249387404129742 0 4.1797778475280903e-06 -0.0049811943379747623 0 1.7456640457006567e-06 -0.0049620858647092553 0 -1.3261007116787342e-05 -0.004964962931558136 0 -1.3261007116787342e-05 -0.004964962931558136 0 -1.2210485603740568e-05 -0.0049553524016824274 0 -1.0171840476789953e-05 -0.0049732540114452049 0 -1.3261007116787342e-05 -0.004964962931558136 0 -1.2210485603740568e-05 -0.0049553524016824274 0 -1.7020477121525062e-05 -0.0049249387404129742 0 -1.2210485603740568e-05 -0.0049553524016824274 0 -1.7020477121525062e-05 -0.0049249387404129742 0 -2.0887146688030936e-05 -0.0049788955331452524 0 -1.2210485603740568e-05 -0.0049553524016824274 0 -1.0171840476789953e-05 -0.0049732540114452049 0 -7.9662535123121759e-06 -0.0049777114461559474 0 -8.0638883418677467e-10 -0.0049999936006637283 0 -4.3576552784589305e-06 -0.004988619299915501 0 -4.1680589268929043e-06 -0.0049869278837970194 0 -8.0638883418677467e-10 -0.0049999936006637283 0 -4.3576552784589305e-06 -0.004988619299915501 0 -6.0770235192510195e-09 -0.0049999469994107546 0 -4.3576552784589305e-06 -0.004988619299915501 0 -1.0171840476789953e-05 -0.0049732540114452049 0 -4.1680589268929043e-06 -0.0049869278837970194 0 -1.0171840476789953e-05 -0.0049732540114452049 0 -4.1680589268929043e-06 -0.0049869278837970194 0 -7.9662535123121759e-06 -0.0049777114461559474 0 -1.3261007116787342e-05 -0.004964962931558136 0 -1.0171840476789953e-05 -0.0049732540114452049 0 -1.2765587101732014e-05 -0.0049768146653653188 0 -4.3576552784589305e-06 -0.004988619299915501 0 -1.0171840476789953e-05 -0.0049732540114452049 0 -1.2765587101732014e-05 -0.0049768146653653188 0 -4.3576552784589305e-06 -0.004988619299915501 0 -6.0770235192510195e-09 -0.0049999469994107546 0 -1.2765587101732014e-05 -0.0049768146653653188 0 -3.2677547789352653e-09 -0.0049999941340151538 0 -6.8950804539605917e-06 -0.0049891095268624766 0 5.8809965775395398e-11 -0.0049999997413149163 0 -1.4670594198171681e-07 -0.0049994879301024277 0 -3.48025554799584e-10 -0.004999999424636168 0 -3.6458751811466949e-06 -0.0049924904982338409 0 -6.8950804539605917e-06 -0.0049891095268624766 0 3.3057938540892387e-07 -0.0049984620760046301 0 -1.4670594198171681e-07 -0.0049994879301024277 0 -3.2456994879884315e-07 -0.0049999007946332002 0 -1.4670594198171681e-07 -0.0049994879301024277 0 -3.2456994879884315e-07 -0.0049999007946332002 0 -3.48025554799584e-10 -0.004999999424636168 0 -3.2456994879884315e-07 -0.0049999007946332002 0 -3.48025554799584e-10 -0.004999999424636168 0 -3.5627716735985666e-10 -0.005000000486549065 0 -3.2456994879884315e-07 -0.0049999007946332002 0 -3.5627716735985666e-10 -0.005000000486549065 0 -6.7713104341773854e-07 -0.0050001767919434807 0 -3.5627716735985666e-10 -0.005000000486549065 0 -6.7713104341773854e-07 -0.0050001767919434807 0 -8.2346928421190819e-10 -0.0049999995990145443 0 -3.2456994879884315e-07 -0.0049999007946332002 0 -6.7713104341773854e-07 -0.0050001767919434807 0 -3.4674036987447857e-08 -0.00500040257688738 0 -3.4674036987447857e-08 -0.00500040257688738 0 1.7318220580183756e-06 -0.0050006031630911484 0 -1.0908563743148573e-06 -0.0050005996631854559 0 1.9517760557219378e-06 -0.0050016374457490234 0 6.4383780621146505e-06 -0.0049986456089470537 0 1.7318220580183756e-06 -0.0050006031630911484 0 1.9517760557219378e-06 -0.0050016374457490234 0 1.7318220580183756e-06 -0.0050006031630911484 0 -1.0908563743148573e-06 -0.0050005996631854559 0 1.9517760557219378e-06 -0.0050016374457490234 0 -1.0908563743148573e-06 -0.0050005996631854559 0 -4.5056834235998548e-06 -0.0049989319344674902 0 -3.0981587858831493e-06 -0.0049134876541563162 0 -9.6081374398864542e-06 -0.0049566626257983078 0 -6.7713104341773854e-07 -0.0050001767919434807 0 -3.4674036987447857e-08 -0.00500040257688738 0 -1.0908563743148573e-06 -0.0050005996631854559 0 -6.7713104341773854e-07 -0.0050001767919434807 0 -1.0908563743148573e-06 -0.0050005996631854559 0 -3.4165512544110389e-06 -0.0049972177134045602 0 -1.0908563743148573e-06 -0.0050005996631854559 0 -4.5056834235998548e-06 -0.0049989319344674902 0 -3.4165512544110389e-06 -0.0049972177134045602 0 -8.4007153576885544e-06 -0.0049892470107899909 0 -4.5056834235998548e-06 -0.0049989319344674902 0 -3.4165512544110389e-06 -0.0049972177134045602 0 -8.4007153576885544e-06 -0.0049892470107899909 0 2.0173741260995481e-05 -0.0049796055155297662 0 -1.6585479447562223e-05 -0.004916129219425254 0 -9.4527992840901623e-06 -0.0049858617444927368 0 -9.6081374398864542e-06 -0.0049566626257983078 0 -8.0640403401609037e-06 -0.004995494159528705 0 -8.4007153576885544e-06 -0.0049892470107899909 0 -3.4165512544110389e-06 -0.0049972177134045602 0 -4.7159285769088252e-06 -0.0049983281387745836 0 -3.4165512544110389e-06 -0.0049972177134045602 0 -1.9743733428406084e-06 -0.004999123202454183 0 -2.4173554961659188e-09 -0.0049999987110822741 0 -1.9743733428406084e-06 -0.004999123202454183 0 -8.2346928421190819e-10 -0.0049999995990145443 0 -6.7713104341773854e-07 -0.0050001767919434807 0 -1.9743733428406084e-06 -0.004999123202454183 0 -8.2346928421190819e-10 -0.0049999995990145443 0 -6.7713104341773854e-07 -0.0050001767919434807 0 -3.4165512544110389e-06 -0.0049972177134045602 0 -1.9743733428406084e-06 -0.004999123202454183 0 1.356321464015048e-05 -0.0049503774777017754 0 6.0759681285243625e-05 -0.0049065520550092253 0 1.8469451979791893e-05 -0.0049587737320140315 0 1.356321464015048e-05 -0.0049503774777017754 0 3.1977584866299104e-05 -0.0049162651373566941 0 6.0759681285243625e-05 -0.0049065520550092253 0 1.356321464015048e-05 -0.0049503774777017754 0 -4.2501578739125059e-09 -0.0049999316154124979 0 1.8469451979791893e-05 -0.0049587737320140315 0 1.356321464015048e-05 -0.0049503774777017754 0 -4.2501578739125059e-09 -0.0049999316154124979 0 5.4953009605248597e-09 -0.0049999454968403557 0 1.356321464015048e-05 -0.0049503774777017754 0 5.4953009605248597e-09 -0.0049999454968403557 0 9.8703014531002009e-06 -0.0049356918690254626 0 5.4953009605248597e-09 -0.0049999454968403557 0 9.8703014531002009e-06 -0.0049356918690254626 0 -2.1995794696813694e-06 -0.0049494931426877446 0 1.356321464015048e-05 -0.0049503774777017754 0 9.8703014531002009e-06 -0.0049356918690254626 0 3.1977584866299104e-05 -0.0049162651373566941 0 3.4697769786015289e-05 -0.0048844123707335414 0 3.1977584866299104e-05 -0.0049162651373566941 0 2.1540554638610349e-05 -0.004887761857265316 0 9.8703014531002009e-06 -0.0049356918690254626 0 3.1977584866299104e-05 -0.0049162651373566941 0 2.1540554638610349e-05 -0.004887761857265316 0 3.4697769786015289e-05 -0.0048844123707335414 0 2.9545191400451568e-05 -0.0048500854478952431 0 3.4068039495287303e-05 -0.0048383613550345948 0 3.4697769786015289e-05 -0.0048844123707335414 0 3.4068039495287303e-05 -0.0048383613550345948 0 2.1540554638610349e-05 -0.004887761857265316 0 3.4697769786015289e-05 -0.0048844123707335414 0 3.7608582220452225e-05 -0.0048514197041160754 0 2.9545191400451568e-05 -0.0048500854478952431 0 3.4697769786015289e-05 -0.0048844123707335414 0 6.0759681285243625e-05 -0.0049065520550092253 0 3.7608582220452225e-05 -0.0048514197041160754 0 3.4697769786015289e-05 -0.0048844123707335414 0 3.1977584866299104e-05 -0.0049162651373566941 0 6.0759681285243625e-05 -0.0049065520550092253 0 6.0759681285243625e-05 -0.0049065520550092253 0 5.7235403071472585e-05 -0.0048151199291994904 0 3.7608582220452225e-05 -0.0048514197041160754 0 6.0759681285243625e-05 -0.0049065520550092253 0 5.7235403071472585e-05 -0.0048151199291994904 0 0.00011783404395413749 -0.0047590442967335974 0 6.5150713806336397e-05 -0.0049049200938776879 0 8.2144804199383171e-05 -0.0048725048983845635 0 3.7608582220452225e-05 -0.0048514197041160754 0 3.7542541065029376e-05 -0.0047904249611962829 0 2.6118214605523151e-05 -0.0048200134409712644 0 5.7235403071472585e-05 -0.0048151199291994904 0 3.7608582220452225e-05 -0.0048514197041160754 0 3.7542541065029376e-05 -0.0047904249611962829 0 3.7542541065029376e-05 -0.0047904249611962829 0 5.7796328295028268e-05 -0.0047387871966394829 0 3.693391357727902e-05 -0.0047194195553079982 0 5.7235403071472585e-05 -0.0048151199291994904 0 3.7542541065029376e-05 -0.0047904249611962829 0 5.7796328295028268e-05 -0.0047387871966394829 0 5.7235403071472585e-05 -0.0048151199291994904 0 5.7796328295028268e-05 -0.0047387871966394829 0 0.00011783404395413749 -0.0047590442967335974 0 5.7796328295028268e-05 -0.0047387871966394829 0 0.00011783404395413749 -0.0047590442967335974 0 7.3964595546340147e-05 -0.0046958109497319198 0 4.6360622444473212e-05 -0.0050004495735181433 0 9.3962456550572273e-06 -0.0049917687614733268 0 1.8469451979791893e-05 -0.0049587737320140315 0 4.6360622444473212e-05 -0.0050004495735181433 0 9.3962456550572273e-06 -0.0049917687614733268 0 3.8914550023997871e-05 -0.0050541932970513776 0 6.0759681285243625e-05 -0.0049065520550092253 0 4.6360622444473212e-05 -0.0050004495735181433 0 1.8469451979791893e-05 -0.0049587737320140315 0 -4.2501578739125059e-09 -0.0049999316154124979 0 9.3962456550572273e-06 -0.0049917687614733268 0 6.0384510115966924e-09 -0.0050000071780569007 0 -4.2501578739125059e-09 -0.0049999316154124979 0 9.3962456550572273e-06 -0.0049917687614733268 0 1.8469451979791893e-05 -0.0049587737320140315 0 9.3962456550572273e-06 -0.0049917687614733268 0 6.0384510115966924e-09 -0.0050000071780569007 0 2.8936182542474502e-06 -0.0049992959234201623 0 6.0384510115966924e-09 -0.0050000071780569007 0 2.8936182542474502e-06 -0.0049992959234201623 0 1.2933682536639282e-09 -0.0049999969247138901 0 8.2144804199383171e-05 -0.0048725048983845635 0 3.9503492361226955e-05 -0.0048932125356888059 0 1.3030309766721035e-05 -0.0050458677440881937 0 3.9503492361226955e-05 -0.0048932125356888059 0 9.3962456550572273e-06 -0.0049917687614733268 0 2.8936182542474502e-06 -0.0049992959234201623 0 5.6058505105606903e-06 -0.0049995031143181294 0 1.7394940490589931e-05 -0.0048839453099491104 0 1.8162297570019091e-05 -0.0048750621249760836 0 1.374846179363788e-05 -0.0048758767123868486 0 5.6058505105606903e-06 -0.0049995031143181294 0 1.731449224332786e-06 -0.005000385247609024 0 3.3530065753777193e-06 -0.0050010661292635549 0 3.9503492361226955e-05 -0.0048932125356888059 0 -9.9957171988710724e-06 -0.0049636310687641311 0 2.8936182542474502e-06 -0.0049992959234201623 0 5.6058505105606903e-06 -0.0049995031143181294 0 1.731449224332786e-06 -0.005000385247609024 0 2.8936182542474502e-06 -0.0049992959234201623 0 1.2933682536639282e-09 -0.0049999969247138901 0 1.731449224332786e-06 -0.005000385247609024 0 1.2933682536639282e-09 -0.0049999969247138901 0 1.731449224332786e-06 -0.005000385247609024 0 1.5349088684906753e-09 -0.0050000050007929517 0 7.7142819232095524e-09 -0.005000014860818686 0 -9.9957171988710724e-06 -0.0049636310687641311 0 -8.2695764178705218e-11 -0.004999985416993564 0 -5.2113353286601053e-06 -0.0049916290509700052 0 -2.2790204196240136e-06 -0.0049932143813756803 0 1.731449224332786e-06 -0.005000385247609024 0 1.5349088684906753e-09 -0.0050000050007929517 0 3.3530065753777193e-06 -0.0050010661292635549 0 -9.9957171988710724e-06 -0.0049636310687641311 0 -8.7877519452900516e-06 -0.0049921122581519494 0 -5.6020925489111336e-06 -0.0049938264289964311 0 -5.1590566100300081e-06 -0.0049890011588065676 0 -1.0217045230032765e-05 -0.0049875538032641189 0 -5.2113353286601053e-06 -0.0049916290509700052 0 -5.1590566100300081e-06 -0.0049890011588065676 0 -2.2790204196240136e-06 -0.0049932143813756803 0 -5.1590566100300081e-06 -0.0049890011588065676 0 -4.1680589268929043e-06 -0.0049869278837970194 0 -2.2790204196240136e-06 -0.0049932143813756803 0 -5.1590566100300081e-06 -0.0049890011588065676 0 -7.9662535123121759e-06 -0.0049777114461559474 0 -1.0217045230032765e-05 -0.0049875538032641189 0 -5.1590566100300081e-06 -0.0049890011588065676 0 -4.1680589268929043e-06 -0.0049869278837970194 0 -7.9662535123121759e-06 -0.0049777114461559474 0 -8.0638883418677467e-10 -0.0049999936006637283 0 -8.2695764178705218e-11 -0.004999985416993564 0 -2.2790204196240136e-06 -0.0049932143813756803 0 -8.0638883418677467e-10 -0.0049999936006637283 0 -4.1680589268929043e-06 -0.0049869278837970194 0 -2.2790204196240136e-06 -0.0049932143813756803 0 -1.972070791347628e-05 -0.0049218744874341813 0 -4.2154963609309767e-05 -0.0048844159235970439 0 -1.7020477121525062e-05 -0.0049249387404129742 0 -6.5375215508328702e-05 -0.0047758186855298493 0 4.81872013267887e-05 -0.0047729362479844136 0 -6.5375215508328702e-05 -0.0047758186855298493 0 -2.47101699373291e-05 -0.0047045973080033021 0 4.81872013267887e-05 -0.0047729362479844136 0 -1.2210485603740568e-05 -0.0049553524016824274 0 -7.9662535123121759e-06 -0.0049777114461559474 0 -2.0887146688030936e-05 -0.0049788955331452524 0 -7.9662535123121759e-06 -0.0049777114461559474 0 -2.0887146688030936e-05 -0.0049788955331452524 0 -1.0217045230032765e-05 -0.0049875538032641189 0 -6.5375215508328702e-05 -0.0047758186855298493 0 -9.9907941536370642e-05 -0.0046513064726610622 0 -2.47101699373291e-05 -0.0047045973080033021 0 -2.0887146688030936e-05 -0.0049788955331452524 0 -1.0217045230032765e-05 -0.0049875538032641189 0 -1.3815721875254597e-05 -0.0049961381718050934 0 -4.2154963609309767e-05 -0.0048844159235970439 0 1.8681333101080131e-06 -0.0047765208724380465 0 -9.9957171988710724e-06 -0.0049636310687641311 0 1.8681333101080131e-06 -0.0047765208724380465 0 -5.6020925489111336e-06 -0.0049938264289964311 0 -1.0217045230032765e-05 -0.0049875538032641189 0 -1.3815721875254597e-05 -0.0049961381718050934 0 1.8681333101080131e-06 -0.0047765208724380465 0 1.0643219205825818e-05 -0.0046532352227125371 0 -9.9907941536370642e-05 -0.0046513064726610622 0 -2.47101699373291e-05 -0.0047045973080033021 0 3.0113797249306734e-06 -0.0046291945874453559 0 -2.47101699373291e-05 -0.0047045973080033021 0 1.99775624911205e-05 -0.004679335644268502 0 4.81872013267887e-05 -0.0047729362479844136 0 -2.47101699373291e-05 -0.0047045973080033021 0 1.99775624911205e-05 -0.004679335644268502 0 3.0113797249306734e-06 -0.0046291945874453559 0 1.99775624911205e-05 -0.004679335644268502 0 1.9959860561554759e-05 -0.0046371158572311973 0 3.0113797249306734e-06 -0.0046291945874453559 0 1.9959860561554759e-05 -0.0046371158572311973 0 2.4431453784233419e-05 -0.0046354035172345986 0 2.6835926050055784e-05 -0.0046225413962845546 0 1.9959860561554759e-05 -0.0046371158572311973 0 3.0113797249306734e-06 -0.0046291945874453559 0 2.4431453784233419e-05 -0.0046354035172345986 0 2.4431453784233419e-05 -0.0046354035172345986 0 4.8441908366836068e-05 -0.0046522363075716267 0 4.3466690092251017e-05 -0.0046728459538932536 0 3.0113797249306734e-06 -0.0046291945874453559 0 2.4431453784233419e-05 -0.0046354035172345986 0 4.8441908366836068e-05 -0.0046522363075716267 0 3.9503492361226955e-05 -0.0048932125356888059 0 1.8681333101080131e-06 -0.0047765208724380465 0 0.00011117781471751746 -0.0046685343578944339 0 6.6346808264397989e-05 -0.0046066938970612658 0 4.8441908366836068e-05 -0.0046522363075716267 0 6.6346808264397989e-05 -0.0046066938970612658 0 3.0113797249306734e-06 -0.0046291945874453559 0 4.8441908366836068e-05 -0.0046522363075716267 0 0.00011783404395413749 -0.0047590442967335974 0 0.00011117781471751746 -0.0046685343578944339 0 7.3964595546340147e-05 -0.0046958109497319198 0 0.00011117781471751746 -0.0046685343578944339 0 4.8441908366836068e-05 -0.0046522363075716267 0 7.3964595546340147e-05 -0.0046958109497319198 0 4.8441908366836068e-05 -0.0046522363075716267 0 7.3964595546340147e-05 -0.0046958109497319198 0 4.3466690092251017e-05 -0.0046728459538932536 0 2.4431453784233419e-05 -0.0046354035172345986 0 4.3466690092251017e-05 -0.0046728459538932536 0 3.1236503230152208e-05 -0.0046576515159143864 0 5.7796328295028268e-05 -0.0047387871966394829 0 3.693391357727902e-05 -0.0047194195553079982 0 4.3466690092251017e-05 -0.0046728459538932536 0 5.7796328295028268e-05 -0.0047387871966394829 0 7.3964595546340147e-05 -0.0046958109497319198 0 4.3466690092251017e-05 -0.0046728459538932536 0 3.693391357727902e-05 -0.0047194195553079982 0 4.3466690092251017e-05 -0.0046728459538932536 0 3.1236503230152208e-05 -0.0046576515159143864 0 3.693391357727902e-05 -0.0047194195553079982 0 1.7217249230484057e-05 -0.0046673509838200591 0 3.1236503230152208e-05 -0.0046576515159143864 0 1.7217249230484057e-05 -0.0046673509838200591 0 2.3951806320256232e-05 -0.0046164770926449255 0 -1.1174477202797175e-05 -0.0045733266550405808 0 2.3951806320256232e-05 -0.0046164770926449255 0 -1.1174477202797175e-05 -0.0045733266550405808 0 2.3253117099396825e-05 -0.0045953537041330556 0 1.7217249230484057e-05 -0.0046673509838200591 0 3.1236503230152208e-05 -0.0046576515159143864 0 2.3951806320256232e-05 -0.0046164770926449255 0 2.4431453784233419e-05 -0.0046354035172345986 0 3.1236503230152208e-05 -0.0046576515159143864 0 2.3951806320256232e-05 -0.0046164770926449255 0 -3.5916483571329728e-05 -0.0045885259267392153 0 6.5428054661713047e-05 -0.0045426763908643581 0 -1.1174477202797175e-05 -0.0045733266550405808 0 4.5920986639329184e-05 -0.004468257226086219 0 1.3062318316085185e-05 -0.0043920018026709102 0 1.7217249230484057e-05 -0.0046673509838200591 0 -1.1174477202797175e-05 -0.0045733266550405808 0 -9.6278939178761117e-05 -0.0047509578505508373 0 -1.1174477202797175e-05 -0.0045733266550405808 0 3.006044395473119e-05 -0.0045356818585229955 0 3.279603784440618e-05 -0.0045664712930778917 0 -1.1174477202797175e-05 -0.0045733266550405808 0 3.006044395473119e-05 -0.0045356818585229955 0 4.5920986639329184e-05 -0.004468257226086219 0 4.2625253937982105e-05 -0.0045803607792574245 0 6.8777941672957339e-05 -0.0045935939362612751 0 3.279603784440618e-05 -0.0045664712930778917 0 5.8647056523761247e-05 -0.0046417883286512312 0 9.292495667100078e-05 -0.0046790934720252432 0 3.279603784440618e-05 -0.0045664712930778917 0 3.4089404961387481e-05 -0.0045383473283786063 0 4.5315583277982143e-05 -0.0045245048071437264 0 3.006044395473119e-05 -0.0045356818585229955 0 3.3735351343013834e-05 -0.0045397477791108603 0 4.3764573124623582e-05 -0.0045181052126503007 0 3.006044395473119e-05 -0.0045356818585229955 0 3.3735351343013834e-05 -0.0045397477791108603 0 3.279603784440618e-05 -0.0045664712930778917 0 -1.1174477202797175e-05 -0.0045733266550405808 0 3.279603784440618e-05 -0.0045664712930778917 0 2.3253117099396825e-05 -0.0045953537041330556 0 3.3735351343013834e-05 -0.0045397477791108603 0 3.279603784440618e-05 -0.0045664712930778917 0 3.4089404961387481e-05 -0.0045383473283786063 0 3.3735351343013834e-05 -0.0045397477791108603 0 3.4089404961387481e-05 -0.0045383473283786063 0 3.8368457218037075e-05 -0.0045288229016358234 0 3.3735351343013834e-05 -0.0045397477791108603 0 3.8368457218037075e-05 -0.0045288229016358234 0 4.3764573124623582e-05 -0.0045181052126503007 0 2.4431453784233419e-05 -0.0046354035172345986 0 2.3951806320256232e-05 -0.0046164770926449255 0 2.6835926050055784e-05 -0.0046225413962845546 0 2.3951806320256232e-05 -0.0046164770926449255 0 2.3253117099396825e-05 -0.0045953537041330556 0 2.6835926050055784e-05 -0.0046225413962845546 0 3.279603784440618e-05 -0.0045664712930778917 0 2.3253117099396825e-05 -0.0045953537041330556 0 3.9456617450371854e-05 -0.0046199533765752055 0 3.279603784440618e-05 -0.0045664712930778917 0 3.9456617450371854e-05 -0.0046199533765752055 0 5.8647056523761247e-05 -0.0046417883286512312 0 2.3253117099396825e-05 -0.0045953537041330556 0 3.9456617450371854e-05 -0.0046199533765752055 0 2.6835926050055784e-05 -0.0046225413962845546 0 1.9959860561554759e-05 -0.0046371158572311973 0 2.6835926050055784e-05 -0.0046225413962845546 0 4.2976757944022293e-05 -0.0046562957871492316 0 3.9456617450371854e-05 -0.0046199533765752055 0 2.6835926050055784e-05 -0.0046225413962845546 0 4.2976757944022293e-05 -0.0046562957871492316 0 1.99775624911205e-05 -0.004679335644268502 0 4.2976757944022293e-05 -0.0046562957871492316 0 4.723427229821821e-05 -0.0046974765040429262 0 1.99775624911205e-05 -0.004679335644268502 0 1.9959860561554759e-05 -0.0046371158572311973 0 4.2976757944022293e-05 -0.0046562957871492316 0 1.99775624911205e-05 -0.004679335644268502 0 4.723427229821821e-05 -0.0046974765040429262 0 4.81872013267887e-05 -0.0047729362479844136 0 4.723427229821821e-05 -0.0046974765040429262 0 8.0660526565091257e-05 -0.0046857924204072431 0 4.81872013267887e-05 -0.0047729362479844136 0 7.2370042277617998e-05 -0.0046100284388539371 0 6.8777941672957339e-05 -0.0045935939362612751 0 8.0660526565091257e-05 -0.0046857924204072431 0 5.8647056523761247e-05 -0.0046417883286512312 0 9.292495667100078e-05 -0.0046790934720252432 0 4.2976757944022293e-05 -0.0046562957871492316 0 4.723427229821821e-05 -0.0046974765040429262 0 8.0660526565091257e-05 -0.0046857924204072431 0 4.2976757944022293e-05 -0.0046562957871492316 0 8.0660526565091257e-05 -0.0046857924204072431 0 5.8647056523761247e-05 -0.0046417883286512312 0 3.9456617450371854e-05 -0.0046199533765752055 0 4.2976757944022293e-05 -0.0046562957871492316 0 5.8647056523761247e-05 -0.0046417883286512312 0 3.4089404961387481e-05 -0.0045383473283786063 0 4.5315583277982143e-05 -0.0045245048071437264 0 3.6464594043162529e-05 -0.0045379741507264783 0 6.8777941672957339e-05 -0.0045935939362612751 0 6.2533750488253973e-05 -0.00451797218038851 0 4.8767420282036179e-05 -0.0045089550155075894 0 8.2245245791604635e-05 -0.0045379168753270768 0 9.6828739647647887e-05 -0.0044990431563217111 0 3.4089404961387481e-05 -0.0045383473283786063 0 3.6464594043162529e-05 -0.0045379741507264783 0 3.8368457218037075e-05 -0.0045288229016358234 0 3.526885860785667e-05 -0.0045843065889779547 0 4.8767420282036179e-05 -0.0045089550155075894 0 7.100572352043195e-05 -0.0045723355638642004 0 4.8767420282036179e-05 -0.0045089550155075894 0 8.2245245791604635e-05 -0.0045379168753270768 0 7.100572352043195e-05 -0.0045723355638642004 0 8.2245245791604635e-05 -0.0045379168753270768 0 7.100572352043195e-05 -0.0045723355638642004 0 0.00010561458220265147 -0.0045695999903053054 0 9.7288141597296125e-05 -0.0048600623415073216 0 8.0660526565091257e-05 -0.0046857924204072431 0 0.00011270166002062746 -0.0046792728167081099 0 6.5412644796726947e-05 -0.0047209080699984344 0 6.8777941672957339e-05 -0.0045935939362612751 0 9.7288141597296125e-05 -0.0048600623415073216 0 -1.7020477121525062e-05 -0.0049249387404129742 0 4.81872013267887e-05 -0.0047729362479844136 0 9.7288141597296125e-05 -0.0048600623415073216 0 8.0660526565091257e-05 -0.0046857924204072431 0 4.81872013267887e-05 -0.0047729362479844136 0 0.00014032395491924926 -0.0045634866802443498 0 0.00013184725200266726 -0.0045306807811983339 0 0.00019002862679827199 -0.0045583021519374801 0 0.00015294870686914018 -0.0045961338954239967 0 0.00014032395491924926 -0.0045634866802443498 0 0.00019002862679827199 -0.0045583021519374801 0 0.00015294870686914018 -0.0045961338954239967 0 0.00014032395491924926 -0.0045634866802443498 0 0.00010561458220265147 -0.0045695999903053054 0 0.00014032395491924926 -0.0045634866802443498 0 0.00010561458220265147 -0.0045695999903053054 0 0.00010723565265837552 -0.0045421370938320098 0 8.2245245791604635e-05 -0.0045379168753270768 0 0.00010561458220265147 -0.0045695999903053054 0 0.00010723565265837552 -0.0045421370938320098 0 0.00014032395491924926 -0.0045634866802443498 0 0.00010723565265837552 -0.0045421370938320098 0 0.00013184725200266726 -0.0045306807811983339 0 0.00013184725200266726 -0.0045306807811983339 0 9.6828739647647887e-05 -0.0044990431563217111 0 0.00014490956547146539 -0.0044891617926894689 0 6.2533750488253973e-05 -0.00451797218038851 0 0.00014136732047636104 -0.0044255050222918755 0 3.6464594043162529e-05 -0.0045379741507264783 0 9.5872829636657679e-05 -0.0045223561508456762 0 5.3821972828706018e-05 -0.0045142075503225307 0 8.2245245791604635e-05 -0.0045379168753270768 0 0.00010723565265837552 -0.0045421370938320098 0 9.6828739647647887e-05 -0.0044990431563217111 0 0.00010723565265837552 -0.0045421370938320098 0 0.00013184725200266726 -0.0045306807811983339 0 9.6828739647647887e-05 -0.0044990431563217111 0 0.00014136732047636104 -0.0044255050222918755 0 0.00015297468438089907 -0.0043561821949370727 0 0.00014136732047636104 -0.0044255050222918755 0 0.00020117904922368381 -0.0044100311504496935 0 0.00013184725200266726 -0.0045306807811983339 0 0.00014490956547146539 -0.0044891617926894689 0 0.00019002862679827199 -0.0045583021519374801 0 0.00022079893759817279 -0.0042990729160064202 0 0.00018333440410488497 -0.0043055518574490834 0 0.00019002574681639675 -0.0042519277944727636 0 9.0843135691657547e-05 -0.0044812911243259802 0 0.0001062668084768828 -0.0044416557451077976 0 0.00012814225357052965 -0.0044128849231137015 0 0.0001062668084768828 -0.0044416557451077976 0 8.833489230475054e-05 -0.0044633153014555756 0 8.1283136684302468e-05 -0.0044892125373255324 0 9.0843135691657547e-05 -0.0044812911243259802 0 0.0001062668084768828 -0.0044416557451077976 0 8.1283136684302468e-05 -0.0044892125373255324 0 0.00014136732047636104 -0.0044255050222918755 0 0.00012352490573660171 -0.0044626847111341583 0 0.0001062668084768828 -0.0044416557451077976 0 8.833489230475054e-05 -0.0044633153014555756 0 9.7546465611826334e-05 -0.0044371063327180282 0 0.0001062668084768828 -0.0044416557451077976 0 0.00011847464879494717 -0.0044056124057558453 0 9.7546465611826334e-05 -0.0044371063327180282 0 3.6464594043162529e-05 -0.0045379741507264783 0 3.8368457218037075e-05 -0.0045288229016358234 0 5.3821972828706018e-05 -0.0045142075503225307 0 3.8368457218037075e-05 -0.0045288229016358234 0 5.3821972828706018e-05 -0.0045142075503225307 0 4.3764573124623582e-05 -0.0045181052126503007 0 5.3821972828706018e-05 -0.0045142075503225307 0 8.1283136684302468e-05 -0.0044892125373255324 0 6.8558485584181009e-05 -0.0044839997218369494 0 9.5872829636657679e-05 -0.0045223561508456762 0 5.3821972828706018e-05 -0.0045142075503225307 0 8.1283136684302468e-05 -0.0044892125373255324 0 8.833489230475054e-05 -0.0044633153014555756 0 6.8558485584181009e-05 -0.0044839997218369494 0 9.7546465611826334e-05 -0.0044371063327180282 0 8.833489230475054e-05 -0.0044633153014555756 0 8.1283136684302468e-05 -0.0044892125373255324 0 6.8558485584181009e-05 -0.0044839997218369494 0 6.8558485584181009e-05 -0.0044839997218369494 0 4.3764573124623582e-05 -0.0045181052126503007 0 5.8784121874548077e-05 -0.0044810651247992016 0 5.3821972828706018e-05 -0.0045142075503225307 0 6.8558485584181009e-05 -0.0044839997218369494 0 4.3764573124623582e-05 -0.0045181052126503007 0 3.006044395473119e-05 -0.0045356818585229955 0 5.8784121874548077e-05 -0.0044810651247992016 0 4.5920986639329184e-05 -0.004468257226086219 0 3.006044395473119e-05 -0.0045356818585229955 0 4.3764573124623582e-05 -0.0045181052126503007 0 5.8784121874548077e-05 -0.0044810651247992016 0 6.8558485584181009e-05 -0.0044839997218369494 0 5.8784121874548077e-05 -0.0044810651247992016 0 8.3022084482883802e-05 -0.0044385379260841263 0 6.8558485584181009e-05 -0.0044839997218369494 0 8.3022084482883802e-05 -0.0044385379260841263 0 9.7546465611826334e-05 -0.0044371063327180282 0 8.3022084482883802e-05 -0.0044385379260841263 0 4.5920986639329184e-05 -0.004468257226086219 0 8.4999436440085898e-05 -0.0043956140786503119 0 5.8784121874548077e-05 -0.0044810651247992016 0 8.3022084482883802e-05 -0.0044385379260841263 0 4.5920986639329184e-05 -0.004468257226086219 0 0.00011847464879494717 -0.0044056124057558453 0 9.7546465611826334e-05 -0.0044371063327180282 0 0.00011661178748289302 -0.0043899435988412417 0 8.3022084482883802e-05 -0.0044385379260841263 0 0.00011661178748289302 -0.0043899435988412417 0 8.4999436440085898e-05 -0.0043956140786503119 0 8.3022084482883802e-05 -0.0044385379260841263 0 9.7546465611826334e-05 -0.0044371063327180282 0 0.00011661178748289302 -0.0043899435988412417 0 0.00011200566621037983 -0.0043602134494610473 0 9.8938129345808512e-05 -0.0043340542406950459 0 8.4999436440085898e-05 -0.0043956140786503119 0 0.00011661178748289302 -0.0043899435988412417 0 0.00011200566621037983 -0.0043602134494610473 0 0.00013239395863958643 -0.0043494119336301021 0 0.00011661178748289302 -0.0043899435988412417 0 0.00011200566621037983 -0.0043602134494610473 0 8.4999436440085898e-05 -0.0043956140786503119 0 9.8938129345808512e-05 -0.0043340542406950459 0 0.00013882454306293103 -0.0043318990017675498 0 0.00012882353979475465 -0.0043393941568317168 0 0.00011200566621037983 -0.0043602134494610473 0 9.8938129345808512e-05 -0.0043340542406950459 0 0.00012882353979475465 -0.0043393941568317168 0 0.00019883596255988416 -0.0042981748470419349 0 6.5428054661713047e-05 -0.0045426763908643581 0 6.5428054661713047e-05 -0.0045426763908643581 0 0.00016560277894617264 -0.0045843092598903956 0 0.00025348972817108807 -0.0043255842930774542 0 0.00027728792908761064 -0.0043105971121154786 0 0.0002710453360325665 -0.0043459315330355861 0 4.5920986639329184e-05 -0.004468257226086219 0 8.4999436440085898e-05 -0.0043956140786503119 0 1.3062318316085185e-05 -0.0043920018026709102 0 9.8938129345808512e-05 -0.0043340542406950459 0 8.4999436440085898e-05 -0.0043956140786503119 0 1.3062318316085185e-05 -0.0043920018026709102 0 -4.4938264580075346e-05 -0.0047300454729999374 0 6.5428054661713047e-05 -0.0045426763908643581 0 3.693391357727902e-05 -0.0047194195553079982 0 1.7217249230484057e-05 -0.0046673509838200591 0 1.6702254635326293e-05 -0.0047737154191906453 0 1.7217249230484057e-05 -0.0046673509838200591 0 -2.2283735364852853e-05 -0.0047646285562642039 0 1.6702254635326293e-05 -0.0047737154191906453 0 3.7542541065029376e-05 -0.0047904249611962829 0 3.693391357727902e-05 -0.0047194195553079982 0 1.6702254635326293e-05 -0.0047737154191906453 0 3.7542541065029376e-05 -0.0047904249611962829 0 1.6702254635326293e-05 -0.0047737154191906453 0 2.6118214605523151e-05 -0.0048200134409712644 0 1.6702254635326293e-05 -0.0047737154191906453 0 2.6118214605523151e-05 -0.0048200134409712644 0 1.8217827339549966e-05 -0.004821954063857257 0 -2.2283735364852853e-05 -0.0047646285562642039 0 1.6702254635326293e-05 -0.0047737154191906453 0 1.8217827339549966e-05 -0.004821954063857257 0 -2.2283735364852853e-05 -0.0047646285562642039 0 1.8217827339549966e-05 -0.004821954063857257 0 3.7483669203711814e-05 -0.0048360569286643729 0 1.8217827339549966e-05 -0.004821954063857257 0 3.369883157087048e-05 -0.0048345441367943004 0 3.7483669203711814e-05 -0.0048360569286643729 0 2.6118214605523151e-05 -0.0048200134409712644 0 1.8217827339549966e-05 -0.004821954063857257 0 2.9545191400451568e-05 -0.0048500854478952431 0 3.7608582220452225e-05 -0.0048514197041160754 0 2.6118214605523151e-05 -0.0048200134409712644 0 2.9545191400451568e-05 -0.0048500854478952431 0 1.8217827339549966e-05 -0.004821954063857257 0 3.369883157087048e-05 -0.0048345441367943004 0 2.9545191400451568e-05 -0.0048500854478952431 0 2.9545191400451568e-05 -0.0048500854478952431 0 4.9172270445013968e-05 -0.0048062348478032776 0 3.4068039495287303e-05 -0.0048383613550345948 0 3.369883157087048e-05 -0.0048345441367943004 0 2.9545191400451568e-05 -0.0048500854478952431 0 4.9172270445013968e-05 -0.0048062348478032776 0 3.369883157087048e-05 -0.0048345441367943004 0 0.00011783362998625119 -0.0048009348791131666 0 4.9172270445013968e-05 -0.0048062348478032776 0 0.00018475295479612321 -0.0046106823606822103 0 0.00016560277894617264 -0.0045843092598903956 0 0.00026144275285996287 -0.0044236672992452944 0 0.0002414516850323852 -0.0043709015164826639 0 0.0002710453360325665 -0.0043459315330355861 0 3.369883157087048e-05 -0.0048345441367943004 0 0.00011783362998625119 -0.0048009348791131666 0 3.7483669203711814e-05 -0.0048360569286643729 0 0.00026144275285996287 -0.0044236672992452944 0 0.0002414516850323852 -0.0043709015164826639 0 0.00018327293885828103 -0.0044413241379853809 0 0.0002414516850323852 -0.0043709015164826639 0 0.00019610956387097875 -0.0043497396443339291 0 0.00018327293885828103 -0.0044413241379853809 0 0.00025348972817108807 -0.0043255842930774542 0 0.0002414516850323852 -0.0043709015164826639 0 0.00019610956387097875 -0.0043497396443339291 0 0.00019883596255988416 -0.0042981748470419349 0 0.00015866968876411902 -0.0043495847237742863 0 0.00025348972817108807 -0.0043255842930774542 0 0.0002414516850323852 -0.0043709015164826639 0 0.0002710453360325665 -0.0043459315330355861 0 0.00013882454306293103 -0.0043318990017675498 0 0.00013935389305321034 -0.0043696161738270298 0 0.00013253854039910857 -0.0043201730499799456 0 0.00013935389305321034 -0.0043696161738270298 0 0.00011378995207231583 -0.0043194439549673483 0 0.00013253854039910857 -0.0043201730499799456 0 0.00015866968876411902 -0.0043495847237742863 0 0.00014158985221847454 -0.0043660632134020589 0 0.00019610956387097875 -0.0043497396443339291 0 0.00013935389305321034 -0.0043696161738270298 0 0.00018327293885828103 -0.0044413241379853809 0 8.2597261291666589e-05 -0.0042965817345132842 0 0.00011378995207231583 -0.0043194439549673483 0 0.00011099260048507122 -0.0043979163770417598 0 0.00013935389305321034 -0.0043696161738270298 0 0.00011378995207231583 -0.0043194439549673483 0 0.00011099260048507122 -0.0043979163770417598 0 8.2597261291666589e-05 -0.0042965817345132842 0 2.4466616606742224e-05 -0.0043188937797786686 0 0.00011099260048507122 -0.0043979163770417598 0 8.2597261291666589e-05 -0.0042965817345132842 0 0.00011378995207231583 -0.0043194439549673483 0 8.1817020369933163e-05 -0.0042759742869229898 0 0.00011378995207231583 -0.0043194439549673483 0 0.0001113482193167576 -0.0042979085834108487 0 0.00013253854039910857 -0.0043201730499799456 0 0.00011378995207231583 -0.0043194439549673483 0 0.0001113482193167576 -0.0042979085834108487 0 8.1817020369933163e-05 -0.0042759742869229898 0 0.0001113482193167576 -0.0042979085834108487 0 8.1817020369933163e-05 -0.0042759742869229898 0 9.6765557778943123e-05 -0.0042836932449577293 0 0.0001113482193167576 -0.0042979085834108487 0 0.00011874059507067628 -0.0042988042795860451 0 9.6765557778943123e-05 -0.0042836932449577293 0 0.0001113482193167576 -0.0042979085834108487 0 0.00012931523065638279 -0.004320556905719768 0 0.00011874059507067628 -0.0042988042795860451 0 0.00012931523065638279 -0.004320556905719768 0 0.00013253854039910857 -0.0043201730499799456 0 0.00013239395863958643 -0.0043494119336301021 0 0.0001113482193167576 -0.0042979085834108487 0 0.00012931523065638279 -0.004320556905719768 0 0.00013253854039910857 -0.0043201730499799456 0 0.00013882454306293103 -0.0043318990017675498 0 0.00013253854039910857 -0.0043201730499799456 0 0.00012882353979475465 -0.0043393941568317168 0 0.00013253854039910857 -0.0043201730499799456 0 0.00012882353979475465 -0.0043393941568317168 0 0.00013239395863958643 -0.0043494119336301021 0 0.00011200566621037983 -0.0043602134494610473 0 0.00012882353979475465 -0.0043393941568317168 0 0.00013239395863958643 -0.0043494119336301021 0 0.00011661178748289302 -0.0043899435988412417 0 0.00013239395863958643 -0.0043494119336301021 0 0.00013582470053492965 -0.0043639602059178436 0 0.00011847464879494717 -0.0044056124057558453 0 0.00011661178748289302 -0.0043899435988412417 0 0.00013582470053492965 -0.0043639602059178436 0 0.00012931523065638279 -0.004320556905719768 0 0.00013239395863958643 -0.0043494119336301021 0 0.00013582470053492965 -0.0043639602059178436 0 0.00012931523065638279 -0.004320556905719768 0 0.00013582470053492965 -0.0043639602059178436 0 0.00012960365390723907 -0.004311269567851818 0 0.00013582470053492965 -0.0043639602059178436 0 0.00014030961397876917 -0.0043192212258123556 0 0.00012960365390723907 -0.004311269567851818 0 0.00013595389218472745 -0.0043322434715563725 0 0.00015297468438089907 -0.0043561821949370727 0 0.00013582470053492965 -0.0043639602059178436 0 0.00014030961397876917 -0.0043192212258123556 0 0.00012814225357052965 -0.0044128849231137015 0 0.00011847464879494717 -0.0044056124057558453 0 0.00013582470053492965 -0.0043639602059178436 0 0.00012814225357052965 -0.0044128849231137015 0 0.0001062668084768828 -0.0044416557451077976 0 0.00011847464879494717 -0.0044056124057558453 0 0.00012814225357052965 -0.0044128849231137015 0 0.00018333440410488497 -0.0043055518574490834 0 0.00015738568522745988 -0.0042752896189065422 0 0.00019002574681639675 -0.0042519277944727636 0 0.00014030961397876917 -0.0043192212258123556 0 0.00015738568522745988 -0.0042752896189065422 0 0.00012362162876701128 -0.0042654055329535727 0 0.00014030961397876917 -0.0043192212258123556 0 0.00018333440410488497 -0.0043055518574490834 0 0.00015738568522745988 -0.0042752896189065422 0 0.00015738568522745988 -0.0042752896189065422 0 0.00015443188478717255 -0.0042448436346865809 0 0.00012362162876701128 -0.0042654055329535727 0 0.00015738568522745988 -0.0042752896189065422 0 0.00015443188478717255 -0.0042448436346865809 0 0.00019002574681639675 -0.0042519277944727636 0 0.00019329776067917684 -0.004165869079077374 0 0.00017081488517473181 -0.0041803640369112056 0 0.00018575620721728115 -0.0041442203453085366 0 0.00014154226141890078 -0.0041701182853065427 0 0.00017081488517473181 -0.0041803640369112056 0 0.00018575620721728115 -0.0041442203453085366 0 0.00013501414706292269 -0.0041810982863175758 0 0.00014294432620248946 -0.0042001299153329721 0 0.00012570527478243239 -0.0042388971459387552 0 0.00015443188478717255 -0.0042448436346865809 0 0.00012362162876701128 -0.0042654055329535727 0 0.00012570527478243239 -0.0042388971459387552 0 0.00010638327031975263 -0.004254814297399951 0 0.00012362162876701128 -0.0042654055329535727 0 0.00014030961397876917 -0.0043192212258123556 0 0.00012362162876701128 -0.0042654055329535727 0 0.00012496584791207117 -0.004284139289074694 0 0.00012362162876701128 -0.0042654055329535727 0 0.00011475459491016039 -0.0042461670752982862 0 0.00012496584791207117 -0.004284139289074694 0 0.00010638327031975263 -0.004254814297399951 0 0.00012362162876701128 -0.0042654055329535727 0 0.00011475459491016039 -0.0042461670752982862 0 0.00010638327031975263 -0.004254814297399951 0 0.00011475459491016039 -0.0042461670752982862 0 0.00013099376081192709 -0.004178335235963896 0 0.00011475459491016039 -0.0042461670752982862 0 0.00011763705076054439 -0.0042734428512529723 0 0.00012185553297301126 -0.0042322056722934182 0 0.00011475459491016039 -0.0042461670752982862 0 0.00012496584791207117 -0.004284139289074694 0 0.00011763705076054439 -0.0042734428512529723 0 0.00011763705076054439 -0.0042734428512529723 0 0.00011097202045712426 -0.0042574142367714897 0 0.00012185553297301126 -0.0042322056722934182 0 0.00012496584791207117 -0.004284139289074694 0 0.00012960365390723907 -0.004311269567851818 0 0.00011763705076054439 -0.0042734428512529723 0 0.00014030961397876917 -0.0043192212258123556 0 0.00012496584791207117 -0.004284139289074694 0 0.00012960365390723907 -0.004311269567851818 0 0.00012931523065638279 -0.004320556905719768 0 0.00011874059507067628 -0.0042988042795860451 0 0.00012960365390723907 -0.004311269567851818 0 0.00011874059507067628 -0.0042988042795860451 0 0.00012960365390723907 -0.004311269567851818 0 0.00011763705076054439 -0.0042734428512529723 0 0.00011874059507067628 -0.0042988042795860451 0 0.00011763705076054439 -0.0042734428512529723 0 9.6765557778943123e-05 -0.0042836932449577293 0 0.00011763705076054439 -0.0042734428512529723 0 0.00011097202045712426 -0.0042574142367714897 0 9.6765557778943123e-05 -0.0042836932449577293 0 7.4859362658449098e-05 -0.004270767590226634 0 0.00011097202045712426 -0.0042574142367714897 0 8.0432148683069957e-05 -0.0042857961182322267 0 0.00011097202045712426 -0.0042574142367714897 0 8.0432148683069957e-05 -0.0042857961182322267 0 9.6765557778943123e-05 -0.0042836932449577293 0 0.00013180662792251796 -0.0041287587622991671 0 0.00017609087805815576 -0.0040849602672258997 0 7.4859362658449098e-05 -0.004270767590226634 0 0.00010903809051631343 -0.0043012496555447522 0 8.0432148683069957e-05 -0.0042857961182322267 0 0.00013180662792251796 -0.0041287587622991671 0 0.00012804613753749755 -0.0041695554527931781 0 0.0001775366585102118 -0.0039856239850104046 0 0.00013099376081192709 -0.004178335235963896 0 0.00016896284965223229 -0.0041485308554678685 0 0.0001775366585102118 -0.0039856239850104046 0 0.0002138459737612563 -0.0040663784779678613 0 0.00026441866623041051 -0.003997122020280749 0 0.0001775366585102118 -0.0039856239850104046 0 0.0002138459737612563 -0.0040663784779678613 0 0.00016896284965223229 -0.0041485308554678685 0 0.0002138459737612563 -0.0040663784779678613 0 0.00016896284965223229 -0.0041485308554678685 0 0.0002089563159844172 -0.0041128354450165536 0 7.4859362658449098e-05 -0.004270767590226634 0 0.00011097202045712426 -0.0042574142367714897 0 0.00013099376081192709 -0.004178335235963896 0 0.00011475459491016039 -0.0042461670752982862 0 0.00012185553297301126 -0.0042322056722934182 0 0.00013099376081192709 -0.004178335235963896 0 0.00011097202045712426 -0.0042574142367714897 0 0.00012185553297301126 -0.0042322056722934182 0 0.00013099376081192709 -0.004178335235963896 0 0.00010638327031975263 -0.004254814297399951 0 0.00013099376081192709 -0.004178335235963896 0 0.00016896284965223229 -0.0041485308554678685 0 0.00018575620721728115 -0.0041442203453085366 0 0.00018694137149942366 -0.0041439854729640501 0 0.00016896284965223229 -0.0041485308554678685 0 0.00014294432620248946 -0.0042001299153329721 0 0.0001686457842312652 -0.004155341879162085 0 0.00016896284965223229 -0.0041485308554678685 0 0.0002089563159844172 -0.0041128354450165536 0 0.00020940230564022919 -0.004133857440554607 0 0.0002138459737612563 -0.0040663784779678613 0 0.0002089563159844172 -0.0041128354450165536 0 0.00024720290412707239 -0.0040888408743536414 0 0.0002089563159844172 -0.0041128354450165536 0 0.00020940230564022919 -0.004133857440554607 0 0.00024720290412707239 -0.0040888408743536414 0 0.00018694137149942366 -0.0041439854729640501 0 0.00016896284965223229 -0.0041485308554678685 0 0.00020940230564022919 -0.004133857440554607 0 0.00020940230564022919 -0.004133857440554607 0 0.00023494191444003074 -0.0041583016242964796 0 0.00019967230005806061 -0.0041514652614259382 0 0.00021695382671968304 -0.0041817921147079889 0 0.00023494191444003074 -0.0041583016242964796 0 0.00019967230005806061 -0.0041514652614259382 0 0.00020940230564022919 -0.004133857440554607 0 0.00023494191444003074 -0.0041583016242964796 0 0.00025453701887875836 -0.0041337529412249071 0 0.00018694137149942366 -0.0041439854729640501 0 0.00020940230564022919 -0.004133857440554607 0 0.00019967230005806061 -0.0041514652614259382 0 0.00019329776067917684 -0.004165869079077374 0 0.00018575620721728115 -0.0041442203453085366 0 0.00019967230005806061 -0.0041514652614259382 0 0.00018575620721728115 -0.0041442203453085366 0 0.00018694137149942366 -0.0041439854729640501 0 0.00019967230005806061 -0.0041514652614259382 0 0.0003005167502257007 -0.004130898099174574 0 0.00028623953033065936 -0.0040991612517177443 0 0.00033868141718976019 -0.0040942932237875464 0 0.00034784802616896396 -0.0041285920387986903 0 0.0003005167502257007 -0.004130898099174574 0 0.00033868141718976019 -0.0040942932237875464 0 0.00032125617673380626 -0.0041564880241502121 0 0.00034784802616896396 -0.0041285920387986903 0 0.0003005167502257007 -0.004130898099174574 0 0.0002806286410012061 -0.0041598619494468154 0 0.00032125617673380626 -0.0041564880241502121 0 0.0003005167502257007 -0.004130898099174574 0 0.0002806286410012061 -0.0041598619494468154 0 0.0003005167502257007 -0.004130898099174574 0 0.00025453701887875836 -0.0041337529412249071 0 0.0002806286410012061 -0.0041598619494468154 0 0.00023494191444003074 -0.0041583016242964796 0 0.00025453701887875836 -0.0041337529412249071 0 0.0003005167502257007 -0.004130898099174574 0 0.00025453701887875836 -0.0041337529412249071 0 0.00028623953033065936 -0.0040991612517177443 0 0.00028623953033065936 -0.0040991612517177443 0 0.00024720290412707239 -0.0040888408743536414 0 0.0003122161148558034 -0.0040510018955576318 0 0.00020940230564022919 -0.004133857440554607 0 0.00025453701887875836 -0.0041337529412249071 0 0.00024720290412707239 -0.0040888408743536414 0 0.00025453701887875836 -0.0041337529412249071 0 0.00028623953033065936 -0.0040991612517177443 0 0.00024720290412707239 -0.0040888408743536414 0 0.0003122161148558034 -0.0040510018955576318 0 0.00033868141718976019 -0.0040942932237875464 0 0.00037211763654821414 -0.0040343775461123728 0 0.00028623953033065936 -0.0040991612517177443 0 0.0003122161148558034 -0.0040510018955576318 0 0.00033868141718976019 -0.0040942932237875464 0 0.0003122161148558034 -0.0040510018955576318 0 0.00034200584047011298 -0.003976299907647334 0 0.00037211763654821414 -0.0040343775461123728 0 0.0003122161148558034 -0.0040510018955576318 0 0.00034200584047011298 -0.003976299907647334 0 0.00026441866623041051 -0.003997122020280749 0 0.0002138459737612563 -0.0040663784779678613 0 0.00024720290412707239 -0.0040888408743536414 0 0.00026441866623041051 -0.003997122020280749 0 0.00024720290412707239 -0.0040888408743536414 0 0.0003122161148558034 -0.0040510018955576318 0 0.00026441866623041051 -0.003997122020280749 0 0.0001775366585102118 -0.0039856239850104046 0 0.00026441866623041051 -0.003997122020280749 0 0.00023131696215522739 -0.0038748542218570389 0 0.00026441866623041051 -0.003997122020280749 0 0.00031142173998055609 -0.0038978961233392868 0 0.00023131696215522739 -0.0038748542218570389 0 0.00034200584047011298 -0.003976299907647334 0 0.00026441866623041051 -0.003997122020280749 0 0.00031142173998055609 -0.0038978961233392868 0 0.00034200584047011298 -0.003976299907647334 0 0.00031142173998055609 -0.0038978961233392868 0 0.00037285686108388488 -0.0039115307875029039 0 0.00031142173998055609 -0.0038978961233392868 0 0.00028434495286959368 -0.0037760426505889996 0 0.00036483870427833409 -0.0038333523156277123 0 0.00028434495286959368 -0.0037760426505889996 0 0.00036483870427833409 -0.0038333523156277123 0 0.00035894321327161279 -0.0037580509256741113 0 0.00027841436541673793 -0.0042296153061303016 0 0.00010903809051631343 -0.0043012496555447522 0 7.2350956632105573e-05 -0.0042370693478278936 0 0.00028207004565177922 -0.0039912451177542985 0 0.00017609087805815576 -0.0040849602672258997 0 0.00031142173998055609 -0.0038978961233392868 0 0.00028434495286959368 -0.0037760426505889996 0 0.00023131696215522739 -0.0038748542218570389 0 0.00010903809051631343 -0.0043012496555447522 0 8.0432148683069957e-05 -0.0042857961182322267 0 7.2350956632105573e-05 -0.0042370693478278936 0 8.0432148683069957e-05 -0.0042857961182322267 0 9.6765557778943123e-05 -0.0042836932449577293 0 7.0253063256957594e-05 -0.004263387049864455 0 8.1817020369933163e-05 -0.0042759742869229898 0 9.6765557778943123e-05 -0.0042836932449577293 0 7.0253063256957594e-05 -0.004263387049864455 0 8.1817020369933163e-05 -0.0042759742869229898 0 7.0253063256957594e-05 -0.004263387049864455 0 4.6300482880289696e-05 -0.0042193325409312348 0 7.0253063256957594e-05 -0.004263387049864455 0 7.2350956632105573e-05 -0.0042370693478278936 0 4.6300482880289696e-05 -0.0042193325409312348 0 8.0432148683069957e-05 -0.0042857961182322267 0 7.0253063256957594e-05 -0.004263387049864455 0 7.2350956632105573e-05 -0.0042370693478278936 0 7.2350956632105573e-05 -0.0042370693478278936 0 4.6300482880289696e-05 -0.0042193325409312348 0 3.5174800668178038e-05 -0.0040912540622861015 0 8.2597261291666589e-05 -0.0042965817345132842 0 8.1817020369933163e-05 -0.0042759742869229898 0 4.6300482880289696e-05 -0.0042193325409312348 0 8.2597261291666589e-05 -0.0042965817345132842 0 4.6300482880289696e-05 -0.0042193325409312348 0 2.4466616606742224e-05 -0.0043188937797786686 0 3.0950130796776269e-05 -0.004091718278065282 0 -0.00011576927183880903 -0.003901235884924018 0 4.6300482880289696e-05 -0.0042193325409312348 0 3.5174800668178038e-05 -0.0040912540622861015 0 2.4466616606742224e-05 -0.0043188937797786686 0 0.00020260885353767336 -0.0035938467239734484 0 3.5174800668178038e-05 -0.0040912540622861015 0 -0.00029505079450797036 -0.003464097838160977 0 0.00020260885353767336 -0.0035938467239734484 0 0.0005816185765216838 -0.0038466092867393943 0 3.5174800668178038e-05 -0.0040912540622861015 0 0.00020260885353767336 -0.0035938467239734484 0 0.0005816185765216838 -0.0038466092867393943 0 0.00053622991943891123 -0.0035158361496559912 0 0.00027841436541673793 -0.0042296153061303016 0 0.0005816185765216838 -0.0038466092867393943 0 3.5174800668178038e-05 -0.0040912540622861015 0 0.00028207004565177922 -0.0039912451177542985 0 0.00048302360187710936 -0.0037805647200260897 0 0.00028434495286959368 -0.0037760426505889996 0 0.00033775801447301357 -0.0036825624678673385 0 0.00035894321327161279 -0.0037580509256741113 0 0.00027841436541673793 -0.0042296153061303016 0 7.2350956632105573e-05 -0.0042370693478278936 0 3.5174800668178038e-05 -0.0040912540622861015 0 7.5657458199639483e-05 -0.0030939339990333353 0 7.9452034300994849e-05 -0.0029599897165088814 0 -3.2501761470602718e-05 -0.0028766313046391786 0 7.9452034300994849e-05 -0.0029599897165088814 0 8.8904837094141645e-05 -0.0030211642184081807 0 0.00012409757576011674 -0.0029873314707875333 0 7.5657458199639483e-05 -0.0030939339990333353 0 7.9452034300994849e-05 -0.0029599897165088814 0 8.8904837094141645e-05 -0.0030211642184081807 0 8.9752914688145136e-05 -0.0030879358126125853 0 0.00030271268446905111 -0.0031379724913293905 0 0.00020260885353767336 -0.0035938467239734484 0 0.00049904953848313493 -0.0032441989737331408 0 0.00053622991943891123 -0.0035158361496559912 0 0.00020260885353767336 -0.0035938467239734484 0 7.5657458199639483e-05 -0.0030939339990333353 0 -0.00016460392154055113 -0.0031509140084624459 0 0.00020260885353767336 -0.0035938467239734484 0 7.5657458199639483e-05 -0.0030939339990333353 0 0.00049904953848313493 -0.0032441989737331408 0 0.00020260885353767336 -0.0035938467239734484 0 -0.00029505079450797036 -0.003464097838160977 0 -0.00016460392154055113 -0.0031509140084624459 0 -0.00011576927183880903 -0.003901235884924018 0 -0.00012963752825439671 -0.003757756760941654 0 -0.00029505079450797036 -0.003464097838160977 0 -0.00016460392154055113 -0.0031509140084624459 0 -0.00032844050859917308 -0.0030658729363559917 0 -0.00016460392154055113 -0.0031509140084624459 0 -0.00016539858550048805 -0.0029593662790341735 0 -0.00032844050859917308 -0.0030658729363559917 0 7.5657458199639483e-05 -0.0030939339990333353 0 -0.00016460392154055113 -0.0031509140084624459 0 -0.00016539858550048805 -0.0029593662790341735 0 -0.00016539858550048805 -0.0029593662790341735 0 -0.00020631642678679596 -0.0028801666778666456 0 -0.00032844050859917308 -0.0030658729363559917 0 -0.00016539858550048805 -0.0029593662790341735 0 -0.00013151231534771333 -0.0027924994332720072 0 -3.2501761470602718e-05 -0.0028766313046391786 0 -0.00016539858550048805 -0.0029593662790341735 0 -0.00020631642678679596 -0.0028801666778666456 0 -0.00013151231534771333 -0.0027924994332720072 0 -0.00013151231534771333 -0.0027924994332720072 0 -3.2501761470602718e-05 -0.0028766313046391786 0 -1.4115807290044907e-05 -0.0026517964805717288 0 7.5657458199639483e-05 -0.0030939339990333353 0 -0.00016539858550048805 -0.0029593662790341735 0 -3.2501761470602718e-05 -0.0028766313046391786 0 7.9452034300994849e-05 -0.0029599897165088814 0 6.0440582864329681e-05 -0.0028006750086369244 0 0.00013416005683917755 -0.0028812600860459595 0 7.9452034300994849e-05 -0.0029599897165088814 0 -3.2501761470602718e-05 -0.0028766313046391786 0 6.0440582864329681e-05 -0.0028006750086369244 0 -3.2501761470602718e-05 -0.0028766313046391786 0 6.0440582864329681e-05 -0.0028006750086369244 0 -1.4115807290044907e-05 -0.0026517964805717288 0 -1.4115807290044907e-05 -0.0026517964805717288 0 8.9138936195313719e-06 -0.0024943503502374577 0 5.492412885729934e-05 -0.0025838662373431969 0 6.0440582864329681e-05 -0.0028006750086369244 0 -1.4115807290044907e-05 -0.0026517964805717288 0 5.492412885729934e-05 -0.0025838662373431969 0 -0.00013151231534771333 -0.0027924994332720072 0 -1.4115807290044907e-05 -0.0026517964805717288 0 -9.5177150233534584e-05 -0.0025616234854052948 0 -1.4115807290044907e-05 -0.0026517964805717288 0 -2.3291897653965571e-05 -0.0025104948550733332 0 -9.5177150233534584e-05 -0.0025616234854052948 0 -2.9550179948644524e-05 -0.0026915005706569777 0 -9.8123671336021004e-05 -0.0027119543327483965 0 -2.3291897653965571e-05 -0.0025104948550733332 0 1.0618905083229164e-05 -0.00250507782575107 0 -9.5177150233534584e-05 -0.0025616234854052948 0 -1.4115807290044907e-05 -0.0026517964805717288 0 -2.3291897653965571e-05 -0.0025104948550733332 0 8.9138936195313719e-06 -0.0024943503502374577 0 -2.3291897653965571e-05 -0.0025104948550733332 0 8.9138936195313719e-06 -0.0024943503502374577 0 -2.3003038992396937e-05 -0.0024907287806496346 0 8.9138936195313719e-06 -0.0024943503502374577 0 -2.3003038992396937e-05 -0.0024907287806496346 0 7.0011773169052312e-06 -0.0024252860148129673 0 -2.3291897653965571e-05 -0.0025104948550733332 0 -2.3003038992396937e-05 -0.0024907287806496346 0 1.0618905083229164e-05 -0.00250507782575107 0 -2.3003038992396937e-05 -0.0024907287806496346 0 1.0618905083229164e-05 -0.00250507782575107 0 1.2927779791750541e-07 -0.0027331315635645901 0 -5.5899495614298687e-05 -0.0028738970544985956 0 -3.5906340936927859e-08 -0.0027339632065036638 0 -3.2195166308666409e-05 -0.0028876023344074258 0 -2.9550179948644524e-05 -0.0026915005706569777 0 -9.6686083974533389e-09 -0.0027336198845737568 0 -2.3003038992396937e-05 -0.0024907287806496346 0 -1.0812067758829878e-07 -0.0024673532455519341 0 7.0011773169052312e-06 -0.0024252860148129673 0 -2.3003038992396937e-05 -0.0024907287806496346 0 1.2927779791750541e-07 -0.0027331315635645901 0 -1.0812067758829878e-07 -0.0024673532455519341 0 -4.4161524047262535e-08 -0.0029823041655886863 0 -3.2195166308666409e-05 -0.0028876023344074258 0 1.23826849896746e-05 -0.0032498314012260696 0 -4.4161524047262535e-08 -0.0029823041655886863 0 1.23826849896746e-05 -0.0032498314012260696 0 8.7775486554639979e-09 -0.0032312172202502085 0 -4.9587922517665175e-05 -0.0029165232747823695 0 -8.1836434755025634e-05 -0.0030486846958892541 0 -3.5906340936927859e-08 -0.0027339632065036638 0 -4.4161524047262535e-08 -0.0029823041655886863 0 -3.2195166308666409e-05 -0.0028876023344074258 0 -5.5899495614298687e-05 -0.0028738970544985956 0 -3.2195166308666409e-05 -0.0028876023344074258 0 -9.6546186280921915e-05 -0.0028625989063362661 0 -5.5899495614298687e-05 -0.0028738970544985956 0 -9.6546186280921915e-05 -0.0028625989063362661 0 -0.0001170275698377677 -0.0028525058707594797 0 -9.6546186280921915e-05 -0.0028625989063362661 0 -0.0001678282647126759 -0.0028575061813998388 0 -0.00014983963392690728 -0.0028316554703829446 0 -3.2195166308666409e-05 -0.0028876023344074258 0 -9.6546186280921915e-05 -0.0028625989063362661 0 -0.00014983963392690728 -0.0028316554703829446 0 -9.6546186280921915e-05 -0.0028625989063362661 0 -0.00013699895339360621 -0.0028470346298604117 0 -0.0001678282647126759 -0.0028575061813998388 0 -0.00013699895339360621 -0.0028470346298604117 0 -0.00018943649346414281 -0.0028685485838644614 0 -0.0001678282647126759 -0.0028575061813998388 0 -9.6546186280921915e-05 -0.0028625989063362661 0 -0.0001170275698377677 -0.0028525058707594797 0 -0.00013699895339360621 -0.0028470346298604117 0 -0.00012861984694701139 -0.0027824857832109361 0 -9.8123671336021004e-05 -0.0027119543327483965 0 -0.00013151231534771333 -0.0027924994332720072 0 -0.0001170275698377677 -0.0028525058707594797 0 -0.00013699895339360621 -0.0028470346298604117 0 -0.00020631642678679596 -0.0028801666778666456 0 -0.00013699895339360621 -0.0028470346298604117 0 -0.00018943649346414281 -0.0028685485838644614 0 -0.00020631642678679596 -0.0028801666778666456 0 -0.00013151231534771333 -0.0027924994332720072 0 -0.00013699895339360621 -0.0028470346298604117 0 -0.00020631642678679596 -0.0028801666778666456 0 -0.00018943649346414281 -0.0028685485838644614 0 -0.00023605616431015045 -0.0028925975212475688 0 -0.00018943649346414281 -0.0028685485838644614 0 -0.00023605616431015045 -0.0028925975212475688 0 -0.00022076328394724916 -0.0028743960534213403 0 -0.00023605616431015045 -0.0028925975212475688 0 -0.00022076328394724916 -0.0028743960534213403 0 -0.00024848510016240219 -0.0028962118164220247 0 -0.00022076328394724916 -0.0028743960534213403 0 -0.00022870234203248039 -0.0028460744076040773 0 -0.00024437540930888661 -0.0028732407950847576 0 -0.00022076328394724916 -0.0028743960534213403 0 -0.0001678282647126759 -0.0028575061813998388 0 -0.00022870234203248039 -0.0028460744076040773 0 -0.00018943649346414281 -0.0028685485838644614 0 -0.00022076328394724916 -0.0028743960534213403 0 -0.0001678282647126759 -0.0028575061813998388 0 -0.0001678282647126759 -0.0028575061813998388 0 -0.00014983963392690728 -0.0028316554703829446 0 -0.00022870234203248039 -0.0028460744076040773 0 -8.1836434755025634e-05 -0.0030486846958892541 0 -0.00015525211263952426 -0.0030818582590933724 0 1.23826849896746e-05 -0.0032498314012260696 0 -2.8716430421262306e-05 -0.0034540242926686662 0 -1.2075068791991042e-05 -0.0033536945809226411 0 -2.8716430421262306e-05 -0.0034540242926686662 0 -1.2075068791991042e-05 -0.0033536945809226411 0 -6.5927866901862221e-08 -0.0034798305914903634 0 -1.2075068791991042e-05 -0.0033536945809226411 0 8.7775486554639979e-09 -0.0032312172202502085 0 -6.5927866901862221e-08 -0.0034798305914903634 0 1.23826849896746e-05 -0.0032498314012260696 0 -1.2075068791991042e-05 -0.0033536945809226411 0 8.7775486554639979e-09 -0.0032312172202502085 0 -6.2981909445139863e-08 -0.0037286187715190049 0 -6.5927866901862221e-08 -0.0034798305914903634 0 -1.8141604822095427e-05 -0.0035612729397282114 0 -6.2981909445139863e-08 -0.0037286187715190049 0 -1.8141604822095427e-05 -0.0035612729397282114 0 3.3084067635743337e-05 -0.0036308752646910594 0 -2.8716430421262306e-05 -0.0034540242926686662 0 -6.5927866901862221e-08 -0.0034798305914903634 0 -1.8141604822095427e-05 -0.0035612729397282114 0 -2.8716430421262306e-05 -0.0034540242926686662 0 -1.8141604822095427e-05 -0.0035612729397282114 0 -4.0104854793153981e-06 -0.0035134672293878626 0 5.2900652940306984e-05 -0.0037088032935764671 0 0.00011037680151352779 -0.0039834394037843142 0 -1.8141604822095427e-05 -0.0035612729397282114 0 -4.0104854793153981e-06 -0.0035134672293878626 0 3.3084067635743337e-05 -0.0036308752646910594 0 0.00022815959098756048 -0.0043862019547170217 0 0.00018159355311739823 -0.004407750473509572 0 0.00016130928330627552 -0.0043666226360178986 0 0.00019312455615520783 -0.0044097622813209858 0 0.00018159355311739823 -0.004407750473509572 0 0.00018265813292859571 -0.0044631857088126767 0 5.2900652940306984e-05 -0.0037088032935764671 0 5.9335094956330166e-05 -0.0040630363395148025 0 -0.00015525211263952426 -0.0030818582590933724 0 5.2900652940306984e-05 -0.0037088032935764671 0 -0.00022870234203248039 -0.0028460744076040773 0 -0.00026407007418121465 -0.0028736369920372546 0 -0.00024437540930888661 -0.0028732407950847576 0 -0.00026407007418121465 -0.0028736369920372546 0 -0.00024437540930888661 -0.0028732407950847576 0 -0.00024848510016240219 -0.0028962118164220247 0 5.2900652940306984e-05 -0.0037088032935764671 0 -5.0856684215606951e-05 -0.0036768859559880495 0 -0.00022076328394724916 -0.0028743960534213403 0 -0.00024437540930888661 -0.0028732407950847576 0 -0.00024848510016240219 -0.0028962118164220247 0 0.00019312455615520783 -0.0044097622813209858 0 0.00018987429963959165 -0.0044938419932864255 0 0.00018265813292859571 -0.0044631857088126767 0 0.00018987429963959165 -0.0044938419932864255 0 0.00018265813292859571 -0.0044631857088126767 0 0.00017230971186453587 -0.0045032964303711896 0 0.00018159355311739823 -0.004407750473509572 0 0.00018265813292859571 -0.0044631857088126767 0 0.00016260338648679335 -0.0044534254467619473 0 0.00018265813292859571 -0.0044631857088126767 0 0.00017230971186453587 -0.0045032964303711896 0 0.00016260338648679335 -0.0044534254467619473 0 0.00018987429963959165 -0.0044938419932864255 0 0.00017230971186453587 -0.0045032964303711896 0 0.00018147012592253188 -0.0045295918949064262 0 0.00017230971186453587 -0.0045032964303711896 0 0.00018147012592253188 -0.0045295918949064262 0 0.00015968412373625808 -0.0045578414930263836 0 0.00018147012592253188 -0.0045295918949064262 0 0.00019074120804128499 -0.0045880728634927169 0 0.00015968412373625808 -0.0045578414930263836 0 0.00018147012592253188 -0.0045295918949064262 0 0.00013359581644920278 -0.0045098385210711389 0 0.0001523717040451142 -0.0044767346557663843 0 0.00018987429963959165 -0.0044938419932864255 0 0.00018147012592253188 -0.0045295918949064262 0 0.00013359581644920278 -0.0045098385210711389 0 -5.0856684215606951e-05 -0.0036768859559880495 0 -6.82893929116952e-05 -0.0037297628377042031 0 -0.00020631642678679596 -0.0028801666778666456 0 -0.00027983818624971425 -0.0029391363993878103 0 -0.00032844050859917308 -0.0030658729363559917 0 -0.00023605616431015045 -0.0028925975212475688 0 -0.00024848510016240219 -0.0028962118164220247 0 -0.00027983818624971425 -0.0029391363993878103 0 -0.00020631642678679596 -0.0028801666778666456 0 -0.00023605616431015045 -0.0028925975212475688 0 -0.00027983818624971425 -0.0029391363993878103 0 -6.82893929116952e-05 -0.0037297628377042031 0 -0.00012963752825439671 -0.003757756760941654 0 0.00013359581644920278 -0.0045098385210711389 0 6.3265984700288741e-05 -0.0044303511761913479 0 0.00011099260048507122 -0.0043979163770417598 0 2.4466616606742224e-05 -0.0043188937797786686 0 6.3265984700288741e-05 -0.0044303511761913479 0 0.00011099260048507122 -0.0043979163770417598 0 0.00013359581644920278 -0.0045098385210711389 0 0.00011099260048507122 -0.0043979163770417598 0 0.0001523717040451142 -0.0044767346557663843 0 0.00013935389305321034 -0.0043696161738270298 0 0.00018327293885828103 -0.0044413241379853809 0 0.0001523717040451142 -0.0044767346557663843 0 0.00013935389305321034 -0.0043696161738270298 0 0.00011099260048507122 -0.0043979163770417598 0 0.0001523717040451142 -0.0044767346557663843 0 0.00018327293885828103 -0.0044413241379853809 0 0.00017505849072802209 -0.0045190766065509808 0 0.0001523717040451142 -0.0044767346557663843 0 0.00018147012592253188 -0.0045295918949064262 0 0.00017505849072802209 -0.0045190766065509808 0 0.00019074120804128499 -0.0045880728634927169 0 0.00018327293885828103 -0.0044413241379853809 0 0.00017505849072802209 -0.0045190766065509808 0 0.00019074120804128499 -0.0045880728634927169 0 0.00018147012592253188 -0.0045295918949064262 0 0.00017505849072802209 -0.0045190766065509808 0 0.0001523717040451142 -0.0044767346557663843 0 8.9598303086772658e-05 -0.0047232925109643876 0 7.2320141317741701e-05 -0.004721118597285405 0 0.00011762748685210544 -0.0046278698968404749 0 8.9598303086772658e-05 -0.0047232925109643876 0 0.00019074120804128499 -0.0045880728634927169 0 0.00011762748685210544 -0.0046278698968404749 0 0.00018475295479612321 -0.0046106823606822103 0 0.00019268296773184633 -0.0045902538869553502 0 0.00026144275285996287 -0.0044236672992452944 0 0.00018327293885828103 -0.0044413241379853809 0 0.00019074120804128499 -0.0045880728634927169 0 0.00011783362998625119 -0.0048009348791131666 0 8.9598303086772658e-05 -0.0047232925109643876 0 0.00019074120804128499 -0.0045880728634927169 0 0.00011783362998625119 -0.0048009348791131666 0 8.9598303086772658e-05 -0.0047232925109643876 0 4.9172270445013968e-05 -0.0048062348478032776 0 8.9598303086772658e-05 -0.0047232925109643876 0 5.5889067808514554e-05 -0.0047725665425139572 0 4.9172270445013968e-05 -0.0048062348478032776 0 5.5889067808514554e-05 -0.0047725665425139572 0 3.4068039495287303e-05 -0.0048383613550345948 0 4.4780825369384683e-05 -0.0047905610690064902 0 5.5889067808514554e-05 -0.0047725665425139572 0 4.9172270445013968e-05 -0.0048062348478032776 0 3.4068039495287303e-05 -0.0048383613550345948 0 4.4780825369384683e-05 -0.0047905610690064902 0 4.9778549471778207e-05 -0.0047583416243167304 0 2.865200248011606e-05 -0.0048293507731829123 0 4.4780825369384683e-05 -0.0047905610690064902 0 7.2320141317741701e-05 -0.004721118597285405 0 4.9778549471778207e-05 -0.0047583416243167304 0 8.9598303086772658e-05 -0.0047232925109643876 0 5.5889067808514554e-05 -0.0047725665425139572 0 7.2320141317741701e-05 -0.004721118597285405 0 5.5889067808514554e-05 -0.0047725665425139572 0 4.4780825369384683e-05 -0.0047905610690064902 0 7.2320141317741701e-05 -0.004721118597285405 0 7.2320141317741701e-05 -0.004721118597285405 0 8.7662347153200326e-05 -0.0046932957265563438 0 6.4252134993417765e-05 -0.0047204328105228104 0 4.9778549471778207e-05 -0.0047583416243167304 0 6.4252134993417765e-05 -0.0047204328105228104 0 3.3272760692684017e-05 -0.0047471545442240842 0 7.2320141317741701e-05 -0.004721118597285405 0 4.9778549471778207e-05 -0.0047583416243167304 0 6.4252134993417765e-05 -0.0047204328105228104 0 6.4252134993417765e-05 -0.0047204328105228104 0 4.3046823630110993e-05 -0.0047059758649219156 0 3.3272760692684017e-05 -0.0047471545442240842 0 6.4252134993417765e-05 -0.0047204328105228104 0 4.3046823630110993e-05 -0.0047059758649219156 0 7.5746034527675521e-05 -0.0046989574971502933 0 8.7662347153200326e-05 -0.0046932957265563438 0 7.5746034527675521e-05 -0.0046989574971502933 0 9.0967918794072696e-05 -0.0046967319405073734 0 8.7662347153200326e-05 -0.0046932957265563438 0 6.4252134993417765e-05 -0.0047204328105228104 0 7.5746034527675521e-05 -0.0046989574971502933 0 8.7662347153200326e-05 -0.0046932957265563438 0 9.0967918794072696e-05 -0.0046967319405073734 0 0.00011762748685210544 -0.0046278698968404749 0 7.2320141317741701e-05 -0.004721118597285405 0 8.7662347153200326e-05 -0.0046932957265563438 0 0.00011762748685210544 -0.0046278698968404749 0 7.8906885501729972e-05 -0.0045972859089267321 0 0.00011305966035425017 -0.0046311814946290684 0 5.8697866696793825e-05 -0.0045006137997782745 0 0.00011762748685210544 -0.0046278698968404749 0 0.00015968412373625808 -0.0045578414930263836 0 0.00019074120804128499 -0.0045880728634927169 0 0.00011762748685210544 -0.0046278698968404749 0 0.00015968412373625808 -0.0045578414930263836 0 0.00017230971186453587 -0.0045032964303711896 0 5.8697866696793825e-05 -0.0045006137997782745 0 0.00015968412373625808 -0.0045578414930263836 0 0.00017230971186453587 -0.0045032964303711896 0 0.00016260338648679335 -0.0044534254467619473 0 0.00010774234687446089 -0.0044425392829416464 0 0.00017230971186453587 -0.0045032964303711896 0 5.8697866696793825e-05 -0.0045006137997782745 0 0.00010774234687446089 -0.0044425392829416464 0 0.00016260338648679335 -0.0044534254467619473 0 0.00010774234687446089 -0.0044425392829416464 0 0.00013105790038862132 -0.0044046951482605255 0 5.8697866696793825e-05 -0.0045006137997782745 0 0.00010774234687446089 -0.0044425392829416464 0 2.092962005879345e-06 -0.0043843822505975332 0 8.3526445505652483e-05 -0.0043697825017070474 0 2.2168561288141455e-05 -0.0042979262656732079 0 2.092962005879345e-06 -0.0043843822505975332 0 0.00010774234687446089 -0.0044425392829416464 0 8.3526445505652483e-05 -0.0043697825017070474 0 2.092962005879345e-06 -0.0043843822505975332 0 0.00010774234687446089 -0.0044425392829416464 0 8.3526445505652483e-05 -0.0043697825017070474 0 0.00013105790038862132 -0.0044046951482605255 0 0.00018159355311739823 -0.004407750473509572 0 0.00013105790038862132 -0.0044046951482605255 0 0.00016130928330627552 -0.0043666226360178986 0 0.00018159355311739823 -0.004407750473509572 0 0.00016260338648679335 -0.0044534254467619473 0 0.00013105790038862132 -0.0044046951482605255 0 8.3526445505652483e-05 -0.0043697825017070474 0 0.00013105790038862132 -0.0044046951482605255 0 0.00016130928330627552 -0.0043666226360178986 0 8.3526445505652483e-05 -0.0043697825017070474 0 0.00016130928330627552 -0.0043666226360178986 0 0.00017918149597035619 -0.0042595205432577905 0 0.00022815959098756048 -0.0043862019547170217 0 0.00016130928330627552 -0.0043666226360178986 0 0.00017918149597035619 -0.0042595205432577905 0 8.3526445505652483e-05 -0.0043697825017070474 0 0.00017918149597035619 -0.0042595205432577905 0 2.2168561288141455e-05 -0.0042979262656732079 0 0.00017918149597035619 -0.0042595205432577905 0 2.2168561288141455e-05 -0.0042979262656732079 0 3.7397912597470418e-07 -0.0039781788683122057 0 0.00011037680151352779 -0.0039834394037843142 0 -2.7744913783775974e-08 -0.0039772538090988461 0 -6.2981909445139863e-08 -0.0037286187715190049 0 3.3084067635743337e-05 -0.0036308752646910594 0 2.004046883006035e-07 -0.003977013280363071 0 3.7397912597470418e-07 -0.0039781788683122057 0 9.4875369715031162e-06 -0.0044012725609695281 0 -1.5861283039993038e-07 -0.0045686280291495195 0 2.2168561288141455e-05 -0.0042979262656732079 0 3.7397912597470418e-07 -0.0039781788683122057 0 9.4875369715031162e-06 -0.0044012725609695281 0 2.2168561288141455e-05 -0.0042979262656732079 0 9.4875369715031162e-06 -0.0044012725609695281 0 2.092962005879345e-06 -0.0043843822505975332 0 1.1400659266120275e-05 -0.0044080268621548083 0 5.2827886425105539e-05 -0.0045172909105025338 0 9.4875369715031162e-06 -0.0044012725609695281 0 1.2200568205671057e-05 -0.0046219011254749077 0 1.9780779748656491e-06 -0.0045732534635894396 0 1.2200568205671057e-05 -0.0046219011254749077 0 0.00010905609215368734 -0.0046574915469492261 0 3.9265839037756418e-05 -0.0046794093203486849 0 9.4875369715031162e-06 -0.0044012725609695281 0 1.2200568205671057e-05 -0.0046219011254749077 0 0.00010905609215368734 -0.0046574915469492261 0 1.2200568205671057e-05 -0.0046219011254749077 0 3.9265839037756418e-05 -0.0046794093203486849 0 1.0239470874183618e-05 -0.0046731717728001462 0 7.8906885501729972e-05 -0.0045972859089267321 0 5.2827886425105539e-05 -0.0045172909105025338 0 7.5746034527675521e-05 -0.0046989574971502933 0 9.0967918794072696e-05 -0.0046967319405073734 0 0.00010905609215368734 -0.0046574915469492261 0 7.5746034527675521e-05 -0.0046989574971502933 0 0.00010905609215368734 -0.0046574915469492261 0 3.9265839037756418e-05 -0.0046794093203486849 0 4.3046823630110993e-05 -0.0047059758649219156 0 7.5746034527675521e-05 -0.0046989574971502933 0 3.9265839037756418e-05 -0.0046794093203486849 0 4.3046823630110993e-05 -0.0047059758649219156 0 3.9265839037756418e-05 -0.0046794093203486849 0 1.9317231272192479e-05 -0.0046886161606480552 0 1.9317231272192479e-05 -0.0046886161606480552 0 3.0125509633330536e-06 -0.0046821793917612891 0 1.2432697831667508e-05 -0.0047105244467133649 0 1.9317231272192479e-05 -0.0046886161606480552 0 1.0239470874183618e-05 -0.0046731717728001462 0 3.0125509633330536e-06 -0.0046821793917612891 0 3.9265839037756418e-05 -0.0046794093203486849 0 1.9317231272192479e-05 -0.0046886161606480552 0 1.0239470874183618e-05 -0.0046731717728001462 0 3.3600307010268889e-05 -0.0049249029609255337 0 -1.4529663020725571e-05 -0.0048349378312462221 0 -6.2548097246331325e-06 -0.0049338658087041149 0 -1.4529663020725571e-05 -0.0048349378312462221 0 8.3518032314613668e-06 -0.0046881294080741206 0 -2.6283082165126332e-05 -0.0048398643238094152 0 3.3600307010268889e-05 -0.0049249029609255337 0 -1.4529663020725571e-05 -0.0048349378312462221 0 8.3518032314613668e-06 -0.0046881294080741206 0 1.0239470874183618e-05 -0.0046731717728001462 0 3.0125509633330536e-06 -0.0046821793917612891 0 8.3518032314613668e-06 -0.0046881294080741206 0 1.3207299587344062e-05 -0.0048021887362311305 0 1.3796284136524896e-05 -0.0047058279010448291 0 1.2200568205671057e-05 -0.0046219011254749077 0 1.0239470874183618e-05 -0.0046731717728001462 0 8.3518032314613668e-06 -0.0046881294080741206 0 1.2200568205671057e-05 -0.0046219011254749077 0 8.3518032314613668e-06 -0.0046881294080741206 0 1.9780779748656491e-06 -0.0045732534635894396 0 1.9780779748656491e-06 -0.0045732534635894396 0 -1.5861283039993038e-07 -0.0045686280291495195 0 -1.4502214455460812e-05 -0.0047598767375935129 0 6.5183967870177017e-06 -0.0046093413624256462 0 -2.0427503086937617e-05 -0.0047929721377672962 0 8.3518032314613668e-06 -0.0046881294080741206 0 1.9780779748656491e-06 -0.0045732534635894396 0 -2.6283082165126332e-05 -0.0048398643238094152 0 9.4875369715031162e-06 -0.0044012725609695281 0 1.9780779748656491e-06 -0.0045732534635894396 0 -1.5861283039993038e-07 -0.0045686280291495195 0 -1.5861283039993038e-07 -0.0045686280291495195 0 2.5493920225575049e-08 -0.0049999133574225385 0 -8.6708445998966756e-06 -0.0048364036642119801 0 2.5493920225575049e-08 -0.0049999133574225385 0 -8.6708445998966756e-06 -0.0048364036642119801 0 -3.1177101986195766e-08 -0.0049997139018533674 0 -1.5861283039993038e-07 -0.0045686280291495195 0 -8.6708445998966756e-06 -0.0048364036642119801 0 -1.4502214455460812e-05 -0.0047598767375935129 0 -8.6708445998966756e-06 -0.0048364036642119801 0 -1.4502214455460812e-05 -0.0047598767375935129 0 -3.1177101986195766e-08 -0.0049997139018533674 0 -2.6283082165126332e-05 -0.0048398643238094152 0 -3.061761519569207e-08 -0.0049998656753669777 0 -2.0865755105070391e-05 -0.0049205330658161983 0 -2.0427503086937617e-05 -0.0047929721377672962 0 -2.4414472892161818e-08 -0.0049999353013369038 0 -3.061761519569207e-08 -0.0049998656753669777 0 -2.0865755105070391e-05 -0.0049205330658161983 0 -2.4863210846674196e-08 -0.0049999094837440044 0 -1.4529663020725571e-05 -0.0048349378312462221 0 -2.6283082165126332e-05 -0.0048398643238094152 0 -2.0865755105070391e-05 -0.0049205330658161983 0 -1.4529663020725571e-05 -0.0048349378312462221 0 -2.0865755105070391e-05 -0.0049205330658161983 0 -6.2548097246331325e-06 -0.0049338658087041149 0 -2.0865755105070391e-05 -0.0049205330658161983 0 -6.2548097246331325e-06 -0.0049338658087041149 0 -1.3600771610134728e-05 -0.0049677614344039479 0 -2.0865755105070391e-05 -0.0049205330658161983 0 -2.4863210846674196e-08 -0.0049999094837440044 0 -1.3600771610134728e-05 -0.0049677614344039479 0 -1.2528984694553759e-08 -0.0049999910884399512 0 -4.9566368093076383e-06 -0.0049893034189124981 0 -1.3600771610134728e-05 -0.0049677614344039479 0 -2.4863210846674196e-08 -0.0049999094837440044 0 -1.2528984694553759e-08 -0.0049999910884399512 0 -1.3600771610134728e-05 -0.0049677614344039479 0 -1.2528984694553759e-08 -0.0049999910884399512 0 -3.6784564738435732e-06 -0.0049970664499063974 0 -4.9566368093076383e-06 -0.0049893034189124981 0 -1.2528984694553759e-08 -0.0049999910884399512 0 -3.6784564738435732e-06 -0.0049970664499063974 0 4.1343947965699625e-09 -0.0049999982559964656 0 -3.0237529370760831e-06 -0.0049269639027632482 0 -3.4426557149112889e-05 -0.0049504748463448942 0 -1.2684261949854537e-05 -0.0049014088049131217 0 -1.732975826227439e-05 -0.0048576848997560545 0 -1.7903765629462303e-05 -0.0048917855401190025 0 -3.6784564738435732e-06 -0.0049970664499063974 0 -4.9566368093076383e-06 -0.0049893034189124981 0 9.9909259004280369e-06 -0.0049888185431321017 0 -5.9423883348106583e-06 -0.0049777247697090545 0 -1.732975826227439e-05 -0.0048576848997560545 0 -4.9566368093076383e-06 -0.0049893034189124981 0 -1.3600771610134728e-05 -0.0049677614344039479 0 9.9909259004280369e-06 -0.0049888185431321017 0 -6.2548097246331325e-06 -0.0049338658087041149 0 -1.3600771610134728e-05 -0.0049677614344039479 0 9.9909259004280369e-06 -0.0049888185431321017 0 3.3600307010268889e-05 -0.0049249029609255337 0 -6.2548097246331325e-06 -0.0049338658087041149 0 9.9909259004280369e-06 -0.0049888185431321017 0 3.0125509633330536e-06 -0.0046821793917612891 0 1.2432697831667508e-05 -0.0047105244467133649 0 -2.2468544522353083e-05 -0.0047386609629629589 0 1.3207299587344062e-05 -0.0048021887362311305 0 -1.732975826227439e-05 -0.0048576848997560545 0 2.7211760827571671e-05 -0.0046994587863513002 0 -1.732975826227439e-05 -0.0048576848997560545 0 1.2432697831667508e-05 -0.0047105244467133649 0 3.3272760692684017e-05 -0.0047471545442240842 0 -2.074755175257721e-05 -0.0047497207773200953 0 4.3046823630110993e-05 -0.0047059758649219156 0 1.9317231272192479e-05 -0.0046886161606480552 0 1.2432697831667508e-05 -0.0047105244467133649 0 4.3046823630110993e-05 -0.0047059758649219156 0 1.2432697831667508e-05 -0.0047105244467133649 0 3.3272760692684017e-05 -0.0047471545442240842 0 4.9778549471778207e-05 -0.0047583416243167304 0 3.3272760692684017e-05 -0.0047471545442240842 0 2.0477766846933905e-05 -0.004808491847574905 0 3.3272760692684017e-05 -0.0047471545442240842 0 -2.074755175257721e-05 -0.0047497207773200953 0 2.0477766846933905e-05 -0.004808491847574905 0 -2.074755175257721e-05 -0.0047497207773200953 0 9.4204913788775055e-07 -0.0048370539518374396 0 2.0477766846933905e-05 -0.004808491847574905 0 -2.074755175257721e-05 -0.0047497207773200953 0 9.4204913788775055e-07 -0.0048370539518374396 0 -1.2684261949854537e-05 -0.0049014088049131217 0 9.4204913788775055e-07 -0.0048370539518374396 0 2.0477766846933905e-05 -0.004808491847574905 0 1.0979784870203548e-05 -0.0048708170880154451 0 9.4204913788775055e-07 -0.0048370539518374396 0 1.0979784870203548e-05 -0.0048708170880154451 0 -1.2684261949854537e-05 -0.0049014088049131217 0 4.9778549471778207e-05 -0.0047583416243167304 0 2.865200248011606e-05 -0.0048293507731829123 0 2.0477766846933905e-05 -0.004808491847574905 0 2.865200248011606e-05 -0.0048293507731829123 0 2.0477766846933905e-05 -0.004808491847574905 0 1.0979784870203548e-05 -0.0048708170880154451 0 3.4068039495287303e-05 -0.0048383613550345948 0 2.865200248011606e-05 -0.0048293507731829123 0 2.1540554638610349e-05 -0.004887761857265316 0 3.4068039495287303e-05 -0.0048383613550345948 0 4.4780825369384683e-05 -0.0047905610690064902 0 2.865200248011606e-05 -0.0048293507731829123 0 2.865200248011606e-05 -0.0048293507731829123 0 1.0979784870203548e-05 -0.0048708170880154451 0 2.1540554638610349e-05 -0.004887761857265316 0 1.0979784870203548e-05 -0.0048708170880154451 0 2.1540554638610349e-05 -0.004887761857265316 0 2.9981232539770992e-06 -0.0049102203348362411 0 9.8703014531002009e-06 -0.0049356918690254626 0 2.1540554638610349e-05 -0.004887761857265316 0 2.9981232539770992e-06 -0.0049102203348362411 0 1.0979784870203548e-05 -0.0048708170880154451 0 2.9981232539770992e-06 -0.0049102203348362411 0 -1.2684261949854537e-05 -0.0049014088049131217 0 2.9981232539770992e-06 -0.0049102203348362411 0 -2.1995794696813694e-06 -0.0049494931426877446 0 -1.2684261949854537e-05 -0.0049014088049131217 0 9.8703014531002009e-06 -0.0049356918690254626 0 2.9981232539770992e-06 -0.0049102203348362411 0 -2.1995794696813694e-06 -0.0049494931426877446 0 5.4953009605248597e-09 -0.0049999454968403557 0 -2.1995794696813694e-06 -0.0049494931426877446 0 -1.4627786366485184e-08 -0.0049998173190650636 0 -3.0237529370760831e-06 -0.0049269639027632482 0 -2.1995794696813694e-06 -0.0049494931426877446 0 -1.4627786366485184e-08 -0.0049998173190650636 0 -5.9423883348106583e-06 -0.0049777247697090545 0 1.5415721309069969e-08 -0.0049999656434767253 0 -3.0237529370760831e-06 -0.0049269639027632482 0 -2.1995794696813694e-06 -0.0049494931426877446 0 -1.2684261949854537e-05 -0.0049014088049131217 0 0.0005017538157747807 -0.0013120742870757092 0 0.00048729217219872529 -0.001276145313481885 0 0.00052337935743575789 -0.0012754971594118572 0 0.0005017538157747807 -0.0013120742870757092 0 0.00051331489883728516 -0.0013246115758939574 0 0.00052337935743575789 -0.0012754971594118572 0 0.00051331489883728516 -0.0013246115758939574 0 0.00052337935743575789 -0.0012754971594118572 0 0.00057859365050237893 -0.0012859035940528656 0 0.00051331489883728516 -0.0013246115758939574 0 0.00048581624217285796 -0.0013119876164543502 0 0.00050315054456996611 -0.0013135370332339089 0 0.00062019318895008301 -0.0015322104558414418 0 0.00048742980208179968 -0.00044164093998867498 0 0.00051331489883728516 -0.0013246115758939574 0 0.00050670674058194809 -0.0013270395432608594 0 0.00050315054456996611 -0.0013135370332339089 0 0.00051331489883728516 -0.0013246115758939574 0 0.00050160444277157006 -0.0013403604262951908 0 0.00050670674058194809 -0.0013270395432608594 0 0.0005017538157747807 -0.0013120742870757092 0 0.00050160444277157006 -0.0013403604262951908 0 0.00049276381784680461 -0.001335859502362486 0 0.0005017538157747807 -0.0013120742870757092 0 0.00051331489883728516 -0.0013246115758939574 0 0.00050160444277157006 -0.0013403604262951908 0 0.00050160444277157006 -0.0013403604262951908 0 0.00050670674058194809 -0.0013270395432608594 0 0.00051356737621344791 -0.0013262610583637667 0 0.00047972222723160351 -0.0013982273230999361 0 0.00049531110515751758 -0.0014579126421706465 0 0.00050160444277157006 -0.0013403604262951908 0 0.00048048577631472231 -0.0013837491044019568 0 0.00051356737621344791 -0.0013262610583637667 0 0.00051021947719485656 -0.0017911960950795854 0 0.00051619472136250205 -0.0017059007059208151 0 0.00049493749302138726 -0.0016768229847115618 0 0.00048048577631472231 -0.0013837491044019568 0 0.00042100675212716331 -0.0012948378934317013 0 0.00049493749302138726 -0.0016768229847115618 0 0.00047552641032900893 -0.0015754087571224803 0 0.00049698613755537653 -0.0016644173512927359 0 0.00050160444277157006 -0.0013403604262951908 0 0.00048048577631472231 -0.0013837491044019568 0 0.00049276381784680461 -0.001335859502362486 0 0.00052852399573717905 -0.0017339009252682858 0 0.00051021947719485656 -0.0017911960950795854 0 0.00051619472136250205 -0.0017059007059208151 0 0.00052852399573717905 -0.0017339009252682858 0 0.00053957103876568378 -0.0017628342659103634 0 0.00055746210369660295 -0.0017359010460044214 0 0.00053957103876568378 -0.0017628342659103634 0 0.00051021947719485656 -0.0017911960950795854 0 0.00054850290628164898 -0.0017890934114765944 0 0.00052852399573717905 -0.0017339009252682858 0 0.00053957103876568378 -0.0017628342659103634 0 0.00051021947719485656 -0.0017911960950795854 0 0.00051021947719485656 -0.0017911960950795854 0 0.00055489886966858136 -0.0018292138964479156 0 0.00054899956029498271 -0.001896614870625542 0 0.00051021947719485656 -0.0017911960950795854 0 0.00055489886966858136 -0.0018292138964479156 0 0.00054850290628164898 -0.0017890934114765944 0 0.00042100675212716331 -0.0012948378934317013 0 0.00047334356948013035 -0.0012965567896481497 0 0.00045066459912353343 -0.001267311805451445 0 0.0005017538157747807 -0.0013120742870757092 0 0.00049276381784680461 -0.001335859502362486 0 0.00047334356948013035 -0.0012965567896481497 0 0.00048048577631472231 -0.0013837491044019568 0 0.00049276381784680461 -0.001335859502362486 0 0.00047334356948013035 -0.0012965567896481497 0 0.00048048577631472231 -0.0013837491044019568 0 0.00042100675212716331 -0.0012948378934317013 0 0.00047334356948013035 -0.0012965567896481497 0 0.0005017538157747807 -0.0013120742870757092 0 0.00047334356948013035 -0.0012965567896481497 0 0.00048729217219872529 -0.001276145313481885 0 0.00047334356948013035 -0.0012965567896481497 0 0.00048729217219872529 -0.001276145313481885 0 0.00045066459912353343 -0.001267311805451445 0 0.00048729217219872529 -0.001276145313481885 0 0.00045066459912353343 -0.001267311805451445 0 0.00046895701140545594 -0.0012498222370205569 0 0.00045066459912353343 -0.001267311805451445 0 0.00044691360140248099 -0.0012500012733991032 0 0.00046895701140545594 -0.0012498222370205569 0 0.00042100675212716331 -0.0012948378934317013 0 0.00045066459912353343 -0.001267311805451445 0 0.00043228579899747839 -0.001257215848852633 0 0.00047552641032900893 -0.0015754087571224803 0 0.00046598911044412871 -0.0014809848325266417 0 0.00045066459912353343 -0.001267311805451445 0 0.00044691360140248099 -0.0012500012733991032 0 0.00043228579899747839 -0.001257215848852633 0 0.00044691360140248099 -0.0012500012733991032 0 0.00046895701140545594 -0.0012498222370205569 0 0.00044500693080977568 -0.0012336979044053746 0 0.00044691360140248099 -0.0012500012733991032 0 0.00043228579899747839 -0.001257215848852633 0 0.00044500693080977568 -0.0012336979044053746 0 0.00046895701140545594 -0.0012498222370205569 0 0.00048952740081582141 -0.0012262165795767499 0 0.00044500693080977568 -0.0012336979044053746 0 0.00048729217219872529 -0.001276145313481885 0 0.00046895701140545594 -0.0012498222370205569 0 0.00048952740081582141 -0.0012262165795767499 0 0.00048729217219872529 -0.001276145313481885 0 0.00048952740081582141 -0.0012262165795767499 0 0.00052337935743575789 -0.0012754971594118572 0 0.00044544092596913835 -0.00076797770757915291 0 0.00031306637830310686 -0.00072124348989191641 0 0.00036725332239587503 -0.00078797800000481944 0 0.00048952740081582141 -0.0012262165795767499 0 0.00052337935743575789 -0.0012754971594118572 0 0.00054515166566967944 -0.0012290808357509353 0 0.00031306637830310686 -0.00072124348989191641 0 0.00036725332239587503 -0.00078797800000481944 0 0.00028793830821965824 -0.00079432892317520486 0 0.00046973199451724577 -0.00099326132886535319 0 0.00043559983944103356 -0.0011164355202811338 0 0.00031306637830310686 -0.00072124348989191641 0 0.00023835934125859305 -0.00072900701953146146 0 0.00018788850872564504 -0.00067342859213209477 0 0.00043559983944103356 -0.0011164355202811338 0 0.00047060371475518456 0.00012978447115307158 0 0.00031306637830310686 -0.00072124348989191641 0 0.00023835934125859305 -0.00072900701953146146 0 0.00028793830821965824 -0.00079432892317520486 0 0.00023835934125859305 -0.00072900701953146146 0 0.0001630282339444663 -0.00072573193946194538 0 0.00018788850872564504 -0.00067342859213209477 0 0.00023835934125859305 -0.00072900701953146146 0 0.0001630282339444663 -0.00072573193946194538 0 0.00028793830821965824 -0.00079432892317520486 0 0.00039787794673439329 0.00033594981324235046 0 0.00016397601441791809 -0.00051923268227998729 0 0.00039787794673439329 0.00033594981324235046 0 0.00047060371475518456 0.00012978447115307158 0 0.00046701689699180928 0.00070920975091924251 0 0.00047504968454170729 0.00069775126992976163 0 0.00045858432227477815 0.00068597721630037913 0 0.00047060371475518456 0.00012978447115307158 0 0.0005187112091092741 -0.00035217135843073949 0 0.00052337935743575789 -0.0012754971594118572 0 0.00054515166566967944 -0.0012290808357509353 0 0.00057859365050237893 -0.0012859035940528656 0 0.00054515166566967944 -0.0012290808357509353 0 0.00060098600793561698 -0.0012287302495685626 0 0.00057859365050237893 -0.0012859035940528656 0 0.00062578189751700847 0.0018811288281041093 0 0.00073358504715835429 0.0018683440423841748 0 0.00067460405306128831 0.0019870847208746704 0 0.00062578189751700847 0.0018811288281041093 0 0.00073358504715835429 0.0018683440423841748 0 0.00069207489583398652 0.0017940608827614936 0 0.00082733515424540942 0.001845726420508189 0 0.00086001135377418024 0.0019126779626954932 0 0.00073358504715835429 0.0018683440423841748 0 0.00082733515424540942 0.001845726420508189 0 0.00073358504715835429 0.0018683440423841748 0 0.00079435983031424749 0.0017612620158425423 0 0.00046701689699180928 0.00070920975091924251 0 0.00049129045755835787 0.00071634278394187747 0 0.00047504968454170729 0.00069775126992976163 0 0.00086001135377418024 0.0019126779626954932 0 0.00073358504715835429 0.0018683440423841748 0 0.00067460405306128831 0.0019870847208746704 0 0.00047060371475518456 0.00012978447115307158 0 0.00060425106194283713 0.0015106812594518971 0 0.00049129045755835787 0.00071634278394187747 0 0.00048689095476073648 0.00069343354696851944 0 0.00050507623847025507 0.00069615811781433457 0 0.00049129045755835787 0.00071634278394187747 0 0.00047504968454170729 0.00069775126992976163 0 0.00048689095476073648 0.00069343354696851944 0 0.00047504968454170729 0.00069775126992976163 0 0.00047426197966666866 0.00068217176497009278 0 0.00048689095476073648 0.00069343354696851944 0 0.00047426197966666866 0.00068217176497009278 0 0.00048689095476073648 0.00069343354696851944 0 0.00049020432254870958 0.00067783529385218879 0 0.00050982195261174115 0.0013907558110999769 0 0.00045242371521265768 0.0013197252057311362 0 0.00048689095476073648 0.00069343354696851944 0 0.00049020432254870958 0.00067783529385218879 0 0.00050507623847025507 0.00069615811781433457 0 0.00047504968454170729 0.00069775126992976163 0 0.00047426197966666866 0.00068217176497009278 0 0.00045858432227477815 0.00068597721630037913 0 0.00047426197966666866 0.00068217176497009278 0 0.00045858432227477815 0.00068597721630037913 0 0.00045256911117224838 0.00066442556959381662 0 0.0005187112091092741 -0.00035217135843073949 0 0.00048742980208179968 -0.00044164093998867498 0 0.00051331489883728516 -0.0013246115758939574 0 0.00057859365050237893 -0.0012859035940528656 0 0.00055334813964903729 -0.0013369024078807321 0 0.00055778238469505754 -2.1120487452241553e-05 0 0.00024211719887022308 0.00019698057815603217 0 0.00071670758194302634 0.00032619817888187658 0 0.00048742980208179968 -0.00044164093998867498 0 0.00033444036698696781 0.00043612294790887411 0 0.00047426197966666866 0.00068217176497009278 0 0.00045256911117224838 0.00066442556959381662 0 0.00046599081406061607 0.00066562520731879807 0 0.00024211719887022308 0.00019698057815603217 0 -7.0246538220992397e-05 0.00041550809221018467 0 0.00032368790489617282 0.00050868826804980434 0 0.00033444036698696781 0.00043612294790887411 0 0.00035878086519022101 0.0013340401098682556 0 0.00056065950254910522 0.00063936953161430269 0 0.00032368790489617282 0.00050868826804980434 0 0.00071670758194302634 0.00032619817888187658 0 0.00024211719887022308 0.00019698057815603217 0 0.00032368790489617282 0.00050868826804980434 0 0.00071670758194302634 0.00032619817888187658 0 0.00047426197966666866 0.00068217176497009278 0 0.00046599081406061607 0.00066562520731879807 0 0.00047723371837710788 0.00067284462001503131 0 0.00049020432254870958 0.00067783529385218879 0 0.00047723371837710788 0.00067284462001503131 0 0.00047777844721724023 0.00066651843161729622 0 0.00047426197966666866 0.00068217176497009278 0 0.00049020432254870958 0.00067783529385218879 0 0.00047723371837710788 0.00067284462001503131 0 0.00046599081406061607 0.00066562520731879807 0 0.00047723371837710788 0.00067284462001503131 0 0.00047777844721724023 0.00066651843161729622 0 0.00050982195261174115 0.0013907558110999769 0 0.00035878086519022101 0.0013340401098682556 0 0.00052757848679178994 0.0021228171652163796 0 0.00046409182244332132 0.0021179942399288916 0 0.00045517597030225292 0.0021801064657789677 0 0.00047803154745785842 0.0020584326173703478 0 0.00046409182244332132 0.0021179942399288916 0 0.000407026620935841 0.0021106493451534068 0 0.00047803154745785842 0.0020584326173703478 0 0.00052757848679178994 0.0021228171652163796 0 0.00046409182244332132 0.0021179942399288916 0 0.00039042062852701477 0.0021311855798252328 0 0.00033943956726981118 0.0021766791208121055 0 0.00037798436273420014 0.0022143972214064443 0 0.00035878086519022101 0.0013340401098682556 0 0.00037468849884124053 0.0022827429326795876 0 0.00035878086519022101 0.0013340401098682556 0 0.00028830365894921486 0.0014608132327077479 0 0.00039042062852701477 0.0021311855798252328 0 0.00037798436273420014 0.0022143972214064443 0 0.00042958541155320467 0.0021874869899081587 0 0.00041595348970507905 0.0022425302898035331 0 0.00037798436273420014 0.0022143972214064443 0 0.00042958541155320467 0.0021874869899081587 0 0.00033943956726981118 0.0021766791208121055 0 0.00037798436273420014 0.0022143972214064443 0 0.00033303415048376603 0.0022246983705598872 0 0.000354037862051199 0.0022614488127536791 0 0.00037798436273420014 0.0022143972214064443 0 0.00033303415048376603 0.0022246983705598872 0 0.00042879937780478675 0.00077645080012988068 0 0.00056065950254910522 0.00063936953161430269 0 0.00032368790489617282 0.00050868826804980434 0 0.00056065950254910522 0.00063936953161430269 0 0.00058431607740067201 0.00082597312881359339 0 0.00071060969780589603 0.00068841667928548514 0 0.00042879937780478675 0.00077645080012988068 0 0.00056065950254910522 0.00063936953161430269 0 0.00058431607740067201 0.00082597312881359339 0 -7.0246538220992397e-05 0.00041550809221018467 0 0.00032368790489617282 0.00050868826804980434 0 0.00020182107277158428 0.00078239692225720299 0 0.00042879937780478675 0.00077645080012988068 0 0.00032368790489617282 0.00050868826804980434 0 0.00020182107277158428 0.00078239692225720299 0 0.00042724527628232355 0.001736830551890718 0 0.00028830365894921486 0.0014608132327077479 0 0.00046998630639197465 0.0022418774930173446 0 0.00041595348970507905 0.0022425302898035331 0 0.00042958541155320467 0.0021874869899081587 0 0.00047625906634257665 0.0011577452138547852 0 0.00042879937780478675 0.00077645080012988068 0 0.00058431607740067201 0.00082597312881359339 0 0.00047625906634257665 0.0011577452138547852 0 0.00058431607740067201 0.00082597312881359339 0 0.00074729413435475228 0.00086522136619845459 0 0.00047625906634257665 0.0011577452138547852 0 0.00042879937780478675 0.00077645080012988068 0 0.00020182107277158428 0.00078239692225720299 0 0.00042724527628232355 0.001736830551890718 0 0.00080619137930687621 0.00072166175515571169 0 0.00049909688662780479 0.00056268022451937691 0 0.00050256071758446417 -0.0005515211374471547 0 0.00045260823939516869 0.0011766958097414266 0 0.00071120782813728623 0.00097501829443965161 0 0.00074729413435475228 0.00086522136619845459 0 0.00071120782813728623 0.00097501829443965161 0 0.00074729413435475228 0.00086522136619845459 0 0.00088017523138203568 0.00067156481590112242 0 0.00042520217755946665 0.00016786153316326698 0 0.00029725854631807499 0.00010892803699067525 0 0.00035673228273106595 -7.9418022156368708e-07 0 0.00058431607740067201 0.00082597312881359339 0 0.00074729413435475228 0.00086522136619845459 0 0.00071060969780589603 0.00068841667928548514 0 0.00040958345136843621 -0.0007330094199182464 0 0.00050256071758446417 -0.0005515211374471547 0 0.00044524769325729599 -0.0015179322881661013 0 0.00042230229193043647 -0.0016153980225004786 0 0.00050223726012952024 -0.0016252533307360882 0 0.00042230229193043647 -0.0016153980225004786 0 0.00046919613417141824 -0.0016707802516367539 0 0.00050223726012952024 -0.0016252533307360882 0 0.00050256071758446417 -0.0005515211374471547 0 0.00054332103091002501 -0.0016175843451017289 0 0.00056065950254910522 0.00063936953161430269 0 0.00071060969780589603 0.00068841667928548514 0 0.00071670758194302634 0.00032619817888187658 0 0.00050256071758446417 -0.0005515211374471547 0 0.00062566616525313874 -0.0004631753849284779 0 0.00071060969780589603 0.00068841667928548514 0 0.00088017523138203568 0.00067156481590112242 0 0.00071670758194302634 0.00032619817888187658 0 0.00074729413435475228 0.00086522136619845459 0 0.00071060969780589603 0.00068841667928548514 0 0.00088017523138203568 0.00067156481590112242 0 0.00048836509744817176 -0.00128882316954533 0 0.00051684778490284288 -0.0012901092606908665 0 0.00050315054456996611 -0.0013135370332339089 0 0.0005009707021284977 -0.0012467815627156867 0 0.00048836509744817176 -0.00128882316954533 0 0.00051684778490284288 -0.0012901092606908665 0 0.00054332103091002501 -0.0016175843451017289 0 0.00049531110515751758 -0.0014579126421706465 0 0.00051684778490284288 -0.0012901092606908665 0 0.00051013528699944428 -0.001314741221589228 0 0.00051356737621344791 -0.0013262610583637667 0 0.00051684778490284288 -0.0012901092606908665 0 0.00051013528699944428 -0.001314741221589228 0 0.00050315054456996611 -0.0013135370332339089 0 0.00051013528699944428 -0.001314741221589228 0 0.00050670674058194809 -0.0013270395432608594 0 0.00051356737621344791 -0.0013262610583637667 0 0.00051013528699944428 -0.001314741221589228 0 0.00050670674058194809 -0.0013270395432608594 0 0.00050315054456996611 -0.0013135370332339089 0 0.00048742980208179968 -0.00044164093998867498 0 0.00062566616525313874 -0.0004631753849284779 0 0.00048581624217285796 -0.0013119876164543502 0 0.00048836509744817176 -0.00128882316954533 0 0.00050315054456996611 -0.0013135370332339089 0 0.00052427681203826145 -0.0016874058566800057 0 0.00054030243887314474 -0.0017088805386144413 0 0.00051619472136250205 -0.0017059007059208151 0 0.00052427681203826145 -0.0016874058566800057 0 0.00051619472136250205 -0.0017059007059208151 0 0.0005083480709892744 -0.0016858845156845961 0 0.00052427681203826145 -0.0016874058566800057 0 0.00054030243887314474 -0.0017088805386144413 0 0.000552850935854488 -0.0016881815685852409 0 0.00052852399573717905 -0.0017339009252682858 0 0.00054030243887314474 -0.0017088805386144413 0 0.00055746210369660295 -0.0017359010460044214 0 0.00052852399573717905 -0.0017339009252682858 0 0.00054030243887314474 -0.0017088805386144413 0 0.00051619472136250205 -0.0017059007059208151 0 0.00051619472136250205 -0.0017059007059208151 0 0.00049493749302138726 -0.0016768229847115618 0 0.0005083480709892744 -0.0016858845156845961 0 0.00048048577631472231 -0.0013837491044019568 0 0.00051435631421412607 -0.0016718879790933005 0 0.00049493749302138726 -0.0016768229847115618 0 0.00051435631421412607 -0.0016718879790933005 0 0.00049493749302138726 -0.0016768229847115618 0 0.0005036382518756468 -0.0016799035128621971 0 0.00049493749302138726 -0.0016768229847115618 0 0.0005083480709892744 -0.0016858845156845961 0 0.0005036382518756468 -0.0016799035128621971 0 0.00052427681203826145 -0.0016874058566800057 0 0.0005083480709892744 -0.0016858845156845961 0 0.0005036382518756468 -0.0016799035128621971 0 0.0005036382518756468 -0.0016799035128621971 0 0.00054397729630851447 -0.0016663512914008559 0 0.00050223726012952024 -0.0016252533307360882 0 0.00046919613417141824 -0.0016707802516367539 0 0.00051435631421412607 -0.0016718879790933005 0 0.0005036382518756468 -0.0016799035128621971 0 0.00046919613417141824 -0.0016707802516367539 0 0.0005036382518756468 -0.0016799035128621971 0 0.00050223726012952024 -0.0016252533307360882 0 0.00052427681203826145 -0.0016874058566800057 0 0.0005036382518756468 -0.0016799035128621971 0 0.00054397729630851447 -0.0016663512914008559 0 0.00052427681203826145 -0.0016874058566800057 0 0.00054397729630851447 -0.0016663512914008559 0 0.000552850935854488 -0.0016881815685852409 0 0.00054397729630851447 -0.0016663512914008559 0 0.00050223726012952024 -0.0016252533307360882 0 0.00057991348016947909 -0.0016289305259666073 0 0.00056298068434101694 -0.0015044558394876428 0 0.00044524769325729599 -0.0015179322881661013 0 0.00050223726012952024 -0.0016252533307360882 0 0.00056298068434101694 -0.0015044558394876428 0 0.00050223726012952024 -0.0016252533307360882 0 0.00057991348016947909 -0.0016289305259666073 0 0.00060474965462509536 -0.0016800683202984248 0 0.00057991348016947909 -0.0016289305259666073 0 0.00059672842501074918 -0.0016657434956083357 0 0.00061714080524173512 -0.0016424128469453415 0 0.00059410199910927381 -0.001622853346511306 0 0.00067754834291392624 -0.0015482349292969685 0 0.00056298068434101694 -0.0015044558394876428 0 0.00057991348016947909 -0.0016289305259666073 0 0.00054397729630851447 -0.0016663512914008559 0 0.00057991348016947909 -0.0016289305259666073 0 0.00058923102368615954 -0.001674793940493234 0 0.00057991348016947909 -0.0016289305259666073 0 0.00059672842501074918 -0.0016657434956083357 0 0.00058923102368615954 -0.001674793940493234 0 0.00059672842501074918 -0.0016657434956083357 0 0.0006013869483990458 -0.0016760446187624827 0 0.00058923102368615954 -0.001674793940493234 0 0.00060474965462509536 -0.0016800683202984248 0 0.00059672842501074918 -0.0016657434956083357 0 0.00059161118026427391 -0.0016871700844442135 0 0.00056009118505455997 -0.0017105483018321991 0 0.00059161118026427391 -0.0016871700844442135 0 0.0006013869483990458 -0.0016760446187624827 0 0.00059672842501074918 -0.0016657434956083357 0 0.00059161118026427391 -0.0016871700844442135 0 0.0006013869483990458 -0.0016760446187624827 0 0.00057624844921246715 -0.0030123080664983958 0 0.00063165857799043741 -0.002826835057376951 0 0.0006245509220815001 -0.0041154675790620694 0 0.0006553065705669957 -0.0040187952356299621 0 0.00057268433973592663 -0.0040924630576342422 0 0.0006553065705669957 -0.0040187952356299621 0 0.00057268433973592663 -0.0040924630576342422 0 0.00057346107520248881 -0.0040297312279707993 0 0.0006553065705669957 -0.0040187952356299621 0 0.00059996637403875749 -0.0039729181773566101 0 0.00057346107520248881 -0.0040297312279707993 0 0.00059996637403875749 -0.0039729181773566101 0 0.00068558875491178109 -0.0039132100755290382 0 0.00055651820617480085 -0.00390155871471796 0 0.00063165857799043741 -0.002826835057376951 0 0.00065366717571052981 -0.0028170109546129096 0 0.00068558875491178109 -0.0039132100755290382 0 0.00055651820617480085 -0.00390155871471796 0 0.00063403553907085308 -0.0038330935959827732 0 0.0006553065705669957 -0.0040187952356299621 0 0.00059996637403875749 -0.0039729181773566101 0 0.00068558875491178109 -0.0039132100755290382 0 0.00062300367870323327 -0.0017092193715265668 0 0.00059451921367072451 -0.0017082390787437646 0 0.00059314406886350885 -0.0017481345720288359 0 0.00057116041737346156 -0.0017068648019608519 0 0.00055746210369660295 -0.0017359010460044214 0 0.00059314406886350885 -0.0017481345720288359 0 0.00059451921367072451 -0.0017082390787437646 0 0.00057116041737346156 -0.0017068648019608519 0 0.00059314406886350885 -0.0017481345720288359 0 0.00054030243887314474 -0.0017088805386144413 0 0.00057116041737346156 -0.0017068648019608519 0 0.00055746210369660295 -0.0017359010460044214 0 0.00054030243887314474 -0.0017088805386144413 0 0.000552850935854488 -0.0016881815685852409 0 0.00057116041737346156 -0.0017068648019608519 0 0.00059451921367072451 -0.0017082390787437646 0 0.00057116041737346156 -0.0017068648019608519 0 0.00058923102368615954 -0.001674793940493234 0 0.000552850935854488 -0.0016881815685852409 0 0.00057116041737346156 -0.0017068648019608519 0 0.00058923102368615954 -0.001674793940493234 0 0.00054397729630851447 -0.0016663512914008559 0 0.000552850935854488 -0.0016881815685852409 0 0.00058923102368615954 -0.001674793940493234 0 0.0006013869483990458 -0.0016760446187624827 0 0.00062300367870323327 -0.0017092193715265668 0 0.00058923102368615954 -0.001674793940493234 0 0.00062300367870323327 -0.0017092193715265668 0 0.00059451921367072451 -0.0017082390787437646 0 0.00058923102368615954 -0.001674793940493234 0 0.00037211763654821414 -0.0040343775461123728 0 0.00039269794912164679 -0.0040768053677704488 0 0.00042492628684370548 -0.0040229441519385829 0 0.00033868141718976019 -0.0040942932237875464 0 0.00037211763654821414 -0.0040343775461123728 0 0.00039269794912164679 -0.0040768053677704488 0 0.00034784802616896396 -0.0041285920387986903 0 0.00033868141718976019 -0.0040942932237875464 0 0.00036801325767017452 -0.0041056534700131238 0 0.00033868141718976019 -0.0040942932237875464 0 0.00039269794912164679 -0.0040768053677704488 0 0.00036801325767017452 -0.0041056534700131238 0 0.00034784802616896396 -0.0041285920387986903 0 0.00036801325767017452 -0.0041056534700131238 0 0.00039360553912053624 -0.0041226369655050091 0 0.00039269794912164679 -0.0040768053677704488 0 0.00036801325767017452 -0.0041056534700131238 0 0.00039360553912053624 -0.0041226369655050091 0 0.00039269794912164679 -0.0040768053677704488 0 0.00039360553912053624 -0.0041226369655050091 0 0.00043251826466812992 -0.0041108546444000018 0 0.00039269794912164679 -0.0040768053677704488 0 0.00043251826466812992 -0.0041108546444000018 0 0.00044880687781154871 -0.0040720552433623309 0 0.00041695732551058889 -0.0041445778593609713 0 0.00039360553912053624 -0.0041226369655050091 0 0.00043251826466812992 -0.0041108546444000018 0 0.00046590288505335171 -0.0041201483176727741 0 0.00043251826466812992 -0.0041108546444000018 0 0.00044880687781154871 -0.0040720552433623309 0 0.00039269794912164679 -0.0040768053677704488 0 0.00044880687781154871 -0.0040720552433623309 0 0.00042492628684370548 -0.0040229441519385829 0 0.00044880687781154871 -0.0040720552433623309 0 0.00042492628684370548 -0.0040229441519385829 0 0.00047703748302469645 -0.0040263096868745265 0 0.00044880687781154871 -0.0040720552433623309 0 0.00047703748302469645 -0.0040263096868745265 0 0.00050831889646092969 -0.0040683160645166591 0 0.00047703748302469645 -0.0040263096868745265 0 0.00050831889646092969 -0.0040683160645166591 0 0.00053146693621312826 -0.0039944735042720938 0 0.00046590288505335171 -0.0041201483176727741 0 0.00044880687781154871 -0.0040720552433623309 0 0.00050831889646092969 -0.0040683160645166591 0 0.0005172475742410567 -0.004116564762478043 0 0.00046590288505335171 -0.0041201483176727741 0 0.00050831889646092969 -0.0040683160645166591 0 0.00050831889646092969 -0.0040683160645166591 0 0.00057268433973592663 -0.0040924630576342422 0 0.00057346107520248881 -0.0040297312279707993 0 0.0005172475742410567 -0.004116564762478043 0 0.00050831889646092969 -0.0040683160645166591 0 0.00057268433973592663 -0.0040924630576342422 0 0.00059996637403875749 -0.0039729181773566101 0 0.00057346107520248881 -0.0040297312279707993 0 0.00053146693621312826 -0.0039944735042720938 0 0.00050831889646092969 -0.0040683160645166591 0 0.00057346107520248881 -0.0040297312279707993 0 0.00053146693621312826 -0.0039944735042720938 0 0.00059996637403875749 -0.0039729181773566101 0 0.00053146693621312826 -0.0039944735042720938 0 0.00055651820617480085 -0.00390155871471796 0 0.00055651820617480085 -0.00390155871471796 0 0.00047692125276352555 -0.0039026467838150889 0 0.00047764806973164456 -0.0039687482112041777 0 0.00053146693621312826 -0.0039944735042720938 0 0.00055651820617480085 -0.00390155871471796 0 0.00047764806973164456 -0.0039687482112041777 0 0.00047703748302469645 -0.0040263096868745265 0 0.00053146693621312826 -0.0039944735042720938 0 0.00047764806973164456 -0.0039687482112041777 0 0.00042492628684370548 -0.0040229441519385829 0 0.00047764806973164456 -0.0039687482112041777 0 0.0004129563489046315 -0.0039571068850414179 0 0.00042492628684370548 -0.0040229441519385829 0 0.00047703748302469645 -0.0040263096868745265 0 0.00047764806973164456 -0.0039687482112041777 0 0.00047692125276352555 -0.0039026467838150889 0 0.00047764806973164456 -0.0039687482112041777 0 0.0004129563489046315 -0.0039571068850414179 0 0.00047692125276352555 -0.0039026467838150889 0 0.0004129563489046315 -0.0039571068850414179 0 0.00042823294945629892 -0.0038571894866530477 0 0.0004129563489046315 -0.0039571068850414179 0 0.00037285686108388488 -0.0039115307875029039 0 0.00042823294945629892 -0.0038571894866530477 0 0.00034200584047011298 -0.003976299907647334 0 0.0004129563489046315 -0.0039571068850414179 0 0.00037285686108388488 -0.0039115307875029039 0 0.00034200584047011298 -0.003976299907647334 0 0.00037211763654821414 -0.0040343775461123728 0 0.0004129563489046315 -0.0039571068850414179 0 0.00037211763654821414 -0.0040343775461123728 0 0.00042492628684370548 -0.0040229441519385829 0 0.0004129563489046315 -0.0039571068850414179 0 0.00036483870427833409 -0.0038333523156277123 0 0.0004384861671560649 -0.0037771086875864322 0 0.00035894321327161279 -0.0037580509256741113 0 0.00037285686108388488 -0.0039115307875029039 0 0.00036483870427833409 -0.0038333523156277123 0 0.00042823294945629892 -0.0038571894866530477 0 0.00031142173998055609 -0.0038978961233392868 0 0.00037285686108388488 -0.0039115307875029039 0 0.00036483870427833409 -0.0038333523156277123 0 0.00047692125276352555 -0.0039026467838150889 0 0.00042823294945629892 -0.0038571894866530477 0 0.0004964474298497681 -0.0038275366334533018 0 0.00042823294945629892 -0.0038571894866530477 0 0.0004384861671560649 -0.0037771086875864322 0 0.0004964474298497681 -0.0038275366334533018 0 0.00036483870427833409 -0.0038333523156277123 0 0.00042823294945629892 -0.0038571894866530477 0 0.0004384861671560649 -0.0037771086875864322 0 0.0004384861671560649 -0.0037771086875864322 0 0.0004964474298497681 -0.0038275366334533018 0 0.00051090049608039443 -0.0037260256497273349 0 0.0004964474298497681 -0.0038275366334533018 0 0.00056973489089377034 -0.0037937569643289037 0 0.00051090049608039443 -0.0037260256497273349 0 0.00055651820617480085 -0.00390155871471796 0 0.00047692125276352555 -0.0039026467838150889 0 0.0004964474298497681 -0.0038275366334533018 0 0.00055651820617480085 -0.00390155871471796 0 0.00056973489089377034 -0.0037937569643289037 0 0.00063403553907085308 -0.0038330935959827732 0 0.00055651820617480085 -0.00390155871471796 0 0.0004964474298497681 -0.0038275366334533018 0 0.00056973489089377034 -0.0037937569643289037 0 0.00058511644977633846 -0.0037192771030703413 0 0.00056424105666970533 -0.0036507920157775276 0 0.00051090049608039443 -0.0037260256497273349 0 0.00056973489089377034 -0.0037937569643289037 0 0.00058511644977633846 -0.0037192771030703413 0 0.00051090049608039443 -0.0037260256497273349 0 0.00048929821948939789 -0.0033706490341864162 0 0.00035948717829292531 -0.0033425502745934301 0 0.00056424105666970533 -0.0036507920157775276 0 0.00051090049608039443 -0.0037260256497273349 0 0.00047871272997112793 -0.0036238884484259761 0 0.00051090049608039443 -0.0037260256497273349 0 0.00042057930692122495 -0.0036933672932110708 0 0.00047871272997112793 -0.0036238884484259761 0 0.0004384861671560649 -0.0037771086875864322 0 0.00051090049608039443 -0.0037260256497273349 0 0.00042057930692122495 -0.0036933672932110708 0 0.00042057930692122495 -0.0036933672932110708 0 0.00039033695844259598 -0.0035935049731887288 0 0.00047871272997112793 -0.0036238884484259761 0 0.00048302360187710936 -0.0037805647200260897 0 0.00038614876981434389 -0.0033129453767358611 0 0.00033775801447301357 -0.0036825624678673385 0 0.00042057930692122495 -0.0036933672932110708 0 0.00039033695844259598 -0.0035935049731887288 0 0.0005816185765216838 -0.0038466092867393943 0 0.00053622991943891123 -0.0035158361496559912 0 0.0008826797291160369 -0.0033739164734704909 0 0.00033775801447301357 -0.0036825624678673385 0 0.00042057930692122495 -0.0036933672932110708 0 0.00035894321327161279 -0.0037580509256741113 0 0.0004384861671560649 -0.0037771086875864322 0 0.00042057930692122495 -0.0036933672932110708 0 0.00035894321327161279 -0.0037580509256741113 0 0.00060071240950583429 -0.001817043143545239 0 0.00063561154258809718 -0.0017844391397557095 0 0.00063041774701774733 -0.0018852315892381208 0 0.00066879573567691828 -0.0027953321808882096 0 0.00071572950864797185 -0.0027857546857897263 0 0.00060071240950583429 -0.001817043143545239 0 0.00055489886966858136 -0.0018292138964479156 0 0.00057741045982822453 -0.0018531441835250081 0 0.00055489886966858136 -0.0018292138964479156 0 0.00054850290628164898 -0.0017890934114765944 0 0.00057287368554161013 -0.0017917349334872807 0 0.00060071240950583429 -0.001817043143545239 0 0.00055489886966858136 -0.0018292138964479156 0 0.00057287368554161013 -0.0017917349334872807 0 0.00057287368554161013 -0.0017917349334872807 0 0.00056192045802517696 -0.0017650621810558105 0 0.00059314406886350885 -0.0017481345720288359 0 0.00060071240950583429 -0.001817043143545239 0 0.00057287368554161013 -0.0017917349334872807 0 0.00059314406886350885 -0.0017481345720288359 0 0.00054850290628164898 -0.0017890934114765944 0 0.00057287368554161013 -0.0017917349334872807 0 0.00056192045802517696 -0.0017650621810558105 0 0.00053957103876568378 -0.0017628342659103634 0 0.00054850290628164898 -0.0017890934114765944 0 0.00056192045802517696 -0.0017650621810558105 0 0.00053957103876568378 -0.0017628342659103634 0 0.00056192045802517696 -0.0017650621810558105 0 0.00055746210369660295 -0.0017359010460044214 0 0.00056192045802517696 -0.0017650621810558105 0 0.00055746210369660295 -0.0017359010460044214 0 0.00059314406886350885 -0.0017481345720288359 0 0.00060071240950583429 -0.001817043143545239 0 0.00059314406886350885 -0.0017481345720288359 0 0.00063561154258809718 -0.0017844391397557095 0 0.00062300367870323327 -0.0017092193715265668 0 0.00059314406886350885 -0.0017481345720288359 0 0.00063561154258809718 -0.0017844391397557095 0 0.00068558875491178109 -0.0039132100755290382 0 0.00071249779964744882 -0.0038032266779178354 0 0.00063403553907085308 -0.0038330935959827732 0 0.00065366717571052981 -0.0028170109546129096 0 0.00066879573567691828 -0.0027953321808882096 0 0.00056973489089377034 -0.0037937569643289037 0 0.00058511644977633846 -0.0037192771030703413 0 0.00064563579865294996 -0.0037527087599004143 0 0.00056973489089377034 -0.0037937569643289037 0 0.00063403553907085308 -0.0038330935959827732 0 0.00064563579865294996 -0.0037527087599004143 0 0.00071249779964744882 -0.0038032266779178354 0 0.00063403553907085308 -0.0038330935959827732 0 0.00064563579865294996 -0.0037527087599004143 0 0.00071249779964744882 -0.0038032266779178354 0 0.00064563579865294996 -0.0037527087599004143 0 0.00073482810870514621 -0.0036929417750534137 0 0.0006257536113452555 -0.0034693685168852915 0 0.00071572950864797185 -0.0027857546857897263 0 0.00064563579865294996 -0.0037527087599004143 0 0.00064874790631507646 -0.0036732977715031589 0 0.00073482810870514621 -0.0036929417750534137 0 0.00058511644977633846 -0.0037192771030703413 0 0.00064563579865294996 -0.0037527087599004143 0 0.00064874790631507646 -0.0036732977715031589 0 0.00048929821948939789 -0.0033706490341864162 0 0.0006257536113452555 -0.0034693685168852915 0 0.00042018571352927094 -0.0031029266894431516 0 0.00055614019370523349 -0.0031379788034012666 0 0.00048806839912310688 -0.0030238495762429022 0 0.00058511644977633846 -0.0037192771030703413 0 0.00056424105666970533 -0.0036507920157775276 0 0.00064874790631507646 -0.0036732977715031589 0 0.00055614019370523349 -0.0031379788034012666 0 0.00061026639638954688 -0.0030449582865253594 0 0.00048806839912310688 -0.0030238495762429022 0 0.00055614019370523349 -0.0031379788034012666 0 0.00061026639638954688 -0.0030449582865253594 0 0.00069713390898910345 -0.0031793910721936696 0 0.00071572950864797185 -0.0027857546857897263 0 0.0005678032307168835 -0.0020738185796556861 0 0.00069713390898910345 -0.0031793910721936696 0 0.0007388214709933155 -0.0029792032250377698 0 0.00072166204905670995 -0.0029875284111162167 0 0.00061026639638954688 -0.0030449582865253594 0 0.00069713390898910345 -0.0031793910721936696 0 0.00072166204905670995 -0.0029875284111162167 0 0.00063616808152891014 -0.0018873661239916192 0 0.00054899956029498271 -0.001896614870625542 0 0.0006107119895647549 -0.0020136928014154575 0 0.00060071240950583429 -0.001817043143545239 0 0.00063041774701774733 -0.0018852315892381208 0 0.00060164659675383749 -0.0018735136094001148 0 0.00063616808152891014 -0.0018873661239916192 0 0.00060164659675383749 -0.0018735136094001148 0 0.00054899956029498271 -0.001896614870625542 0 0.00071572950864797185 -0.0027857546857897263 0 0.00048331119288907515 -0.0022855020383647593 0 0.00060071240950583429 -0.001817043143545239 0 0.00060164659675383749 -0.0018735136094001148 0 0.00057741045982822453 -0.0018531441835250081 0 0.00055489886966858136 -0.0018292138964479156 0 0.00057741045982822453 -0.0018531441835250081 0 0.00054899956029498271 -0.001896614870625542 0 0.00060164659675383749 -0.0018735136094001148 0 0.00057741045982822453 -0.0018531441835250081 0 0.00054899956029498271 -0.001896614870625542 0 0.00043228579899747839 -0.001257215848852633 0 0.00042842574348072405 -0.0012432192309392959 0 0.00044500693080977568 -0.0012336979044053746 0 0.00046598911044412871 -0.0014809848325266417 0 0.0005678032307168835 -0.0020738185796556861 0 0.00042888092494578828 -0.001242222775525237 0 0.00042842574348072405 -0.0012432192309392959 0 0.00044500693080977568 -0.0012336979044053746 0 0.00059346824194283479 -0.0018720944795925548 0 0.00049855412012130831 -0.00091705073274204725 0 0.00065797622394201955 -0.00092068173609768098 0 0.00074135704495880317 -0.00086626848979987818 0 0.00058942819744032388 -0.00081583145183434873 0 0.00065797622394201955 -0.00092068173609768098 0 0.00074135704495880317 -0.00086626848979987818 0 0.00071085485794045362 -0.0010156030146706496 0 0.00065797622394201955 -0.00092068173609768098 0 0.00071085485794045362 -0.0010156030146706496 0 0.00055952407809265641 -0.00094136539724924001 0 0.00059346824194283479 -0.0018720944795925548 0 0.00073225238012760558 -0.0016918971404121627 0 0.00071786316754060423 -0.0029550801180348103 0 0.00074269693091195629 -0.0029595292597557649 0 0.00077745251723663306 -0.0027910766668098898 0 0.0006691623992180029 -0.0028471151487646828 0 0.00071786316754060423 -0.0029550801180348103 0 0.00077745251723663306 -0.0027910766668098898 0 0.00071786316754060423 -0.0029550801180348103 0 0.00072166204905670995 -0.0029875284111162167 0 0.00057220229567415265 -0.0029264619084876696 0 0.00071786316754060423 -0.0029550801180348103 0 0.00072739457116453648 -0.0029584035171975522 0 0.00072166204905670995 -0.0029875284111162167 0 0.00073064403576709308 -0.0020615751649136357 0 0.00059346824194283479 -0.0018720944795925548 0 0.00071786316754060423 -0.0029550801180348103 0 0.00072739457116453648 -0.0029584035171975522 0 0.00073715478231322826 -0.0029580813741661629 0 0.00067498892941042098 -0.0023193757889385376 0 0.0005678032307168835 -0.0020738185796556861 0 0.00072739457116453648 -0.0029584035171975522 0 0.0007388214709933155 -0.0029792032250377698 0 0.00072166204905670995 -0.0029875284111162167 0 0.00072739457116453648 -0.0029584035171975522 0 0.00073715478231322826 -0.0029580813741661629 0 0.00073401422560387028 -0.0029656621637197999 0 0.00059346824194283479 -0.0018720944795925548 0 0.0005678032307168835 -0.0020738185796556861 0 0.00071368593136818454 -0.0029864122319671498 0 0.0005689361157380252 -0.0029390658199704408 0 0.00061026639638954688 -0.0030449582865253594 0 0.00072166204905670995 -0.0029875284111162167 0 0.00055958410024371525 -0.0029492978680605081 0 0.00061026639638954688 -0.0030449582865253594 0 0.00048806839912310688 -0.0030238495762429022 0 0.00055958410024371525 -0.0029492978680605081 0 0.0005689361157380252 -0.0029390658199704408 0 0.00040645421671482523 -0.0028915733142214381 0 0.00048806839912310688 -0.0030238495762429022 0 0.00055958410024371525 -0.0029492978680605081 0 0.00040643070512861993 -0.0029032710877911578 0 0.00057220229567415265 -0.0029264619084876696 0 0.00052233828026118656 -0.0028068550323586188 0 0.00041393665966718194 -0.0028810069834756414 0 0.0006691623992180029 -0.0028471151487646828 0 0.00057220229567415265 -0.0029264619084876696 0 0.00052233828026118656 -0.0028068550323586188 0 0.0006691623992180029 -0.0028471151487646828 0 0.00071786316754060423 -0.0029550801180348103 0 0.00057220229567415265 -0.0029264619084876696 0 0.0006691623992180029 -0.0028471151487646828 0 0.00062516178545968075 -0.0027420838693348877 0 0.00052233828026118656 -0.0028068550323586188 0 0.00062516178545968075 -0.0027420838693348877 0 0.00052233828026118656 -0.0028068550323586188 0 0.00047444425965775274 -0.0026769541062865838 0 0.00060711567621074016 -0.0026145898614182528 0 0.00045660425959285122 -0.0025861864102994783 0 0.00052865723629813609 -0.0024855384639634382 0 0.00065813966491832035 -0.0028196698447782715 0 0.00044491114808967858 -0.0026086963781878402 0 0.00060711567621074016 -0.0026145898614182528 0 0.00062514740998528991 -0.0024784835010732715 0 0.00052865723629813609 -0.0024855384639634382 0 0.00060711567621074016 -0.0026145898614182528 0 0.00077616619640786123 -0.0025324404375994367 0 0.00074828484684736349 -0.002652530605655558 0 0.00060711567621074016 -0.0026145898614182528 0 0.00077616619640786123 -0.0025324404375994367 0 0.00062514740998528991 -0.0024784835010732715 0 0.00078296399220991819 -0.0014670491218448463 0 0.00073225238012760558 -0.0016918971404121627 0 0.00077262658098588863 -0.00049707504245110029 0 0.00081336923590793727 -0.00030573612740816646 0 0.00062629015201075473 -0.00037188102607328352 0 0.00065813966491832035 -0.0028196698447782715 0 0.00073225238012760558 -0.0016918971404121627 0 0.0006691623992180029 -0.0028471151487646828 0 0.00062516178545968075 -0.0027420838693348877 0 0.00077745251723663306 -0.0027910766668098898 0 7.9452034300994849e-05 -0.0029599897165088814 0 0.00012409757576011674 -0.0029873314707875333 0 0.00013416005683917755 -0.0028812600860459595 0 0.00012409757576011674 -0.0029873314707875333 0 0.00018675450297043447 -0.0029410869387455989 0 0.00013416005683917755 -0.0028812600860459595 0 0.00012409757576011674 -0.0029873314707875333 0 0.00016457269532343117 -0.0030142645768187603 0 0.00018675450297043447 -0.0029410869387455989 0 8.8904837094141645e-05 -0.0030211642184081807 0 0.00012409757576011674 -0.0029873314707875333 0 0.00015503667472047261 -0.0030291762991897825 0 0.00049904953848313493 -0.0032441989737331408 0 0.00053622991943891123 -0.0035158361496559912 0 0.0008826797291160369 -0.0033739164734704909 0 0.00030271268446905111 -0.0031379724913293905 0 0.00038614876981434389 -0.0033129453767358611 0 0.00012409757576011674 -0.0029873314707875333 0 0.00015503667472047261 -0.0030291762991897825 0 0.00016457269532343117 -0.0030142645768187603 0 0.00038614876981434389 -0.0033129453767358611 0 0.00037546011664261304 -0.0032401796110457272 0 0.00038614876981434389 -0.0033129453767358611 0 0.00035948717829292531 -0.0033425502745934301 0 0.00016457269532343117 -0.0030142645768187603 0 0.00027066865000325798 -0.0029652838764303406 0 0.00028307254263609414 -0.0030684608938456575 0 0.00015299539708175808 -0.0030338845759063839 0 0.00016457269532343117 -0.0030142645768187603 0 0.00028307254263609414 -0.0030684608938456575 0 0.00016457269532343117 -0.0030142645768187603 0 0.00018675450297043447 -0.0029410869387455989 0 0.00027066865000325798 -0.0029652838764303406 0 0.00018675450297043447 -0.0029410869387455989 0 0.00027066865000325798 -0.0029652838764303406 0 0.00024227223337077895 -0.002846717340554519 0 0.00027066865000325798 -0.0029652838764303406 0 0.00040643070512861993 -0.0029032710877911578 0 0.00024227223337077895 -0.002846717340554519 0 0.00027066865000325798 -0.0029652838764303406 0 0.00037481965708049318 -0.0030114623702904115 0 0.00040643070512861993 -0.0029032710877911578 0 0.00042018571352927094 -0.0031029266894431516 0 0.00028307254263609414 -0.0030684608938456575 0 0.00037481965708049318 -0.0030114623702904115 0 0.00027066865000325798 -0.0029652838764303406 0 0.00028307254263609414 -0.0030684608938456575 0 0.00037481965708049318 -0.0030114623702904115 0 0.00042018571352927094 -0.0031029266894431516 0 0.00048806839912310688 -0.0030238495762429022 0 0.00037481965708049318 -0.0030114623702904115 0 0.00048806839912310688 -0.0030238495762429022 0 0.00037481965708049318 -0.0030114623702904115 0 0.00040643070512861993 -0.0029032710877911578 0 0.00052233828026118656 -0.0028068550323586188 0 0.00041393665966718194 -0.0028810069834756414 0 0.00035548198102319963 -0.0027590056750786702 0 0.00052233828026118656 -0.0028068550323586188 0 0.00047444425965775274 -0.0026769541062865838 0 0.00035548198102319963 -0.0027590056750786702 0 0.00044491114808967858 -0.0026086963781878402 0 0.00029025492314510077 -0.0025804957002086011 0 0.00047444425965775274 -0.0026769541062865838 0 0.00035548198102319963 -0.0027590056750786702 0 0.00027523448006588593 -0.0025740020476945282 0 0.00035548198102319963 -0.0027590056750786702 0 0.00015858455840898089 -0.0027050484208634437 0 0.00027523448006588593 -0.0025740020476945282 0 0.00035548198102319963 -0.0027590056750786702 0 0.00024227223337077895 -0.002846717340554519 0 0.00015858455840898089 -0.0027050484208634437 0 0.00041393665966718194 -0.0028810069834756414 0 0.00035548198102319963 -0.0027590056750786702 0 0.00024227223337077895 -0.002846717340554519 0 0.00040645421671482523 -0.0028915733142214381 0 0.00025162144686727387 -0.0028465930991348051 0 0.00024227223337077895 -0.002846717340554519 0 0.00015858455840898089 -0.0027050484208634437 0 0.00013416005683917755 -0.0028812600860459595 0 0.00018675450297043447 -0.0029410869387455989 0 0.00024227223337077895 -0.002846717340554519 0 0.00013416005683917755 -0.0028812600860459595 0 6.0440582864329681e-05 -0.0028006750086369244 0 0.00015858455840898089 -0.0027050484208634437 0 5.492412885729934e-05 -0.0025838662373431969 0 6.0440582864329681e-05 -0.0028006750086369244 0 0.00015858455840898089 -0.0027050484208634437 0 0.00013416005683917755 -0.0028812600860459595 0 8.9138936195313719e-06 -0.0024943503502374577 0 4.695767352679358e-05 -0.0024305203043982634 0 7.0011773169052312e-06 -0.0024252860148129673 0 4.695767352679358e-05 -0.0024305203043982634 0 5.492412885729934e-05 -0.0025838662373431969 0 0.0001169864544482689 -0.0024704092063564855 0 8.9138936195313719e-06 -0.0024943503502374577 0 4.695767352679358e-05 -0.0024305203043982634 0 5.492412885729934e-05 -0.0025838662373431969 0 0.00015858455840898089 -0.0027050484208634437 0 0.0001169864544482689 -0.0024704092063564855 0 0.00027523448006588593 -0.0025740020476945282 0 0.00015858455840898089 -0.0027050484208634437 0 5.492412885729934e-05 -0.0025838662373431969 0 0.0001169864544482689 -0.0024704092063564855 0 4.695767352679358e-05 -0.0024305203043982634 0 0.0001169864544482689 -0.0024704092063564855 0 5.0312198049672855e-05 -0.0023262776393653539 0 0.00010513426423332221 -0.0024520981875831428 0 0.00018986950315858392 -0.002347157285426654 0 5.0312198049672855e-05 -0.0023262776393653539 0 2.8284994946233317e-05 -0.0022612485957164662 0 1.1368784250612898e-05 -0.0022011768656037215 0 0.0001169864544482689 -0.0024704092063564855 0 5.0312198049672855e-05 -0.0023262776393653539 0 2.8284994946233317e-05 -0.0022612485957164662 0 0.0001169864544482689 -0.0024704092063564855 0 0.00027523448006588593 -0.0025740020476945282 0 0.00036737766914694803 -0.0024158976979959789 0 0.00045660425959285122 -0.0025861864102994783 0 0.00036737766914694803 -0.0024158976979959789 0 0.00052865723629813609 -0.0024855384639634382 0 0.00045660425959285122 -0.0025861864102994783 0 0.00027523448006588593 -0.0025740020476945282 0 0.00036737766914694803 -0.0024158976979959789 0 2.8284994946233317e-05 -0.0022612485957164662 0 4.292225815518992e-05 -0.0021337585521637985 0 9.3449687329922262e-06 -0.0020611238177018591 0 0.00018986950315858392 -0.002347157285426654 0 0.00027628729072116292 -0.0022484139876058754 0 2.8284994946233317e-05 -0.0022612485957164662 0 1.1368784250612898e-05 -0.0022011768656037215 0 9.3449687329922262e-06 -0.0020611238177018591 0 -1.477838265026357e-07 -0.001934646691839931 0 1.1368784250612898e-05 -0.0022011768656037215 0 9.3449687329922262e-06 -0.0020611238177018591 0 -1.477838265026357e-07 -0.001934646691839931 0 1.1368784250612898e-05 -0.0022011768656037215 0 5.6548337906277141e-08 -0.0022010093477094618 0 5.0312198049672855e-05 -0.0023262776393653539 0 1.1368784250612898e-05 -0.0022011768656037215 0 9.368088237735021e-06 -0.0023307657087607157 0 4.695767352679358e-05 -0.0024305203043982634 0 5.0312198049672855e-05 -0.0023262776393653539 0 9.368088237735021e-06 -0.0023307657087607157 0 1.1368784250612898e-05 -0.0022011768656037215 0 9.368088237735021e-06 -0.0023307657087607157 0 5.6548337906277141e-08 -0.0022010093477094618 0 9.368088237735021e-06 -0.0023307657087607157 0 5.6548337906277141e-08 -0.0022010093477094618 0 -1.0812067758829878e-07 -0.0024673532455519341 0 9.368088237735021e-06 -0.0023307657087607157 0 -1.0812067758829878e-07 -0.0024673532455519341 0 7.0011773169052312e-06 -0.0024252860148129673 0 4.695767352679358e-05 -0.0024305203043982634 0 9.368088237735021e-06 -0.0023307657087607157 0 7.0011773169052312e-06 -0.0024252860148129673 0 0.00069181863706611532 -0.0024022246737136809 0 0.00075907934363405704 -0.0023241572319073326 0 0.000663328478736205 -0.0023078563777503519 0 0.00078692826869145905 -0.0015771151824036202 0 0.00048123391941598737 -0.0014393075568637967 0 0.00069181863706611532 -0.0024022246737136809 0 0.00080511295461741124 -0.0024019406262788777 0 0.00075907934363405704 -0.0023241572319073326 0 0.00080511295461741124 -0.0024019406262788777 0 0.00075907934363405704 -0.0023241572319073326 0 0.000831560717649048 -0.0022657572918803599 0 0.00078296399220991819 -0.0014670491218448463 0 0.00078692826869145905 -0.0015771151824036202 0 0.00077616619640786123 -0.0025324404375994367 0 0.00069181863706611532 -0.0024022246737136809 0 0.00080511295461741124 -0.0024019406262788777 0 0.00077616619640786123 -0.0025324404375994367 0 0.00069181863706611532 -0.0024022246737136809 0 0.00062514740998528991 -0.0024784835010732715 0 0.00062514740998528991 -0.0024784835010732715 0 0.00052865723629813609 -0.0024855384639634382 0 0.00051916757925349636 -0.002361411722570159 0 0.00036737766914694803 -0.0024158976979959789 0 0.00052865723629813609 -0.0024855384639634382 0 0.00051916757925349636 -0.002361411722570159 0 0.00069181863706611532 -0.0024022246737136809 0 0.00062514740998528991 -0.0024784835010732715 0 0.00051916757925349636 -0.002361411722570159 0 0.00069181863706611532 -0.0024022246737136809 0 0.00051916757925349636 -0.002361411722570159 0 0.000663328478736205 -0.0023078563777503519 0 4.292225815518992e-05 -0.0021337585521637985 0 7.5534319469869327e-05 -0.0019762332291357121 0 0.0002540740600052097 -0.0020687518829631667 0 7.5534319469869327e-05 -0.0019762332291357121 0 0.00032486108175026559 -0.0018529683544828406 0 0.0002540740600052097 -0.0020687518829631667 0 0.00027628729072116292 -0.0022484139876058754 0 0.00049727866343189534 -0.002225374648292363 0 4.292225815518992e-05 -0.0021337585521637985 0 7.5534319469869327e-05 -0.0019762332291357121 0 9.3449687329922262e-06 -0.0020611238177018591 0 -1.477838265026357e-07 -0.001934646691839931 0 9.3449687329922262e-06 -0.0020611238177018591 0 4.9606281919218078e-07 -0.0016688214393195337 0 7.5534319469869327e-05 -0.0019762332291357121 0 9.3449687329922262e-06 -0.0020611238177018591 0 4.9606281919218078e-07 -0.0016688214393195337 0 1.0355631743128522e-07 -0.0015679816088563679 0 -9.2369402183080746e-08 -0.0016679072038123638 0 3.0165706636231427e-06 -0.0015263412474255343 0 5.0930432297540809e-08 -0.0016682733771705583 0 0.00012877297471508591 -0.0016865372700207706 0 7.5534319469869327e-05 -0.0019762332291357121 0 4.9606281919218078e-07 -0.0016688214393195337 0 0.00032486108175026559 -0.0018529683544828406 0 1.7856210340366729e-08 -0.0015675988539638314 0 9.5787850677657519e-07 -0.0013781958590190879 0 -1.8013514116660586e-08 -0.0013823868607413445 0 1.0355631743128522e-07 -0.0015679816088563679 0 3.0165706636231427e-06 -0.0015263412474255343 0 7.4993262810377712e-06 -0.0015242335924477912 0 -2.9605548644327896e-09 -0.0015675432805070631 0 -2.3738075930589861e-05 -0.0014551540386679321 0 0.00032486108175026559 -0.0018529683544828406 0 0.0002540740600052097 -0.0020687518829631667 0 0.00056275605906729639 -0.0019792780725240602 0 0.00049727866343189534 -0.002225374648292363 0 0.00046138993619413538 -0.0017466494626904685 0 0.00075907934363405704 -0.0023241572319073326 0 0.000663328478736205 -0.0023078563777503519 0 0.00080889316618336284 -0.0022544703741563758 0 0.00075907934363405704 -0.0023241572319073326 0 0.00080889316618336284 -0.0022544703741563758 0 0.000831560717649048 -0.0022657572918803599 0 2.8128129557446889e-05 -0.0015456401301291564 0 3.3096396096792386e-05 -0.0015446003736480725 0 2.4652888804642217e-05 -0.0015318044483158451 0 0.00046138993619413538 -0.0017466494626904685 0 0.00048123391941598737 -0.0014393075568637967 0 0.00046138993619413538 -0.0017466494626904685 0 0.0003633065536817332 -0.0017497051885544074 0 3.0330937913701903e-05 -0.0015459481121029689 0 3.3096396096792386e-05 -0.0015446003736480725 0 3.5081803605120143e-05 -0.0015489595177053915 0 3.0165706636231427e-06 -0.0015263412474255343 0 7.4993262810377712e-06 -0.0015242335924477912 0 2.4652888804642217e-05 -0.0015318044483158451 0 0.00012877297471508591 -0.0016865372700207706 0 0.00046138993619413538 -0.0017466494626904685 0 -1.8013514116660586e-08 -0.0013823868607413445 0 1.9197057952688411e-08 -0.00119752726647444 0 -1.4641732217458949e-06 -0.0012327691575547278 0 3.3096396096792386e-05 -0.0015446003736480725 0 2.4652888804642217e-05 -0.0015318044483158451 0 3.8374902765988553e-05 -0.0015230268512705168 0 -2.3738075930589861e-05 -0.0014551540386679321 0 0.00013968156688387394 -0.0012032958710038663 0 9.5787850677657519e-07 -0.0013781958590190879 0 -1.8013514116660586e-08 -0.0013823868607413445 0 -1.4641732217458949e-06 -0.0012327691575547278 0 7.4993262810377712e-06 -0.0015242335924477912 0 2.4652888804642217e-05 -0.0015318044483158451 0 3.8374902765988553e-05 -0.0015230268512705168 0 3.0165706636231427e-06 -0.0015263412474255343 0 2.8128129557446889e-05 -0.0015456401301291564 0 2.4652888804642217e-05 -0.0015318044483158451 0 1.2624553557312805e-07 -0.0011971154868567638 0 4.0343517443718637e-06 -0.001152300766674251 0 -1.2362085523487093e-07 -0.00097465212511005893 0 1.5838590433229843e-07 -0.0011973693502881572 0 0.00013968156688387394 -0.0012032958710038663 0 0.00013968156688387394 -0.0012032958710038663 0 0.00048123391941598737 -0.0014393075568637967 0 0.00040446702402701122 -0.0010357492917063512 0 0.00021245554161476726 -0.00099390775309967923 0 0.00032609368501391653 -0.00094613133836236082 0 0.00013968156688387394 -0.0012032958710038663 0 0.00010136829952663014 -0.00097182949393653784 0 4.0343517443718637e-06 -0.001152300766674251 0 -1.5564494081355224e-05 -0.00093666542012370985 0 -1.2362085523487093e-07 -0.00097465212511005893 0 0.00021245554161476726 -0.00099390775309967923 0 0.00032609368501391653 -0.00094613133836236082 0 0.00026466355597588897 -0.00082353646600631517 0 0.00043071417010788894 -0.00091783315210201052 0 0.00032609368501391653 -0.00094613133836236082 0 0.00026466355597588897 -0.00082353646600631517 0 0.0006918901438869924 -0.00089464684152285902 0 0.00062705029099944598 -0.00077159626273177562 0 0.00049363893219640201 -0.00077761855890248906 0 0.00048123391941598737 -0.0014393075568637967 0 0.00036942870951954309 -0.00073374379920353465 0 3.3096396096792386e-05 -0.0015446003736480725 0 3.8374902765988553e-05 -0.0015230268512705168 0 3.5081803605120143e-05 -0.0015489595177053915 0 0.00040446702402701122 -0.0010357492917063512 0 0.00043071417010788894 -0.00091783315210201052 0 0.00032609368501391653 -0.00094613133836236082 0 -2.3845419642917083e-10 -0.00075172909042479496 0 -1.1573350811587593e-05 -0.00066945262997212488 0 1.1398883149684498e-09 -0.00058260572726951711 0 -2.3845419642917083e-10 -0.00075172909042479496 0 -1.1573350811587593e-05 -0.00066945262997212488 0 5.874554187816929e-06 -0.00064589654660691508 0 2.5033909531014007e-09 -0.00075205033083291595 0 3.264218533880522e-05 -0.00077540186872969213 0 -1.1573350811587593e-05 -0.00066945262997212488 0 -8.9595159237009627e-06 -0.00065376420172407292 0 9.3861802689961446e-06 -0.00065702288229349504 0 -1.1573350811587593e-05 -0.00066945262997212488 0 5.874554187816929e-06 -0.00064589654660691508 0 -8.9595159237009627e-06 -0.00065376420172407292 0 -1.5564494081355224e-05 -0.00093666542012370985 0 -1.2362085523487093e-07 -0.00097465212511005893 0 1.2469482327853041e-07 -0.00075243198744777298 0 -1.5564494081355224e-05 -0.00093666542012370985 0 1.2469482327853041e-07 -0.00075243198744777298 0 3.5717356538041614e-05 -0.00085122476759376159 0 0.00010136829952663014 -0.00097182949393653784 0 3.264218533880522e-05 -0.00077540186872969213 0 0.00021245554161476726 -0.00099390775309967923 0 0.00010596959287652798 -0.00090218601907814154 0 1.9270408820477776e-05 -0.00095253622554579464 0 0.00021245554161476726 -0.00099390775309967923 0 0.00010596959287652798 -0.00090218601907814154 0 0.00026466355597588897 -0.00082353646600631517 0 0.00013185953231402742 -0.00047741343228426914 0 9.9687018590612187e-05 -0.00037047015634307956 0 8.2212719227895575e-05 -0.00044921147191149613 0 0.00010596959287652798 -0.00090218601907814154 0 1.9270408820477776e-05 -0.00095253622554579464 0 5.1004267084002208e-06 -0.00090362401766087136 0 3.879831859114506e-05 -0.00073331166697020221 0 3.4281578732996611e-05 -0.00085250354061949688 0 0.00010596959287652798 -0.00090218601907814154 0 5.1004267084002208e-06 -0.00090362401766087136 0 7.3613792426837434e-05 -0.00080527752817371708 0 9.9861583257884669e-05 -0.000476570770797681 0 0.00013185953231402742 -0.00047741343228426914 0 8.2212719227895575e-05 -0.00044921147191149613 0 9.9861583257884669e-05 -0.000476570770797681 0 0.00013185953231402742 -0.00047741343228426914 0 0.00010882082640340603 -0.00051144019171351631 0 9.9861583257884669e-05 -0.000476570770797681 0 0.00010882082640340603 -0.00051144019171351631 0 8.7943646861216916e-05 -0.00050724565610796161 0 3.879831859114506e-05 -0.00073331166697020221 0 5.3161939346657629e-05 -0.00065854479210313769 0 3.264218533880522e-05 -0.00077540186872969213 0 3.879831859114506e-05 -0.00073331166697020221 0 3.264218533880522e-05 -0.00077540186872969213 0 5.3161939346657629e-05 -0.00065854479210313769 0 2.9041914120637189e-05 -0.00071913327956918058 0 2.9206834723285821e-05 -0.00071978687640702143 0 2.9666038254467184e-05 -0.00071911523337023426 0 5.3161939346657629e-05 -0.00065854479210313769 0 6.0379306625810008e-05 -0.00064349564929645417 0 1.0378475940741165e-05 -0.00089432431984474796 0 -2.6127543988627862e-05 -0.00077097271216937727 0 7.3613792426837434e-05 -0.00080527752817371708 0 3.879831859114506e-05 -0.00073331166697020221 0 3.3622677653502144e-05 -0.00055734838268487645 0 -2.6127543988627862e-05 -0.00077097271216937727 0 2.0996575972289045e-05 -0.00073757605838669824 0 7.3613792426837434e-05 -0.00080527752817371708 0 2.0996575972289045e-05 -0.00073757605838669824 0 7.3613792426837434e-05 -0.00080527752817371708 0 9.8642595377348207e-05 -0.00073112785346638278 0 0.00020651862096569766 -0.00071631685074337499 0 0.00036942870951954309 -0.00073374379920353465 0 0.00010596959287652798 -0.00090218601907814154 0 7.3613792426837434e-05 -0.00080527752817371708 0 0.00026466355597588897 -0.00082353646600631517 0 7.3613792426837434e-05 -0.00080527752817371708 0 9.8642595377348207e-05 -0.00073112785346638278 0 0.00026466355597588897 -0.00082353646600631517 0 0.0003006749833043286 -0.00065950783055796012 0 0.00029842548096364695 -0.00050695553613809151 0 0.00053222659360620467 -0.0005374436911114288 0 -2.6127543988627862e-05 -0.00077097271216937727 0 2.0996575972289045e-05 -0.00073757605838669824 0 -6.2324589685283996e-05 -0.00064310462266691838 0 0.0003006749833043286 -0.00065950783055796012 0 0.00029842548096364695 -0.00050695553613809151 0 0.00010823422749591984 -0.00054217974055513897 0 2.0996575972289045e-05 -0.00073757605838669824 0 9.8642595377348207e-05 -0.00073112785346638278 0 -6.2324589685283996e-05 -0.00064310462266691838 0 0.00020651862096569766 -0.00071631685074337499 0 3.7396640465500193e-05 -0.00049592216915637336 0 0.00073375810705866558 -0.0006925843509699083 0 0.0006918901438869924 -0.00089464684152285902 0 0.00062705029099944598 -0.00077159626273177562 0 0.00073375810705866558 -0.0006925843509699083 0 0.00062705029099944598 -0.00077159626273177562 0 0.00053222659360620467 -0.0005374436911114288 0 0.00062705029099944598 -0.00077159626273177562 0 0.00049363893219640201 -0.00077761855890248906 0 0.00053222659360620467 -0.0005374436911114288 0 0.0003006749833043286 -0.00065950783055796012 0 0.00049363893219640201 -0.00077761855890248906 0 0.00053222659360620467 -0.0005374436911114288 0 0.00077262658098588863 -0.00049707504245110029 0 0.00073375810705866558 -0.0006925843509699083 0 0.00053222659360620467 -0.0005374436911114288 0 0.00077262658098588863 -0.00049707504245110029 0 0.00053222659360620467 -0.0005374436911114288 0 0.00062629015201075473 -0.00037188102607328352 0 0.00073225238012760558 -0.0016918971404121627 0 0.00054014828264927893 -0.0004192930290475744 0 0.00081336923590793727 -0.00030573612740816646 0 0.00062629015201075473 -0.00037188102607328352 0 0.00057464644989718174 -0.00019703622588854053 0 0.00062629015201075473 -0.00037188102607328352 0 0.00043992355885356563 -0.00026389131153864811 0 0.00057464644989718174 -0.00019703622588854053 0 0.00053222659360620467 -0.0005374436911114288 0 0.00043992355885356563 -0.00026389131153864811 0 0.00034127172126043352 -0.00037592166313705518 0 0.00053222659360620467 -0.0005374436911114288 0 0.00062629015201075473 -0.00037188102607328352 0 0.00043992355885356563 -0.00026389131153864811 0 0.00029842548096364695 -0.00050695553613809151 0 0.00053222659360620467 -0.0005374436911114288 0 0.00034127172126043352 -0.00037592166313705518 0 0.00029842548096364695 -0.00050695553613809151 0 0.00034127172126043352 -0.00037592166313705518 0 0.00020826375772507171 -0.00042359659251805121 0 0.00029842548096364695 -0.00050695553613809151 0 0.00020826375772507171 -0.00042359659251805121 0 0.00010823422749591984 -0.00054217974055513897 0 0.00034127172126043352 -0.00037592166313705518 0 0.00020826375772507171 -0.00042359659251805121 0 0.00018116702866325556 -0.00029102338492840199 0 0.00020826375772507171 -0.00042359659251805121 0 0.00018116702866325556 -0.00029102338492840199 0 7.4714550057164276e-05 -0.00039564347639841176 0 0.00018116702866325556 -0.00029102338492840199 0 0.00029328304975853939 -0.00023954773107551125 0 0.00018400085683778955 -0.00016871368957253047 0 0.00034127172126043352 -0.00037592166313705518 0 0.00018116702866325556 -0.00029102338492840199 0 0.00029328304975853939 -0.00023954773107551125 0 0.00043992355885356563 -0.00026389131153864811 0 0.00034127172126043352 -0.00037592166313705518 0 0.00029328304975853939 -0.00023954773107551125 0 0.00043992355885356563 -0.00026389131153864811 0 0.00029328304975853939 -0.00023954773107551125 0 0.00033200964953214804 -0.00010410708615754179 0 0.00029328304975853939 -0.00023954773107551125 0 0.00033200964953214804 -0.00010410708615754179 0 0.00018400085683778955 -0.00016871368957253047 0 0.00041779253680668271 -0.0008660556458026747 0 0.00036725332239587503 -0.00078797800000481944 0 0.00028793830821965824 -0.00079432892317520486 0 0.00039382584752322417 -0.00049698759116132156 0 0.00016397601441791809 -0.00051923268227998729 0 0.00033200964953214804 -0.00010410708615754179 0 0.00018400085683778955 -0.00016871368957253047 0 0.00013243384409818466 -5.4147982629441657e-05 0 0.00044544092596913835 -0.00076797770757915291 0 0.00041779253680668271 -0.0008660556458026747 0 0.00050336127468341503 -0.00084387799953940213 0 0.00044544092596913835 -0.00076797770757915291 0 0.00041779253680668271 -0.0008660556458026747 0 0.00036725332239587503 -0.00078797800000481944 0 0.00046973199451724577 -0.00099326132886535319 0 0.00049855412012130831 -0.00091705073274204725 0 0.00044544092596913835 -0.00076797770757915291 0 0.00050336127468341503 -0.00084387799953940213 0 0.00058942819744032388 -0.00081583145183434873 0 0.00050336127468341503 -0.00084387799953940213 0 0.00058942819744032388 -0.00081583145183434873 0 0.00055952407809265641 -0.00094136539724924001 0 0.00065797622394201955 -0.00092068173609768098 0 0.00058942819744032388 -0.00081583145183434873 0 0.00055952407809265641 -0.00094136539724924001 0 0.00041779253680668271 -0.0008660556458026747 0 0.00050336127468341503 -0.00084387799953940213 0 0.00055952407809265641 -0.00094136539724924001 0 0.00043992355885356563 -0.00026389131153864811 0 0.00033200964953214804 -0.00010410708615754179 0 0.00057464644989718174 -0.00019703622588854053 0 0.00039382584752322417 -0.00049698759116132156 0 0.00054014828264927893 -0.0004192930290475744 0 0.00070159191364734484 0.0016968475059661562 0 0.00079435983031424749 0.0017612620158425423 0 0.00074419104671170401 0.0015745217489093937 0 -1.5285760292329538e-05 -8.4448448932355661e-05 0 1.2901347520793713e-05 -0.00016409888933541854 0 -1.9902478373607793e-05 -0.00019270832453102332 0 0.00042618798791239974 0.00088896362864314881 0 0.0003559349779274489 0.00067962329132608074 0 0.00063592469459832672 0.0016230553708708876 0 0.00070159191364734484 0.0016968475059661562 0 0.00074419104671170401 0.0015745217489093937 0 0.00063592469459832672 0.0016230553708708876 0 0.00070159191364734484 0.0016968475059661562 0 0.00061556289775344043 0.0017161215800440524 0 0.00070159191364734484 0.0016968475059661562 0 0.00069207489583398652 0.0017940608827614936 0 0.00079435983031424749 0.0017612620158425423 0 0.00070159191364734484 0.0016968475059661562 0 0.00069207489583398652 0.0017940608827614936 0 0.00061556289775344043 0.0017161215800440524 0 0.00069207489583398652 0.0017940608827614936 0 0.00061556289775344043 0.0017161215800440524 0 0.00058454509961759315 0.0018028814880289765 0 0.00062578189751700847 0.0018811288281041093 0 0.00069207489583398652 0.0017940608827614936 0 0.00058454509961759315 0.0018028814880289765 0 0.00073358504715835429 0.0018683440423841748 0 0.00069207489583398652 0.0017940608827614936 0 0.00079435983031424749 0.0017612620158425423 0 0.00039787794673439329 0.00033594981324235046 0 0.00042618798791239974 0.00088896362864314881 0 6.8055890143435564e-06 -1.9845284051630914e-05 0 -1.5285760292329538e-05 -8.4448448932355661e-05 0 4.4851307675601971e-05 -8.300725854624744e-05 0 6.8055890143435564e-06 -1.9845284051630914e-05 0 4.4851307675601971e-05 -8.300725854624744e-05 0 0.00013243384409818466 -5.4147982629441657e-05 0 4.4851307675601971e-05 -8.300725854624744e-05 0 6.5713060033980743e-05 -0.00013614370185811153 0 2.6933688790099963e-05 -0.00011710452427061508 0 -1.5285760292329538e-05 -8.4448448932355661e-05 0 4.4851307675601971e-05 -8.300725854624744e-05 0 2.6933688790099963e-05 -0.00011710452427061508 0 4.4851307675601971e-05 -8.300725854624744e-05 0 0.00013243384409818466 -5.4147982629441657e-05 0 6.5713060033980743e-05 -0.00013614370185811153 0 0.00018400085683778955 -0.00016871368957253047 0 0.00013243384409818466 -5.4147982629441657e-05 0 6.5713060033980743e-05 -0.00013614370185811153 0 0.00018400085683778955 -0.00016871368957253047 0 6.5713060033980743e-05 -0.00013614370185811153 0 5.6593303752406879e-05 -0.00022610453330574565 0 -1.5285760292329538e-05 -8.4448448932355661e-05 0 2.6933688790099963e-05 -0.00011710452427061508 0 1.2901347520793713e-05 -0.00016409888933541854 0 6.5713060033980743e-05 -0.00013614370185811153 0 1.2901347520793713e-05 -0.00016409888933541854 0 5.6593303752406879e-05 -0.00022610453330574565 0 6.5713060033980743e-05 -0.00013614370185811153 0 2.6933688790099963e-05 -0.00011710452427061508 0 1.2901347520793713e-05 -0.00016409888933541854 0 1.2901347520793713e-05 -0.00016409888933541854 0 2.2560779842540808e-05 -0.00020350384400824809 0 -4.4333502912102242e-06 -0.00018722500860248457 0 1.2901347520793713e-05 -0.00016409888933541854 0 2.2560779842540808e-05 -0.00020350384400824809 0 5.6593303752406879e-05 -0.00022610453330574565 0 2.2560779842540808e-05 -0.00020350384400824809 0 5.6593303752406879e-05 -0.00022610453330574565 0 4.2204803118745184e-05 -0.00021385221190854467 0 0.00018116702866325556 -0.00029102338492840199 0 5.6593303752406879e-05 -0.00022610453330574565 0 7.4714550057164276e-05 -0.00039564347639841176 0 0.00018116702866325556 -0.00029102338492840199 0 0.00018400085683778955 -0.00016871368957253047 0 5.6593303752406879e-05 -0.00022610453330574565 0 5.6593303752406879e-05 -0.00022610453330574565 0 4.9820189172722979e-05 -0.00021075021217528713 0 4.2204803118745184e-05 -0.00021385221190854467 0 5.5031821626085583e-05 -0.00024260619948801565 0 5.9826069310981934e-05 -0.00029526575354183458 0 4.9820189172722979e-05 -0.00021075021217528713 0 4.1190383621197529e-05 -0.00022552562592470794 0 4.2204803118745184e-05 -0.00021385221190854467 0 4.1190383621197529e-05 -0.00022552562592470794 0 5.7918299962799849e-05 -0.00024368570479592737 0 3.6794964978155034e-05 -0.00025030997092141764 0 4.9820189172722979e-05 -0.00021075021217528713 0 4.1190383621197529e-05 -0.00022552562592470794 0 5.7918299962799849e-05 -0.00024368570479592737 0 4.9820189172722979e-05 -0.00021075021217528713 0 5.7918299962799849e-05 -0.00024368570479592737 0 7.4410350631208707e-05 -0.00027443889470293327 0 0.00020826375772507171 -0.00042359659251805121 0 7.4714550057164276e-05 -0.00039564347639841176 0 0.00010823422749591984 -0.00054217974055513897 0 5.9826069310981934e-05 -0.00029526575354183458 0 3.7396640465500193e-05 -0.00049592216915637336 0 2.7919215791697758e-05 -0.00021755869797641442 0 -1.1706043018644076e-06 -0.00018624438802784406 0 1.2110850523632583e-05 -0.00025090610237713532 0 2.2560779842540808e-05 -0.00020350384400824809 0 2.7919215791697758e-05 -0.00021755869797641442 0 -1.1706043018644076e-06 -0.00018624438802784406 0 2.2560779842540808e-05 -0.00020350384400824809 0 4.2204803118745184e-05 -0.00021385221190854467 0 2.7919215791697758e-05 -0.00021755869797641442 0 4.1190383621197529e-05 -0.00022552562592470794 0 4.2204803118745184e-05 -0.00021385221190854467 0 2.7919215791697758e-05 -0.00021755869797641442 0 4.1190383621197529e-05 -0.00022552562592470794 0 2.7919215791697758e-05 -0.00021755869797641442 0 3.6794964978155034e-05 -0.00025030997092141764 0 -1.1706043018644076e-06 -0.00018624438802784406 0 -2.2787003703075095e-06 -0.00014891315134410801 0 -6.3744191885501081e-06 -0.00020071748177171396 0 1.2901347520793713e-05 -0.00016409888933541854 0 -4.4333502912102242e-06 -0.00018722500860248457 0 -1.9902478373607793e-05 -0.00019270832453102332 0 -4.4333502912102242e-06 -0.00018722500860248457 0 -1.9902478373607793e-05 -0.00019270832453102332 0 -2.2787003703075095e-06 -0.00014891315134410801 0 2.2560779842540808e-05 -0.00020350384400824809 0 -1.1706043018644076e-06 -0.00018624438802784406 0 -4.4333502912102242e-06 -0.00018722500860248457 0 -1.1706043018644076e-06 -0.00018624438802784406 0 -4.4333502912102242e-06 -0.00018722500860248457 0 -2.2787003703075095e-06 -0.00014891315134410801 0 -1.9902478373607793e-05 -0.00019270832453102332 0 -2.2787003703075095e-06 -0.00014891315134410801 0 3.8215004710084806e-05 -9.2405560777587419e-05 0 0.00074419104671170401 0.0015745217489093937 0 0.00063605959915438899 0.0014933030889135944 0 0.00069191651146925659 0.001290254694345055 0 0.0003559349779274489 0.00067962329132608074 0 0.00036264816600251878 0.00059779162218626667 0 0.00063592469459832672 0.0016230553708708876 0 0.00074419104671170401 0.0015745217489093937 0 0.00063605959915438899 0.0014933030889135944 0 -2.2787003703075095e-06 -0.00014891315134410801 0 3.8215004710084806e-05 -9.2405560777587419e-05 0 -6.6178209991431703e-05 6.1178974359849439e-05 0 3.8215004710084806e-05 -9.2405560777587419e-05 0 -6.6178209991431703e-05 6.1178974359849439e-05 0 0.0001084142889631945 0.00010992053630238964 0 -1.187462496269718e-05 -0.00011543701655770135 0 -2.1275174885688446e-05 -0.00014070360676686115 0 -1.1706043018644076e-06 -0.00018624438802784406 0 -4.4710088642716597e-05 -0.00027903107734522913 0 1.2110850523632583e-05 -0.00025090610237713532 0 -4.4710088642716597e-05 -0.00027903107734522913 0 -8.4499435886944979e-06 -0.00030344064925584785 0 1.2110850523632583e-05 -0.00025090610237713532 0 -1.0189958666714242e-05 -0.00022984692501922422 0 -2.1275174885688446e-05 -0.00014070360676686115 0 -1.3699084136540584e-06 -0.0001697035731039508 0 -2.6683685262699724e-06 -0.00019192735007667809 0 8.6661269817396383e-07 -0.00017476323912361065 0 -2.1275174885688446e-05 -0.00014070360676686115 0 -5.2618785177586979e-06 -0.00028058164805393708 0 -4.4710088642716597e-05 -0.00027903107734522913 0 -8.4499435886944979e-06 -0.00030344064925584785 0 -1.3671327920663923e-05 -0.00035397398945554727 0 -8.4499435886944979e-06 -0.00030344064925584785 0 -2.4223708739922762e-06 -0.00033460196796038162 0 -1.3671327920663923e-05 -0.00035397398945554727 0 -6.6178209991431703e-05 6.1178974359849439e-05 0 3.396342076224466e-05 0.00015892657727330703 0 3.7768211789672166e-05 0.0002175104573278554 0 -6.6178209991431703e-05 6.1178974359849439e-05 0 3.396342076224466e-05 0.00015892657727330703 0 0.0001084142889631945 0.00010992053630238964 0 -2.1275174885688446e-05 -0.00014070360676686115 0 1.3229806218467357e-05 2.2775140950194639e-05 0 5.6085520717920167e-05 -0.00025284658408866392 0 6.140865452390829e-05 -0.00034016480432012597 0 3.3622677653502144e-05 -0.00055734838268487645 0 3.7396640465500193e-05 -0.00049592216915637336 0 5.7918299962799849e-05 -0.00024368570479592737 0 7.4410350631208707e-05 -0.00027443889470293327 0 5.8035853122268788e-05 -0.00039655146830203417 0 5.7918299962799849e-05 -0.00024368570479592737 0 4.2909883270343637e-05 -0.00027582128341784089 0 5.5737598994240532e-05 -0.00030312656946946358 0 5.7918299962799849e-05 -0.00024368570479592737 0 4.2909883270343637e-05 -0.00027582128341784089 0 3.6794964978155034e-05 -0.00025030997092141764 0 -8.4499435886944979e-06 -0.00030344064925584785 0 1.2110850523632583e-05 -0.00025090610237713532 0 2.4943436181640667e-05 -0.00028315604445126923 0 4.2909883270343637e-05 -0.00027582128341784089 0 3.6794964978155034e-05 -0.00025030997092141764 0 2.4943436181640667e-05 -0.00028315604445126923 0 3.6794964978155034e-05 -0.00025030997092141764 0 1.2110850523632583e-05 -0.00025090610237713532 0 2.4943436181640667e-05 -0.00028315604445126923 0 2.7919215791697758e-05 -0.00021755869797641442 0 3.6794964978155034e-05 -0.00025030997092141764 0 1.2110850523632583e-05 -0.00025090610237713532 0 -8.4499435886944979e-06 -0.00030344064925584785 0 1.4464752171625112e-05 -0.00031792301561507245 0 2.4943436181640667e-05 -0.00028315604445126923 0 -8.4499435886944979e-06 -0.00030344064925584785 0 1.4464752171625112e-05 -0.00031792301561507245 0 -2.4223708739922762e-06 -0.00033460196796038162 0 1.4464752171625112e-05 -0.00031792301561507245 0 3.5035170851373487e-05 -0.00029904747510973577 0 2.8822271707647561e-05 -0.00031999185430650715 0 1.4464752171625112e-05 -0.00031792301561507245 0 2.4943436181640667e-05 -0.00028315604445126923 0 3.5035170851373487e-05 -0.00029904747510973577 0 4.2909883270343637e-05 -0.00027582128341784089 0 2.4943436181640667e-05 -0.00028315604445126923 0 3.5035170851373487e-05 -0.00029904747510973577 0 9.9687018590612187e-05 -0.00037047015634307956 0 7.4410350631208707e-05 -0.00027443889470293327 0 5.8035853122268788e-05 -0.00039655146830203417 0 4.2909883270343637e-05 -0.00027582128341784089 0 3.5035170851373487e-05 -0.00029904747510973577 0 5.5737598994240532e-05 -0.00030312656946946358 0 3.5035170851373487e-05 -0.00029904747510973577 0 2.8822271707647561e-05 -0.00031999185430650715 0 5.5737598994240532e-05 -0.00030312656946946358 0 9.9687018590612187e-05 -0.00037047015634307956 0 5.8035853122268788e-05 -0.00039655146830203417 0 8.2212719227895575e-05 -0.00044921147191149613 0 6.140865452390829e-05 -0.00034016480432012597 0 3.5795082650260671e-05 -0.00053516495044358199 0 3.1849003731839788e-05 -0.00033943368270944186 0 2.5411749308015136e-05 -0.00037966473096106169 0 6.6963952108268937e-05 -0.00041089798455158215 0 8.7943646861216916e-05 -0.00050724565610796161 0 8.2212719227895575e-05 -0.00044921147191149613 0 6.3639174642896463e-05 -0.00057572255166773013 0 5.5737598994240532e-05 -0.00030312656946946358 0 3.1849003731839788e-05 -0.00033943368270944186 0 6.6963952108268937e-05 -0.00041089798455158215 0 5.8035853122268788e-05 -0.00039655146830203417 0 8.2212719227895575e-05 -0.00044921147191149613 0 6.3639174642896463e-05 -0.00057572255166773013 0 9.9861583257884669e-05 -0.000476570770797681 0 8.7943646861216916e-05 -0.00050724565610796161 0 8.2212719227895575e-05 -0.00044921147191149613 0 2.8822271707647561e-05 -0.00031999185430650715 0 5.5737598994240532e-05 -0.00030312656946946358 0 3.1849003731839788e-05 -0.00033943368270944186 0 3.1849003731839788e-05 -0.00033943368270944186 0 -7.7875874094651337e-07 -0.00036150816525200297 0 2.5411749308015136e-05 -0.00037966473096106169 0 -7.7875874094651337e-07 -0.00036150816525200297 0 9.2013671838299879e-06 -0.000337257920417588 0 -7.1442174253268227e-06 -0.00034769054495657043 0 3.1849003731839788e-05 -0.00033943368270944186 0 -7.7875874094651337e-07 -0.00036150816525200297 0 9.2013671838299879e-06 -0.000337257920417588 0 2.8822271707647561e-05 -0.00031999185430650715 0 3.1849003731839788e-05 -0.00033943368270944186 0 9.2013671838299879e-06 -0.000337257920417588 0 1.4464752171625112e-05 -0.00031792301561507245 0 2.8822271707647561e-05 -0.00031999185430650715 0 9.2013671838299879e-06 -0.000337257920417588 0 1.4464752171625112e-05 -0.00031792301561507245 0 9.2013671838299879e-06 -0.000337257920417588 0 -2.4223708739922762e-06 -0.00033460196796038162 0 9.2013671838299879e-06 -0.000337257920417588 0 -2.4223708739922762e-06 -0.00033460196796038162 0 -7.1442174253268227e-06 -0.00034769054495657043 0 -7.7875874094651337e-07 -0.00036150816525200297 0 -7.1442174253268227e-06 -0.00034769054495657043 0 -1.2397426293555238e-05 -0.00034162919908586431 0 1.1453387800142736e-07 -0.00052317831806411163 0 -3.1448618653714673e-07 -0.00029390819354708678 0 -7.5018352787873648e-08 -0.00027633006397382947 0 -8.6726687739783003e-06 -0.00038355988304938134 0 1.1453387800142736e-07 -0.00052317831806411163 0 -3.1448618653714673e-07 -0.00029390819354708678 0 -1.2397426293555238e-05 -0.00034162919908586431 0 -8.6726687739783003e-06 -0.00038355988304938134 0 -3.1448618653714673e-07 -0.00029390819354708678 0 -7.7875874094651337e-07 -0.00036150816525200297 0 -8.6726687739783003e-06 -0.00038355988304938134 0 9.4099075307697983e-06 -0.00040945842780916989 0 -7.7875874094651337e-07 -0.00036150816525200297 0 -1.2397426293555238e-05 -0.00034162919908586431 0 -8.6726687739783003e-06 -0.00038355988304938134 0 2.5411749308015136e-05 -0.00037966473096106169 0 9.4099075307697983e-06 -0.00040945842780916989 0 6.6963952108268937e-05 -0.00041089798455158215 0 -7.7875874094651337e-07 -0.00036150816525200297 0 2.5411749308015136e-05 -0.00037966473096106169 0 9.4099075307697983e-06 -0.00040945842780916989 0 -8.6726687739783003e-06 -0.00038355988304938134 0 9.4099075307697983e-06 -0.00040945842780916989 0 1.1453387800142736e-07 -0.00052317831806411163 0 9.4099075307697983e-06 -0.00040945842780916989 0 1.1453387800142736e-07 -0.00052317831806411163 0 6.6963952108268937e-05 -0.00041089798455158215 0 3.903569274504228e-08 -0.00058226426821550697 0 3.5795082650260671e-05 -0.00053516495044358199 0 -7.2457266697279205e-10 -0.00052364065762761515 0 8.3563380709353947e-10 -0.00058201300429313674 0 1.1720140102138016e-07 -0.00057771801666243452 0 3.3340608144252485e-08 -0.00052340679952700734 0 3.5795082650260671e-05 -0.00053516495044358199 0 -1.1573350811587593e-05 -0.00066945262997212488 0 1.1398883149684498e-09 -0.00058260572726951711 0 9.3861802689961446e-06 -0.00065702288229349504 0 5.3161939346657629e-05 -0.00065854479210313769 0 3.5795082650260671e-05 -0.00053516495044358199 0 0.00010899665188087947 -0.00051154400240946798 0 8.7943646861216916e-05 -0.00050724565610796161 0 6.3639174642896463e-05 -0.00057572255166773013 0 3.396342076224466e-05 0.00015892657727330703 0 3.7768211789672166e-05 0.0002175104573278554 0 4.7989142650685051e-05 0.00021402254061849484 0 -2.4223708739922762e-06 -0.00033460196796038162 0 -7.1442174253268227e-06 -0.00034769054495657043 0 -1.3671327920663923e-05 -0.00035397398945554727 0 -7.1442174253268227e-06 -0.00034769054495657043 0 -1.2397426293555238e-05 -0.00034162919908586431 0 -1.3671327920663923e-05 -0.00035397398945554727 0 -2.6683685262699724e-06 -0.00019192735007667809 0 8.6661269817396383e-07 -0.00017476323912361065 0 -1.5854601519014812e-05 -0.00019665678336351999 0 8.6661269817396383e-07 -0.00017476323912361065 0 -1.5854601519014812e-05 -0.00019665678336351999 0 -3.1448618653714673e-07 -0.00029390819354708678 0 -1.2397426293555238e-05 -0.00034162919908586431 0 -1.3671327920663923e-05 -0.00035397398945554727 0 -3.1448618653714673e-07 -0.00029390819354708678 0 -5.2618785177586979e-06 -0.00028058164805393708 0 -2.6796943675467322e-06 -0.00028134175459779029 0 -1.5854601519014812e-05 -0.00019665678336351999 0 -7.5018352787873648e-08 -0.00027633006397382947 0 5.7114696537519777e-08 -2.9763506701149042e-05 0 -1.5854601519014812e-05 -0.00019665678336351999 0 -3.1448618653714673e-07 -0.00029390819354708678 0 -7.5018352787873648e-08 -0.00027633006397382947 0 -2.6683685262699724e-06 -0.00019192735007667809 0 -1.5854601519014812e-05 -0.00019665678336351999 0 5.7114696537519777e-08 -2.9763506701149042e-05 0 3.7768211789672166e-05 0.0002175104573278554 0 2.5424268548890867e-07 -2.8793157379073529e-05 0 2.8834040358672949e-05 0.0001974558508799308 0 1.3229806218467357e-05 2.2775140950194639e-05 0 -2.491014917291228e-09 -2.9429016824823455e-05 0 2.5424268548890867e-07 -2.8793157379073529e-05 0 2.8834040358672949e-05 0.0001974558508799308 0 8.519085714977117e-08 0.00025046430912017547 0 0.00013111988196423739 0.0003309358559569444 0 0.00028120464475602761 0.00044913840257211824 0 2.8834040358672949e-05 0.0001974558508799308 0 4.7989142650685051e-05 0.00021402254061849484 0 0.00010367127214055219 0.00032855688661040562 0 4.7989142650685051e-05 0.00021402254061849484 0 0.00010367127214055219 0.00032855688661040562 0 0.0001084142889631945 0.00010992053630238964 0 3.7768211789672166e-05 0.0002175104573278554 0 2.8834040358672949e-05 0.0001974558508799308 0 4.7989142650685051e-05 0.00021402254061849484 0 0.00010367127214055219 0.00032855688661040562 0 -7.2042784656415477e-07 0.0005006137179699668 0 9.6310973485491224e-05 0.0007061842231498288 0 0.00010367127214055219 0.00032855688661040562 0 8.519085714977117e-08 0.00025046430912017547 0 -7.2042784656415477e-07 0.0005006137179699668 0 2.8834040358672949e-05 0.0001974558508799308 0 0.00010367127214055219 0.00032855688661040562 0 8.519085714977117e-08 0.00025046430912017547 0 8.519085714977117e-08 0.00025046430912017547 0 -7.5906939055621738e-08 0.00053052451609659557 0 -7.2042784656415477e-07 0.0005006137179699668 0 -7.5906939055621738e-08 0.00053052451609659557 0 -7.2042784656415477e-07 0.0005006137179699668 0 -5.2185000846711477e-05 0.00069780354526570725 0 -7.2042784656415477e-07 0.0005006137179699668 0 -4.3085753443670293e-05 0.00076217904377027536 0 -5.2185000846711477e-05 0.00069780354526570725 0 -7.2042784656415477e-07 0.0005006137179699668 0 -4.3085753443670293e-05 0.00076217904377027536 0 9.6310973485491224e-05 0.0007061842231498288 0 -4.3085753443670293e-05 0.00076217904377027536 0 2.5761022044864465e-05 0.0010015996839443861 0 9.6310973485491224e-05 0.0007061842231498288 0 -4.3085753443670293e-05 0.00076217904377027536 0 -7.5660333028241395e-05 0.00081479269653415896 0 -8.3278804125001271e-05 0.00089061708941429109 0 -4.3085753443670293e-05 0.00076217904377027536 0 -5.2185000846711477e-05 0.00069780354526570725 0 -7.5660333028241395e-05 0.00081479269653415896 0 -4.3085753443670293e-05 0.00076217904377027536 0 2.5761022044864465e-05 0.0010015996839443861 0 -8.3278804125001271e-05 0.00089061708941429109 0 0.00018817764565581317 0.0011906832321608625 0 4.572722320326903e-05 0.001159910617976086 0 2.5761022044864465e-05 0.0010015996839443861 0 0.00024847334074375453 0.0009290639229569145 0 0.00045684782987516655 0.0012249805780226539 0 2.5761022044864465e-05 0.0010015996839443861 0 0.00024847334074375453 0.0009290639229569145 0 9.6310973485491224e-05 0.0007061842231498288 0 0.00036264816600251878 0.00059779162218626667 0 0.00028120464475602761 0.00044913840257211824 0 0.00069191651146925659 0.001290254694345055 0 0.00047963234398161432 0.00078159898132221109 0 0.00045684782987516655 0.0012249805780226539 0 0.00024847334074375453 0.0009290639229569145 0 0.00047963234398161432 0.00078159898132221109 0 0.00045684782987516655 0.0012249805780226539 0 3.396342076224466e-05 0.00015892657727330703 0 4.7989142650685051e-05 0.00021402254061849484 0 0.0001084142889631945 0.00010992053630238964 0 0.00010367127214055219 0.00032855688661040562 0 0.00047963234398161432 0.00078159898132221109 0 9.6310973485491224e-05 0.0007061842231498288 0 0.00024847334074375453 0.0009290639229569145 0 0.00047963234398161432 0.00078159898132221109 0 9.6310973485491224e-05 0.0007061842231498288 0 -3.1119155399250405e-05 0.00097888324599999669 0 -1.310568661235292e-05 0.00096115119818083691 0 -2.8291307061896155e-06 0.0010029569566912986 0 -1.310568661235292e-05 0.00096115119818083691 0 5.1078989379953185e-06 0.00096488269255875906 0 -2.8291307061896155e-06 0.0010029569566912986 0 -3.1119155399250405e-05 0.00097888324599999669 0 -1.805155514828697e-05 0.0011134563328696527 0 -2.8291307061896155e-06 0.0010029569566912986 0 -3.1119155399250405e-05 0.00097888324599999669 0 -1.805155514828697e-05 0.0011134563328696527 0 -1.7137865849842435e-07 0.001090268665686536 0 -1.805155514828697e-05 0.0011134563328696527 0 -1.7137865849842435e-07 0.001090268665686536 0 2.9656879234445397e-07 0.0013696728025134196 0 -3.961798281498777e-05 0.00092579773294516107 0 -1.7137865849842435e-07 0.001090268665686536 0 -8.0055833714962368e-08 0.00081030375281018665 0 -3.1119155399250405e-05 0.00097888324599999669 0 -3.961798281498777e-05 0.00092579773294516107 0 -1.7137865849842435e-07 0.001090268665686536 0 -3.1119155399250405e-05 0.00097888324599999669 0 -3.961798281498777e-05 0.00092579773294516107 0 -5.0029905649268854e-05 0.00090377817915848063 0 -3.961798281498777e-05 0.00092579773294516107 0 -6.5226647327785954e-05 0.00084929438173185631 0 -5.0029905649268854e-05 0.00090377817915848063 0 -3.961798281498777e-05 0.00092579773294516107 0 -6.5226647327785954e-05 0.00084929438173185631 0 -8.0055833714962368e-08 0.00081030375281018665 0 -7.5906939055621738e-08 0.00053052451609659557 0 -8.0055833714962368e-08 0.00081030375281018665 0 -5.2185000846711477e-05 0.00069780354526570725 0 -6.5226647327785954e-05 0.00084929438173185631 0 -5.2185000846711477e-05 0.00069780354526570725 0 -7.5660333028241395e-05 0.00081479269653415896 0 -6.5226647327785954e-05 0.00084929438173185631 0 -8.0055833714962368e-08 0.00081030375281018665 0 -5.2185000846711477e-05 0.00069780354526570725 0 4.572722320326903e-05 0.001159910617976086 0 -4.0512175874603504e-05 0.0011604936482789738 0 -7.5660333028241395e-05 0.00081479269653415896 0 -8.3278804125001271e-05 0.00089061708941429109 0 -7.8711773264974187e-05 0.00087733937893748727 0 -6.5226647327785954e-05 0.00084929438173185631 0 -7.5660333028241395e-05 0.00081479269653415896 0 -7.8711773264974187e-05 0.00087733937893748727 0 -6.5226647327785954e-05 0.00084929438173185631 0 -7.8711773264974187e-05 0.00087733937893748727 0 -5.0029905649268854e-05 0.00090377817915848063 0 -7.8711773264974187e-05 0.00087733937893748727 0 -5.0029905649268854e-05 0.00090377817915848063 0 -2.775696515698377e-05 0.00092658113296947993 0 -3.1119155399250405e-05 0.00097888324599999669 0 -5.0029905649268854e-05 0.00090377817915848063 0 -2.775696515698377e-05 0.00092658113296947993 0 -4.0512175874603504e-05 0.0011604936482789738 0 -6.2240366726447306e-05 0.0011247204734536483 0 -7.8711773264974187e-05 0.00087733937893748727 0 -4.0025236448024943e-06 0.00092953906069918857 0 4.4602103225596771e-06 0.00090301909187470036 0 -7.8711773264974187e-05 0.00087733937893748727 0 -2.775696515698377e-05 0.00092658113296947993 0 -4.0025236448024943e-06 0.00092953906069918857 0 -3.730128611658202e-06 0.00094360954925850617 0 -6.2240366726447306e-05 0.0011247204734536483 0 0.00014606370423444966 0.0010062522595437342 0 2.2782357399053325e-05 0.0010033201414380113 0 -5.1302964827310822e-06 0.0011756950258887181 0 1.9524283806089369e-05 0.00097524190199069596 0 2.2782357399053325e-05 0.0010033201414380113 0 1.0765415995230872e-05 0.00096011984602854318 0 -6.2240366726447306e-05 0.0011247204734536483 0 2.0781085065004306e-05 0.0010799068083253271 0 -4.0025236448024943e-06 0.00092953906069918857 0 1.0765415995230872e-05 0.00096011984602854318 0 4.1459483961520552e-07 0.00094968315538629204 0 2.2782357399053325e-05 0.0010033201414380113 0 1.0765415995230872e-05 0.00096011984602854318 0 -1.4478916174907696e-05 0.00098335894028131953 0 -4.0025236448024943e-06 0.00092953906069918857 0 1.9524283806089369e-05 0.00097524190199069596 0 1.0765415995230872e-05 0.00096011984602854318 0 1.0765415995230872e-05 0.00096011984602854318 0 4.1459483961520552e-07 0.00094968315538629204 0 -1.4478916174907696e-05 0.00098335894028131953 0 -4.0025236448024943e-06 0.00092953906069918857 0 4.1459483961520552e-07 0.00094968315538629204 0 -7.9985181083434022e-06 0.00094046743060608254 0 4.1459483961520552e-07 0.00094968315538629204 0 -7.9985181083434022e-06 0.00094046743060608254 0 -4.2351005547867416e-06 0.00094813945183365076 0 -2.775696515698377e-05 0.00092658113296947993 0 -4.0025236448024943e-06 0.00092953906069918857 0 -7.9985181083434022e-06 0.00094046743060608254 0 -3.1119155399250405e-05 0.00097888324599999669 0 -2.775696515698377e-05 0.00092658113296947993 0 -1.310568661235292e-05 0.00096115119818083691 0 -2.775696515698377e-05 0.00092658113296947993 0 -7.9985181083434022e-06 0.00094046743060608254 0 -1.310568661235292e-05 0.00096115119818083691 0 -1.310568661235292e-05 0.00096115119818083691 0 -4.2351005547867416e-06 0.00094813945183365076 0 5.1078989379953185e-06 0.00096488269255875906 0 -7.9985181083434022e-06 0.00094046743060608254 0 -1.310568661235292e-05 0.00096115119818083691 0 -4.2351005547867416e-06 0.00094813945183365076 0 -0.00012597372750642984 0.001684470272569732 0 -0.00023610151485218902 0.0016081799862252674 0 -0.00010793066834881223 0.0015474627109181441 0 -0.00012597372750642984 0.001684470272569732 0 -0.00023610151485218902 0.0016081799862252674 0 -0.0002018451465765265 0.0017550936344677898 0 -6.2240366726447306e-05 0.0011247204734536483 0 -9.3937650111446575e-05 0.0015347621267380236 0 0.00014606370423444966 0.0010062522595437342 0 5.0547162990714915e-05 0.0014243441394056376 0 -5.1302964827310822e-06 0.0011756950258887181 0 -0.00017844096130342329 0.0014234094097384847 0 -0.00023610151485218902 0.0016081799862252674 0 -0.00010793066834881223 0.0015474627109181441 0 7.3706643406181505e-06 0.0014338310398679642 0 -0.00010793066834881223 0.0015474627109181441 0 -9.64210776161344e-06 0.0016336967603525104 0 7.3706643406181505e-06 0.0014338310398679642 0 -0.00017844096130342329 0.0014234094097384847 0 -0.00010793066834881223 0.0015474627109181441 0 -0.00012597372750642984 0.001684470272569732 0 -0.00010793066834881223 0.0015474627109181441 0 -9.64210776161344e-06 0.0016336967603525104 0 -0.00012597372750642984 0.001684470272569732 0 -9.64210776161344e-06 0.0016336967603525104 0 -6.844893169903401e-05 0.0017615588166901767 0 -9.64210776161344e-06 0.0016336967603525104 0 9.206119031432826e-05 0.0015460133654123084 0 0.00010153661605067656 0.0016936234308964179 0 7.3706643406181505e-06 0.0014338310398679642 0 -9.64210776161344e-06 0.0016336967603525104 0 9.206119031432826e-05 0.0015460133654123084 0 0.00016624055052621848 0.0014250342111529952 0 7.3706643406181505e-06 0.0014338310398679642 0 9.206119031432826e-05 0.0015460133654123084 0 0.00016624055052621848 0.0014250342111529952 0 9.206119031432826e-05 0.0015460133654123084 0 0.00020522818495381293 0.0015664859574713798 0 0.00018342610457055105 0.0017117654055854921 0 0.00010153661605067656 0.0016936234308964179 0 0.00020522818495381293 0.0015664859574713798 0 9.206119031432826e-05 0.0015460133654123084 0 0.00010153661605067656 0.0016936234308964179 0 0.00020522818495381293 0.0015664859574713798 0 0.00010153661605067656 0.0016936234308964179 0 0.00014064572288971492 0.0017904648150173701 0 7.2867006147836911e-05 0.0018360987171263214 0 0.00018342610457055105 0.0017117654055854921 0 0.00010153661605067656 0.0016936234308964179 0 0.00014064572288971492 0.0017904648150173701 0 0.00018342610457055105 0.0017117654055854921 0 0.00014064572288971492 0.0017904648150173701 0 0.0002078373050982704 0.001841675226768184 0 0.00014064572288971492 0.0017904648150173701 0 0.00012252099467441359 0.0018780613243816052 0 0.0002078373050982704 0.001841675226768184 0 0.00012252099467441359 0.0018780613243816052 0 0.0002078373050982704 0.001841675226768184 0 0.00013427757407452924 0.0019771481836417791 0 0.00014064572288971492 0.0017904648150173701 0 0.00012252099467441359 0.0018780613243816052 0 7.2867006147836911e-05 0.0018360987171263214 0 7.2867006147836911e-05 0.0018360987171263214 0 5.6311358439993666e-06 0.0018940261711302827 0 5.4243509511844176e-05 0.0019457363986361911 0 0.00012252099467441359 0.0018780613243816052 0 7.2867006147836911e-05 0.0018360987171263214 0 5.4243509511844176e-05 0.0019457363986361911 0 5.6311358439993666e-06 0.0018940261711302827 0 5.4243509511844176e-05 0.0019457363986361911 0 -3.2277826816403622e-05 0.001992277321024024 0 7.2867006147836911e-05 0.0018360987171263214 0 5.6311358439993666e-06 0.0018940261711302827 0 1.1389489135217987e-05 0.0017900557100661446 0 -9.64210776161344e-06 0.0016336967603525104 0 0.00010153661605067656 0.0016936234308964179 0 1.1389489135217987e-05 0.0017900557100661446 0 0.00010153661605067656 0.0016936234308964179 0 7.2867006147836911e-05 0.0018360987171263214 0 1.1389489135217987e-05 0.0017900557100661446 0 -9.64210776161344e-06 0.0016336967603525104 0 1.1389489135217987e-05 0.0017900557100661446 0 -6.844893169903401e-05 0.0017615588166901767 0 -6.844893169903401e-05 0.0017615588166901767 0 -8.058507762550577e-05 0.0019012671925845142 0 -0.00014441089086784866 0.0018255764537994628 0 1.1389489135217987e-05 0.0017900557100661446 0 -6.844893169903401e-05 0.0017615588166901767 0 -8.058507762550577e-05 0.0019012671925845142 0 5.6311358439993666e-06 0.0018940261711302827 0 1.1389489135217987e-05 0.0017900557100661446 0 -8.058507762550577e-05 0.0019012671925845142 0 5.6311358439993666e-06 0.0018940261711302827 0 -8.058507762550577e-05 0.0019012671925845142 0 -3.2277826816403622e-05 0.001992277321024024 0 -0.00010081634306486836 0.0019948957291334541 0 -8.058507762550577e-05 0.0019012671925845142 0 -3.2277826816403622e-05 0.001992277321024024 0 -8.058507762550577e-05 0.0019012671925845142 0 -0.00015812804738222607 0.001916791414658629 0 -0.00014441089086784866 0.0018255764537994628 0 -8.058507762550577e-05 0.0019012671925845142 0 -0.00015554281774197022 0.0020002859956842591 0 -0.00015812804738222607 0.001916791414658629 0 -0.00010081634306486836 0.0019948957291334541 0 -8.058507762550577e-05 0.0019012671925845142 0 -0.00015554281774197022 0.0020002859956842591 0 -0.00015554281774197022 0.0020002859956842591 0 -0.00020425395596292744 0.0020863014110922792 0 -0.00021127887199728221 0.0019875651707487083 0 -0.00015554281774197022 0.0020002859956842591 0 -0.00015812804738222607 0.001916791414658629 0 -0.00021127887199728221 0.0019875651707487083 0 -0.00015812804738222607 0.001916791414658629 0 -0.00020513494214040166 0.0018654980177586328 0 -0.00021127887199728221 0.0019875651707487083 0 -0.00020513494214040166 0.0018654980177586328 0 -0.00014441089086784866 0.0018255764537994628 0 -0.0002018451465765265 0.0017550936344677898 0 -0.00015812804738222607 0.001916791414658629 0 -0.00020513494214040166 0.0018654980177586328 0 -0.00014441089086784866 0.0018255764537994628 0 -0.00012597372750642984 0.001684470272569732 0 -0.00014441089086784866 0.0018255764537994628 0 -0.0002018451465765265 0.0017550936344677898 0 -0.00012597372750642984 0.001684470272569732 0 -6.844893169903401e-05 0.0017615588166901767 0 -0.00014441089086784866 0.0018255764537994628 0 0.00045637518631284457 0.0015516928866880311 0 0.00032175159079116979 0.0015429741429819894 0 0.00035709277881992868 0.0016703857921841513 0 0.00045637518631284457 0.0015516928866880311 0 0.00039807365176930789 0.0014283406665952277 0 0.00032175159079116979 0.0015429741429819894 0 0.00045637518631284457 0.0015516928866880311 0 0.00054177548255872343 0.0014146838097758685 0 0.00039807365176930789 0.0014283406665952277 0 0.00045637518631284457 0.0015516928866880311 0 0.00056306212900654982 0.0015284964489149248 0 0.00054099978454821341 0.0016432779792276352 0 0.00063592469459832672 0.0016230553708708876 0 0.00063605959915438899 0.0014933030889135944 0 0.00056306212900654982 0.0015284964489149248 0 0.00063605959915438899 0.0014933030889135944 0 0.00056306212900654982 0.0015284964489149248 0 0.00054177548255872343 0.0014146838097758685 0 0.00045637518631284457 0.0015516928866880311 0 0.00056306212900654982 0.0015284964489149248 0 0.00054177548255872343 0.0014146838097758685 0 0.00054177548255872343 0.0014146838097758685 0 0.00045684782987516655 0.0012249805780226539 0 0.00039807365176930789 0.0014283406665952277 0 0.00063605959915438899 0.0014933030889135944 0 0.00069191651146925659 0.001290254694345055 0 0.00054177548255872343 0.0014146838097758685 0 0.00069191651146925659 0.001290254694345055 0 0.00054177548255872343 0.0014146838097758685 0 0.00045684782987516655 0.0012249805780226539 0 0.00030952829141390006 0.0013782253746862235 0 0.00045684782987516655 0.0012249805780226539 0 0.00039807365176930789 0.0014283406665952277 0 0.00018817764565581317 0.0011906832321608625 0 0.00045760924691313527 0.0012221765105487738 0 0.00030952829141390006 0.0013782253746862235 0 0.00039807365176930789 0.0014283406665952277 0 0.00032175159079116979 0.0015429741429819894 0 0.00030952829141390006 0.0013782253746862235 0 0.00020522818495381293 0.0015664859574713798 0 0.00032175159079116979 0.0015429741429819894 0 0.00030952829141390006 0.0013782253746862235 0 0.00016624055052621848 0.0014250342111529952 0 0.00020522818495381293 0.0015664859574713798 0 0.00020522818495381293 0.0015664859574713798 0 0.00032175159079116979 0.0015429741429819894 0 0.00026506639740705664 0.0016846370647960534 0 0.00032175159079116979 0.0015429741429819894 0 0.00035709277881992868 0.0016703857921841513 0 0.00026506639740705664 0.0016846370647960534 0 0.00035709277881992868 0.0016703857921841513 0 0.00026506639740705664 0.0016846370647960534 0 0.00031677554819648272 0.0017697398199907866 0 0.00035709277881992868 0.0016703857921841513 0 0.00031677554819648272 0.0017697398199907866 0 0.00042256999342990005 0.0017663582874604749 0 0.00018342610457055105 0.0017117654055854921 0 0.00020522818495381293 0.0015664859574713798 0 0.00026506639740705664 0.0016846370647960534 0 0.00018342610457055105 0.0017117654055854921 0 0.00026506639740705664 0.0016846370647960534 0 0.0002078373050982704 0.001841675226768184 0 0.00026506639740705664 0.0016846370647960534 0 0.0002078373050982704 0.001841675226768184 0 0.00031677554819648272 0.0017697398199907866 0 0.00028953752268747965 0.0018629539476759025 0 0.0002078373050982704 0.001841675226768184 0 0.00031677554819648272 0.0017697398199907866 0 0.00028953752268747965 0.0018629539476759025 0 0.00031677554819648272 0.0017697398199907866 0 0.00039398831367809637 0.0018687884854962403 0 0.00031677554819648272 0.0017697398199907866 0 0.00042256999342990005 0.0017663582874604749 0 0.00039398831367809637 0.0018687884854962403 0 0.00042256999342990005 0.0017663582874604749 0 0.00050415405072155807 0.0018582900911250492 0 0.00039398831367809637 0.0018687884854962403 0 0.00042256999342990005 0.0017663582874604749 0 0.000518967461245651 0.0017444022655560521 0 0.00050415405072155807 0.0018582900911250492 0 0.00045637518631284457 0.0015516928866880311 0 0.00035709277881992868 0.0016703857921841513 0 0.0004549460688946933 0.0016738544285147862 0 0.00035709277881992868 0.0016703857921841513 0 0.00042256999342990005 0.0017663582874604749 0 0.0004549460688946933 0.0016738544285147862 0 0.00042256999342990005 0.0017663582874604749 0 0.0004549460688946933 0.0016738544285147862 0 0.000518967461245651 0.0017444022655560521 0 0.00045637518631284457 0.0015516928866880311 0 0.0004549460688946933 0.0016738544285147862 0 0.00054099978454821341 0.0016432779792276352 0 0.00063592469459832672 0.0016230553708708876 0 0.00056306212900654982 0.0015284964489149248 0 0.00054099978454821341 0.0016432779792276352 0 0.0004549460688946933 0.0016738544285147862 0 0.00054099978454821341 0.0016432779792276352 0 0.000518967461245651 0.0017444022655560521 0 0.00054099978454821341 0.0016432779792276352 0 0.00061556289775344043 0.0017161215800440524 0 0.000518967461245651 0.0017444022655560521 0 0.00063592469459832672 0.0016230553708708876 0 0.00054099978454821341 0.0016432779792276352 0 0.00061556289775344043 0.0017161215800440524 0 0.00061556289775344043 0.0017161215800440524 0 0.000518967461245651 0.0017444022655560521 0 0.00058454509961759315 0.0018028814880289765 0 0.000518967461245651 0.0017444022655560521 0 0.00058454509961759315 0.0018028814880289765 0 0.00050415405072155807 0.0018582900911250492 0 0.00062578189751700847 0.0018811288281041093 0 0.00050415405072155807 0.0018582900911250492 0 0.00052905778724849284 0.0019568141710813742 0 0.00062578189751700847 0.0018811288281041093 0 0.00058454509961759315 0.0018028814880289765 0 0.00050415405072155807 0.0018582900911250492 0 0.00050415405072155807 0.0018582900911250492 0 0.00047448290781670812 0.0019278876710667251 0 0.00039398831367809637 0.0018687884854962403 0 0.00047448290781670812 0.0019278876710667251 0 0.00041634978873030898 0.0019528924574452053 0 0.00046669031410886822 0.0019737290736310765 0 0.00050415405072155807 0.0018582900911250492 0 0.00047448290781670812 0.0019278876710667251 0 0.00052905778724849284 0.0019568141710813742 0 0.00047448290781670812 0.0019278876710667251 0 0.00041634978873030898 0.0019528924574452053 0 0.00039398831367809637 0.0018687884854962403 0 0.00047299810492208954 0.0020516414075520992 0 0.00036983479089585308 0.002074488529465169 0 0.00040073758762996348 0.0020150138260471217 0 0.00041634978873030898 0.0019528924574452053 0 0.00044321809803942721 0.0020037988479335079 0 0.00040073758762996348 0.0020150138260471217 0 0.00041634978873030898 0.0019528924574452053 0 0.00046669031410886822 0.0019737290736310765 0 0.00044321809803942721 0.0020037988479335079 0 0.00046669031410886822 0.0019737290736310765 0 0.00047113655955200384 0.002013786047469429 0 0.00052905778724849284 0.0019568141710813742 0 0.00047448290781670812 0.0019278876710667251 0 0.00046669031410886822 0.0019737290736310765 0 0.00052905778724849284 0.0019568141710813742 0 0.00046669031410886822 0.0019737290736310765 0 0.00047113655955200384 0.002013786047469429 0 0.00044321809803942721 0.0020037988479335079 0 0.00047299810492208954 0.0020516414075520992 0 0.00047113655955200384 0.002013786047469429 0 0.00052905778724849284 0.0019568141710813742 0 0.00047299810492208954 0.0020516414075520992 0 0.00047113655955200384 0.002013786047469429 0 0.00044321809803942721 0.0020037988479335079 0 0.00047299810492208954 0.0020516414075520992 0 0.00044321809803942721 0.0020037988479335079 0 0.00040073758762996348 0.0020150138260471217 0 0.00062578189751700847 0.0018811288281041093 0 0.00067460405306128831 0.0019870847208746704 0 0.00052905778724849284 0.0019568141710813742 0 0.00060425106194283713 0.0015106812594518971 0 0.00048464613147149562 0.0014305221114457145 0 0.00067460405306128831 0.0019870847208746704 0 0.00047299810492208954 0.0020516414075520992 0 0.00052905778724849284 0.0019568141710813742 0 0.00049129045755835787 0.00071634278394187747 0 0.00051934433499715418 0.00072017654418373019 0 0.00050507623847025507 0.00069615811781433457 0 0.00048464613147149562 0.0014305221114457145 0 0.00045242371521265768 0.0013197252057311362 0 0.00038111196671985825 0.0019244738247976274 0 0.00036135780241396359 0.0019772606040874994 0 0.0003219627127408194 0.0019425526784615313 0 0.00038111196671985825 0.0019244738247976274 0 0.00036135780241396359 0.0019772606040874994 0 0.00042995464631139841 0.0019925461247261465 0 0.00048464613147149562 0.0014305221114457145 0 0.00031775887031737932 0.002012353051789143 0 0.00036135780241396359 0.0019772606040874994 0 0.00035532607133575593 0.0020313408177398832 0 0.00042995464631139841 0.0019925461247261465 0 0.00036135780241396359 0.0019772606040874994 0 0.00035532607133575593 0.0020313408177398832 0 0.00030775091734344413 0.0020047322143611581 0 0.00047803154745785842 0.0020584326173703478 0 0.00042995464631139841 0.0019925461247261465 0 0.00041147033257564556 0.0020507583743360415 0 0.00035532607133575593 0.0020313408177398832 0 0.00042995464631139841 0.0019925461247261465 0 0.00041147033257564556 0.0020507583743360415 0 0.00030775091734344413 0.0020047322143611581 0 0.00026175466484273501 0.001959571042598955 0 0.00023697474571022107 0.0020488653805604815 0 0.00026370269224060478 0.0020764338259470485 0 0.00023695061776049005 0.0020689933131758484 0 0.00030775091734344413 0.0020047322143611581 0 0.00030649178018793671 0.0020698340424267995 0 0.00023697474571022107 0.0020488653805604815 0 0.00035532607133575593 0.0020313408177398832 0 0.00030775091734344413 0.0020047322143611581 0 0.00030649178018793671 0.0020698340424267995 0 0.00030775091734344413 0.0020047322143611581 0 0.0003219627127408194 0.0019425526784615313 0 0.00026175466484273501 0.001959571042598955 0 0.00036983479089585308 0.002074488529465169 0 0.00027624566446512197 0.0020979050804139274 0 0.00030429061106112453 0.0020088314102241684 0 0.00031775887031737932 0.002012353051789143 0 0.00026370269224060478 0.0020764338259470485 0 0.00036135780241396359 0.0019772606040874994 0 0.00030775091734344413 0.0020047322143611581 0 0.0003219627127408194 0.0019425526784615313 0 0.00026370269224060478 0.0020764338259470485 0 0.00029574945559453068 0.0020534109294308212 0 0.00025913798686805244 0.0022015913657355253 0 0.00029642578455867867 0.0020814955116985243 0 0.00014716119136748846 0.0021121134479201477 0 0.00029642578455867867 0.0020814955116985243 0 0.00023110770299697271 0.0019653447811385323 0 0.00014716119136748846 0.0021121134479201477 0 0.00036983479089585308 0.002074488529465169 0 0.00030429061106112453 0.0020088314102241684 0 0.00040073758762996348 0.0020150138260471217 0 0.00030429061106112453 0.0020088314102241684 0 0.00040073758762996348 0.0020150138260471217 0 0.00036116297363431677 0.0019755505442970072 0 0.00030429061106112453 0.0020088314102241684 0 0.00036116297363431677 0.0019755505442970072 0 0.0003266440477760107 0.0019330802261204585 0 0.00029574945559453068 0.0020534109294308212 0 0.00032560845929813773 0.0019460283947694424 0 0.00041634978873030898 0.0019528924574452053 0 0.00040073758762996348 0.0020150138260471217 0 0.00036116297363431677 0.0019755505442970072 0 0.00028953752268747965 0.0018629539476759025 0 0.0003266440477760107 0.0019330802261204585 0 0.00039398831367809637 0.0018687884854962403 0 0.00041634978873030898 0.0019528924574452053 0 0.0003266440477760107 0.0019330802261204585 0 0.00039398831367809637 0.0018687884854962403 0 0.00041634978873030898 0.0019528924574452053 0 0.00036116297363431677 0.0019755505442970072 0 0.0003266440477760107 0.0019330802261204585 0 0.0002078373050982704 0.001841675226768184 0 0.00023110770299697271 0.0019653447811385323 0 0.00013427757407452924 0.0019771481836417791 0 0.00028953752268747965 0.0018629539476759025 0 0.0002078373050982704 0.001841675226768184 0 0.00023110770299697271 0.0019653447811385323 0 0.00029642578455867867 0.0020814955116985243 0 0.0003266440477760107 0.0019330802261204585 0 0.00023110770299697271 0.0019653447811385323 0 0.00028953752268747965 0.0018629539476759025 0 0.0003266440477760107 0.0019330802261204585 0 0.00023110770299697271 0.0019653447811385323 0 0.00023110770299697271 0.0019653447811385323 0 0.00013427757407452924 0.0019771481836417791 0 0.00014716119136748846 0.0021121134479201477 0 0.00012252099467441359 0.0018780613243816052 0 0.00013427757407452924 0.0019771481836417791 0 5.4243509511844176e-05 0.0019457363986361911 0 5.4243509511844176e-05 0.0019457363986361911 0 2.7464578314752548e-05 0.002081397211864529 0 -3.2277826816403622e-05 0.001992277321024024 0 0.00013427757407452924 0.0019771481836417791 0 5.4243509511844176e-05 0.0019457363986361911 0 2.7464578314752548e-05 0.002081397211864529 0 2.7464578314752548e-05 0.002081397211864529 0 0.00014716119136748846 0.0021121134479201477 0 6.2087317835208111e-06 0.0021884151739078846 0 0.00013427757407452924 0.0019771481836417791 0 2.7464578314752548e-05 0.002081397211864529 0 0.00014716119136748846 0.0021121134479201477 0 -0.00015606383768135225 0.0020646860361668339 0 -0.00011109482026578638 0.0020869557969600289 0 -0.00018408539317433341 0.0021303765072690313 0 -0.00015554281774197022 0.0020002859956842591 0 -0.00015606383768135225 0.0020646860361668339 0 -0.00020425395596292744 0.0020863014110922792 0 -0.00015606383768135225 0.0020646860361668339 0 -0.00020425395596292744 0.0020863014110922792 0 -0.00018408539317433341 0.0021303765072690313 0 -0.00010081634306486836 0.0019948957291334541 0 -0.00015554281774197022 0.0020002859956842591 0 -0.00015606383768135225 0.0020646860361668339 0 -0.00010081634306486836 0.0019948957291334541 0 -0.00015606383768135225 0.0020646860361668339 0 -0.00011109482026578638 0.0020869557969600289 0 2.7464578314752548e-05 0.002081397211864529 0 -3.2277826816403622e-05 0.001992277321024024 0 -5.024944076180789e-05 0.0020800483021078398 0 -0.00011109482026578638 0.0020869557969600289 0 -3.2277826816403622e-05 0.001992277321024024 0 -5.024944076180789e-05 0.0020800483021078398 0 -0.00010081634306486836 0.0019948957291334541 0 -0.00011109482026578638 0.0020869557969600289 0 -3.2277826816403622e-05 0.001992277321024024 0 2.7464578314752548e-05 0.002081397211864529 0 -5.024944076180789e-05 0.0020800483021078398 0 -7.6421296753890225e-05 0.0021539852688794467 0 2.7464578314752548e-05 0.002081397211864529 0 -7.6421296753890225e-05 0.0021539852688794467 0 6.2087317835208111e-06 0.0021884151739078846 0 -0.00011109482026578638 0.0020869557969600289 0 -5.024944076180789e-05 0.0020800483021078398 0 -7.6421296753890225e-05 0.0021539852688794467 0 -7.6421296753890225e-05 0.0021539852688794467 0 -0.00014305942762882128 0.0021581103658572321 0 -0.00013528790892218228 0.0022222077234355965 0 -0.00011109482026578638 0.0020869557969600289 0 -7.6421296753890225e-05 0.0021539852688794467 0 -0.00014305942762882128 0.0021581103658572321 0 -0.00011109482026578638 0.0020869557969600289 0 -0.00014305942762882128 0.0021581103658572321 0 -0.00018408539317433341 0.0021303765072690313 0 -0.00014305942762882128 0.0021581103658572321 0 -0.00013528790892218228 0.0022222077234355965 0 -0.00018469235433845861 0.0021889892752750117 0 -7.6421296753890225e-05 0.0021539852688794467 0 -0.00013528790892218228 0.0022222077234355965 0 -5.1755726629535182e-05 0.0022734861536391942 0 -7.6421296753890225e-05 0.0021539852688794467 0 -5.1755726629535182e-05 0.0022734861536391942 0 6.2087317835208111e-06 0.0021884151739078846 0 0.00015623929303996929 0.0020911515678970838 0 0.00010259134165770651 0.0021037872807288414 0 0.00013002920048369398 0.0021380436415596631 0 -0.00013528790892218228 0.0022222077234355965 0 -5.1755726629535182e-05 0.0022734861536391942 0 -0.00015649941346102255 0.0022894360677608709 0 5.3927240861384271e-05 0.002181551840326148 0 -2.6433369819092443e-05 0.0021936998859847529 0 0.00025913798686805244 0.0022015913657355253 0 0.00014716119136748846 0.0021121134479201477 0 9.1456271924416442e-05 0.0022448286404045037 0 0.00026370269224060478 0.0020764338259470485 0 0.00014385031008749439 0.002168829680258721 0 -5.1755726629535182e-05 0.0022734861536391942 0 9.1456271924416442e-05 0.0022448286404045037 0 6.2087317835208111e-06 0.0021884151739078846 0 0.00014716119136748846 0.0021121134479201477 0 9.1456271924416442e-05 0.0022448286404045037 0 6.2087317835208111e-06 0.0021884151739078846 0 5.3927240861384271e-05 0.002181551840326148 0 0.00014385031008749439 0.002168829680258721 0 0.00015623929303996929 0.0020911515678970838 0 0.00020340431688521926 0.0020808493017260852 0 0.00020665442156389221 0.0021213095028536121 0 0.00024703172338006303 0.0020700940261294382 0 0.00020340431688521926 0.0020808493017260852 0 0.00023344398861289986 0.0021135239633624761 0 0.00020340431688521926 0.0020808493017260852 0 0.00020665442156389221 0.0021213095028536121 0 0.00023344398861289986 0.0021135239633624761 0 0.00021986940437917102 0.0021427349162351436 0 0.00022205415719922736 0.0021491795478015114 0 0.00023344398861289986 0.0021135239633624761 0 0.00020665442156389221 0.0021213095028536121 0 0.00021986940437917102 0.0021427349162351436 0 0.00023344398861289986 0.0021135239633624761 0 0.00022102887013016688 0.0021486412992732969 0 0.00023695061776049005 0.0020689933131758484 0 0.00020665442156389221 0.0021213095028536121 0 0.00018720433548283694 0.0021470243783134929 0 0.00021986940437917102 0.0021427349162351436 0 0.00020665442156389221 0.0021213095028536121 0 0.00017063599683419888 0.0021302331614359619 0 0.00018720433548283694 0.0021470243783134929 0 0.00015623929303996929 0.0020911515678970838 0 0.00020665442156389221 0.0021213095028536121 0 0.00017063599683419888 0.0021302331614359619 0 0.00017063599683419888 0.0021302331614359619 0 0.00018720433548283694 0.0021470243783134929 0 0.00015764147646394079 0.0021573850988965975 0 0.00018720433548283694 0.0021470243783134929 0 0.00021986940437917102 0.0021427349162351436 0 0.00017855224243787949 0.0021877036353149656 0 0.00018720433548283694 0.0021470243783134929 0 0.00015764147646394079 0.0021573850988965975 0 0.00017855224243787949 0.0021877036353149656 0 0.00021781155101862688 0.0021466469929459697 0 0.00017714003612278887 0.0021845358185918471 0 0.00022205415719922736 0.0021491795478015114 0 0.00022135593441768324 0.0021927720495728727 0 0.00025207564996856729 0.0021558592023408112 0 0.00021986940437917102 0.0021427349162351436 0 0.00022205415719922736 0.0021491795478015114 0 0.00017466332711703423 0.0021829898711261241 0 0.00010259134165770651 0.0021037872807288414 0 0.00013002920048369398 0.0021380436415596631 0 8.7212460380649718e-05 0.0021365093485472605 0 0.00013002920048369398 0.0021380436415596631 0 9.5034585134460482e-05 0.0021695651033831636 0 8.7212460380649718e-05 0.0021365093485472605 0 0.00015623929303996929 0.0020911515678970838 0 0.00017063599683419888 0.0021302331614359619 0 0.00013002920048369398 0.0021380436415596631 0 0.00017063599683419888 0.0021302331614359619 0 0.00013002920048369398 0.0021380436415596631 0 0.00015764147646394079 0.0021573850988965975 0 0.00015764147646394079 0.0021573850988965975 0 0.00013479421869536207 0.0021826515796603096 0 0.00017855224243787949 0.0021877036353149656 0 0.00013002920048369398 0.0021380436415596631 0 0.00015764147646394079 0.0021573850988965975 0 0.00013479421869536207 0.0021826515796603096 0 0.00013002920048369398 0.0021380436415596631 0 0.00013479421869536207 0.0021826515796603096 0 9.5034585134460482e-05 0.0021695651033831636 0 0.00013479421869536207 0.0021826515796603096 0 8.9879059699784068e-05 0.0022128770625235179 0 9.5034585134460482e-05 0.0021695651033831636 0 0.00013479421869536207 0.0021826515796603096 0 0.0001313177385108444 0.0022285717620471801 0 8.9879059699784068e-05 0.0022128770625235179 0 0.00013034732162448107 0.0022283406094715783 0 0.00017714003612278887 0.0021845358185918471 0 0.00013479421869536207 0.0021826515796603096 0 0.0001313177385108444 0.0022285717620471801 0 0.00017855224243787949 0.0021877036353149656 0 0.00018666785244545806 0.0022537947443653297 0 0.00013392312444045128 0.0022690127632977257 0 0.00013069156048830513 0.0022270846755802118 0 0.00017466332711703423 0.0021829898711261241 0 0.00018328801474633242 0.0022470189204265986 0 0.00013069156048830513 0.0022270846755802118 0 0.00018328801474633242 0.0022470189204265986 0 0.00013170777873003394 0.0022706026598821229 0 0.00013069156048830513 0.0022270846755802118 0 0.00013170777873003394 0.0022706026598821229 0 8.2705965826946281e-05 0.0022700661438234413 0 0.00013034732162448107 0.0022283406094715783 0 8.501397224701351e-05 0.0022667511550542451 0 0.00022205415719922736 0.0021491795478015114 0 0.00022135593441768324 0.0021927720495728727 0 0.00017466332711703423 0.0021829898711261241 0 0.00022135593441768324 0.0021927720495728727 0 0.00017466332711703423 0.0021829898711261241 0 0.00018328801474633242 0.0022470189204265986 0 0.00022135593441768324 0.0021927720495728727 0 0.00018328801474633242 0.0022470189204265986 0 0.00024232463867848448 0.0022322416540749581 0 0.00019178378737041917 0.0022596346729356321 0 0.00025280603489134898 0.0022421717646105587 0 0.00023872763641509772 0.0022802086699893432 0 0.00018666785244545806 0.0022537947443653297 0 0.00024815131045186029 0.0022372696754509622 0 0.00025280603489134898 0.0022421717646105587 0 0.00032411987629165381 0.0022219474573805624 0 0.00027339546584656001 0.0022759185674898355 0 0.00024232463867848448 0.0022322416540749581 0 0.00027309164452770344 0.0021813533830333056 0 0.00032117243675749881 0.002218058060346926 0 0.00024815131045186029 0.0022372696754509622 0 0.00032425486489589612 0.0022193585983977782 0 0.00022135593441768324 0.0021927720495728727 0 0.00027309164452770344 0.0021813533830333056 0 0.00025207564996856729 0.0021558592023408112 0 0.00022135593441768324 0.0021927720495728727 0 0.00024232463867848448 0.0022322416540749581 0 0.00027309164452770344 0.0021813533830333056 0 0.00027309164452770344 0.0021813533830333056 0 0.00031340026321809134 0.0021639745865433802 0 0.00032117243675749881 0.002218058060346926 0 0.00031340026321809134 0.0021639745865433802 0 0.00032117243675749881 0.002218058060346926 0 0.00036028833268906321 0.0021572429703902527 0 0.00027309164452770344 0.0021813533830333056 0 0.00031340026321809134 0.0021639745865433802 0 0.00028581301612900107 0.0021486615422136816 0 0.00032411987629165381 0.0022219474573805624 0 0.00027339546584656001 0.0022759185674898355 0 0.00031513804372136595 0.0022760840030161896 0 0.00032411987629165381 0.0022219474573805624 0 0.00038233211999165511 0.0022332127547826288 0 0.00031513804372136595 0.0022760840030161896 0 0.00034900623121392763 0.0022113872115043088 0 0.00028455608658274048 0.0022718080893994494 0 0.00032411987629165381 0.0022219474573805624 0 0.00038233211999165511 0.0022332127547826288 0 0.0004099390761574399 0.0021980865185046538 0 0.00029543839176748431 0.0022222356771594374 0 0.00033303415048376603 0.0022246983705598872 0 0.0003116707715588666 0.0022467641499205331 0 0.00033943956726981118 0.0021766791208121055 0 0.00029543839176748431 0.0022222356771594374 0 0.00033303415048376603 0.0022246983705598872 0 0.00037468849884124053 0.0022827429326795876 0 0.00034900623121392763 0.0022113872115043088 0 0.0004099390761574399 0.0021980865185046538 0 0.00041916566624782903 0.0021527965468216077 0 0.00036028833268906321 0.0021572429703902527 0 0.00046409182244332132 0.0021179942399288916 0 0.00045517597030225292 0.0021801064657789677 0 0.00041916566624782903 0.0021527965468216077 0 0.00045517597030225292 0.0021801064657789677 0 0.00038233211999165511 0.0022332127547826288 0 0.0004099390761574399 0.0021980865185046538 0 0.00045517597030225292 0.0021801064657789677 0 0.0004099390761574399 0.0021980865185046538 0 0.00041916566624782903 0.0021527965468216077 0 0.00032117243675749881 0.002218058060346926 0 0.0004099390761574399 0.0021980865185046538 0 0.00036028833268906321 0.0021572429703902527 0 0.00032425486489589612 0.0022193585983977782 0 0.00040507046359633162 0.0021999029084361502 0 0.00036028833268906321 0.0021572429703902527 0 0.00036002799174851308 0.002088999384450326 0 0.00031492702675864044 0.002122278213997211 0 0.00036028833268906321 0.0021572429703902527 0 0.000407026620935841 0.0021106493451534068 0 0.00036002799174851308 0.002088999384450326 0 0.00041916566624782903 0.0021527965468216077 0 0.00036028833268906321 0.0021572429703902527 0 0.000407026620935841 0.0021106493451534068 0 0.00046409182244332132 0.0021179942399288916 0 0.00041916566624782903 0.0021527965468216077 0 0.000407026620935841 0.0021106493451534068 0 0.00047803154745785842 0.0020584326173703478 0 0.000407026620935841 0.0021106493451534068 0 0.00041147033257564556 0.0020507583743360415 0 0.00035532607133575593 0.0020313408177398832 0 0.00041147033257564556 0.0020507583743360415 0 0.00036002799174851308 0.002088999384450326 0 0.000407026620935841 0.0021106493451534068 0 0.00041147033257564556 0.0020507583743360415 0 0.00036002799174851308 0.002088999384450326 0 0.00035532607133575593 0.0020313408177398832 0 0.00036002799174851308 0.002088999384450326 0 0.00030649178018793671 0.0020698340424267995 0 0.00036002799174851308 0.002088999384450326 0 0.00030649178018793671 0.0020698340424267995 0 0.00031492702675864044 0.002122278213997211 0 0.00030649178018793671 0.0020698340424267995 0 0.00027090748402619822 0.0021172206488645619 0 0.00031492702675864044 0.002122278213997211 0 0.00023697474571022107 0.0020488653805604815 0 0.00027090748402619822 0.0021172206488645619 0 0.00024596685950606769 0.0021191935818512361 0 0.00030649178018793671 0.0020698340424267995 0 0.00023697474571022107 0.0020488653805604815 0 0.00027090748402619822 0.0021172206488645619 0 0.00022205415719922736 0.0021491795478015114 0 0.00023697474571022107 0.0020488653805604815 0 0.00024596685950606769 0.0021191935818512361 0 0.00027090748402619822 0.0021172206488645619 0 0.00024596685950606769 0.0021191935818512361 0 0.00025207564996856729 0.0021558592023408112 0 0.00022205415719922736 0.0021491795478015114 0 0.00024596685950606769 0.0021191935818512361 0 0.00025207564996856729 0.0021558592023408112 0 0.00027309164452770344 0.0021813533830333056 0 0.00025207564996856729 0.0021558592023408112 0 0.00028581301612900107 0.0021486615422136816 0 0.00027090748402619822 0.0021172206488645619 0 0.00025207564996856729 0.0021558592023408112 0 0.00028581301612900107 0.0021486615422136816 0 0.00031340026321809134 0.0021639745865433802 0 0.00028581301612900107 0.0021486615422136816 0 0.00031492702675864044 0.002122278213997211 0 0.00031340026321809134 0.0021639745865433802 0 0.00036028833268906321 0.0021572429703902527 0 0.00031492702675864044 0.002122278213997211 0 0.00027090748402619822 0.0021172206488645619 0 0.00028581301612900107 0.0021486615422136816 0 0.00031492702675864044 0.002122278213997211 0 -0.00031521636788558116 0.0025169906013037288 0 -0.00031577766537913238 0.0025678761757021587 0 -0.00032074257709261691 0.0025279921465589422 0 -0.00031521636788558116 0.0025169906013037288 0 -0.00031577766537913238 0.0025678761757021587 0 -0.0003244230072854651 0.002496785377611028 0 -0.00031577766537913238 0.0025678761757021587 0 -0.00032074257709261691 0.0025279921465589422 0 -0.0003373252758314527 0.0025262073152645518 0 -0.00032074257709261691 0.0025279921465589422 0 -0.0003373252758314527 0.0025262073152645518 0 -0.00029049811662947581 0.0025320847746386427 0 -0.00032074257709261691 0.0025279921465589422 0 -0.00029861289430490044 0.0025089377193278943 0 -0.00029049811662947581 0.0025320847746386427 0 -0.00026508968881353207 0.0024939174906006526 0 -0.00029049811662947581 0.0025320847746386427 0 -0.00021033569593498433 0.0025226507265938159 0 -0.00029861289430490044 0.0025089377193278943 0 -0.00026508968881353207 0.0024939174906006526 0 -0.00029049811662947581 0.0025320847746386427 0 -0.00029861289430490044 0.0025089377193278943 0 -0.00026508968881353207 0.0024939174906006526 0 -0.00029004814126282842 0.0024673331432056114 0 -0.00026508968881353207 0.0024939174906006526 0 -0.00029004814126282842 0.0024673331432056114 0 -0.00023448246727181491 0.0024102590608792778 0 -0.00031521636788558116 0.0025169906013037288 0 -0.00029861289430490044 0.0025089377193278943 0 -0.00029004814126282842 0.0024673331432056114 0 -0.00031521636788558116 0.0025169906013037288 0 -0.00032074257709261691 0.0025279921465589422 0 -0.00029861289430490044 0.0025089377193278943 0 -0.00034674226461467233 0.0024507209580012079 0 -0.00027588545180123333 0.002676178454703174 0 -0.00032651068187938148 0.0024307847584836453 0 -0.00027968845645208495 0.0023810252612105772 0 -0.00032606568490054194 0.0023058166068006163 0 -0.00031521636788558116 0.0025169906013037288 0 -0.00029004814126282842 0.0024673331432056114 0 -0.0003244230072854651 0.002496785377611028 0 -0.00034204047447763567 0.0023463610960972906 0 -0.0001971552904605523 0.0025007392575577131 0 -0.00032651068187938148 0.0024307847584836453 0 -0.00029004814126282842 0.0024673331432056114 0 -0.00039645487633355512 0.0024126227530439251 0 -0.00032651068187938148 0.0024307847584836453 0 -0.00029004814126282842 0.0024673331432056114 0 -0.00027968845645208495 0.0023810252612105772 0 -0.00029004814126282842 0.0024673331432056114 0 -0.00027968845645208495 0.0023810252612105772 0 -0.00023448246727181491 0.0024102590608792778 0 -0.00027968845645208495 0.0023810252612105772 0 -0.00024333076864789681 0.0023524807509385892 0 -0.00026530718508465442 0.0023296558499541335 0 -0.00027588545180123333 0.002676178454703174 0 -0.0001971552904605523 0.0025007392575577131 0 -0.00032651068187938148 0.0024307847584836453 0 -0.00039645487633355512 0.0024126227530439251 0 -0.00034391345819878219 0.0023078405503215273 0 -0.00031577766537913238 0.0025678761757021587 0 -0.0004052664163030749 0.0027234015944888118 0 -0.00027150722303148666 0.0026894428666871814 0 -0.0003167753586372663 0.0025664184619004428 0 -0.00027588545180123333 0.002676178454703174 0 -0.00027588545180123333 0.002676178454703174 0 -9.6226210812387495e-05 0.003002008922678968 0 -0.0004052664163030749 0.0027234015944888118 0 -0.00027150722303148666 0.0026894428666871814 0 -0.00020574712230118103 0.0028320542006861921 0 -0.00018093817302822262 0.0027378256549031735 0 -0.00027150722303148666 0.0026894428666871814 0 -0.00020574712230118103 0.0028320542006861921 0 -0.00018093817302822262 0.0027378256549031735 0 -0.00027150722303148666 0.0026894428666871814 0 -0.00021148524909465869 0.0026012859888585441 0 -3.9026073506221836e-05 0.0028146061976518258 0 -0.00013180477308406545 0.0027206778616413541 0 -3.2051804437281038e-05 0.002826805050871095 0 -4.4401135533589611e-05 0.0028360686171109736 0 -9.3645568090195313e-06 0.0028322902312766835 0 -0.00018093817302822262 0.0027378256549031735 0 -3.2051804437281038e-05 0.002826805050871095 0 -0.00020574712230118103 0.0028320542006861921 0 -3.2051804437281038e-05 0.002826805050871095 0 -4.4401135533589611e-05 0.0028360686171109736 0 -4.4600704810018833e-05 0.0028387626273047128 0 -0.00018093817302822262 0.0027378256549031735 0 -3.2051804437281038e-05 0.002826805050871095 0 -0.00021148524909465869 0.0026012859888585441 0 -4.4401135533589611e-05 0.0028360686171109736 0 -4.9416016895371762e-05 0.0028516349802057092 0 -5.6945408406070604e-05 0.0028495856991734478 0 -4.4401135533589611e-05 0.0028360686171109736 0 -4.5015097684304109e-05 0.0028465109628726688 0 -4.9416016895371762e-05 0.0028516349802057092 0 -0.00013180477308406545 0.0027206778616413541 0 -0.00018074164117541162 0.0027159476386243381 0 -0.00031577766537913238 0.0025678761757021587 0 -0.00021148524909465869 0.0026012859888585441 0 -0.0003373252758314527 0.0025262073152645518 0 -4.4600704810018833e-05 0.0028387626273047128 0 -4.4694328288431395e-05 0.0028501860760778695 0 -4.3203545616113067e-05 0.0028527558943718203 0 -0.00031577766537913238 0.0025678761757021587 0 -0.00027150722303148666 0.0026894428666871814 0 -0.00021148524909465869 0.0026012859888585441 0 -4.4600704810018833e-05 0.0028387626273047128 0 -4.5015097684304109e-05 0.0028465109628726688 0 -4.4694328288431395e-05 0.0028501860760778695 0 -4.4401135533589611e-05 0.0028360686171109736 0 -4.4600704810018833e-05 0.0028387626273047128 0 -4.5015097684304109e-05 0.0028465109628726688 0 -4.5015097684304109e-05 0.0028465109628726688 0 -4.4694328288431395e-05 0.0028501860760778695 0 -4.6284682213994036e-05 0.0028554357182435557 0 -4.6284682213994036e-05 0.0028554357182435557 0 -4.512715233352774e-05 0.0028559820632955047 0 -4.7889124840050036e-05 0.002861389269305915 0 -4.4694328288431395e-05 0.0028501860760778695 0 -4.6284682213994036e-05 0.0028554357182435557 0 -4.512715233352774e-05 0.0028559820632955047 0 -4.6284682213994036e-05 0.0028554357182435557 0 -4.9416016895371762e-05 0.0028516349802057092 0 -4.845364437338203e-05 0.0028638686088956825 0 -4.9416016895371762e-05 0.0028516349802057092 0 -4.845364437338203e-05 0.0028638686088956825 0 -5.517702737368637e-05 0.0028580368736341845 0 -4.5015097684304109e-05 0.0028465109628726688 0 -4.6284682213994036e-05 0.0028554357182435557 0 -4.9416016895371762e-05 0.0028516349802057092 0 -4.845364437338203e-05 0.0028638686088956825 0 -5.0251251392228063e-05 0.0028675364766747717 0 -4.4470164422160091e-05 0.0028790627667196959 0 -4.6284682213994036e-05 0.0028554357182435557 0 -4.845364437338203e-05 0.0028638686088956825 0 -4.7889124840050036e-05 0.002861389269305915 0 -4.845364437338203e-05 0.0028638686088956825 0 -4.7889124840050036e-05 0.002861389269305915 0 -5.0251251392228063e-05 0.0028675364766747717 0 -4.512715233352774e-05 0.0028559820632955047 0 -4.7889124840050036e-05 0.002861389269305915 0 -4.6448972795830163e-05 0.0028593266823443183 0 -4.7889124840050036e-05 0.002861389269305915 0 -5.0251251392228063e-05 0.0028675364766747717 0 -5.0539822244302043e-05 0.0028644659134933925 0 -4.7889124840050036e-05 0.002861389269305915 0 -4.6448972795830163e-05 0.0028593266823443183 0 -5.0539822244302043e-05 0.0028644659134933925 0 -4.6448972795830163e-05 0.0028593266823443183 0 -4.4242667523412631e-05 0.002855905358321865 0 -4.1434059850463334e-05 0.0028556596645093833 0 -4.7176178960148469e-05 0.0028614656737880988 0 -4.6448972795830163e-05 0.0028593266823443183 0 -4.1434059850463334e-05 0.0028556596645093833 0 -4.7176178960148469e-05 0.0028614656737880988 0 -4.6448972795830163e-05 0.0028593266823443183 0 -5.0539822244302043e-05 0.0028644659134933925 0 -4.512715233352774e-05 0.0028559820632955047 0 -4.6448972795830163e-05 0.0028593266823443183 0 -4.4242667523412631e-05 0.002855905358321865 0 -4.512715233352774e-05 0.0028559820632955047 0 -4.4242667523412631e-05 0.002855905358321865 0 -4.3203545616113067e-05 0.0028527558943718203 0 -4.4242667523412631e-05 0.002855905358321865 0 -4.3203545616113067e-05 0.0028527558943718203 0 -4.1434059850463334e-05 0.0028556596645093833 0 -4.4694328288431395e-05 0.0028501860760778695 0 -4.512715233352774e-05 0.0028559820632955047 0 -4.3203545616113067e-05 0.0028527558943718203 0 -0.00029049811662947581 0.0025320847746386427 0 -0.00027679048037101663 0.0026031457223323518 0 -0.00021033569593498433 0.0025226507265938159 0 -0.0003373252758314527 0.0025262073152645518 0 -0.00029049811662947581 0.0025320847746386427 0 -0.00027679048037101663 0.0026031457223323518 0 -0.00018074164117541162 0.0027159476386243381 0 -0.00013346372269263981 0.0025515673743370763 0 -0.00013346372269263981 0.0025515673743370763 0 -6.3335220246766736e-05 0.0025580458420920819 0 -4.7176178960148469e-05 0.0028614656737880988 0 -4.1434059850463334e-05 0.0028556596645093833 0 -4.6202430436887308e-05 0.0028637586524273614 0 -7.1622168830943529e-05 0.0022437889980094425 0 -6.4381666064138664e-05 0.0022714689029290146 0 -0.00010613896081879663 0.0022956397285489641 0 -7.1622168830943529e-05 0.0022437889980094425 0 -6.4381666064138664e-05 0.0022714689029290146 0 -2.5197808854642173e-05 0.0022784428743807873 0 -0.00011747425049277871 0.0023865705277981088 0 -9.2777533198634668e-05 0.0023768074582256071 0 -0.00011234652388840039 0.0024196321330357934 0 -0.00014605979150639429 0.0023936599219322625 0 -0.00011747425049277871 0.0023865705277981088 0 -0.00011234652388840039 0.0024196321330357934 0 -0.00013346372269263981 0.0025515673743370763 0 -8.9848236641597781e-05 0.0023051791457561503 0 6.4450269188240925e-06 0.0022522131342608276 0 9.3510230884108387e-07 0.0022202835966894565 0 -2.4136090254856009e-05 0.0022768365075226974 0 6.4450269188240925e-06 0.0022522131342608276 0 -8.3084347822758076e-06 0.0022760494006521916 0 9.3876713072399434e-06 0.0022773146125921028 0 -4.7324627577374491e-05 0.0023082909916998418 0 -8.9848236641597781e-05 0.0023051791457561503 0 6.4450269188240925e-06 0.0022522131342608276 0 -8.3084347822758076e-06 0.0022760494006521916 0 -2.4136090254856009e-05 0.0022768365075226974 0 6.4450269188240925e-06 0.0022522131342608276 0 2.8352337276601158e-05 0.0022582738888779329 0 9.3876713072399434e-06 0.0022773146125921028 0 6.4450269188240925e-06 0.0022522131342608276 0 9.3510230884108387e-07 0.0022202835966894565 0 3.0309158478354376e-05 0.0022307397494109233 0 6.4450269188240925e-06 0.0022522131342608276 0 2.8352337276601158e-05 0.0022582738888779329 0 3.0309158478354376e-05 0.0022307397494109233 0 9.3510230884108387e-07 0.0022202835966894565 0 3.6344101116161955e-05 0.0022026976073725815 0 2.4580819571549876e-05 0.0021678011397964934 0 -4.7324627577374491e-05 0.0023082909916998418 0 -1.2662971207021106e-05 0.0022370127149451981 0 9.3510230884108387e-07 0.0022202835966894565 0 3.0309158478354376e-05 0.0022307397494109233 0 3.6344101116161955e-05 0.0022026976073725815 0 -0.00011747425049277871 0.0023865705277981088 0 -9.2777533198634668e-05 0.0023768074582256071 0 -0.00011896822236965205 0.0023467523417827325 0 -0.00014605979150639429 0.0023936599219322625 0 -0.00011747425049277871 0.0023865705277981088 0 -0.00011896822236965205 0.0023467523417827325 0 -0.00013346372269263981 0.0025515673743370763 0 -0.00016836554245686062 0.0024246254091808291 0 0.0001313177385108444 0.0022285717620471801 0 8.9879059699784068e-05 0.0022128770625235179 0 8.2705965826946281e-05 0.0022700661438234413 0 5.5639263822255444e-05 0.002244198062782918 0 8.9879059699784068e-05 0.0022128770625235179 0 8.2705965826946281e-05 0.0022700661438234413 0 5.5639263822255444e-05 0.002244198062782918 0 8.2705965826946281e-05 0.0022700661438234413 0 4.0693033658229136e-05 0.0022827824751549632 0 5.5639263822255444e-05 0.002244198062782918 0 2.8352337276601158e-05 0.0022582738888779329 0 4.0693033658229136e-05 0.0022827824751549632 0 5.5639263822255444e-05 0.002244198062782918 0 2.8352337276601158e-05 0.0022582738888779329 0 3.0309158478354376e-05 0.0022307397494109233 0 3.0309158478354376e-05 0.0022307397494109233 0 3.6344101116161955e-05 0.0022026976073725815 0 5.8173096579785598e-05 0.0022126904258590097 0 3.6344101116161955e-05 0.0022026976073725815 0 5.8173096579785598e-05 0.0022126904258590097 0 6.3766317216103075e-05 0.0021846157310346074 0 5.5639263822255444e-05 0.002244198062782918 0 3.0309158478354376e-05 0.0022307397494109233 0 5.8173096579785598e-05 0.0022126904258590097 0 5.5639263822255444e-05 0.002244198062782918 0 5.8173096579785598e-05 0.0022126904258590097 0 8.9879059699784068e-05 0.0022128770625235179 0 5.8173096579785598e-05 0.0022126904258590097 0 8.9879059699784068e-05 0.0022128770625235179 0 6.3766317216103075e-05 0.0021846157310346074 0 8.9879059699784068e-05 0.0022128770625235179 0 9.5034585134460482e-05 0.0021695651033831636 0 6.3766317216103075e-05 0.0021846157310346074 0 9.5034585134460482e-05 0.0021695651033831636 0 6.3766317216103075e-05 0.0021846157310346074 0 6.0367878009285909e-05 0.0021532373159797937 0 9.5034585134460482e-05 0.0021695651033831636 0 6.0367878009285909e-05 0.0021532373159797937 0 8.7212460380649718e-05 0.0021365093485472605 0 6.3766317216103075e-05 0.0021846157310346074 0 6.0367878009285909e-05 0.0021532373159797937 0 2.4580819571549876e-05 0.0021678011397964934 0 3.6344101116161955e-05 0.0022026976073725815 0 6.3766317216103075e-05 0.0021846157310346074 0 2.4580819571549876e-05 0.0021678011397964934 0 -9.1253837586575986e-05 0.0022448915443440132 0 -0.0001373434492357123 0.0023446869148347356 0 -5.3348599794392625e-05 0.0022881182878742236 0 -7.2923601970056545e-05 0.0023325579362161973 0 -9.1051025604008449e-05 0.0022991079365279961 0 -9.1253837586575986e-05 0.0022448915443440132 0 -1.2662971207021106e-05 0.0022370127149451981 0 6.0367878009285909e-05 0.0021532373159797937 0 4.6852582965136022e-05 0.0021180165175834907 0 2.4580819571549876e-05 0.0021678011397964934 0 0.00010259134165770651 0.0021037872807288414 0 4.6852582965136022e-05 0.0021180165175834907 0 8.7212460380649718e-05 0.0021365093485472605 0 6.0367878009285909e-05 0.0021532373159797937 0 4.6852582965136022e-05 0.0021180165175834907 0 8.7212460380649718e-05 0.0021365093485472605 0 -0.00026508968881353207 0.0024939174906006526 0 -0.00021033569593498433 0.0025226507265938159 0 -0.00023448246727181491 0.0024102590608792778 0 -9.2777533198634668e-05 0.0023768074582256071 0 -0.00011896822236965205 0.0023467523417827325 0 -7.2923601970056545e-05 0.0023325579362161973 0 -0.00011896822236965205 0.0023467523417827325 0 -7.2923601970056545e-05 0.0023325579362161973 0 -9.1051025604008449e-05 0.0022991079365279961 0 -0.00016836554245686062 0.0024246254091808291 0 -0.0001373434492357123 0.0023446869148347356 0 -0.00016127507175310566 0.0023001899379967066 0 -0.00018602504388386606 0.0023335695500542055 0 -0.00018086047056762472 0.002299396751060057 0 -0.00018602504388386606 0.0023335695500542055 0 -0.00021355178101121919 0.0023356445823598327 0 -0.00019330971265515815 0.0022996588875421851 0 -0.0001373434492357123 0.0023446869148347356 0 -0.00024030476296568295 0.0024025501998552823 0 -0.00018602504388386606 0.0023335695500542055 0 -0.00021355178101121919 0.0023356445823598327 0 -0.00023448246727181491 0.0024102590608792778 0 -0.00021033569593498433 0.0025226507265938159 0 -0.00012104837380093804 0.0023833561648489137 0 -0.00023448246727181491 0.0024102590608792778 0 -0.00027968845645208495 0.0023810252612105772 0 -0.00023448246727181491 0.0024102590608792778 0 -0.00024333076864789681 0.0023524807509385892 0 -0.00021355178101121919 0.0023356445823598327 0 -0.00023448246727181491 0.0024102590608792778 0 -0.00024333076864789681 0.0023524807509385892 0 -0.00021355178101121919 0.0023356445823598327 0 -0.00024333076864789681 0.0023524807509385892 0 -0.0002314769888361076 0.0023140725429387676 0 -0.00024333076864789681 0.0023524807509385892 0 -0.0002314769888361076 0.0023140725429387676 0 -0.00026530718508465442 0.0023296558499541335 0 -0.0002314769888361076 0.0023140725429387676 0 -0.00026530718508465442 0.0023296558499541335 0 -0.00025065295366389869 0.0022814070319198375 0 -0.0002314769888361076 0.0023140725429387676 0 -0.00022392361228092234 0.0022800775363948111 0 -0.00025065295366389869 0.0022814070319198375 0 -0.00022392361228092234 0.0022800775363948111 0 -0.00021102246867632862 0.002299523926495572 0 -0.00020197037338110007 0.0022635492340402834 0 -0.0002314769888361076 0.0023140725429387676 0 -0.00022392361228092234 0.0022800775363948111 0 -0.00021102246867632862 0.002299523926495572 0 -0.00021355178101121919 0.0023356445823598327 0 -0.00021102246867632862 0.002299523926495572 0 -0.00019330971265515815 0.0022996588875421851 0 -0.00021355178101121919 0.0023356445823598327 0 -0.0002314769888361076 0.0023140725429387676 0 -0.00021102246867632862 0.002299523926495572 0 -0.00018602504388386606 0.0023335695500542055 0 -0.00019330971265515815 0.0022996588875421851 0 -0.00018086047056762472 0.002299396751060057 0 -0.00019330971265515815 0.0022996588875421851 0 -0.00018086047056762472 0.002299396751060057 0 -0.00018221726787231247 0.0022660546691934658 0 -0.00019330971265515815 0.0022996588875421851 0 -0.00020197037338110007 0.0022635492340402834 0 -0.00018221726787231247 0.0022660546691934658 0 -0.00021102246867632862 0.002299523926495572 0 -0.00019330971265515815 0.0022996588875421851 0 -0.00020197037338110007 0.0022635492340402834 0 -0.00020197037338110007 0.0022635492340402834 0 -0.0001936977859449224 0.0022294698456992923 0 -0.00020387388148207451 0.0022324195188267132 0 -0.00020197037338110007 0.0022635492340402834 0 -0.0001936977859449224 0.0022294698456992923 0 -0.00018221726787231247 0.0022660546691934658 0 -0.0001936977859449224 0.0022294698456992923 0 -0.00020387388148207451 0.0022324195188267132 0 -0.00019950614036379717 0.0022189025553348016 0 -0.00020387388148207451 0.0022324195188267132 0 -0.00022339550326183958 0.0022471644902911625 0 -0.00020729533970493649 0.0022235506321078651 0 -0.00022339550326183958 0.0022471644902911625 0 -0.00020729533970493649 0.0022235506321078651 0 -0.00024795899649811314 0.0022256483777150123 0 -0.00022339550326183958 0.0022471644902911625 0 -0.00024795899649811314 0.0022256483777150123 0 -0.00025065295366389869 0.0022814070319198375 0 -0.00022392361228092234 0.0022800775363948111 0 -0.00022339550326183958 0.0022471644902911625 0 -0.00025065295366389869 0.0022814070319198375 0 -0.00022392361228092234 0.0022800775363948111 0 -0.00020197037338110007 0.0022635492340402834 0 -0.00022339550326183958 0.0022471644902911625 0 -0.00020197037338110007 0.0022635492340402834 0 -0.00020387388148207451 0.0022324195188267132 0 -0.00022339550326183958 0.0022471644902911625 0 -0.00015649941346102255 0.0022894360677608709 0 -0.00023733547146840539 0.0023070509922981149 0 -0.00021185604659844633 0.0022471532816023452 0 -2.6433369819092443e-05 0.0021936998859847529 0 -9.1253837586575986e-05 0.0022448915443440132 0 -0.00013528790892218228 0.0022222077234355965 0 -0.00015649941346102255 0.0022894360677608709 0 -0.00021185604659844633 0.0022471532816023452 0 -0.00016127507175310566 0.0023001899379967066 0 -0.00018221726787231247 0.0022660546691934658 0 -0.00016410844614234686 0.002248620933572797 0 -9.1253837586575986e-05 0.0022448915443440132 0 -0.00019951872685217397 0.0022648041611679913 0 -0.00016127507175310566 0.0023001899379967066 0 -0.00018086047056762472 0.002299396751060057 0 -0.00018221726787231247 0.0022660546691934658 0 -0.00018221726787231247 0.0022660546691934658 0 -0.00018593210757212258 0.0022227650798962604 0 -0.00016410844614234686 0.002248620933572797 0 -0.0001936977859449224 0.0022294698456992923 0 -0.00018221726787231247 0.0022660546691934658 0 -0.00018593210757212258 0.0022227650798962604 0 -0.0001936977859449224 0.0022294698456992923 0 -0.00018593210757212258 0.0022227650798962604 0 -0.0002002685838925129 0.0021946043304537748 0 -0.00019951872685217397 0.0022648041611679913 0 -0.00017959407235521531 0.0021934750565708906 0 -0.00018593210757212258 0.0022227650798962604 0 -0.00016410844614234686 0.002248620933572797 0 -0.00018469235433845861 0.0021889892752750117 0 -0.00013528790892218228 0.0022222077234355965 0 -0.00021185604659844633 0.0022471532816023452 0 -0.00018469235433845861 0.0021889892752750117 0 -0.00018469235433845861 0.0021889892752750117 0 -0.00021166585492687836 0.0021669136695748746 0 -0.00018408539317433341 0.0021303765072690313 0 -0.00014305942762882128 0.0021581103658572321 0 -0.00018469235433845861 0.0021889892752750117 0 -0.00018408539317433341 0.0021303765072690313 0 -0.00018469235433845861 0.0021889892752750117 0 -0.00021166585492687836 0.0021669136695748746 0 -0.0002002685838925129 0.0021946043304537748 0 -0.00021166585492687836 0.0021669136695748746 0 -0.0002002685838925129 0.0021946043304537748 0 -0.00021231330878431471 0.002185112428318817 0 -0.00018593210757212258 0.0022227650798962604 0 -0.00018469235433845861 0.0021889892752750117 0 -0.0002002685838925129 0.0021946043304537748 0 -0.0001936977859449224 0.0022294698456992923 0 -0.0002002685838925129 0.0021946043304537748 0 -0.00020187282601241748 0.0022041193098658635 0 -0.0002002685838925129 0.0021946043304537748 0 -0.00021231330878431471 0.002185112428318817 0 -0.00020187282601241748 0.0022041193098658635 0 -0.00021231330878431471 0.002185112428318817 0 -0.00020720658907918515 0.0021995334686064883 0 -0.00022081376338124189 0.0021801066319718496 0 -0.00021231330878431471 0.002185112428318817 0 -0.00020720658907918515 0.0021995334686064883 0 -0.00019818950009103137 0.0022110208655846345 0 -0.00020720658907918515 0.0021995334686064883 0 -0.00020892660756123457 0.0022003015190231743 0 -0.00018576161810895866 0.0022419883643263147 0 -0.00020720658907918515 0.0021995334686064883 0 -0.00020892660756123457 0.0022003015190231743 0 -0.00022081376338124189 0.0021801066319718496 0 -0.00020892660756123457 0.0022003015190231743 0 -0.00022081376338124189 0.0021801066319718496 0 -0.00023059706320944836 0.002172948460134598 0 -0.00023059706320944836 0.002172948460134598 0 -0.00025161564939845874 0.0021734026060648394 0 -0.00024008146507077487 0.0021254612335838362 0 -0.00022081376338124189 0.0021801066319718496 0 -0.00023059706320944836 0.002172948460134598 0 -0.00025161564939845874 0.0021734026060648394 0 -0.00022081376338124189 0.0021801066319718496 0 -0.00022598750325405863 0.0021664625637316335 0 -0.00025161564939845874 0.0021734026060648394 0 -0.00021231330878431471 0.002185112428318817 0 -0.00022081376338124189 0.0021801066319718496 0 -0.00022598750325405863 0.0021664625637316335 0 -0.00021166585492687836 0.0021669136695748746 0 -0.00021231330878431471 0.002185112428318817 0 -0.00022598750325405863 0.0021664625637316335 0 -0.00021166585492687836 0.0021669136695748746 0 -0.00022598750325405863 0.0021664625637316335 0 -0.00022149329329689983 0.0021442162062570019 0 -0.00022598750325405863 0.0021664625637316335 0 -0.00022149329329689983 0.0021442162062570019 0 -0.00025161564939845874 0.0021734026060648394 0 -0.00022149329329689983 0.0021442162062570019 0 -0.00025161564939845874 0.0021734026060648394 0 -0.00020425395596292744 0.0020863014110922792 0 -0.00022149329329689983 0.0021442162062570019 0 -0.00020425395596292744 0.0020863014110922792 0 -0.00018408539317433341 0.0021303765072690313 0 -0.00021166585492687836 0.0021669136695748746 0 -0.00022149329329689983 0.0021442162062570019 0 -0.00018408539317433341 0.0021303765072690313 0 -0.00020729533970493649 0.0022235506321078651 0 -0.00016848711386151295 0.0022290455732205732 0 -0.00024795899649811314 0.0022256483777150123 0 -0.00020729533970493649 0.0022235506321078651 0 -0.00019772171335943225 0.0022142367540925437 0 -0.00016848711386151295 0.0022290455732205732 0 -0.00020387388148207451 0.0022324195188267132 0 -0.00020729533970493649 0.0022235506321078651 0 -0.00019772171335943225 0.0022142367540925437 0 -0.00019772171335943225 0.0022142367540925437 0 -0.00019818950009103137 0.0022110208655846345 0 -0.00016848711386151295 0.0022290455732205732 0 -0.00020387388148207451 0.0022324195188267132 0 -0.00019772171335943225 0.0022142367540925437 0 -0.00019950614036379717 0.0022189025553348016 0 -0.0001936977859449224 0.0022294698456992923 0 -0.00019950614036379717 0.0022189025553348016 0 -0.00020187282601241748 0.0022041193098658635 0 -0.00019772171335943225 0.0022142367540925437 0 -0.00019950614036379717 0.0022189025553348016 0 -0.00020187282601241748 0.0022041193098658635 0 -0.00021231330878431471 0.002185112428318817 0 -0.00020187282601241748 0.0022041193098658635 0 -0.00019818950009103137 0.0022110208655846345 0 -0.00019772171335943225 0.0022142367540925437 0 -0.00020187282601241748 0.0022041193098658635 0 -0.00019818950009103137 0.0022110208655846345 0 -0.00020720658907918515 0.0021995334686064883 0 -0.00019818950009103137 0.0022110208655846345 0 -0.00018576161810895866 0.0022419883643263147 0 -0.00019818950009103137 0.0022110208655846345 0 -0.00018576161810895866 0.0022419883643263147 0 -0.00016539208479091695 0.0022751370025217467 0 -0.00019818950009103137 0.0022110208655846345 0 -0.00016848711386151295 0.0022290455732205732 0 -0.00016539208479091695 0.0022751370025217467 0 -0.00016848711386151295 0.0022290455732205732 0 -0.00012214320893310474 0.0023022608524798974 0 -0.00016539208479091695 0.0022751370025217467 0 -9.5536173063515207e-05 0.0022282711468917366 0 -2.2685528061560062e-05 0.0022978694986881005 0 -0.00012214320893310474 0.0023022608524798974 0 -0.00016848711386151295 0.0022290455732205732 0 -9.5536173063515207e-05 0.0022282711468917366 0 -0.00012214320893310474 0.0023022608524798974 0 4.8584730095978887e-05 0.0030486450845993922 0 -9.4222468825566605e-06 0.0031167768410054783 0 -2.2928738674581762e-05 0.0030999266447561762 0 1.5107140321468161e-06 0.0026605635026664878 0 -1.3401454533250108e-05 0.0026735459054308087 0 -9.5536173063515207e-05 0.0022282711468917366 0 -2.2685528061560062e-05 0.0022978694986881005 0 -6.4423141663676385e-05 0.0021779340307868027 0 -9.4222468825566605e-06 0.0031167768410054783 0 -2.8111150573885174e-05 0.0031142748311906378 0 -2.2928738674581762e-05 0.0030999266447561762 0 -0.00016848711386151295 0.0022290455732205732 0 -9.5536173063515207e-05 0.0022282711468917366 0 -0.00011127562715202562 0.0021572543587572782 0 -9.5536173063515207e-05 0.0022282711468917366 0 -6.4423141663676385e-05 0.0021779340307868027 0 -0.00011127562715202562 0.0021572543587572782 0 -0.00018298986988977994 0.0022508720689322415 0 -0.00016707340708951911 0.0021406947465648324 0 -0.00024795899649811314 0.0022256483777150123 0 -0.00032606568490054194 0.0023058166068006163 0 -0.00025065295366389869 0.0022814070319198375 0 -6.4423141663676385e-05 0.0021779340307868027 0 -0.00011127562715202562 0.0021572543587572782 0 -8.4909148885082387e-05 0.0021059709675678808 0 -0.00016707340708951911 0.0021406947465648324 0 -0.0001971552904605523 0.0025007392575577131 0 -9.4222468825566605e-06 0.0031167768410054783 0 -2.4350957695673001e-05 0.0031192891750612605 0 -2.6578591454622151e-05 0.0031178834464017386 0 -1.3401454533250108e-05 0.0026735459054308087 0 -0.0001971552904605523 0.0025007392575577131 0 -9.4222468825566605e-06 0.0031167768410054783 0 -2.4350957695673001e-05 0.0031192891750612605 0 -2.8111150573885174e-05 0.0031142748311906378 0 -2.92066892552201e-05 0.0031189774023917937 0 -2.8405551415685163e-05 0.0031207316609440528 0 -3.3860799583576708e-05 0.0031233978687439236 0 -2.92066892552201e-05 0.0031189774023917937 0 -2.8405551415685163e-05 0.0031207316609440528 0 -2.6578591454622151e-05 0.0031178834464017386 0 -2.4350957695673001e-05 0.0031192891750612605 0 -2.8405551415685163e-05 0.0031207316609440528 0 -2.6578591454622151e-05 0.0031178834464017386 0 -0.00027968845645208495 0.0023810252612105772 0 -0.00032606568490054194 0.0023058166068006163 0 -0.00026530718508465442 0.0023296558499541335 0 -0.00032606568490054194 0.0023058166068006163 0 -0.00026530718508465442 0.0023296558499541335 0 -0.00025065295366389869 0.0022814070319198375 0 -3.2051804437281038e-05 0.002826805050871095 0 -3.9624938654613433e-05 0.0029112215668821917 0 -0.00020574712230118103 0.0028320542006861921 0 -5.0501952684891922e-05 0.0030080007541397253 0 -9.6226210812387495e-05 0.003002008922678968 0 -4.5051125511316028e-05 0.0031225582175237578 0 -3.3860799583576708e-05 0.0031233978687439236 0 -4.2487182320806545e-05 0.0031190200350948404 0 -2.8405551415685163e-05 0.0031207316609440528 0 -3.3860799583576708e-05 0.0031233978687439236 0 -3.6567082535453743e-05 0.0031184742145940153 0 -3.3860799583576708e-05 0.0031233978687439236 0 -3.6567082535453743e-05 0.0031184742145940153 0 -4.2487182320806545e-05 0.0031190200350948404 0 -2.4350957695673001e-05 0.0031192891750612605 0 -2.8405551415685163e-05 0.0031207316609440528 0 -3.6567082535453743e-05 0.0031184742145940153 0 -2.4350957695673001e-05 0.0031192891750612605 0 -3.6567082535453743e-05 0.0031184742145940153 0 -2.8111150573885174e-05 0.0031142748311906378 0 -3.6567082535453743e-05 0.0031184742145940153 0 -4.2487182320806545e-05 0.0031190200350948404 0 -4.8338801370227057e-05 0.0031137029658338364 0 -4.5051125511316028e-05 0.0031225582175237578 0 -4.2487182320806545e-05 0.0031190200350948404 0 -4.8566649641669759e-05 0.0031185585884626467 0 -5.1322102263232592e-05 0.0031083484941083414 0 -4.4530091615681583e-05 0.0031570745387949893 0 -4.4195136020181758e-05 0.0031432502260492156 0 -3.6567082535453743e-05 0.0031184742145940153 0 -5.1322102263232592e-05 0.0031083484941083414 0 -4.8338801370227057e-05 0.0031137029658338364 0 -4.7376503650169776e-05 0.0031128219560030571 0 -5.4999289279491745e-05 0.0031411518345006036 0 -3.6567082535453743e-05 0.0031184742145940153 0 -5.1322102263232592e-05 0.0031083484941083414 0 -2.8111150573885174e-05 0.0031142748311906378 0 -5.1322102263232592e-05 0.0031083484941083414 0 -2.8111150573885174e-05 0.0031142748311906378 0 -2.2928738674581762e-05 0.0030999266447561762 0 -5.1322102263232592e-05 0.0031083484941083414 0 -2.2928738674581762e-05 0.0030999266447561762 0 -6.9533575856411099e-05 0.0030612935440339447 0 4.8584730095978887e-05 0.0030486450845993922 0 -2.2928738674581762e-05 0.0030999266447561762 0 -6.9533575856411099e-05 0.0030612935440339447 0 -5.1322102263232592e-05 0.0031083484941083414 0 -5.1359956302987801e-05 0.0030943797012952549 0 -4.4195136020181758e-05 0.0031432502260492156 0 -5.1322102263232592e-05 0.0031083484941083414 0 -6.9533575856411099e-05 0.0030612935440339447 0 -5.1359956302987801e-05 0.0030943797012952549 0 -5.1359956302987801e-05 0.0030943797012952549 0 -3.3022566187677298e-05 0.0031333409967014662 0 -0.00011696134136183412 0.0029497128173336736 0 -0.00015245747524210681 0.0028856677821199198 0 -0.00011009212510390039 0.0029516476660954413 0 -0.00015607299143982967 0.0026485066536244576 0 -0.00011696134136183412 0.0029497128173336736 0 -3.156155930621429e-05 0.002566555430482423 0 -0.00028783364341491622 0.0026332278710173998 0 -0.00015607299143982967 0.0026485066536244576 0 -0.00011696134136183412 0.0029497128173336736 0 4.8584730095978887e-05 0.0030486450845993922 0 -6.9533575856411099e-05 0.0030612935440339447 0 -0.00011696134136183412 0.0029497128173336736 0 -6.9533575856411099e-05 0.0030612935440339447 0 -5.1359956302987801e-05 0.0030943797012952549 0 -0.00011696134136183412 0.0029497128173336736 0 1.5107140321468161e-06 0.0026605635026664878 0 -2.3201657529432737e-05 0.0025744219072504795 0 -2.2685528061560062e-05 0.0022978694986881005 0 -9.4894725917826043e-05 0.0024148273896762848 0 -3.156155930621429e-05 0.002566555430482423 0 4.8584730095978887e-05 0.0030486450845993922 0 -0.00011696134136183412 0.0029497128173336736 0 -3.156155930621429e-05 0.002566555430482423 0 -2.2685528061560062e-05 0.0022978694986881005 0 -0.00012214320893310474 0.0023022608524798974 0 -9.4894725917826043e-05 0.0024148273896762848 0 -0.00012214320893310474 0.0023022608524798974 0 -9.4894725917826043e-05 0.0024148273896762848 0 -0.00013211741235355555 0.0023696765317643919 0 -9.4894725917826043e-05 0.0024148273896762848 0 -3.156155930621429e-05 0.002566555430482423 0 -0.00011239223149413051 0.002451026719512724 0 -9.4894725917826043e-05 0.0024148273896762848 0 -0.00011239223149413051 0.002451026719512724 0 -0.00013211741235355555 0.0023696765317643919 0 -3.156155930621429e-05 0.002566555430482423 0 -0.00011144454711635809 0.002474271430392987 0 -0.00011239223149413051 0.002451026719512724 0 -3.156155930621429e-05 0.002566555430482423 0 -0.00011144454711635809 0.002474271430392987 0 -0.00018018008335185 0.0025304132577168253 0 -0.00011144454711635809 0.002474271430392987 0 -0.00011239223149413051 0.002451026719512724 0 -0.00015996765539987495 0.0023732395707631998 0 -0.00011144454711635809 0.002474271430392987 0 -0.00018018008335185 0.0025304132577168253 0 -0.00014406007408016374 0.0024690663149474269 0 -0.00016482022663996519 0.002376674987915509 0 -0.00026200659762008917 0.0023784984716744627 0 -0.00011144454711635809 0.002474271430392987 0 -0.00015996765539987495 0.0023732395707631998 0 -0.00014406007408016374 0.0024690663149474269 0 -0.00018018008335185 0.0025304132577168253 0 -0.00024993583371985028 0.0025262199398221911 0 -0.00014406007408016374 0.0024690663149474269 0 -0.0002589452422558514 0.0025527723484253012 0 -0.00018018008335185 0.0025304132577168253 0 -0.00024993583371985028 0.0025262199398221911 0 -0.00028783364341491622 0.0026332278710173998 0 -0.0002589452422558514 0.0025527723484253012 0 -0.00018018008335185 0.0025304132577168253 0 -0.00015607299143982967 0.0026485066536244576 0 -3.156155930621429e-05 0.002566555430482423 0 -0.00018018008335185 0.0025304132577168253 0 -0.00028783364341491622 0.0026332278710173998 0 -0.00015607299143982967 0.0026485066536244576 0 -0.00018018008335185 0.0025304132577168253 0 -0.00023610151485218902 0.0016081799862252674 0 -0.0002018451465765265 0.0017550936344677898 0 -0.00029262657471423365 0.0018336724095416395 0 5.0547162990714915e-05 0.0014243441394056376 0 -0.00023424311465449242 0.001792445153950419 0 -0.00012670457789683534 0.0018988170762681837 0 -0.00023424311465449242 0.001792445153950419 0 -0.00012670457789683534 0.0018988170762681837 0 -0.00024008146507077487 0.0021254612335838362 0 -0.00020513494214040166 0.0018654980177586328 0 -0.0002018451465765265 0.0017550936344677898 0 -0.00029262657471423365 0.0018336724095416395 0 -0.00025161564939845874 0.0021734026060648394 0 -0.00029262657471423365 0.0018336724095416395 0 -0.00021127887199728221 0.0019875651707487083 0 -0.00025453489735124176 0.0021444835277739309 0 -0.00020123320233049607 0.0018608190870776553 0 -0.00020513494214040166 0.0018654980177586328 0 -0.00029262657471423365 0.0018336724095416395 0 -0.00021127887199728221 0.0019875651707487083 0 -0.00021859792079327164 0.0020582477743339468 0 -0.0002377722371287415 0.0021235278135570894 0 -0.00025161564939845874 0.0021734026060648394 0 -0.00012670457789683534 0.0018988170762681837 0 -0.00024008146507077487 0.0021254612335838362 0 -0.00025161564939845874 0.0021734026060648394 0 -0.00020425395596292744 0.0020863014110922792 0 -0.00021127887199728221 0.0019875651707487083 0 -0.00021190703601341282 0.0023427424885962326 0 -0.00024008146507077487 0.0021254612335838362 0 -0.00020770782941451042 0.002207462357869967 0 -0.00023059706320944836 0.002172948460134598 0 -0.00024008146507077487 0.0021254612335838362 0 -0.00020770782941451042 0.002207462357869967 0 -0.00020892660756123457 0.0022003015190231743 0 -0.00023059706320944836 0.002172948460134598 0 -0.00020770782941451042 0.002207462357869967 0 -0.00020892660756123457 0.0022003015190231743 0 -0.00020770782941451042 0.002207462357869967 0 -0.00018679427189566397 0.0022706276114517325 0 -0.00020892660756123457 0.0022003015190231743 0 -0.00018679427189566397 0.0022706276114517325 0 -0.00018576161810895866 0.0022419883643263147 0 -0.00021190703601341282 0.0023427424885962326 0 -0.00020770782941451042 0.002207462357869967 0 -0.00018679427189566397 0.0022706276114517325 0 -0.00021190703601341282 0.0023427424885962326 0 -0.00018679427189566397 0.0022706276114517325 0 -0.00017638842497906778 0.0023343294446744635 0 -0.00021190703601341282 0.0023427424885962326 0 -0.00017638842497906778 0.0023343294446744635 0 -0.00017341012026865756 0.0023458980083720326 0 -0.00017638842497906778 0.0023343294446744635 0 -0.0001639573690515879 0.0023124704106056129 0 -0.00014550336192371198 0.0023789780679390792 0 -0.00018679427189566397 0.0022706276114517325 0 -0.00017638842497906778 0.0023343294446744635 0 -0.0001639573690515879 0.0023124704106056129 0 -0.00018679427189566397 0.0022706276114517325 0 -0.00018576161810895866 0.0022419883643263147 0 -0.0001639573690515879 0.0023124704106056129 0 -0.00018576161810895866 0.0022419883643263147 0 -0.0001639573690515879 0.0023124704106056129 0 -0.00016539208479091695 0.0022751370025217467 0 -0.00012214320893310474 0.0023022608524798974 0 -0.00016539208479091695 0.0022751370025217467 0 -0.00013211741235355555 0.0023696765317643919 0 -0.0001639573690515879 0.0023124704106056129 0 -0.00016539208479091695 0.0022751370025217467 0 -0.00013211741235355555 0.0023696765317643919 0 -0.00011239223149413051 0.002451026719512724 0 -0.00013211741235355555 0.0023696765317643919 0 -0.00014550336192371198 0.0023789780679390792 0 -0.0001639573690515879 0.0023124704106056129 0 -0.00013211741235355555 0.0023696765317643919 0 -0.00014550336192371198 0.0023789780679390792 0 -0.00011239223149413051 0.002451026719512724 0 -0.00010574638086565176 0.0023932832759527211 0 -0.00014550336192371198 0.0023789780679390792 0 -0.00011239223149413051 0.002451026719512724 0 -0.00015996765539987495 0.0023732395707631998 0 -0.00010574638086565176 0.0023932832759527211 0 -0.00015996765539987495 0.0023732395707631998 0 -0.00010574638086565176 0.0023932832759527211 0 -9.4241055132665856e-05 0.0022307967901017815 0 -0.00010574638086565176 0.0023932832759527211 0 -1.3635713131262615e-06 0.002348632846353501 0 -9.4241055132665856e-05 0.0022307967901017815 0 -0.00010574638086565176 0.0023932832759527211 0 -1.3635713131262615e-06 0.002348632846353501 0 -0.00014550336192371198 0.0023789780679390792 0 -0.00017638842497906778 0.0023343294446744635 0 -0.00014550336192371198 0.0023789780679390792 0 -0.00017341012026865756 0.0023458980083720326 0 -0.00010989494168476169 0.0023048320707145333 0 -0.00013737565316675489 0.0023653361402087895 0 -0.00021958256537568942 0.0022870650608949644 0 -0.00014550336192371198 0.0023789780679390792 0 -0.00017341012026865756 0.0023458980083720326 0 -0.00021190703601341282 0.0023427424885962326 0 -0.00017341012026865756 0.0023458980083720326 0 -0.00011231007472467675 0.0023071359036334776 0 -0.00021958256537568942 0.0022870650608949644 0 -0.00017341012026865756 0.0023458980083720326 0 -0.00011231007472467675 0.0023071359036334776 0 -0.00021958256537568942 0.0022870650608949644 0 -0.00011231007472467675 0.0023071359036334776 0 -0.00014637882378671301 0.002207006917480376 0 -0.00019460261559462017 0.0012839027935459121 0 -5.1302964827310822e-06 0.0011756950258887181 0 -1.4478916174907696e-05 0.00098335894028131953 0 5.0547162990714915e-05 0.0014243441394056376 0 -0.00019460261559462017 0.0012839027935459121 0 -5.1302964827310822e-06 0.0011756950258887181 0 -9.3937650111446575e-05 0.0015347621267380236 0 -0.00020123320233049607 0.0018608190870776553 0 5.0547162990714915e-05 0.0014243441394056376 0 -0.00023424311465449242 0.001792445153950419 0 -0.00019460261559462017 0.0012839027935459121 0 -0.00021859792079327164 0.0020582477743339468 0 -0.00015083927369144993 0.001794590038921736 0 -3.6933945631734328e-05 0.0020872682263641303 0 -9.6075500610255226e-05 0.0019120261483993211 0 -9.1881442421457516e-07 0.001736374799812173 0 -1.291368515131708e-05 0.00094605132548486589 0 -6.9062875294005757e-05 0.0009428232492464017 0 7.4657121483387356e-05 0.00099573797646823137 0 5.1078989379953185e-06 0.00096488269255875906 0 -1.291368515131708e-05 0.00094605132548486589 0 7.4657121483387356e-05 0.00099573797646823137 0 -5.2991566472810542e-05 0.0015240033823304413 0 2.4564441110201318e-05 0.0013705712525256114 0 -4.2351005547867416e-06 0.00094813945183365076 0 5.1078989379953185e-06 0.00096488269255875906 0 -1.291368515131708e-05 0.00094605132548486589 0 4.1459483961520552e-07 0.00094968315538629204 0 -1.291368515131708e-05 0.00094605132548486589 0 -1.4478916174907696e-05 0.00098335894028131953 0 4.1459483961520552e-07 0.00094968315538629204 0 -4.2351005547867416e-06 0.00094813945183365076 0 -1.291368515131708e-05 0.00094605132548486589 0 -0.00015083927369144993 0.001794590038921736 0 -5.2991566472810542e-05 0.0015240033823304413 0 -1.291368515131708e-05 0.00094605132548486589 0 -1.4478916174907696e-05 0.00098335894028131953 0 -6.9062875294005757e-05 0.0009428232492464017 0 -0.00019460261559462017 0.0012839027935459121 0 -1.4478916174907696e-05 0.00098335894028131953 0 -6.9062875294005757e-05 0.0009428232492464017 0 2.2782357399053325e-05 0.0010033201414380113 0 -5.1302964827310822e-06 0.0011756950258887181 0 -1.4478916174907696e-05 0.00098335894028131953 0 -3.6933945631734328e-05 0.0020872682263641303 0 -0.00014637882378671301 0.002207006917480376 0 -0.0002131813560405288 0.002057059598882183 0 -0.00011231007472467675 0.0023071359036334776 0 -3.6933945631734328e-05 0.0020872682263641303 0 -0.00014637882378671301 0.002207006917480376 0 -0.00021958256537568942 0.0022870650608949644 0 -0.00014637882378671301 0.002207006917480376 0 -0.0002131813560405288 0.002057059598882183 0 -0.0002131813560405288 0.002057059598882183 0 -9.6075500610255226e-05 0.0019120261483993211 0 -0.00012509914521923943 0.0017192204787635544 0 0.00010492521592286256 0.0021181484777107983 0 5.4456267501937771e-05 0.0019137866596518212 0 0.00014674752512321013 0.0018207691390486566 0 -5.3285441859156322e-05 0.0020830302964506189 0 -1.191498126065574e-06 0.0017783754543536014 0 -3.6933945631734328e-05 0.0020872682263641303 0 -0.0002131813560405288 0.002057059598882183 0 -9.6075500610255226e-05 0.0019120261483993211 0 0.00010492521592286256 0.0021181484777107983 0 -9.4241055132665856e-05 0.0022307967901017815 0 -3.3817571896791939e-05 0.0019327019922808946 0 0.00010492521592286256 0.0021181484777107983 0 -3.3817571896791939e-05 0.0019327019922808946 0 5.4456267501937771e-05 0.0019137866596518212 0 -0.00010989494168476169 0.0023048320707145333 0 -5.3285441859156322e-05 0.0020830302964506189 0 -1.3635713131262615e-06 0.002348632846353501 0 0.00010492521592286256 0.0021181484777107983 0 -9.4241055132665856e-05 0.0022307967901017815 0 -9.4241055132665856e-05 0.0022307967901017815 0 -3.3817571896791939e-05 0.0019327019922808946 0 -0.00018825662262379124 0.0020778864877756824 0 -3.4886359327780751e-05 0.0019317853141049756 0 -0.00010622702060582897 0.0019151451767130817 0 -3.9649043931145613e-05 0.0018155921134284745 0 -3.3817571896791939e-05 0.0019327019922808946 0 -4.3071454618979447e-05 0.0018658172806307427 0 -3.3817571896791939e-05 0.0019327019922808946 0 -0.00018825662262379124 0.0020778864877756824 0 -0.00018605198540577075 0.0019395304895320888 0 -3.9649043931145613e-05 0.0018155921134284745 0 -1.4387690844713588e-07 0.0016780310349849017 0 -1.1441535673551188e-07 0.0019644592408180435 0 -3.9649043931145613e-05 0.0018155921134284745 0 -4.3071454618979447e-05 0.0018658172806307427 0 -1.1441535673551188e-07 0.0019644592408180435 0 -3.9649043931145613e-05 0.0018155921134284745 0 -1.4387690844713588e-07 0.0016780310349849017 0 2.8621237171993785e-06 0.0017818405176999166 0 -1.4387690844713588e-07 0.0016780310349849017 0 2.8621237171993785e-06 0.0017818405176999166 0 1.8511283617751422e-05 0.0016361632113804404 0 -3.9649043931145613e-05 0.0018155921134284745 0 2.8621237171993785e-06 0.0017818405176999166 0 -3.3817571896791939e-05 0.0019327019922808946 0 2.8621237171993785e-06 0.0017818405176999166 0 -3.3817571896791939e-05 0.0019327019922808946 0 5.4456267501937771e-05 0.0019137866596518212 0 -0.00012509914521923943 0.0017192204787635544 0 -5.3874168286335266e-07 0.0013909673567068389 0 -9.1881442421457516e-07 0.001736374799812173 0 2.8621237171993785e-06 0.0017818405176999166 0 5.4456267501937771e-05 0.0019137866596518212 0 0.00014674752512321013 0.0018207691390486566 0 -9.6075500610255226e-05 0.0019120261483993211 0 -0.00012509914521923943 0.0017192204787635544 0 -9.1881442421457516e-07 0.001736374799812173 0 2.8621237171993785e-06 0.0017818405176999166 0 0.00014674752512321013 0.0018207691390486566 0 1.8511283617751422e-05 0.0016361632113804404 0 -1.191498126065574e-06 0.0017783754543536014 0 1.2911488840910321e-08 0.0013918025758833084 0 0.00014674752512321013 0.0018207691390486566 0 1.8511283617751422e-05 0.0016361632113804404 0 4.0055845346928006e-07 0.001392115533450231 0 -1.4387690844713588e-07 0.0016780310349849017 0 1.8511283617751422e-05 0.0016361632113804404 0 4.0055845346928006e-07 0.001392115533450231 0 -5.3874168286335266e-07 0.0013909673567068389 0 5.3049465730515065e-07 0.0013708722251027821 0 -9.1881442421457516e-07 0.001736374799812173 0 2.11165131331351e-08 0.0013701426827893734 0 2.4564441110201318e-05 0.0013705712525256114 0 -1.805155514828697e-05 0.0011134563328696527 0 2.9656879234445397e-07 0.0013696728025134196 0 7.4657121483387356e-05 0.00099573797646823137 0 -1.805155514828697e-05 0.0011134563328696527 0 7.4657121483387356e-05 0.00099573797646823137 0 -2.8291307061896155e-06 0.0010029569566912986 0 5.1078989379953185e-06 0.00096488269255875906 0 7.4657121483387356e-05 0.00099573797646823137 0 -2.8291307061896155e-06 0.0010029569566912986 0 -0.00047691952064914377 0.002141751028035268 0 -0.00047291847004168154 0.0020039932556637076 0 -0.00063908368566814252 0.0020125409378983516 0 -0.00047691952064914377 0.002141751028035268 0 -0.00033774345583595697 0.0020232483433245347 0 -0.00047291847004168154 0.0020039932556637076 0 -0.00047691952064914377 0.002141751028035268 0 -0.00059595210089076857 0.0022217682114358496 0 -0.00063908368566814252 0.0020125409378983516 0 -0.00047691952064914377 0.002141751028035268 0 -0.00059595210089076857 0.0022217682114358496 0 -0.00041061512545558654 0.0022787547017576971 0 -0.00045918207509632633 0.0023556711895299717 0 -0.00026200659762008917 0.0023784984716744627 0 -0.00015996765539987495 0.0023732395707631998 0 -0.00041061512545558654 0.0022787547017576971 0 -0.00027238537561114396 0.00219421146887199 0 -0.00047691952064914377 0.002141751028035268 0 -0.00041061512545558654 0.0022787547017576971 0 -0.00027238537561114396 0.00219421146887199 0 -0.00015996765539987495 0.0023732395707631998 0 -9.4241055132665856e-05 0.0022307967901017815 0 -0.00027238537561114396 0.00219421146887199 0 -9.4241055132665856e-05 0.0022307967901017815 0 -0.00027238537561114396 0.00219421146887199 0 -0.00018825662262379124 0.0020778864877756824 0 -0.00027238537561114396 0.00219421146887199 0 -0.00018825662262379124 0.0020778864877756824 0 -0.00033774345583595697 0.0020232483433245347 0 -0.00047691952064914377 0.002141751028035268 0 -0.00027238537561114396 0.00219421146887199 0 -0.00033774345583595697 0.0020232483433245347 0 -0.00033774345583595697 0.0020232483433245347 0 -0.00033707650645919577 0.0018959341458481887 0 -0.00042705477775336107 0.0019200198656351723 0 -0.00033774345583595697 0.0020232483433245347 0 -0.00042705477775336107 0.0019200198656351723 0 -0.00047291847004168154 0.0020039932556637076 0 -0.00018825662262379124 0.0020778864877756824 0 -0.00033774345583595697 0.0020232483433245347 0 -0.00018605198540577075 0.0019395304895320888 0 -0.00033774345583595697 0.0020232483433245347 0 -0.00018605198540577075 0.0019395304895320888 0 -0.00033707650645919577 0.0018959341458481887 0 -0.00010622702060582897 0.0019151451767130817 0 -0.00021188449215766813 0.0019239330337170733 0 -4.3071454618979447e-05 0.0018658172806307427 0 -1.1441535673551188e-07 0.0019644592408180435 0 -6.3725712903996611e-06 0.0020081470629689964 0 -1.1441535673551188e-07 0.0019644592408180435 0 -6.3725712903996611e-06 0.0020081470629689964 0 1.5859440128396761e-07 0.0022504430129191527 0 -0.00033707650645919577 0.0018959341458481887 0 -0.00049032820627264106 0.001838208487937025 0 -0.00042705477775336107 0.0019200198656351723 0 -6.3725712903996611e-06 0.0020081470629689964 0 1.5859440128396761e-07 0.0022504430129191527 0 3.0516971018504356e-05 0.0022153162562324395 0 -8.7183146620515303e-10 0.0022509322393794097 0 -2.1558213453770299e-07 0.0022933025793384181 0 -2.4652574447524251e-10 0.0024088417848195489 0 -0.00021188449215766813 0.0019239330337170733 0 -0.00012968217232362818 0.0022493725552513448 0 -1.1832904382057925e-07 0.0022507275419691424 0 -0.00012968217232362818 0.0022493725552513448 0 -0.00049032820627264106 0.001838208487937025 0 -0.00042705477775336107 0.0019200198656351723 0 -0.00047291847004168154 0.0020039932556637076 0 -0.00012968217232362818 0.0022493725552513448 0 -0.00032068747829812393 0.0023908335178903003 0 -0.00049032820627264106 0.001838208487937025 0 -0.00047291847004168154 0.0020039932556637076 0 -0.00063908368566814252 0.0020125409378983516 0 0.00014574541711286968 0.0024980725323642066 0 3.8002130708303307e-07 0.0024094391970083838 0 -7.2869276964032124e-06 0.0026247910094159194 0 0.00014574541711286968 0.0024980725323642066 0 3.5437249116645403e-05 0.0027950703529421249 0 -7.2869276964032124e-06 0.0026247910094159194 0 -0.00012968217232362818 0.0022493725552513448 0 1.1124688399842749e-07 0.0024089752670808156 0 3.8002130708303307e-07 0.0024094391970083838 0 -7.2869276964032124e-06 0.0026247910094159194 0 -1.8533677207733033e-07 0.0026801767101227243 0 -7.2869276964032124e-06 0.0026247910094159194 0 -1.8533677207733033e-07 0.0026801767101227243 0 -2.1348635957687949e-05 0.0027523401625863838 0 -1.8533677207733033e-07 0.0026801767101227243 0 -4.7032778627446758e-05 0.002857344988913288 0 -3.7731310121463877e-05 0.0029023998562013463 0 -1.8533677207733033e-07 0.0026801767101227243 0 -4.7032778627446758e-05 0.002857344988913288 0 -2.1348635957687949e-05 0.0027523401625863838 0 -4.7032778627446758e-05 0.002857344988913288 0 -2.1348635957687949e-05 0.0027523401625863838 0 -3.1515480414117842e-05 0.0028489362639528763 0 -4.7032778627446758e-05 0.002857344988913288 0 -3.1515480414117842e-05 0.0028489362639528763 0 -5.7559842340471885e-05 0.0028925445756725356 0 3.5437249116645403e-05 0.0027950703529421249 0 -7.2869276964032124e-06 0.0026247910094159194 0 -2.1348635957687949e-05 0.0027523401625863838 0 3.5437249116645403e-05 0.0027950703529421249 0 -2.1348635957687949e-05 0.0027523401625863838 0 -3.1515480414117842e-05 0.0028489362639528763 0 -0.00059595210089076857 0.0022217682114358496 0 -0.00063908368566814252 0.0020125409378983516 0 -0.00077689020777575528 0.0021820950427202581 0 -0.00032068747829812393 0.0023908335178903003 0 -0.00034274636497486565 0.0025596644090138346 0 3.5437249116645403e-05 0.0027950703529421249 0 -3.1515480414117842e-05 0.0028489362639528763 0 -3.7274032911289229e-05 0.0029182308286676778 0 -3.1515480414117842e-05 0.0028489362639528763 0 -5.7559842340471885e-05 0.0028925445756725356 0 -3.7274032911289229e-05 0.0029182308286676778 0 -5.7559842340471885e-05 0.0028925445756725356 0 -3.7274032911289229e-05 0.0029182308286676778 0 -7.5245249604133371e-05 0.0029122099692984365 0 -0.00027271989381669274 0.0026398679447084492 0 -0.00026782758706154006 0.0026811206121820242 0 -0.00027124649029344169 0.0026119073383095545 0 -0.00031911526526442671 0.0027477904619169487 0 -0.00023908463355956435 0.0027274797606480594 0 -0.00026782758706154006 0.0026811206121820242 0 -0.00034274636497486565 0.0025596644090138346 0 -0.00033127775997371335 0.002620187771325496 0 -0.00031911526526442671 0.0027477904619169487 0 -0.00023908463355956435 0.0027274797606480594 0 -0.00017301439975375661 0.0027915106914270025 0 -0.00023908463355956435 0.0027274797606480594 0 -0.00020549686309626045 0.0027040762878001679 0 -0.00017301439975375661 0.0027915106914270025 0 -0.00020549686309626045 0.0027040762878001679 0 -0.00026116785270777633 0.002633547320296907 0 -0.00026782758706154006 0.0026811206121820242 0 -0.00020549686309626045 0.0027040762878001679 0 -0.00026116785270777633 0.002633547320296907 0 -0.00021996143790178378 0.0025960107373923136 0 -0.00023908463355956435 0.0027274797606480594 0 -0.00020549686309626045 0.0027040762878001679 0 -0.00026782758706154006 0.0026811206121820242 0 -0.00026116785270777633 0.002633547320296907 0 -0.00027124649029344169 0.0026119073383095545 0 -0.00027577508165602642 0.0025909300430967635 0 -0.00026116785270777633 0.002633547320296907 0 -0.00026782758706154006 0.0026811206121820242 0 -0.00027124649029344169 0.0026119073383095545 0 -0.00024993583371985028 0.0025262199398221911 0 -0.00027271989381669274 0.0026398679447084492 0 -0.00027124649029344169 0.0026119073383095545 0 -0.00045918207509632633 0.0023556711895299717 0 -0.00034274636497486565 0.0025596644090138346 0 -0.00024993583371985028 0.0025262199398221911 0 -0.00027124649029344169 0.0026119073383095545 0 -0.00027577508165602642 0.0025909300430967635 0 -6.1364013175819462e-05 0.0028731891394869185 0 -5.6080855743907246e-05 0.0029219157255663108 0 -3.581059441533346e-05 0.0028910295847568187 0 -6.1364013175819462e-05 0.0028731891394869185 0 -3.581059441533346e-05 0.0028910295847568187 0 -8.0275616145450036e-05 0.0029362493961947542 0 -3.7377108303182975e-05 0.0030158673659152501 0 -3.1950896803564438e-05 0.0030872901193296563 0 -0.00020549686309626045 0.0027040762878001679 0 -6.1364013175819462e-05 0.0028731891394869185 0 -0.00021996143790178378 0.0025960107373923136 0 -0.00020549686309626045 0.0027040762878001679 0 -0.00017301439975375661 0.0027915106914270025 0 -6.1364013175819462e-05 0.0028731891394869185 0 -7.0096515591026959e-05 0.0028557827411642349 0 -0.00013187557301641393 0.0027833937998535392 0 -6.1364013175819462e-05 0.0028731891394869185 0 -3.6335259485414245e-05 0.002956334890953725 0 -8.0275616145450036e-05 0.0029362493961947542 0 -0.00031911526526442671 0.0027477904619169487 0 -0.00017301439975375661 0.0027915106914270025 0 -7.5245249604133371e-05 0.0029122099692984365 0 -0.00017301439975375661 0.0027915106914270025 0 -6.1364013175819462e-05 0.0028731891394869185 0 -7.5245249604133371e-05 0.0029122099692984365 0 -0.00034274636497486565 0.0025596644090138346 0 7.1061549720347406e-06 0.0029762847388735574 0 -5.7559842340471885e-05 0.0028925445756725356 0 -7.5245249604133371e-05 0.0029122099692984365 0 -6.2299513896025825e-05 0.0029250251588677457 0 -7.5245249604133371e-05 0.0029122099692984365 0 -6.0842545708921185e-05 0.0029459343026774104 0 -6.2299513896025825e-05 0.0029250251588677457 0 -5.6080855743907246e-05 0.0029219157255663108 0 -4.3044424512632135e-05 0.0029819526132410248 0 -3.581059441533346e-05 0.0028910295847568187 0 -6.0842545708921185e-05 0.0029459343026774104 0 -5.6080855743907246e-05 0.0029219157255663108 0 -4.3044424512632135e-05 0.0029819526132410248 0 -6.1364013175819462e-05 0.0028731891394869185 0 -7.5245249604133371e-05 0.0029122099692984365 0 -5.6080855743907246e-05 0.0029219157255663108 0 -7.5245249604133371e-05 0.0029122099692984365 0 -6.0842545708921185e-05 0.0029459343026774104 0 -5.6080855743907246e-05 0.0029219157255663108 0 -4.3044424512632135e-05 0.0029819526132410248 0 -4.5527405752247461e-05 0.0030066221294258655 0 -2.2842119037362828e-05 0.0030747469491310369 0 -6.0842545708921185e-05 0.0029459343026774104 0 -4.3044424512632135e-05 0.0029819526132410248 0 -4.5527405752247461e-05 0.0030066221294258655 0 -6.0842545708921185e-05 0.0029459343026774104 0 -4.5527405752247461e-05 0.0030066221294258655 0 -6.2299513896025825e-05 0.0029250251588677457 0 -4.5527405752247461e-05 0.0030066221294258655 0 -1.4885235235727807e-05 0.0031292734699518462 0 -2.2842119037362828e-05 0.0030747469491310369 0 -4.7032778627446758e-05 0.002857344988913288 0 -6.2299513896025825e-05 0.0029250251588677457 0 -3.7731310121463877e-05 0.0029023998562013463 0 -4.5527405752247461e-05 0.0030066221294258655 0 -6.2299513896025825e-05 0.0029250251588677457 0 -3.7731310121463877e-05 0.0029023998562013463 0 -4.7032778627446758e-05 0.002857344988913288 0 -5.7559842340471885e-05 0.0028925445756725356 0 -6.2299513896025825e-05 0.0029250251588677457 0 -4.5527405752247461e-05 0.0030066221294258655 0 -3.7731310121463877e-05 0.0029023998562013463 0 -5.8424007339273521e-08 0.0029513782720566356 0 -1.8533677207733033e-07 0.0026801767101227243 0 -3.7731310121463877e-05 0.0029023998562013463 0 -5.8424007339273521e-08 0.0029513782720566356 0 -5.8424007339273521e-08 0.0029513782720566356 0 -1.3336007814020923e-08 0.0032225217036172347 0 -1.4885235235727807e-05 0.0031292734699518462 0 -4.5527405752247461e-05 0.0030066221294258655 0 -5.8424007339273521e-08 0.0029513782720566356 0 -1.4885235235727807e-05 0.0031292734699518462 0 -1.3336007814020923e-08 0.0032225217036172347 0 -1.4885235235727807e-05 0.0031292734699518462 0 2.0766188338915248e-05 0.0033372820874173047 0 -1.3336007814020923e-08 0.0032225217036172347 0 2.0766188338915248e-05 0.0033372820874173047 0 1.2413551454696343e-07 0.0034937093726944758 0 8.4425655757853026e-05 0.0035683847658358496 0 4.8497460440105443e-05 0.0033390230075931548 0 2.0766188338915248e-05 0.0033372820874173047 0 2.0581027753152734e-05 0.0031906423506963193 0 3.3947969388556608e-05 0.0032035867277656941 0 2.0766188338915248e-05 0.0033372820874173047 0 4.3650070635462761e-05 0.0035423045092404242 0 3.3947969388556608e-05 0.0032035867277656941 0 7.2805005665885802e-05 0.0031532537869584367 0 4.8497460440105443e-05 0.0033390230075931548 0 2.0581027753152734e-05 0.0031906423506963193 0 -1.4970596276913566e-06 0.003025522307904034 0 0.00012104249296687626 0.0030317597368963384 0 -1.4885235235727807e-05 0.0031292734699518462 0 2.0766188338915248e-05 0.0033372820874173047 0 2.0581027753152734e-05 0.0031906423506963193 0 -4.3044424512632135e-05 0.0029819526132410248 0 -2.2842119037362828e-05 0.0030747469491310369 0 -1.4970596276913566e-06 0.003025522307904034 0 -2.2842119037362828e-05 0.0030747469491310369 0 2.0581027753152734e-05 0.0031906423506963193 0 -1.4970596276913566e-06 0.003025522307904034 0 -1.4885235235727807e-05 0.0031292734699518462 0 -2.2842119037362828e-05 0.0030747469491310369 0 2.0581027753152734e-05 0.0031906423506963193 0 1.2413551454696343e-07 0.0034937093726944758 0 -1.5977703828099826e-05 0.0037209276422246361 0 -8.3082200932217595e-08 0.0037649168502495124 0 2.0766188338915248e-05 0.0033372820874173047 0 1.2413551454696343e-07 0.0034937093726944758 0 4.3650070635462761e-05 0.0035423045092404242 0 1.2413551454696343e-07 0.0034937093726944758 0 4.3650070635462761e-05 0.0035423045092404242 0 -1.5977703828099826e-05 0.0037209276422246361 0 4.3650070635462761e-05 0.0035423045092404242 0 4.268644365920603e-05 0.003752886062706488 0 0.00022401662649842725 0.0037517359769475402 0 4.3650070635462761e-05 0.0035423045092404242 0 -1.5977703828099826e-05 0.0037209276422246361 0 4.268644365920603e-05 0.003752886062706488 0 -1.5977703828099826e-05 0.0037209276422246361 0 -9.9322143819460663e-06 0.0038319836672764383 0 4.268644365920603e-05 0.003752886062706488 0 -1.5977703828099826e-05 0.0037209276422246361 0 -9.9322143819460663e-06 0.0038319836672764383 0 -4.7853152973476738e-05 0.0038602803391520825 0 -9.9322143819460663e-06 0.0038319836672764383 0 4.268644365920603e-05 0.003752886062706488 0 8.0401598587875032e-05 0.003902281233617696 0 4.268644365920603e-05 0.003752886062706488 0 8.0401598587875032e-05 0.003902281233617696 0 0.00022401662649842725 0.0037517359769475402 0 -5.5516602281157774e-06 0.0038938822900212102 0 -1.3442943269675538e-05 0.0039277477601969406 0 -4.3500045201482165e-05 0.0038857244942861807 0 -9.9322143819460663e-06 0.0038319836672764383 0 8.0401598587875032e-05 0.003902281233617696 0 -5.5516602281157774e-06 0.0038938822900212102 0 8.0401598587875032e-05 0.003902281233617696 0 -5.5516602281157774e-06 0.0038938822900212102 0 -1.3442943269675538e-05 0.0039277477601969406 0 -9.9322143819460663e-06 0.0038319836672764383 0 -5.5516602281157774e-06 0.0038938822900212102 0 -4.3500045201482165e-05 0.0038857244942861807 0 4.8497460440105443e-05 0.0033390230075931548 0 -3.7377108303182975e-05 0.0030158673659152501 0 -4.3044424512632135e-05 0.0029819526132410248 0 -1.4970596276913566e-06 0.003025522307904034 0 -3.581059441533346e-05 0.0028910295847568187 0 -3.1841755073223255e-05 0.0031889232022379909 0 -3.1166298932314516e-05 0.0032044175003541771 0 -1.4934442100243519e-05 0.0032030031536704733 0 -1.4970596276913566e-06 0.003025522307904034 0 0.00012104249296687626 0.0030317597368963384 0 -3.581059441533346e-05 0.0028910295847568187 0 -4.8394469993153375e-05 0.0032099770677094276 0 -3.1841755073223255e-05 0.0031889232022379909 0 -3.1166298932314516e-05 0.0032044175003541771 0 2.8036505193601539e-05 0.0035762569272579673 0 4.8497460440105443e-05 0.0033390230075931548 0 -4.8394469993153375e-05 0.0032099770677094276 0 -3.1166298932314516e-05 0.0032044175003541771 0 -3.059348676558133e-05 0.0032174235401758429 0 -3.1166298932314516e-05 0.0032044175003541771 0 -1.4934442100243519e-05 0.0032030031536704733 0 -3.059348676558133e-05 0.0032174235401758429 0 -1.4934442100243519e-05 0.0032030031536704733 0 -1.4308718705638384e-05 0.0032204481942979123 0 -3.059348676558133e-05 0.0032174235401758429 0 -1.4308718705638384e-05 0.0032204481942979123 0 -3.059348676558133e-05 0.0032174235401758429 0 -2.6765286659096019e-05 0.0032363231676168914 0 -4.8394469993153375e-05 0.0032099770677094276 0 -3.059348676558133e-05 0.0032174235401758429 0 -4.3682742297673476e-05 0.0032247828120279764 0 -3.059348676558133e-05 0.0032174235401758429 0 -3.7772270538263921e-05 0.0032307896403992453 0 -2.6765286659096019e-05 0.0032363231676168914 0 -3.059348676558133e-05 0.0032174235401758429 0 -3.7772270538263921e-05 0.0032307896403992453 0 -4.3682742297673476e-05 0.0032247828120279764 0 -3.7772270538263921e-05 0.0032307896403992453 0 -4.3682742297673476e-05 0.0032247828120279764 0 -4.783565128103822e-05 0.0032357866771101041 0 -2.6765286659096019e-05 0.0032363231676168914 0 -4.102049788404909e-05 0.0032406957893457537 0 -4.6610238983371195e-05 0.0032583281796153521 0 -3.7772270538263921e-05 0.0032307896403992453 0 -2.6765286659096019e-05 0.0032363231676168914 0 -4.102049788404909e-05 0.0032406957893457537 0 1.2668505942071066e-06 0.0032129566427754048 0 -0.00011587692708171625 0.0033250040339334016 0 -3.7772270538263921e-05 0.0032307896403992453 0 -4.102049788404909e-05 0.0032406957893457537 0 -4.783565128103822e-05 0.0032357866771101041 0 -2.6765286659096019e-05 0.0032363231676168914 0 -1.7681093688029847e-05 0.003242359301063963 0 -6.1275049436292693e-06 0.0032300131500219193 0 -2.6765286659096019e-05 0.0032363231676168914 0 -1.7681093688029847e-05 0.003242359301063963 0 -2.6709333446700042e-05 0.0032501774443333309 0 -1.4308718705638384e-05 0.0032204481942979123 0 -2.6765286659096019e-05 0.0032363231676168914 0 -6.1275049436292693e-06 0.0032300131500219193 0 8.0401598587875032e-05 0.003902281233617696 0 -1.3442943269675538e-05 0.0039277477601969406 0 1.030611173506604e-05 0.003962872325049562 0 -1.3442943269675538e-05 0.0039277477601969406 0 1.030611173506604e-05 0.003962872325049562 0 -2.3571214628540287e-05 0.0039580303463030136 0 2.8036505193601539e-05 0.0035762569272579673 0 -9.0855906041399415e-05 0.0035818534727571254 0 -4.8394469993153375e-05 0.0032099770677094276 0 -6.8745133194599372e-05 0.0032349271537655301 0 -5.6936922447216348e-05 0.0032325160466993514 0 -4.8394469993153375e-05 0.0032099770677094276 0 -4.3682742297673476e-05 0.0032247828120279764 0 -5.6936922447216348e-05 0.0032325160466993514 0 -4.3682742297673476e-05 0.0032247828120279764 0 -5.6936922447216348e-05 0.0032325160466993514 0 -4.783565128103822e-05 0.0032357866771101041 0 -6.2097227764088418e-05 0.0032447132631613419 0 -7.4323432557688547e-05 0.003242777279662018 0 -5.5308942473271097e-05 0.0032568800818158989 0 -4.783565128103822e-05 0.0032357866771101041 0 -5.3101362284875106e-05 0.0032424141556437196 0 -4.8570896556000607e-05 0.0032462808716563437 0 -4.102049788404909e-05 0.0032406957893457537 0 -4.783565128103822e-05 0.0032357866771101041 0 -4.8570896556000607e-05 0.0032462808716563437 0 -5.6936922447216348e-05 0.0032325160466993514 0 -4.783565128103822e-05 0.0032357866771101041 0 -5.5585347417538115e-05 0.0032384150864498847 0 -4.783565128103822e-05 0.0032357866771101041 0 -5.3101362284875106e-05 0.0032424141556437196 0 -5.5585347417538115e-05 0.0032384150864498847 0 -4.102049788404909e-05 0.0032406957893457537 0 -4.8570896556000607e-05 0.0032462808716563437 0 -4.6610238983371195e-05 0.0032583281796153521 0 -5.146486766269673e-05 0.003252151536444146 0 -5.4995949569733571e-05 0.0032473380806919763 0 -5.5308942473271097e-05 0.0032568800818158989 0 -4.8570896556000607e-05 0.0032462808716563437 0 -5.146486766269673e-05 0.003252151536444146 0 -5.4995949569733571e-05 0.0032473380806919763 0 -5.3101362284875106e-05 0.0032424141556437196 0 -4.8570896556000607e-05 0.0032462808716563437 0 -5.4995949569733571e-05 0.0032473380806919763 0 -5.3101362284875106e-05 0.0032424141556437196 0 -5.4995949569733571e-05 0.0032473380806919763 0 -5.8441558271344523e-05 0.0032423178804646124 0 -5.4995949569733571e-05 0.0032473380806919763 0 -6.2097227764088418e-05 0.0032447132631613419 0 -5.8441558271344523e-05 0.0032423178804646124 0 -5.4995949569733571e-05 0.0032473380806919763 0 -6.2097227764088418e-05 0.0032447132631613419 0 -5.5308942473271097e-05 0.0032568800818158989 0 -6.2097227764088418e-05 0.0032447132631613419 0 -5.8441558271344523e-05 0.0032423178804646124 0 -6.1827153309248125e-05 0.0032390856966037439 0 -6.2097227764088418e-05 0.0032447132631613419 0 -6.1827153309248125e-05 0.0032390856966037439 0 -6.7723600407378859e-05 0.0032400733328146517 0 -5.3101362284875106e-05 0.0032424141556437196 0 -5.8441558271344523e-05 0.0032423178804646124 0 -5.5585347417538115e-05 0.0032384150864498847 0 -5.8441558271344523e-05 0.0032423178804646124 0 -5.5585347417538115e-05 0.0032384150864498847 0 -6.1827153309248125e-05 0.0032390856966037439 0 -5.6936922447216348e-05 0.0032325160466993514 0 -5.5585347417538115e-05 0.0032384150864498847 0 -6.1827153309248125e-05 0.0032390856966037439 0 -5.6936922447216348e-05 0.0032325160466993514 0 -6.1827153309248125e-05 0.0032390856966037439 0 -6.6125878436312088e-05 0.0032374527937406184 0 -0.00024441902069692524 0.003538254240750533 0 -0.00020312542134570227 0.0034691042505565692 0 -0.00031870232629128883 0.0036418256908218676 0 -0.00032237916531394458 0.0036238954947276332 0 -0.00027695951926427547 0.0036589550042056967 0 -6.2097227764088418e-05 0.0032447132631613419 0 -6.7723600407378859e-05 0.0032400733328146517 0 -7.4323432557688547e-05 0.003242777279662018 0 -6.8745133194599372e-05 0.0032349271537655301 0 -5.6936922447216348e-05 0.0032325160466993514 0 -6.6125878436312088e-05 0.0032374527937406184 0 -6.8745133194599372e-05 0.0032349271537655301 0 -6.6125878436312088e-05 0.0032374527937406184 0 -6.7723600407378859e-05 0.0032400733328146517 0 -6.1827153309248125e-05 0.0032390856966037439 0 -6.6125878436312088e-05 0.0032374527937406184 0 -6.7723600407378859e-05 0.0032400733328146517 0 -6.8745133194599372e-05 0.0032349271537655301 0 -6.7723600407378859e-05 0.0032400733328146517 0 -7.4323432557688547e-05 0.003242777279662018 0 -9.0855906041399415e-05 0.0035818534727571254 0 -0.00024441902069692524 0.003538254240750533 0 -0.00033491352231542371 0.0036447955955905623 0 -0.00032533332887034667 0.0036308620873577667 0 -0.00035249494327783542 0.00363509148059773 0 -0.00031870232629128883 0.0036418256908218676 0 -0.00033491352231542371 0.0036447955955905623 0 -0.00032237916531394458 0.0036238954947276332 0 -0.00032232525628335352 0.003640105124367981 0 -0.00024441902069692524 0.003538254240750533 0 -0.00031870232629128883 0.0036418256908218676 0 -0.00033491352231542371 0.0036447955955905623 0 -0.00032970586358025729 0.0036514131957329052 0 -9.0855906041399415e-05 0.0035818534727571254 0 -0.00026448448818035714 0.0038206139889208446 0 -0.00017765107149153364 0.0036647292835630127 0 -0.00019937661699254383 0.0036963467447761558 0 -0.00023470010055586313 0.0036678686694789665 0 -0.00032533332887034667 0.0036308620873577667 0 -0.00034028212094443271 0.003619654227191365 0 -0.00035249494327783542 0.00363509148059773 0 -0.00024441902069692524 0.003538254240750533 0 -0.00026448448818035714 0.0038206139889208446 0 -0.00033517523050295158 0.0036487912698787259 0 -0.00031764727449256887 0.0036638135228769489 0 -0.00029685642940946032 0.0036525678842592871 0 -0.00034256300975850335 0.0036528095894600605 0 -0.00020312542134570227 0.0034691042505565692 0 -0.00031870232629128883 0.0036418256908218676 0 -0.00032970586358025729 0.0036514131957329052 0 -0.00027695951926427547 0.0036589550042056967 0 -0.00033989517648349302 0.0036681460490993957 0 -0.00033517523050295158 0.0036487912698787259 0 -0.00031764727449256887 0.0036638135228769489 0 -0.00033989517648349302 0.0036681460490993957 0 -0.00031764727449256887 0.0036638135228769489 0 -0.00032740919654399009 0.0036905077969942497 0 -0.00022149262640440296 0.003400196704782301 0 -0.00035425780477133857 0.0035217268012971586 0 -0.00031764727449256887 0.0036638135228769489 0 -0.00028818548158840261 0.0036592962043159286 0 -0.00032740919654399009 0.0036905077969942497 0 -0.00031764727449256887 0.0036638135228769489 0 -0.00029685642940946032 0.0036525678842592871 0 -0.00028818548158840261 0.0036592962043159286 0 -0.00020312542134570227 0.0034691042505565692 0 -0.00022149262640440296 0.003400196704782301 0 -0.00020312542134570227 0.0034691042505565692 0 -0.00011587692708171625 0.0033250040339334016 0 -4.8570896556000607e-05 0.0032462808716563437 0 -5.146486766269673e-05 0.003252151536444146 0 -4.6610238983371195e-05 0.0032583281796153521 0 -0.00018540062958010493 0.003404666362456542 0 -0.00019747896614454708 0.0033943153774670222 0 -0.0002055075337468535 0.0034005603229289973 0 -5.146486766269673e-05 0.003252151536444146 0 -5.5308942473271097e-05 0.0032568800818158989 0 -4.6610238983371195e-05 0.0032583281796153521 0 -0.00022149262640440296 0.003400196704782301 0 -0.00011587692708171625 0.0033250040339334016 0 -0.00022190552258367644 0.0034020767211356442 0 -0.00038330900606126154 0.0033628336663604416 0 -0.0002947329217838891 0.0035706601414310104 0 -0.00022912332819469884 0.0032436266190476594 0 -0.00022190552258367644 0.0034020767211356442 0 -0.00038330900606126154 0.0033628336663604416 0 -0.00033989517648349302 0.0036681460490993957 0 -0.00032740919654399009 0.0036905077969942497 0 -0.00035905702654339457 0.0036820403796084863 0 -5.8613132065762808e-05 0.0032488409290798107 0 -1.3201886311225536e-05 0.0032543430855889372 0 -8.7561776594418964e-05 0.0032503607426974052 0 -2.5263306159424729e-05 0.0033139515680581529 0 -9.3996349096733565e-06 0.0032531384096812954 0 -1.7681093688029847e-05 0.003242359301063963 0 -2.6709333446700042e-05 0.0032501774443333309 0 -9.3996349096733565e-06 0.0032531384096812954 0 -0.00022149262640440296 0.003400196704782301 0 -0.00010842782974361901 0.0032895699767216224 0 -0.00018616682940793649 0.0032337709004869827 0 -8.7561776594418964e-05 0.0032503607426974052 0 -8.8995467855715403e-05 0.0033397655469869806 0 -0.00020166451363551305 0.0032460778885434671 0 -0.00018616682940793649 0.0032337709004869827 0 -8.8995467855715403e-05 0.0033397655469869806 0 -2.6765286659096019e-05 0.0032363231676168914 0 -4.2631804716807342e-05 0.0032481529833999902 0 -2.6709333446700042e-05 0.0032501774443333309 0 -0.00011587692708171625 0.0033250040339334016 0 -5.8613132065762808e-05 0.0032488409290798107 0 -0.00022912332819469884 0.0032436266190476594 0 -0.00022190552258367644 0.0034020767211356442 0 -8.8995467855715403e-05 0.0033397655469869806 0 -0.00022190552258367644 0.0034020767211356442 0 -8.8995467855715403e-05 0.0033397655469869806 0 -0.00013568792675813608 0.0034531863073658927 0 -8.8995467855715403e-05 0.0033397655469869806 0 -2.5263306159424729e-05 0.0033139515680581529 0 -5.3547438593569287e-05 0.0034065120681667379 0 -8.7561776594418964e-05 0.0032503607426974052 0 -8.8995467855715403e-05 0.0033397655469869806 0 -2.5263306159424729e-05 0.0033139515680581529 0 1.2385461049366366e-05 0.0032683330866330258 0 2.3560379255330921e-05 0.0032724047547978189 0 1.3076421624315629e-05 0.0033551536273490352 0 -2.5263306159424729e-05 0.0033139515680581529 0 1.2385461049366366e-05 0.0032683330866330258 0 1.3076421624315629e-05 0.0033551536273490352 0 -2.5263306159424729e-05 0.0033139515680581529 0 1.2385461049366366e-05 0.0032683330866330258 0 -9.3996349096733565e-06 0.0032531384096812954 0 1.2385461049366366e-05 0.0032683330866330258 0 -9.3996349096733565e-06 0.0032531384096812954 0 1.0398565263792101e-05 0.0032301081387356681 0 -9.3996349096733565e-06 0.0032531384096812954 0 1.0398565263792101e-05 0.0032301081387356681 0 -6.1275049436292693e-06 0.0032300131500219193 0 -1.7681093688029847e-05 0.003242359301063963 0 -9.3996349096733565e-06 0.0032531384096812954 0 -6.1275049436292693e-06 0.0032300131500219193 0 1.0398565263792101e-05 0.0032301081387356681 0 1.335697797045064e-05 0.0032318322526379219 0 4.7681638889212371e-06 0.003205045264728164 0 1.2385461049366366e-05 0.0032683330866330258 0 1.0398565263792101e-05 0.0032301081387356681 0 1.335697797045064e-05 0.0032318322526379219 0 1.0398565263792101e-05 0.0032301081387356681 0 4.7681638889212371e-06 0.003205045264728164 0 6.8949134559107604e-06 0.0032276366413462811 0 1.335697797045064e-05 0.0032318322526379219 0 7.7160846930518392e-06 0.0032278399972477871 0 2.3560379255330921e-05 0.0032724047547978189 0 1.2385461049366366e-05 0.0032683330866330258 0 1.335697797045064e-05 0.0032318322526379219 0 2.3560379255330921e-05 0.0032724047547978189 0 1.335697797045064e-05 0.0032318322526379219 0 -7.9924833309922665e-06 0.0031827947183641963 0 7.7160846930518392e-06 0.0032278399972477871 0 1.335697797045064e-05 0.0032318322526379219 0 -7.9924833309922665e-06 0.0031827947183641963 0 4.7681638889212371e-06 0.003205045264728164 0 -5.1359956302987801e-05 0.0030943797012952549 0 -7.9924833309922665e-06 0.0031827947183641963 0 -1.7843610671924058e-05 0.0031612685666021689 0 -5.1359956302987801e-05 0.0030943797012952549 0 -7.9924833309922665e-06 0.0031827947183641963 0 -2.5243453413539511e-05 0.0031713564272963569 0 -5.1359956302987801e-05 0.0030943797012952549 0 -3.3022566187677298e-05 0.0031333409967014662 0 -1.7843610671924058e-05 0.0031612685666021689 0 -3.3022566187677298e-05 0.0031333409967014662 0 -1.7843610671924058e-05 0.0031612685666021689 0 -3.0225250387830212e-06 0.0030733056955568622 0 -1.7843610671924058e-05 0.0031612685666021689 0 4.7681638889212371e-06 0.003205045264728164 0 6.8949134559107604e-06 0.0032276366413462811 0 -7.9924833309922665e-06 0.0031827947183641963 0 -1.7843610671924058e-05 0.0031612685666021689 0 4.7681638889212371e-06 0.003205045264728164 0 -1.7843610671924058e-05 0.0031612685666021689 0 -5.5151121154551961e-05 0.0030596307057753321 0 -3.0225250387830212e-06 0.0030733056955568622 0 -1.3992737013589675e-05 0.0031635418712117791 0 -2.1573803001973239e-05 0.0031419094825877944 0 -0.00028783364341491622 0.0026332278710173998 0 -0.0002589452422558514 0.0025527723484253012 0 -0.00028309347754198663 0.0025717911300628779 0 -0.00015245747524210681 0.0028856677821199198 0 -0.00014636976344812279 0.0028206798536493205 0 -0.0002589452422558514 0.0025527723484253012 0 -0.00024993583371985028 0.0025262199398221911 0 -0.00027577508165602642 0.0025909300430967635 0 -0.0002589452422558514 0.0025527723484253012 0 -0.00028309347754198663 0.0025717911300628779 0 -0.00027577508165602642 0.0025909300430967635 0 -5.5151121154551961e-05 0.0030596307057753321 0 -3.0225250387830212e-06 0.0030733056955568622 0 -3.6335259485414245e-05 0.002956334890953725 0 -0.00014636976344812279 0.0028206798536493205 0 -0.00013187557301641393 0.0027833937998535392 0 -0.00028309347754198663 0.0025717911300628779 0 -0.00027577508165602642 0.0025909300430967635 0 -0.00021996143790178378 0.0025960107373923136 0 -0.00026116785270777633 0.002633547320296907 0 -0.00027577508165602642 0.0025909300430967635 0 -0.00021996143790178378 0.0025960107373923136 0 -2.1573803001973239e-05 0.0031419094825877944 0 -3.1950896803564438e-05 0.0030872901193296563 0 -5.5151121154551961e-05 0.0030596307057753321 0 -3.6335259485414245e-05 0.002956334890953725 0 -8.0275616145450036e-05 0.0029362493961947542 0 -1.4934442100243519e-05 0.0032030031536704733 0 -1.4308718705638384e-05 0.0032204481942979123 0 2.1522319864599847e-06 0.0032180469640844182 0 -1.4308718705638384e-05 0.0032204481942979123 0 2.1522319864599847e-06 0.0032180469640844182 0 -6.1275049436292693e-06 0.0032300131500219193 0 2.1522319864599847e-06 0.0032180469640844182 0 -6.1275049436292693e-06 0.0032300131500219193 0 4.4216031954630034e-06 0.0032269739915404103 0 1.0398565263792101e-05 0.0032301081387356681 0 -6.1275049436292693e-06 0.0032300131500219193 0 4.4216031954630034e-06 0.0032269739915404103 0 6.8949134559107604e-06 0.0032276366413462811 0 2.1522319864599847e-06 0.0032180469640844182 0 4.4216031954630034e-06 0.0032269739915404103 0 1.0398565263792101e-05 0.0032301081387356681 0 6.8949134559107604e-06 0.0032276366413462811 0 4.4216031954630034e-06 0.0032269739915404103 0 -3.6707028851599605e-06 0.0049971170579362146 0 -3.6118099239758844e-06 0.0049971440721988114 0 -7.1316335061878006e-06 0.0049949937532296597 0 -3.6707028851599605e-06 0.0049971170579362146 0 -5.0809106746256778e-09 0.004999994540408054 0 -3.6118099239758844e-06 0.0049971440721988114 0 -3.6707028851599605e-06 0.0049971170579362146 0 -5.0809106746256778e-09 0.004999994540408054 0 -7.1538777781493177e-10 0.0049999951738450184 0 -3.6707028851599605e-06 0.0049971170579362146 0 -7.1316335061878006e-06 0.0049949937532296597 0 -7.1094858914106484e-06 0.0049934590997442983 0 -1.6073940630746066e-07 0.005000273004574677 0 3.075317908201172e-05 0.0047627741036023914 0 2.2825575322526068e-08 0.0050000346059865669 0 -6.6314127036580529e-06 0.0049270754197837168 0 1.161379522200883e-05 0.0049445411624821191 0 2.2825575322526068e-08 0.0050000346059865669 0 -8.5066785572758283e-08 0.0049997123033948786 0 -6.6314127036580529e-06 0.0049270754197837168 0 -8.5066785572758283e-08 0.0049997123033948786 0 -6.6314127036580529e-06 0.0049270754197837168 0 1.4826711669615246e-07 0.0045789828946287874 0 -6.6314127036580529e-06 0.0049270754197837168 0 1.4410673102468147e-05 0.0049360311322979265 0 1.4826711669615246e-07 0.0045789828946287874 0 3.075317908201172e-05 0.0047627741036023914 0 6.189512022838621e-05 0.0046232788391825132 0 4.3066797555237772e-05 0.0049130230097955375 0 3.075317908201172e-05 0.0047627741036023914 0 0.00021671842598801797 0.004361329714341753 0 9.0751980401811308e-06 0.0043352273013356939 0 3.3859983418659971e-05 0.0044871486558450951 0 0.00021671842598801797 0.004361329714341753 0 9.0751980401811308e-06 0.0043352273013356939 0 4.4122886169966044e-05 0.0042016815135481221 0 3.075317908201172e-05 0.0047627741036023914 0 1.5681075109876334e-07 0.0045783357286326301 0 3.3859983418659971e-05 0.0044871486558450951 0 3.0065638393605468e-07 0.0045780036843578453 0 1.0218633589720685e-05 0.0043436708489913408 0 0.00021671842598801797 0.004361329714341753 0 3.3859983418659971e-05 0.0044871486558450951 0 3.0065638393605468e-07 0.0045780036843578453 0 3.0065638393605468e-07 0.0045780036843578453 0 1.0218633589720685e-05 0.0043436708489913408 0 -8.3153148991650268e-08 0.0043072350770447148 0 3.3859983418659971e-05 0.0044871486558450951 0 1.0218633589720685e-05 0.0043436708489913408 0 3.4844787484868344e-05 0.0041398572115779134 0 3.1590587912789165e-05 0.0044510283536096946 0 -5.4287721818087903e-05 0.0042371313397329552 0 1.0218633589720685e-05 0.0043436708489913408 0 3.4844787484868344e-05 0.0041398572115779134 0 3.6343222712829917e-06 0.0042190831157455739 0 9.0751980401811308e-06 0.0043352273013356939 0 3.3859983418659971e-05 0.0044871486558450951 0 -0.00012601941083878541 0.0043230908054467127 0 9.0751980401811308e-06 0.0043352273013356939 0 -5.7177254648028485e-05 0.0042855115273749012 0 -0.00012601941083878541 0.0043230908054467127 0 -5.7177254648028485e-05 0.0042855115273749012 0 -0.00011212992579320986 0.0042301306605367463 0 4.4122886169966044e-05 0.0042016815135481221 0 -5.7177254648028485e-05 0.0042855115273749012 0 -0.00012601941083878541 0.0043230908054467127 0 -0.00011212992579320986 0.0042301306605367463 0 9.0751980401811308e-06 0.0043352273013356939 0 -5.7177254648028485e-05 0.0042855115273749012 0 4.4122886169966044e-05 0.0042016815135481221 0 -7.1316335061878006e-06 0.0049949937532296597 0 -1.259933317667388e-05 0.0049891884383172344 0 -7.1094858914106484e-06 0.0049934590997442983 0 -8.4023370777756363e-05 0.0041004247202833122 0 -0.00021151558249664457 0.0043569388908766609 0 -0.00011212992579320986 0.0042301306605367463 0 4.4122886169966044e-05 0.0042016815135481221 0 -9.5106931038938132e-05 0.0040527242922488984 0 -0.00011212992579320986 0.0042301306605367463 0 -0.00010375594308192482 0.0040822409417452625 0 -0.000171490535574188 0.0041483060520659566 0 6.189512022838621e-05 0.0046232788391825132 0 -0.00021151558249664457 0.0043569388908766609 0 -0.000171490535574188 0.0041483060520659566 0 -0.00021428670228163644 0.0040857110738619258 0 -0.00025568395062445577 0.0041967540978846843 0 -0.00010375594308192482 0.0040822409417452625 0 -0.000171490535574188 0.0041483060520659566 0 -0.00021428670228163644 0.0040857110738619258 0 -0.00021428670228163644 0.0040857110738619258 0 -0.00029374727408197263 0.0040848625925113471 0 -0.00025568395062445577 0.0041967540978846843 0 -0.00014482117757639532 0.0040681460481547561 0 -0.00020659205865815376 0.0040246067395407628 0 -0.00029374727408197263 0.0040848625925113471 0 -0.00025568395062445577 0.0041967540978846843 0 -0.00037136646211036298 0.0040885141683834258 0 -2.1941638710861329e-05 0.0039458864833295535 0 -3.1084601476318007e-05 0.0040652085579163996 0 -5.8145467310116269e-05 0.0039133646251561594 0 -0.00011212992579320986 0.0042301306605367463 0 -0.000171490535574188 0.0041483060520659566 0 -0.00025568395062445577 0.0041967540978846843 0 -5.4287721818087903e-05 0.0042371313397329552 0 -0.00014482117757639532 0.0040681460481547561 0 -0.00012601941083878541 0.0043230908054467127 0 -0.00011212992579320986 0.0042301306605367463 0 -0.00025568395062445577 0.0041967540978846843 0 3.4844787484868344e-05 0.0041398572115779134 0 -2.1941638710861329e-05 0.0039458864833295535 0 -3.1084601476318007e-05 0.0040652085579163996 0 3.4844787484868344e-05 0.0041398572115779134 0 3.6343222712829917e-06 0.0042190831157455739 0 -3.1084601476318007e-05 0.0040652085579163996 0 3.6343222712829917e-06 0.0042190831157455739 0 -8.3153148991650268e-08 0.0043072350770447148 0 -3.1084601476318007e-05 0.0040652085579163996 0 1.0218633589720685e-05 0.0043436708489913408 0 3.6343222712829917e-06 0.0042190831157455739 0 -8.3153148991650268e-08 0.0043072350770447148 0 -8.3153148991650268e-08 0.0043072350770447148 0 -3.1084601476318007e-05 0.0040652085579163996 0 -5.9293771723424011e-08 0.0040360319564012532 0 -3.1084601476318007e-05 0.0040652085579163996 0 -3.7396653963859586e-05 0.003895296869193514 0 -5.8145467310116269e-05 0.0039133646251561594 0 -3.7396653963859586e-05 0.003895296869193514 0 -4.7853152973476738e-05 0.0038602803391520825 0 -5.8145467310116269e-05 0.0039133646251561594 0 -3.1084601476318007e-05 0.0040652085579163996 0 -3.7396653963859586e-05 0.003895296869193514 0 -5.9293771723424011e-08 0.0040360319564012532 0 -1.5977703828099826e-05 0.0037209276422246361 0 -3.7396653963859586e-05 0.003895296869193514 0 -8.3082200932217595e-08 0.0037649168502495124 0 -3.7396653963859586e-05 0.003895296869193514 0 -5.9293771723424011e-08 0.0040360319564012532 0 -8.3082200932217595e-08 0.0037649168502495124 0 -1.5977703828099826e-05 0.0037209276422246361 0 -3.7396653963859586e-05 0.003895296869193514 0 -4.7853152973476738e-05 0.0038602803391520825 0 -4.7853152973476738e-05 0.0038602803391520825 0 -5.8145467310116269e-05 0.0039133646251561594 0 -4.3500045201482165e-05 0.0038857244942861807 0 -9.9322143819460663e-06 0.0038319836672764383 0 -4.7853152973476738e-05 0.0038602803391520825 0 -4.3500045201482165e-05 0.0038857244942861807 0 -5.8145467310116269e-05 0.0039133646251561594 0 -6.3950356176244906e-05 0.0039033156160255189 0 -4.3500045201482165e-05 0.0038857244942861807 0 -2.1941638710861329e-05 0.0039458864833295535 0 -5.8145467310116269e-05 0.0039133646251561594 0 -6.3950356176244906e-05 0.0039033156160255189 0 -1.3442943269675538e-05 0.0039277477601969406 0 -6.3950356176244906e-05 0.0039033156160255189 0 -4.3500045201482165e-05 0.0038857244942861807 0 -1.3442943269675538e-05 0.0039277477601969406 0 -2.3571214628540287e-05 0.0039580303463030136 0 -6.3950356176244906e-05 0.0039033156160255189 0 -0.00048189980072419755 0.0039899929438545374 0 -0.00037136646211036298 0.0040885141683834258 0 -0.00034548919455101797 0.0039853067996940186 0 -0.00026448448818035714 0.0038206139889208446 0 -0.00020659205865815376 0.0040246067395407628 0 -0.00029374727408197263 0.0040848625925113471 0 -0.00037136646211036298 0.0040885141683834258 0 -0.00034548919455101797 0.0039853067996940186 0 -0.00039474332526768472 0.0036251402814787342 0 -0.00037036400619353639 0.003645224483266049 0 -0.00041799706425459218 0.003658782636670882 0 -0.00039474332526768472 0.0036251402814787342 0 -0.00037036400619353639 0.003645224483266049 0 -0.00035249494327783542 0.00363509148059773 0 -0.00034028212094443271 0.003619654227191365 0 -0.00039474332526768472 0.0036251402814787342 0 -0.00035249494327783542 0.00363509148059773 0 -0.00026448448818035714 0.0038206139889208446 0 -0.00037006082252509991 0.0037965467999910708 0 -0.00033491352231542371 0.0036447955955905623 0 -0.00032970586358025729 0.0036514131957329052 0 -0.00037036400619353639 0.003645224483266049 0 -0.00033491352231542371 0.0036447955955905623 0 -0.00037036400619353639 0.003645224483266049 0 -0.00035249494327783542 0.00363509148059773 0 -0.00034256300975850335 0.0036528095894600605 0 -0.00036310363585454652 0.0036457322823335589 0 -0.00033989517648349302 0.0036681460490993957 0 -0.00033517523050295158 0.0036487912698787259 0 -0.00037036400619353639 0.003645224483266049 0 -0.00037036400619353639 0.003645224483266049 0 -0.00035905702654339457 0.0036820403796084863 0 -0.00039132851603970015 0.0036883730070296026 0 -0.00033989517648349302 0.0036681460490993957 0 -0.00037036400619353639 0.003645224483266049 0 -0.00035905702654339457 0.0036820403796084863 0 -0.00035425780477133857 0.0035217268012971586 0 -0.00052296908407959016 0.0037172128149919742 0 -0.00035905702654339457 0.0036820403796084863 0 -0.00039132851603970015 0.0036883730070296026 0 -0.00036502033484322148 0.0037193629508377531 0 -0.00032740919654399009 0.0036905077969942497 0 -0.00035905702654339457 0.0036820403796084863 0 -0.00036502033484322148 0.0037193629508377531 0 -0.00069299065402311972 0.0039396145043919034 0 -0.00071047093326813155 0.0039015023805741883 0 -0.00070475859633238591 0.0039380884013366585 0 -0.00070041830314198858 0.0039111511875105174 0 -0.00071272755203585759 0.0039006118552169528 0 -0.00069900864131029446 0.0039188358855013613 0 -0.00067552724135287506 0.0039295999048834839 0 -0.00071272755203585759 0.0039006118552169528 0 -0.00053960252134082449 0.003817869334185865 0 -0.00052296908407959016 0.0037172128149919742 0 -0.00069900864131029446 0.0039188358855013613 0 -0.00071272755203585759 0.0039006118552169528 0 -0.00072615288931053405 0.0038976542663928778 0 -0.00037036400619353639 0.003645224483266049 0 -0.00039132851603970015 0.0036883730070296026 0 -0.00041799706425459218 0.003658782636670882 0 -0.00053960252134082449 0.003817869334185865 0 -0.00056075681693847741 0.0037824797418722594 0 -0.0006718344546681387 0.0039396341559416468 0 -0.00067552724135287506 0.0039295999048834839 0 -0.00064079652290644255 0.0039619445188209873 0 -0.00069900864131029446 0.0039188358855013613 0 -0.0006718344546681387 0.0039396341559416468 0 -0.00067552724135287506 0.0039295999048834839 0 -0.00069091067133723752 0.0039434771830296053 0 -0.00070475859633238591 0.0039380884013366585 0 -0.00068154578622375383 0.0039912286564130284 0 -0.00069091067133723752 0.0039434771830296053 0 -0.00070475859633238591 0.0039380884013366585 0 -0.00069675550974320432 0.0039231600091244974 0 -0.00070475859633238591 0.0039380884013366585 0 -0.00069675550974320432 0.0039231600091244974 0 -0.00070041830314198858 0.0039111511875105174 0 -0.00069091067133723752 0.0039434771830296053 0 -0.00069675550974320432 0.0039231600091244974 0 -0.00068899015094456945 0.0039257972041765125 0 -0.00069675550974320432 0.0039231600091244974 0 -0.00068899015094456945 0.0039257972041765125 0 -0.00069261456991731119 0.0039033727133713715 0 -0.00069675550974320432 0.0039231600091244974 0 -0.00070041830314198858 0.0039111511875105174 0 -0.00069261456991731119 0.0039033727133713715 0 -0.00068899015094456945 0.0039257972041765125 0 -0.00068858772989474257 0.003913883805496076 0 -0.00069261456991731119 0.0039033727133713715 0 -0.00068899015094456945 0.0039257972041765125 0 -0.00066599143622598567 0.0039294355177595013 0 -0.00068858772989474257 0.003913883805496076 0 -0.00069091067133723752 0.0039434771830296053 0 -0.00067795641389334978 0.0039514183953585037 0 -0.00068154578622375383 0.0039912286564130284 0 -0.00068899015094456945 0.0039257972041765125 0 -0.00067795641389334978 0.0039514183953585037 0 -0.00066599143622598567 0.0039294355177595013 0 -0.00069091067133723752 0.0039434771830296053 0 -0.00068899015094456945 0.0039257972041765125 0 -0.00067795641389334978 0.0039514183953585037 0 -0.00067795641389334978 0.0039514183953585037 0 -0.00066758102160533578 0.0039761460735988578 0 -0.00068154578622375383 0.0039912286564130284 0 -0.00067795641389334978 0.0039514183953585037 0 -0.00066758102160533578 0.0039761460735988578 0 -0.00064658068779286379 0.0039757438285735434 0 -0.0006718344546681387 0.0039396341559416468 0 -0.00064079652290644255 0.0039619445188209873 0 -0.00064605837832519151 0.0039623886792148769 0 -0.00066758102160533578 0.0039761460735988578 0 -0.00068154578622375383 0.0039912286564130284 0 -0.0006542231316342314 0.0039985197976325658 0 -0.00063464535689982543 0.0039468712837691525 0 -0.00066900949257832202 0.0039811495988274336 0 -0.00063464535689982543 0.0039468712837691525 0 -0.00046508208390971253 0.0038614104585446237 0 -0.00056075681693847741 0.0037824797418722594 0 -0.00046508208390971253 0.0038614104585446237 0 -0.00039474332526768472 0.0036251402814787342 0 -0.00041799706425459218 0.003658782636670882 0 -0.00044432374899751646 0.0036304656152606183 0 -0.00069299065402311972 0.0039396145043919034 0 -0.00063464535689982543 0.0039468712837691525 0 -0.00037006082252509991 0.0037965467999910708 0 -0.00046508208390971253 0.0038614104585446237 0 -0.00034548919455101797 0.0039853067996940186 0 -0.00019921558308636612 0.0039766098787844479 0 -0.00026431357082206389 0.0040348619984619744 0 -0.00029374727408197263 0.0040848625925113471 0 -0.00034548919455101797 0.0039853067996940186 0 -0.00026431357082206389 0.0040348619984619744 0 -0.00021428670228163644 0.0040857110738619258 0 -0.00029374727408197263 0.0040848625925113471 0 -0.00026431357082206389 0.0040348619984619744 0 -0.00021151558249664457 0.0043569388908766609 0 -0.00046508208390971253 0.0038614104585446237 0 -0.00021428670228163644 0.0040857110738619258 0 -0.00019921558308636612 0.0039766098787844479 0 -0.00026431357082206389 0.0040348619984619744 0 -0.00010375594308192482 0.0040822409417452625 0 -0.00021428670228163644 0.0040857110738619258 0 -0.00019921558308636612 0.0039766098787844479 0 -0.00064101371107570001 0.0040627689826418182 0 -0.00069316413161057944 0.0039999656499632788 0 -0.00064969656811551693 0.0040441057211153125 0 -0.00068263354115186516 0.0039996495768934506 0 -0.00069316413161057944 0.0039999656499632788 0 -0.00064969656811551693 0.0040441057211153125 0 -0.0006905278218162982 0.003999880370704029 0 -0.00064969656811551693 0.0040441057211153125 0 -0.0006542231316342314 0.0039985197976325658 0 -0.00063464535689982543 0.0039468712837691525 0 -0.00065092775630608149 0.0040387747188140631 0 -0.00064101371107570001 0.0040627689826418182 0 -0.0006542231316342314 0.0039985197976325658 0 -0.00064658068779286379 0.0039757438285735434 0 -0.00021151558249664457 0.0043569388908766609 0 -0.00034520154587119591 0.0045208902008427353 0 -0.00064101371107570001 0.0040627689826418182 0 -0.00064969656811551693 0.0040441057211153125 0 -0.0006542231316342314 0.0039985197976325658 0 -1.259933317667388e-05 0.0049891884383172344 0 -7.1094858914106484e-06 0.0049934590997442983 0 -1.2894282567593839e-05 0.0049878404637934311 0 -7.1094858914106484e-06 0.0049934590997442983 0 -1.2894282567593839e-05 0.0049878404637934311 0 -9.9483045840705102e-06 0.0049902864326651242 0 -0.00066758102160533578 0.0039761460735988578 0 -0.0006542231316342314 0.0039985197976325658 0 -0.00064658068779286379 0.0039757438285735434 0 -0.00034520154587119591 0.0045208902008427353 0 -0.00033890392407852273 0.0044524052345910536 0 -1.2894282567593839e-05 0.0049878404637934311 0 -1.462800771119508e-05 0.0049849638193420753 0 -9.9483045840705102e-06 0.0049902864326651242 0 -0.00067795641389334978 0.0039514183953585037 0 -0.00064658068779286379 0.0039757438285735434 0 -0.00066599143622598567 0.0039294355177595013 0 -1.462800771119508e-05 0.0049849638193420753 0 -9.9483045840705102e-06 0.0049902864326651242 0 -1.1951568112100719e-05 0.0049861324284741233 0 -9.9483045840705102e-06 0.0049902864326651242 0 -7.118584768519175e-06 0.0049922384115012519 0 -1.1951568112100719e-05 0.0049861324284741233 0 -9.9483045840705102e-06 0.0049902864326651242 0 -7.118584768519175e-06 0.0049922384115012519 0 -5.0666823666860924e-06 0.0049950173895647078 0 -7.118584768519175e-06 0.0049922384115012519 0 -1.7779358816210622e-10 0.0049999705329871504 0 -7.1464659890269732e-06 0.0049845956297341794 0 -1.7779358816210622e-10 0.0049999705329871504 0 -4.2638544257489828e-09 0.0049999997031454236 0 -5.0666823666860924e-06 0.0049950173895647078 0 -7.118584768519175e-06 0.0049922384115012519 0 -1.7779358816210622e-10 0.0049999705329871504 0 -5.0666823666860924e-06 0.0049950173895647078 0 -3.6707028851599605e-06 0.0049971170579362146 0 -7.1094858914106484e-06 0.0049934590997442983 0 -7.1538777781493177e-10 0.0049999951738450184 0 -7.1094858914106484e-06 0.0049934590997442983 0 -5.0666823666860924e-06 0.0049950173895647078 0 -7.1538777781493177e-10 0.0049999951738450184 0 -4.2638544257489828e-09 0.0049999997031454236 0 -5.0666823666860924e-06 0.0049950173895647078 0 -7.1538777781493177e-10 0.0049999951738450184 0 -7.1094858914106484e-06 0.0049934590997442983 0 -9.9483045840705102e-06 0.0049902864326651242 0 -5.0666823666860924e-06 0.0049950173895647078 0 -5.4743142733418037e-08 0.0049998959154719386 0 -5.424264100842604e-05 0.004910562176597715 0 2.5330372985028907e-08 0.0049998123918363595 0 -5.4743142733418037e-08 0.0049998959154719386 0 -5.424264100842604e-05 0.004910562176597715 0 2.3327591991406236e-08 0.0050000398559581875 0 -5.424264100842604e-05 0.004910562176597715 0 -0.00016482950952219686 0.0048186223777497515 0 -0.00012004303722176567 0.0047694633471481408 0 -5.424264100842604e-05 0.004910562176597715 0 -9.8349640448170046e-05 0.0049398168808761711 0 -0.00016482950952219686 0.0048186223777497515 0 -7.8480516068380928e-06 0.0049857522431552559 0 -3.1450314456541712e-06 0.0049947995058779292 0 -1.2584765950136801e-05 0.0049840464229716323 0 -5.424264100842604e-05 0.004910562176597715 0 -9.8349640448170046e-05 0.0049398168808761711 0 2.3327591991406236e-08 0.0050000398559581875 0 -1.1174359387848658e-06 0.0049994537616636645 0 -7.3160592086679096e-08 0.0049999696377544213 0 -7.8480516068380928e-06 0.0049857522431552559 0 6.1959022411585818e-10 0.0049999798132670664 0 -3.1450314456541712e-06 0.0049947995058779292 0 6.1959022411585818e-10 0.0049999798132670664 0 -3.1450314456541712e-06 0.0049947995058779292 0 -1.7657113130089908e-09 0.0050000016886144862 0 -3.1450314456541712e-06 0.0049947995058779292 0 -1.7657113130089908e-09 0.0050000016886144862 0 -3.6044551053711297e-06 0.0050007174899424287 0 4.5432626662611578e-10 0.0050000019768358783 0 -1.7657113130089908e-09 0.0050000016886144862 0 -3.6044551053711297e-06 0.0050007174899424287 0 -1.7997528079592181e-09 0.0049999974424637036 0 -5.6112651625655321e-06 0.0049924543406092963 0 -7.118584768519175e-06 0.0049922384115012519 0 -7.1464659890269732e-06 0.0049845956297341794 0 -1.1951568112100719e-05 0.0049861324284741233 0 -7.1464659890269732e-06 0.0049845956297341794 0 -1.1684912617624189e-05 0.0049835365261234332 0 -1.1951568112100719e-05 0.0049861324284741233 0 -5.6112651625655321e-06 0.0049924543406092963 0 -1.1812715355851947e-05 0.0049849439638058012 0 -3.1450314456541712e-06 0.0049947995058779292 0 -3.6044551053711297e-06 0.0050007174899424287 0 -1.2584765950136801e-05 0.0049840464229716323 0 -7.1464659890269732e-06 0.0049845956297341794 0 -1.1684912617624189e-05 0.0049835365261234332 0 -1.2584765950136801e-05 0.0049840464229716323 0 -1.5595648551446284e-05 0.0049812050389206443 0 -1.8146059421248197e-05 0.004978220937004149 0 -1.2584765950136801e-05 0.0049840464229716323 0 -1.1684912617624189e-05 0.0049835365261234332 0 -1.5595648551446284e-05 0.0049812050389206443 0 -1.2584765950136801e-05 0.0049840464229716323 0 -1.1684912617624189e-05 0.0049835365261234332 0 -1.1951568112100719e-05 0.0049861324284741233 0 -1.5595648551446284e-05 0.0049812050389206443 0 -0.00066599143622598567 0.0039294355177595013 0 -0.00069270807443895489 0.0039169411524089511 0 -0.00068858772989474257 0.003913883805496076 0 -1.462800771119508e-05 0.0049849638193420753 0 -1.1951568112100719e-05 0.0049861324284741233 0 -1.5595648551446284e-05 0.0049812050389206443 0 -0.00033890392407852273 0.0044524052345910536 0 -0.00035165815838685943 0.0044421967862210438 0 -0.00035165815838685943 0.0044421967862210438 0 -0.00037952291737883981 0.0045010678024584002 0 -0.00069270807443895489 0.0039169411524089511 0 -0.00070268262338094478 0.0039233703784530604 0 -0.0007004178031073385 0.0039061649080705894 0 -0.00069270807443895489 0.0039169411524089511 0 -0.00070268262338094478 0.0039233703784530604 0 -0.00070789939281945991 0.0039336107350377673 0 -0.00028305561815721806 0.0048243818267207431 0 -0.0002823603658186487 0.0047235424518170307 0 -0.00047334788022510552 0.0046546223283395098 0 -0.00037952291737883981 0.0045010678024584002 0 -0.00059972694980001877 0.0042885749194783258 0 -0.00070268262338094478 0.0039233703784530604 0 -0.00070789939281945991 0.0039336107350377673 0 -0.00070260419148214948 0.003942361603082604 0 -1.1174359387848658e-06 0.0049994537616636645 0 -0.00037952291737883981 0.0045010678024584002 0 -7.8480516068380928e-06 0.0049857522431552559 0 -1.8146059421248197e-05 0.004978220937004149 0 -1.2584765950136801e-05 0.0049840464229716323 0 -9.8349640448170046e-05 0.0049398168808761711 0 -0.00022024261934813771 0.0048260755577752903 0 -0.00016482950952219686 0.0048186223777497515 0 -9.8349640448170046e-05 0.0049398168808761711 0 -0.00028305561815721806 0.0048243818267207431 0 -0.00022024261934813771 0.0048260755577752903 0 -0.00022024261934813771 0.0048260755577752903 0 -0.00016482950952219686 0.0048186223777497515 0 -0.0002823603658186487 0.0047235424518170307 0 -0.00016482950952219686 0.0048186223777497515 0 -0.0002823603658186487 0.0047235424518170307 0 -0.00012004303722176567 0.0047694633471481408 0 -0.00028305561815721806 0.0048243818267207431 0 -0.00022024261934813771 0.0048260755577752903 0 -0.0002823603658186487 0.0047235424518170307 0 -0.0002823603658186487 0.0047235424518170307 0 -0.00047334788022510552 0.0046546223283395098 0 -0.00034895713308494183 0.0045901684713732273 0 -0.00047334788022510552 0.0046546223283395098 0 -0.00056726698817983904 0.0044531073395617498 0 -0.00034895713308494183 0.0045901684713732273 0 -0.00058431104180727087 0.0044375214182987132 0 -0.00047334788022510552 0.0046546223283395098 0 -0.00056726698817983904 0.0044531073395617498 0 -0.00058431104180727087 0.0044375214182987132 0 -0.00057718030262854077 0.0043664407307873673 0 -0.00056726698817983904 0.0044531073395617498 0 -0.00060959546684616534 0.0042026520676634888 0 -0.00059972694980001877 0.0042885749194783258 0 -0.00070272258690436389 0.0039778737409984629 0 -0.00070260419148214948 0.003942361603082604 0 -0.0007004178031073385 0.0039061649080705894 0 -0.00070268262338094478 0.0039233703784530604 0 -0.00070260419148214948 0.003942361603082604 0 -0.0007004178031073385 0.0039061649080705894 0 -0.0007004178031073385 0.0039061649080705894 0 -0.00068858772989474257 0.003913883805496076 0 -0.00069261456991731119 0.0039033727133713715 0 -0.00069270807443895489 0.0039169411524089511 0 -0.0007004178031073385 0.0039061649080705894 0 -0.00068858772989474257 0.003913883805496076 0 -0.0007004178031073385 0.0039061649080705894 0 -0.00069261456991731119 0.0039033727133713715 0 -0.00068458379522967595 0.0038703121709898454 0 -0.00069261456991731119 0.0039033727133713715 0 -0.00068458379522967595 0.0038703121709898454 0 -0.00069677336593946008 0.0038911961205890626 0 -0.00070041830314198858 0.0039111511875105174 0 -0.00069261456991731119 0.0039033727133713715 0 -0.00069677336593946008 0.0038911961205890626 0 -0.00070272258690436389 0.0039778737409984629 0 -0.0007004178031073385 0.0039061649080705894 0 -0.00068458379522967595 0.0038703121709898454 0 -0.00068458379522967595 0.0038703121709898454 0 -0.00053396775563984539 0.0036619099988550487 0 -0.00056475444685123559 0.0038574531929641666 0 -0.00070272258690436389 0.0039778737409984629 0 -0.00068458379522967595 0.0038703121709898454 0 -0.00056475444685123559 0.0038574531929641666 0 -0.00072413486595289433 0.0038878124485342068 0 -0.00052296908407959016 0.0037172128149919742 0 -0.00069677336593946008 0.0038911961205890626 0 -0.00071272755203585759 0.0039006118552169528 0 -0.00072615288931053405 0.0038976542663928778 0 -0.00068458379522967595 0.0038703121709898454 0 -0.00069677336593946008 0.0038911961205890626 0 -0.00072615288931053405 0.0038976542663928778 0 -0.00070041830314198858 0.0039111511875105174 0 -0.00069677336593946008 0.0038911961205890626 0 -0.00071272755203585759 0.0039006118552169528 0 -0.00060417326182620205 0.0035280215078308153 0 -0.00042306717281289486 0.003543023334568224 0 -0.00043816614352762656 0.00372455052550101 0 -0.00052296908407959016 0.0037172128149919742 0 -0.00047859051791231171 0.0036827199169362302 0 -0.00053396775563984539 0.0036619099988550487 0 -0.00056475444685123559 0.0038574531929641666 0 -0.00043816614352762656 0.00372455052550101 0 -0.00056475444685123559 0.0038574531929641666 0 -0.00043816614352762656 0.00372455052550101 0 -0.00038349829221520767 0.0039496399930097539 0 -0.00056475444685123559 0.0038574531929641666 0 -0.00052077003132318226 0.0040843414290472309 0 -0.00038349829221520767 0.0039496399930097539 0 -0.00058431104180727087 0.0044375214182987132 0 -0.00052077003132318226 0.0040843414290472309 0 -0.00057718030262854077 0.0043664407307873673 0 -0.00060959546684616534 0.0042026520676634888 0 -0.00050736393351949428 0.004115381824817136 0 -0.00070272258690436389 0.0039778737409984629 0 -0.00056475444685123559 0.0038574531929641666 0 -0.00052077003132318226 0.0040843414290472309 0 -0.00057718030262854077 0.0043664407307873673 0 -0.00051732782092360171 0.004416935371355654 0 -0.00056726698817983904 0.0044531073395617498 0 -0.00052077003132318226 0.0040843414290472309 0 -0.00057718030262854077 0.0043664407307873673 0 -0.00051732782092360171 0.004416935371355654 0 -0.00040168476380746229 0.0039967817294430255 0 -0.00038349829221520767 0.0039496399930097539 0 -0.00036283862957723272 0.0039925261180683864 0 -0.00026698049219369096 0.0042204361951589889 0 -0.00044679542727579151 0.0039792646438912387 0 -0.00052077003132318226 0.0040843414290472309 0 -0.00051732782092360171 0.004416935371355654 0 -0.00038349829221520767 0.0039496399930097539 0 -0.00013421009666146088 0.0033243241793507344 0 -0.00013205795021435022 0.0033240077438160339 0 -0.00014777081892978171 0.0033391428141094936 0 -0.00013421009666146088 0.0033243241793507344 0 -0.00013205795021435022 0.0033240077438160339 0 -0.00013587276623681704 0.0033299550727629822 0 -0.00026698049219369096 0.0042204361951589889 0 -0.0002033838614745823 0.0034541593811414175 0 -0.00013205795021435022 0.0033240077438160339 0 -0.00013348548373627323 0.003340248767088572 0 -0.0001228578886842439 0.0033346339093297873 0 -0.00013205795021435022 0.0033240077438160339 0 -0.00014777081892978171 0.0033391428141094936 0 -0.00013348548373627323 0.003340248767088572 0 -0.00013205795021435022 0.0033240077438160339 0 -0.0001228578886842439 0.0033346339093297873 0 -0.00010566461493012648 0.0033274571422927234 0 -8.8531365240750103e-05 0.003295203528506836 0 -0.0002033838614745823 0.0034541593811414175 0 -0.00026698049219369096 0.0042204361951589889 0 -0.00010588375471091815 0.0041003070229090836 0 -0.00011576800407398423 0.0049351301974844318 0 -8.6319488975938907e-05 0.0048965631347469294 0 -3.664743566834186e-05 0.0049417792575166325 0 -0.00026698049219369096 0.0042204361951589889 0 -0.00031682011805603797 0.0047632383900226656 0 -0.00014777081892978171 0.0033391428141094936 0 -0.00014240808558151378 0.0033558543491174057 0 -0.00013348548373627323 0.003340248767088572 0 -0.00010588375471091815 0.0041003070229090836 0 -2.6556747544805e-05 0.0041178968501841256 0 -0.00014777081892978171 0.0033391428141094936 0 -0.00014240808558151378 0.0033558543491174057 0 -0.0001612056484473484 0.0033633308722190655 0 -0.00014240808558151378 0.0033558543491174057 0 -0.00013348548373627323 0.003340248767088572 0 -0.00012119126194899117 0.0033516014253841056 0 -0.00013348548373627323 0.003340248767088572 0 -0.0001228578886842439 0.0033346339093297873 0 -0.00012119126194899117 0.0033516014253841056 0 -0.0001228578886842439 0.0033346339093297873 0 -0.00012119126194899117 0.0033516014253841056 0 -0.00010566461493012648 0.0033274571422927234 0 -0.00012119126194899117 0.0033516014253841056 0 -0.00013921784368068929 0.0033801262008786204 0 -0.00010760059428200449 0.0033750109696275275 0 -0.00014240808558151378 0.0033558543491174057 0 -0.00012119126194899117 0.0033516014253841056 0 -0.00013921784368068929 0.0033801262008786204 0 5.2218706508241393e-06 0.0032723209065848194 0 5.1733061276135812e-05 0.003168750606406456 0 -9.2794678611374755e-05 0.003150369881871817 0 -0.00013921784368068929 0.0033801262008786204 0 -0.00010760059428200449 0.0033750109696275275 0 -0.00011391179920805432 0.0034010241470471829 0 -0.00011550478140416125 0.0032162286195907175 0 -7.9886528680390997e-05 0.0033160868765194297 0 5.2218706508241393e-06 0.0032723209065848194 0 0.0001894085581809093 0.0032610770284875559 0 5.1733061276135812e-05 0.003168750606406456 0 -0.00014240808558151378 0.0033558543491174057 0 -0.00013921784368068929 0.0033801262008786204 0 -0.0001612056484473484 0.0033633308722190655 0 -0.00011550478140416125 0.0032162286195907175 0 -2.6556747544805e-05 0.0041178968501841256 0 1.8794062256439861e-05 0.0049595556241292822 0 1.4617547362996946e-05 0.0049675908171420285 0 1.2499774017400631e-05 0.004967325788158638 0 1.8794062256439861e-05 0.0049595556241292822 0 1.2499774017400631e-05 0.004967325788158638 0 1.3041806354441971e-05 0.0049640880767490934 0 5.2218706508241393e-06 0.0032723209065848194 0 0.00010981756097526824 0.0033898598629152612 0 0.0001894085581809093 0.0032610770284875559 0 -2.6556747544805e-05 0.0041178968501841256 0 0.00012826004605417205 0.0041119793123940403 0 1.2518877306810402e-05 0.0049685960170429613 0 9.4370927223222955e-06 0.0049725061654228133 0 4.4986211592098937e-06 0.0049822507426105066 0 1.4617547362996946e-05 0.0049675908171420285 0 1.2518877306810402e-05 0.0049685960170429613 0 7.5396233749640566e-06 0.004975416799475163 0 1.2518877306810402e-05 0.0049685960170429613 0 3.2973468732921686e-06 0.0049753889371669359 0 7.5396233749640566e-06 0.004975416799475163 0 0.00012826004605417205 0.0041119793123940403 0 -5.1613154002310513e-05 0.0040377840284248458 0 1.4617547362996946e-05 0.0049675908171420285 0 1.2518877306810402e-05 0.0049685960170429613 0 1.2499774017400631e-05 0.004967325788158638 0 1.2499774017400631e-05 0.004967325788158638 0 9.4694152633500943e-06 0.0049679142819155867 0 8.1852425459226252e-06 0.0049724883770640247 0 9.4370927223222955e-06 0.0049725061654228133 0 1.2499774017400631e-05 0.004967325788158638 0 8.1852425459226252e-06 0.0049724883770640247 0 1.2518877306810402e-05 0.0049685960170429613 0 9.4370927223222955e-06 0.0049725061654228133 0 1.2499774017400631e-05 0.004967325788158638 0 1.2499774017400631e-05 0.004967325788158638 0 1.3041806354441971e-05 0.0049640880767490934 0 9.4694152633500943e-06 0.0049679142819155867 0 9.4694152633500943e-06 0.0049679142819155867 0 8.0773109694409264e-06 0.0049637683744960517 0 6.5955129853456341e-06 0.0049701281192737305 0 1.3041806354441971e-05 0.0049640880767490934 0 9.4694152633500943e-06 0.0049679142819155867 0 8.0773109694409264e-06 0.0049637683744960517 0 8.0773109694409264e-06 0.0049637683744960517 0 5.4302332039207616e-06 0.0049588142556562537 0 5.123624020861761e-06 0.0049624866001411654 0 5.4302332039207616e-06 0.0049588142556562537 0 1.5159132927021809e-05 0.004959716334703288 0 -2.4025357132817449e-06 0.0049477747684724587 0 8.0773109694409264e-06 0.0049637683744960517 0 5.4302332039207616e-06 0.0049588142556562537 0 1.5159132927021809e-05 0.004959716334703288 0 1.3041806354441971e-05 0.0049640880767490934 0 8.0773109694409264e-06 0.0049637683744960517 0 1.5159132927021809e-05 0.004959716334703288 0 -2.6556747544805e-05 0.0041178968501841256 0 6.3122850523895463e-05 0.0049999305506110417 0 1.8794062256439861e-05 0.0049595556241292822 0 1.3041806354441971e-05 0.0049640880767490934 0 1.5159132927021809e-05 0.004959716334703288 0 -8.6319488975938907e-05 0.0048965631347469294 0 -5.8362545790734684e-05 0.0048509748473393064 0 -2.4190440942187935e-05 0.0048960916640695155 0 -8.6319488975938907e-05 0.0048965631347469294 0 -2.4190440942187935e-05 0.0048960916640695155 0 -3.664743566834186e-05 0.0049417792575166325 0 -0.00031682011805603797 0.0047632383900226656 0 -0.00017331764018544964 0.00476771887827372 0 -3.664743566834186e-05 0.0049417792575166325 0 -2.4025357132817449e-06 0.0049477747684724587 0 1.0199126117456046e-05 0.0049587152710921928 0 -2.4190440942187935e-05 0.0048960916640695155 0 -3.664743566834186e-05 0.0049417792575166325 0 -2.4025357132817449e-06 0.0049477747684724587 0 5.4302332039207616e-06 0.0049588142556562537 0 -2.4025357132817449e-06 0.0049477747684724587 0 5.123624020861761e-06 0.0049624866001411654 0 6.3122850523895463e-05 0.0049999305506110417 0 -2.5442044078765911e-05 0.0049190200872335429 0 1.0199126117456046e-05 0.0049587152710921928 0 3.8942801216397059e-06 0.0049720765325862127 0 5.123624020861761e-06 0.0049624866001411654 0 -2.4025357132817449e-06 0.0049477747684724587 0 1.0199126117456046e-05 0.0049587152710921928 0 5.123624020861761e-06 0.0049624866001411654 0 -0.0002823603658186487 0.0047235424518170307 0 -0.00034895713308494183 0.0045901684713732273 0 -0.00012004303722176567 0.0047694633471481408 0 -0.00017331764018544964 0.00476771887827372 0 -7.3441531113842837e-05 0.0048778720049078728 0 1.0199126117456046e-05 0.0049587152710921928 0 3.8942801216397059e-06 0.0049720765325862127 0 -1.2432643202993819e-06 0.0049788589877944279 0 3.8942801216397059e-06 0.0049720765325862127 0 6.6729999296482137e-07 0.0049821719093018288 0 -1.2432643202993819e-06 0.0049788589877944279 0 3.8942801216397059e-06 0.0049720765325862127 0 6.6729999296482137e-07 0.0049821719093018288 0 3.5476788345504376e-06 0.0049760203197757851 0 5.123624020861761e-06 0.0049624866001411654 0 6.5955129853456341e-06 0.0049701281192737305 0 3.5476788345504376e-06 0.0049760203197757851 0 3.8942801216397059e-06 0.0049720765325862127 0 5.123624020861761e-06 0.0049624866001411654 0 3.5476788345504376e-06 0.0049760203197757851 0 8.0773109694409264e-06 0.0049637683744960517 0 5.123624020861761e-06 0.0049624866001411654 0 6.5955129853456341e-06 0.0049701281192737305 0 9.4694152633500943e-06 0.0049679142819155867 0 6.5955129853456341e-06 0.0049701281192737305 0 8.1852425459226252e-06 0.0049724883770640247 0 6.5955129853456341e-06 0.0049701281192737305 0 4.9764551527545832e-06 0.0049766403678125799 0 3.5476788345504376e-06 0.0049760203197757851 0 4.9764551527545832e-06 0.0049766403678125799 0 8.1852425459226252e-06 0.0049724883770640247 0 4.4986211592098937e-06 0.0049822507426105066 0 6.5955129853456341e-06 0.0049701281192737305 0 4.9764551527545832e-06 0.0049766403678125799 0 8.1852425459226252e-06 0.0049724883770640247 0 9.4370927223222955e-06 0.0049725061654228133 0 8.1852425459226252e-06 0.0049724883770640247 0 4.4986211592098937e-06 0.0049822507426105066 0 1.1376525078471348e-05 0.0049704014486541392 0 1.4952618775296759e-06 0.0049789636682989738 0 1.2518877306810402e-05 0.0049685960170429613 0 -2.2557379142967071e-06 0.0049756302103378504 0 3.2973468732921686e-06 0.0049753889371669359 0 -2.2557379142967071e-06 0.0049756302103378504 0 3.2973468732921686e-06 0.0049753889371669359 0 -4.6776861872244892e-06 0.0049821795474540419 0 4.4986211592098937e-06 0.0049822507426105066 0 1.608457562829605e-06 0.0049835599025957892 0 -1.5290844208819794e-07 0.004991804856789385 0 -2.2557379142967071e-06 0.0049756302103378504 0 -2.223005731762136e-06 0.0049888289597037633 0 -4.6776861872244892e-06 0.0049821795474540419 0 1.4952618775296759e-06 0.0049789636682989738 0 -9.1259194753521795e-07 0.0049901534282462889 0 4.9764551527545832e-06 0.0049766403678125799 0 1.608457562829605e-06 0.0049835599025957892 0 3.5476788345504376e-06 0.0049760203197757851 0 4.9764551527545832e-06 0.0049766403678125799 0 4.4986211592098937e-06 0.0049822507426105066 0 1.608457562829605e-06 0.0049835599025957892 0 6.6729999296482137e-07 0.0049821719093018288 0 1.608457562829605e-06 0.0049835599025957892 0 3.5476788345504376e-06 0.0049760203197757851 0 6.6729999296482137e-07 0.0049821719093018288 0 -7.1925356243292949e-07 0.004992251731424889 0 -1.0170345525994153e-06 0.0049903941975178601 0 6.6729999296482137e-07 0.0049821719093018288 0 1.608457562829605e-06 0.0049835599025957892 0 -7.1925356243292949e-07 0.004992251731424889 0 1.608457562829605e-06 0.0049835599025957892 0 -7.1925356243292949e-07 0.004992251731424889 0 -1.5290844208819794e-07 0.004991804856789385 0 -7.1925356243292949e-07 0.004992251731424889 0 -1.5290844208819794e-07 0.004991804856789385 0 -1.6291920768306349e-09 0.00499999401155953 0 -9.1259194753521795e-07 0.0049901534282462889 0 -1.6554362348033417e-10 0.0049999961298329869 0 -7.1925356243292949e-07 0.004992251731424889 0 -1.6291920768306349e-09 0.00499999401155953 0 -6.9812257395981289e-10 0.0049999864647877323 0 -7.1925356243292949e-07 0.004992251731424889 0 -6.9812257395981289e-10 0.0049999864647877323 0 -1.0170345525994153e-06 0.0049903941975178601 0 -6.9812257395981289e-10 0.0049999864647877323 0 -1.0170345525994153e-06 0.0049903941975178601 0 -3.475080262655863e-09 0.0049999796900002443 0 6.6729999296482137e-07 0.0049821719093018288 0 -1.0170345525994153e-06 0.0049903941975178601 0 -1.2432643202993819e-06 0.0049788589877944279 0 -5.424264100842604e-05 0.004910562176597715 0 -0.00012004303722176567 0.0047694633471481408 0 2.5330372985028907e-08 0.0049998123918363595 0 -1.0170345525994153e-06 0.0049903941975178601 0 -1.2432643202993819e-06 0.0049788589877944279 0 -3.475080262655863e-09 0.0049999796900002443 0 -7.3441531113842837e-05 0.0048778720049078728 0 -4.5058330368066783e-08 0.0049999552808608393 0 3.6159708855314308e-05 0.0031822206054988224 0 4.1039469461930713e-05 0.0032138827983805313 0 5.0183695720611991e-05 0.0032482279268052517 0 3.3191942680066292e-05 0.0030903535071387903 0 3.6159708855314308e-05 0.0031822206054988224 0 8.129777646912022e-05 0.0030282995412129784 0 3.6159708855314308e-05 0.0031822206054988224 0 4.1039469461930713e-05 0.0032138827983805313 0 4.4652898176409291e-05 0.003208682551693274 0 4.1039469461930713e-05 0.0032138827983805313 0 4.467383979783999e-05 0.0032018962081894818 0 2.0277998012047725e-05 0.0032244759661627801 0 4.1039469461930713e-05 0.0032138827983805313 0 4.4652898176409291e-05 0.003208682551693274 0 4.467383979783999e-05 0.0032018962081894818 0 4.1039469461930713e-05 0.0032138827983805313 0 2.7381287054403289e-05 0.0032465874983347389 0 5.0183695720611991e-05 0.0032482279268052517 0 4.1039469461930713e-05 0.0032138827983805313 0 2.7381287054403289e-05 0.0032465874983347389 0 2.0277998012047725e-05 0.0032244759661627801 0 2.7381287054403289e-05 0.0032465874983347389 0 5.0183695720611991e-05 0.0032482279268052517 0 1.8771275646026248e-05 0.0032729154626492387 0 3.6159708855314308e-05 0.0031822206054988224 0 0.00018181108275186543 0.0029734077491802382 0 8.129777646912022e-05 0.0030282995412129784 0 0.00018181108275186543 0.0029734077491802382 0 8.129777646912022e-05 0.0030282995412129784 0 0.0001362544351116985 0.0028878893223787177 0 3.7932067344234473e-05 0.0031847728809171181 0 0.00012542824152580046 0.0031086561163264394 0 3.3191942680066292e-05 0.0030903535071387903 0 8.129777646912022e-05 0.0030282995412129784 0 1.6050847761492768e-05 0.0030047161890264878 0 8.129777646912022e-05 0.0030282995412129784 0 1.6050847761492768e-05 0.0030047161890264878 0 0.0001362544351116985 0.0028878893223787177 0 5.6065258252693013e-05 0.0029510562984276108 0 0.0001252221554345227 0.0028943996840672019 0 7.7755864140784987e-05 0.002906946612924499 0 4.2695809110380031e-05 0.0028976030107798331 0 4.9534793895117727e-05 0.0028630776428029371 0 4.2695809110380031e-05 0.0028976030107798331 0 1.2645493364716092e-05 0.0028809271793929611 0 4.9534793895117727e-05 0.0028630776428029371 0 4.2695809110380031e-05 0.0028976030107798331 0 1.2645493364716092e-05 0.0028809271793929611 0 3.0878686224337484e-05 0.0029419388438715124 0 1.6050847761492768e-05 0.0030047161890264878 0 -1.5471039545543792e-05 0.0031486634865073816 0 -8.629937785287557e-05 0.0031163663789519026 0 3.3191942680066292e-05 0.0030903535071387903 0 1.6050847761492768e-05 0.0030047161890264878 0 -1.5471039545543792e-05 0.0031486634865073816 0 7.7755864140784987e-05 0.002906946612924499 0 4.2695809110380031e-05 0.0028976030107798331 0 3.0878686224337484e-05 0.0029419388438715124 0 5.6065258252693013e-05 0.0029510562984276108 0 -1.875107767153504e-05 0.0030842846743110316 0 -3.9624938654613433e-05 0.0029112215668821917 0 1.2645493364716092e-05 0.0028809271793929611 0 3.0878686224337484e-05 0.0029419388438715124 0 -5.0501952684891922e-05 0.0030080007541397253 0 -1.875107767153504e-05 0.0030842846743110316 0 -3.2051804437281038e-05 0.002826805050871095 0 -3.9624938654613433e-05 0.0029112215668821917 0 1.2645493364716092e-05 0.0028809271793929611 0 -4.5051125511316028e-05 0.0031225582175237578 0 -4.8566649641669759e-05 0.0031185585884626467 0 -5.3281070082724434e-05 0.0031190999107506738 0 -4.8566649641669759e-05 0.0031185585884626467 0 -5.3281070082724434e-05 0.0031190999107506738 0 -4.8338801370227057e-05 0.0031137029658338364 0 -2.5360720871222291e-05 0.0031493614166449501 0 -2.5211121147409202e-05 0.0031651601078138518 0 -4.4530091615681583e-05 0.0031570745387949893 0 -1.875107767153504e-05 0.0030842846743110316 0 -5.4999289279491745e-05 0.0031411518345006036 0 -4.2487182320806545e-05 0.0031190200350948404 0 -4.8566649641669759e-05 0.0031185585884626467 0 -4.8338801370227057e-05 0.0031137029658338364 0 -1.5471039545543792e-05 0.0031486634865073816 0 -2.5211121147409202e-05 0.0031651601078138518 0 -1.7542284551421592e-05 0.0031956726629408694 0 3.6159708855314308e-05 0.0031822206054988224 0 -1.5471039545543792e-05 0.0031486634865073816 0 -1.7542284551421592e-05 0.0031956726629408694 0 3.3191942680066292e-05 0.0030903535071387903 0 3.6159708855314308e-05 0.0031822206054988224 0 -1.5471039545543792e-05 0.0031486634865073816 0 -1.5471039545543792e-05 0.0031486634865073816 0 -2.5360720871222291e-05 0.0031493614166449501 0 -2.5211121147409202e-05 0.0031651601078138518 0 -1.6054059697548583e-05 0.0031157782319671322 0 -1.875107767153504e-05 0.0030842846743110316 0 3.6159708855314308e-05 0.0031822206054988224 0 -1.7542284551421592e-05 0.0031956726629408694 0 3.7381027345236339e-05 0.0032660721371827748 0 -2.5211121147409202e-05 0.0031651601078138518 0 -1.7542284551421592e-05 0.0031956726629408694 0 -4.4530091615681583e-05 0.0031570745387949893 0 -1.7542284551421592e-05 0.0031956726629408694 0 -4.4530091615681583e-05 0.0031570745387949893 0 -4.4195136020181758e-05 0.0031432502260492156 0 -1.7542284551421592e-05 0.0031956726629408694 0 -4.4195136020181758e-05 0.0031432502260492156 0 -2.5243453413539511e-05 0.0031713564272963569 0 -5.1359956302987801e-05 0.0030943797012952549 0 -4.4195136020181758e-05 0.0031432502260492156 0 -2.5243453413539511e-05 0.0031713564272963569 0 -1.7542284551421592e-05 0.0031956726629408694 0 -2.5243453413539511e-05 0.0031713564272963569 0 7.7160846930518392e-06 0.0032278399972477871 0 -1.7542284551421592e-05 0.0031956726629408694 0 7.7160846930518392e-06 0.0032278399972477871 0 3.7381027345236339e-05 0.0032660721371827748 0 -7.9924833309922665e-06 0.0031827947183641963 0 -2.5243453413539511e-05 0.0031713564272963569 0 7.7160846930518392e-06 0.0032278399972477871 0 7.7160846930518392e-06 0.0032278399972477871 0 2.3560379255330921e-05 0.0032724047547978189 0 3.7381027345236339e-05 0.0032660721371827748 0 2.3560379255330921e-05 0.0032724047547978189 0 3.7381027345236339e-05 0.0032660721371827748 0 1.3076421624315629e-05 0.0033551536273490352 0 3.6159708855314308e-05 0.0031822206054988224 0 3.7381027345236339e-05 0.0032660721371827748 0 4.4652898176409291e-05 0.003208682551693274 0 3.7381027345236339e-05 0.0032660721371827748 0 4.4652898176409291e-05 0.003208682551693274 0 4.467383979783999e-05 0.0032018962081894818 0 3.7381027345236339e-05 0.0032660721371827748 0 2.7343532603410016e-05 0.0035187655508243979 0 1.3076421624315629e-05 0.0033551536273490352 0 2.7343532603410016e-05 0.0035187655508243979 0 1.3076421624315629e-05 0.0033551536273490352 0 -3.6611914316718588e-05 0.0035101988996163627 0 3.1694087621912816e-05 0.0032904438399158895 0 2.0806975210067672e-05 0.0033652722333691741 0 -2.5263306159424729e-05 0.0033139515680581529 0 1.3076421624315629e-05 0.0033551536273490352 0 -5.3547438593569287e-05 0.0034065120681667379 0 1.3076421624315629e-05 0.0033551536273490352 0 -5.3547438593569287e-05 0.0034065120681667379 0 -3.6611914316718588e-05 0.0035101988996163627 0 -5.3547438593569287e-05 0.0034065120681667379 0 -0.0001149969963348301 0.0035689645416131953 0 -3.6611914316718588e-05 0.0035101988996163627 0 -8.8995467855715403e-05 0.0033397655469869806 0 -5.3547438593569287e-05 0.0034065120681667379 0 -0.00013568792675813608 0.0034531863073658927 0 -0.00022190552258367644 0.0034020767211356442 0 -0.00013568792675813608 0.0034531863073658927 0 -0.00020633487852414251 0.003591919991311155 0 -0.00013568792675813608 0.0034531863073658927 0 -0.0001149969963348301 0.0035689645416131953 0 -0.00020633487852414251 0.003591919991311155 0 -5.3547438593569287e-05 0.0034065120681667379 0 -0.00013568792675813608 0.0034531863073658927 0 -0.0001149969963348301 0.0035689645416131953 0 -0.0001149969963348301 0.0035689645416131953 0 -0.00020633487852414251 0.003591919991311155 0 -0.00019581670961885917 0.003765974786790418 0 2.7343532603410016e-05 0.0035187655508243979 0 -3.6611914316718588e-05 0.0035101988996163627 0 -7.7620835669497555e-05 0.0037505740173709558 0 -0.0001149969963348301 0.0035689645416131953 0 -3.6611914316718588e-05 0.0035101988996163627 0 -7.7620835669497555e-05 0.0037505740173709558 0 -0.00042306717281289486 0.003543023334568224 0 -0.0002947329217838891 0.0035706601414310104 0 -0.00043816614352762656 0.00372455052550101 0 -0.00038330900606126154 0.0033628336663604416 0 -0.00060417326182620205 0.0035280215078308153 0 -0.00042306717281289486 0.003543023334568224 0 -0.00038330900606126154 0.0033628336663604416 0 -0.00042306717281289486 0.003543023334568224 0 -0.0002947329217838891 0.0035706601414310104 0 -0.00022190552258367644 0.0034020767211356442 0 -0.0002947329217838891 0.0035706601414310104 0 -0.00020633487852414251 0.003591919991311155 0 -0.0002947329217838891 0.0035706601414310104 0 -0.00026263705190357212 0.0037377011940310412 0 -0.00034951787792960221 0.00379515514956615 0 -0.0002947329217838891 0.0035706601414310104 0 -0.00020633487852414251 0.003591919991311155 0 -0.00026263705190357212 0.0037377011940310412 0 -0.00020633487852414251 0.003591919991311155 0 -0.00026263705190357212 0.0037377011940310412 0 -0.00019581670961885917 0.003765974786790418 0 -0.00026263705190357212 0.0037377011940310412 0 -0.00034951787792960221 0.00379515514956615 0 -0.00030309681684744579 0.0038565429497887304 0 -0.00034951787792960221 0.00379515514956615 0 -0.00043816614352762656 0.00372455052550101 0 -0.00038349829221520767 0.0039496399930097539 0 -0.0002947329217838891 0.0035706601414310104 0 -0.00034951787792960221 0.00379515514956615 0 -0.00043816614352762656 0.00372455052550101 0 -0.00034951787792960221 0.00379515514956615 0 -0.00038349829221520767 0.0039496399930097539 0 -0.00030309681684744579 0.0038565429497887304 0 -0.00038349829221520767 0.0039496399930097539 0 -0.00030309681684744579 0.0038565429497887304 0 -0.00033295268775001662 0.0039423440084963802 0 -0.00030309681684744579 0.0038565429497887304 0 -0.00024545673646537221 0.0039367058217546257 0 -0.00033295268775001662 0.0039423440084963802 0 -0.00026263705190357212 0.0037377011940310412 0 -0.00030309681684744579 0.0038565429497887304 0 -0.00019581670961885917 0.003765974786790418 0 -0.00030309681684744579 0.0038565429497887304 0 -0.00024545673646537221 0.0039367058217546257 0 -0.00019581670961885917 0.003765974786790418 0 -5.3777081513115963e-05 0.0032678408408153975 0 -0.0002033838614745823 0.0034541593811414175 0 -0.00018607831312845112 0.0036119084605020185 0 -0.0002033838614745823 0.0034541593811414175 0 -0.00024545673646537221 0.0039367058217546257 0 -0.00033295268775001662 0.0039423440084963802 0 -0.00036283862957723272 0.0039925261180683864 0 -8.3361225111121845e-05 0.003245977761146887 0 -8.05265413111245e-05 0.0032781468470746266 0 -0.00015536938812274337 0.0032876824621134227 0 -0.00038349829221520767 0.0039496399930097539 0 -0.00033295268775001662 0.0039423440084963802 0 -0.00036283862957723272 0.0039925261180683864 0 4.467383979783999e-05 0.0032018962081894818 0 -1.7017934918812892e-05 0.0032111916156461746 0 2.0277998012047725e-05 0.0032244759661627801 0 2.0806975210067672e-05 0.0033652722333691741 0 -5.0077269670345884e-05 0.0034788623035438035 0 -0.00018607831312845112 0.0036119084605020185 0 -5.0077269670345884e-05 0.0034788623035438035 0 -0.00024545673646537221 0.0039367058217546257 0 -7.7620835669497555e-05 0.0037505740173709558 0 -0.00019581670961885917 0.003765974786790418 0 -0.0001149969963348301 0.0035689645416131953 0 -7.7620835669497555e-05 0.0037505740173709558 0 -0.00019581670961885917 0.003765974786790418 0 -8.3361225111121845e-05 0.003245977761146887 0 -1.7017934918812892e-05 0.0032111916156461746 0 -1.4191235937549796e-05 0.0032653843772989695 0 -8.3361225111121845e-05 0.003245977761146887 0 -8.05265413111245e-05 0.0032781468470746266 0 -1.4191235937549796e-05 0.0032653843772989695 0 -5.3777081513115963e-05 0.0032678408408153975 0 -2.5479917868301338e-05 0.0032698976302138732 0 -1.7017934918812892e-05 0.0032111916156461746 0 2.0277998012047725e-05 0.0032244759661627801 0 -1.4191235937549796e-05 0.0032653843772989695 0 2.7381287054403289e-05 0.0032465874983347389 0 2.0277998012047725e-05 0.0032244759661627801 0 -1.4191235937549796e-05 0.0032653843772989695 0 2.7381287054403289e-05 0.0032465874983347389 0 -1.4191235937549796e-05 0.0032653843772989695 0 1.8771275646026248e-05 0.0032729154626492387 0 -1.4191235937549796e-05 0.0032653843772989695 0 2.6218421270051682e-06 0.0032921183925363603 0 1.8771275646026248e-05 0.0032729154626492387 0 2.6218421270051682e-06 0.0032921183925363603 0 1.429797489487194e-05 0.0033143462627836869 0 -2.3166326449559803e-06 0.003313335635018573 0 2.6218421270051682e-06 0.0032921183925363603 0 1.429797489487194e-05 0.0033143462627836869 0 1.8771275646026248e-05 0.0032729154626492387 0 2.6218421270051682e-06 0.0032921183925363603 0 -2.08259640147323e-05 0.0032961156235985826 0 -2.3166326449559803e-06 0.003313335635018573 0 -2.08259640147323e-05 0.0032961156235985826 0 -3.1949898142708062e-05 0.0033203810398971319 0 -2.3166326449559803e-06 0.003313335635018573 0 -1.4191235937549796e-05 0.0032653843772989695 0 2.6218421270051682e-06 0.0032921183925363603 0 -2.08259640147323e-05 0.0032961156235985826 0 -1.4191235937549796e-05 0.0032653843772989695 0 -2.08259640147323e-05 0.0032961156235985826 0 -4.7171454070056762e-05 0.0033005833819749718 0 -6.371035204510357e-05 0.0032807214891976363 0 -1.4191235937549796e-05 0.0032653843772989695 0 -4.7171454070056762e-05 0.0033005833819749718 0 -2.08259640147323e-05 0.0032961156235985826 0 -4.7171454070056762e-05 0.0033005833819749718 0 -3.1949898142708062e-05 0.0033203810398971319 0 -3.1949898142708062e-05 0.0033203810398971319 0 -5.5715793837976519e-05 0.0033301471927614057 0 -3.0792232861529137e-05 0.0033601161904164584 0 -4.7171454070056762e-05 0.0033005833819749718 0 -3.1949898142708062e-05 0.0033203810398971319 0 -5.5715793837976519e-05 0.0033301471927614057 0 -7.8849997807850481e-05 0.0028539686026468878 0 -7.9113459632046087e-05 0.0028634197923498484 0 -9.0382894489824905e-05 0.0028667501376343539 0 4.4620609453368749e-05 0.003056565907222389 0 -7.2743986341634973e-05 0.003118710863598345 0 1.0232386091296125e-05 0.0033137843699658138 0 -2.3166326449559803e-06 0.003313335635018573 0 -3.0792232861529137e-05 0.0033601161904164584 0 -3.1949898142708062e-05 0.0033203810398971319 0 -2.3166326449559803e-06 0.003313335635018573 0 -3.0792232861529137e-05 0.0033601161904164584 0 4.4620609453368749e-05 0.003056565907222389 0 2.4333127097832613e-05 0.0031182178931270757 0 -0.00010483340828705845 0.0032949993235289222 0 -7.873395056090048e-05 0.0033125649723036192 0 -0.00010566461493012648 0.0033274571422927234 0 -0.00013205795021435022 0.0033240077438160339 0 -0.00010483340828705845 0.0032949993235289222 0 -0.00010566461493012648 0.0033274571422927234 0 -6.371035204510357e-05 0.0032807214891976363 0 -0.00010483340828705845 0.0032949993235289222 0 -7.873395056090048e-05 0.0033125649723036192 0 -6.371035204510357e-05 0.0032807214891976363 0 -4.7171454070056762e-05 0.0033005833819749718 0 -7.873395056090048e-05 0.0033125649723036192 0 -4.7171454070056762e-05 0.0033005833819749718 0 -5.5715793837976519e-05 0.0033301471927614057 0 -7.873395056090048e-05 0.0033125649723036192 0 -5.5715793837976519e-05 0.0033301471927614057 0 -8.9212735625366244e-05 0.0033467173138357407 0 -6.2378432502261251e-05 0.0033562741380070899 0 -5.5715793837976519e-05 0.0033301471927614057 0 -7.873395056090048e-05 0.0033125649723036192 0 -8.9212735625366244e-05 0.0033467173138357407 0 -0.00012119126194899117 0.0033516014253841056 0 -8.9212735625366244e-05 0.0033467173138357407 0 -0.00010566461493012648 0.0033274571422927234 0 -7.873395056090048e-05 0.0033125649723036192 0 -8.9212735625366244e-05 0.0033467173138357407 0 -0.00010566461493012648 0.0033274571422927234 0 -8.9212735625366244e-05 0.0033467173138357407 0 -0.00010760059428200449 0.0033750109696275275 0 -8.3373162165398896e-05 0.0033734665028509431 0 -0.00012119126194899117 0.0033516014253841056 0 -8.9212735625366244e-05 0.0033467173138357407 0 -0.00010760059428200449 0.0033750109696275275 0 -8.9212735625366244e-05 0.0033467173138357407 0 -6.2378432502261251e-05 0.0033562741380070899 0 -8.3373162165398896e-05 0.0033734665028509431 0 -6.2378432502261251e-05 0.0033562741380070899 0 -8.3373162165398896e-05 0.0033734665028509431 0 -6.4953098430740893e-05 0.0033937674033223532 0 -8.3373162165398896e-05 0.0033734665028509431 0 -6.4953098430740893e-05 0.0033937674033223532 0 -9.1935487180512627e-05 0.0033932166989009095 0 -0.00010760059428200449 0.0033750109696275275 0 -9.1935487180512627e-05 0.0033932166989009095 0 -0.00011391179920805432 0.0034010241470471829 0 -0.00010760059428200449 0.0033750109696275275 0 -8.3373162165398896e-05 0.0033734665028509431 0 -9.1935487180512627e-05 0.0033932166989009095 0 -8.1185840239560264e-05 0.0028713957425926411 0 -7.9113459632046087e-05 0.0028634197923498484 0 -9.0382894489824905e-05 0.0028667501376343539 0 -6.2378432502261251e-05 0.0033562741380070899 0 -6.4953098430740893e-05 0.0033937674033223532 0 -3.0792232861529137e-05 0.0033601161904164584 0 -5.5715793837976519e-05 0.0033301471927614057 0 -6.2378432502261251e-05 0.0033562741380070899 0 -3.0792232861529137e-05 0.0033601161904164584 0 -8.4559314755669501e-05 0.0031525242330867039 0 -7.2743986341634973e-05 0.003118710863598345 0 -0.00010353354334602641 0.0028817136739274821 0 -9.0382894489824905e-05 0.0028667501376343539 0 -8.1401273152896449e-05 0.0028815315052520846 0 -8.1185840239560264e-05 0.0028713957425926411 0 -8.1401273152896449e-05 0.0028815315052520846 0 -7.343799988052352e-05 0.0028665580314721955 0 -8.1185840239560264e-05 0.0028713957425926411 0 -9.0382894489824905e-05 0.0028667501376343539 0 -8.1401273152896449e-05 0.0028815315052520846 0 -8.1401273152896449e-05 0.0028815315052520846 0 -6.5972281327699239e-05 0.0028735990972911271 0 -7.343799988052352e-05 0.0028665580314721955 0 -6.5972281327699239e-05 0.0028735990972911271 0 -6.6396968862096799e-05 0.0028613945091916812 0 -7.343799988052352e-05 0.0028665580314721955 0 -6.5972281327699239e-05 0.0028735990972911271 0 -6.6396968862096799e-05 0.0028613945091916812 0 -6.0428896462205621e-05 0.0028632662361686408 0 -8.1185840239560264e-05 0.0028713957425926411 0 -7.9113459632046087e-05 0.0028634197923498484 0 -7.343799988052352e-05 0.0028665580314721955 0 -6.6396968862096799e-05 0.0028613945091916812 0 -7.343799988052352e-05 0.0028665580314721955 0 -7.282084922201836e-05 0.002859199721941214 0 -7.9113459632046087e-05 0.0028634197923498484 0 -7.343799988052352e-05 0.0028665580314721955 0 -7.282084922201836e-05 0.002859199721941214 0 -7.8849997807850481e-05 0.0028539686026468878 0 -7.282084922201836e-05 0.002859199721941214 0 -6.5628901123964824e-05 0.002853272436892543 0 4.4620609453368749e-05 0.003056565907222389 0 3.200401248086717e-05 0.0028068779337599306 0 -7.8849997807850481e-05 0.0028539686026468878 0 -7.9113459632046087e-05 0.0028634197923498484 0 -7.282084922201836e-05 0.002859199721941214 0 -6.6396968862096799e-05 0.0028613945091916812 0 -7.282084922201836e-05 0.002859199721941214 0 -6.5628901123964824e-05 0.002853272436892543 0 -6.6396968862096799e-05 0.0028613945091916812 0 -6.5628901123964824e-05 0.002853272436892543 0 -6.0877636835707385e-05 0.0028569347848361641 0 7.7755864140784987e-05 0.002906946612924499 0 0.0001362544351116985 0.0028878893223787177 0 4.9534793895117727e-05 0.0028630776428029371 0 0.00010722486683512583 0.0028106050180848191 0 0.0001362544351116985 0.0028878893223787177 0 4.9534793895117727e-05 0.0028630776428029371 0 0.00018181108275186543 0.0029734077491802382 0 0.00027435217288267362 0.0028106414674161388 0 0.0001362544351116985 0.0028878893223787177 0 0.00027435217288267362 0.0028106414674161388 0 0.00010722486683512583 0.0028106050180848191 0 0.0001362544351116985 0.0028878893223787177 0 0.00012542824152580046 0.0031086561163264394 0 4.4620609453368749e-05 0.003056565907222389 0 5.0183695720611991e-05 0.0032482279268052517 0 1.429797489487194e-05 0.0033143462627836869 0 1.8771275646026248e-05 0.0032729154626492387 0 1.2645493364716092e-05 0.0028809271793929611 0 -9.3645568090195313e-06 0.0028322902312766835 0 4.9534793895117727e-05 0.0028630776428029371 0 -9.3645568090195313e-06 0.0028322902312766835 0 4.9534793895117727e-05 0.0028630776428029371 0 3.745902229461696e-06 0.0028076702087119149 0 -3.2051804437281038e-05 0.002826805050871095 0 1.2645493364716092e-05 0.0028809271793929611 0 -9.3645568090195313e-06 0.0028322902312766835 0 0.00010722486683512583 0.0028106050180848191 0 4.9534793895117727e-05 0.0028630776428029371 0 3.745902229461696e-06 0.0028076702087119149 0 -6.0877636835707385e-05 0.0028569347848361641 0 -5.6945408406070604e-05 0.0028495856991734478 0 -5.517702737368637e-05 0.0028580368736341845 0 3.200401248086717e-05 0.0028068779337599306 0 -2.7016745053006768e-05 0.0028325158399367706 0 -6.5628901123964824e-05 0.002853272436892543 0 -6.0877636835707385e-05 0.0028569347848361641 0 -5.6945408406070604e-05 0.0028495856991734478 0 -4.9416016895371762e-05 0.0028516349802057092 0 -5.6945408406070604e-05 0.0028495856991734478 0 -5.517702737368637e-05 0.0028580368736341845 0 -4.4401135533589611e-05 0.0028360686171109736 0 -9.3645568090195313e-06 0.0028322902312766835 0 3.745902229461696e-06 0.0028076702087119149 0 -4.0047302088523912e-05 0.0028338853784131823 0 -2.7016745053006768e-05 0.0028325158399367706 0 -5.517702737368637e-05 0.0028580368736341845 0 -6.0428896462205621e-05 0.0028632662361686408 0 -5.5003636410938869e-05 0.0028697206714577814 0 -6.6396968862096799e-05 0.0028613945091916812 0 -6.0877636835707385e-05 0.0028569347848361641 0 -6.0428896462205621e-05 0.0028632662361686408 0 -6.0877636835707385e-05 0.0028569347848361641 0 -5.517702737368637e-05 0.0028580368736341845 0 -6.0428896462205621e-05 0.0028632662361686408 0 -6.5972281327699239e-05 0.0028735990972911271 0 -6.0428896462205621e-05 0.0028632662361686408 0 -5.5003636410938869e-05 0.0028697206714577814 0 -6.5972281327699239e-05 0.0028735990972911271 0 -5.5003636410938869e-05 0.0028697206714577814 0 -5.8998386003323231e-05 0.0028846677478098957 0 -4.845364437338203e-05 0.0028638686088956825 0 -5.5003636410938869e-05 0.0028697206714577814 0 -4.4470164422160091e-05 0.0028790627667196959 0 -4.845364437338203e-05 0.0028638686088956825 0 -5.517702737368637e-05 0.0028580368736341845 0 -5.5003636410938869e-05 0.0028697206714577814 0 -4.4470164422160091e-05 0.0028790627667196959 0 -6.5378601768381205e-06 0.0028869280838630341 0 -3.2879833255946245e-05 0.0028716400262262282 0 -4.2358619763076271e-05 0.0028807522424718537 0 -3.3246167775416383e-05 0.0028848788188985753 0 -5.5003636410938869e-05 0.0028697206714577814 0 -4.4470164422160091e-05 0.0028790627667196959 0 -5.8998386003323231e-05 0.0028846677478098957 0 -6.5378601768381205e-06 0.0028869280838630341 0 -1.0209999821418128e-05 0.0028719097417933743 0 2.1010382002056485e-06 0.0028817332025974631 0 -6.5378601768381205e-06 0.0028869280838630341 0 -1.0209999821418128e-05 0.0028719097417933743 0 -3.2879833255946245e-05 0.0028716400262262282 0 -4.4470164422160091e-05 0.0028790627667196959 0 -3.2879833255946245e-05 0.0028716400262262282 0 -5.1065463415364106e-05 0.0028692021937262338 0 -1.0209999821418128e-05 0.0028719097417933743 0 -3.2879833255946245e-05 0.0028716400262262282 0 -2.598930523874044e-05 0.0028578820020412061 0 -3.2879833255946245e-05 0.0028716400262262282 0 -2.598930523874044e-05 0.0028578820020412061 0 -5.0407736889807122e-05 0.0028506877991059066 0 -2.598930523874044e-05 0.0028578820020412061 0 -2.7364653516658619e-05 0.0028362178831671104 0 -5.0407736889807122e-05 0.0028506877991059066 0 -2.598930523874044e-05 0.0028578820020412061 0 -1.0750466599606143e-05 0.0028544869087880624 0 -2.7364653516658619e-05 0.0028362178831671104 0 -1.0209999821418128e-05 0.0028719097417933743 0 -2.598930523874044e-05 0.0028578820020412061 0 -1.0750466599606143e-05 0.0028544869087880624 0 -1.0209999821418128e-05 0.0028719097417933743 0 2.4990396852889056e-06 0.0028684633772210061 0 2.1010382002056485e-06 0.0028817332025974631 0 -1.0209999821418128e-05 0.0028719097417933743 0 2.4990396852889056e-06 0.0028684633772210061 0 -1.0750466599606143e-05 0.0028544869087880624 0 -1.0750466599606143e-05 0.0028544869087880624 0 7.1732293129422458e-07 0.0028449960425432929 0 -1.0703161749504765e-05 0.002831614073375194 0 2.4990396852889056e-06 0.0028684633772210061 0 7.1732293129422458e-07 0.0028449960425432929 0 7.7651000843122378e-06 0.0028564806793140757 0 2.4990396852889056e-06 0.0028684633772210061 0 -1.0750466599606143e-05 0.0028544869087880624 0 7.1732293129422458e-07 0.0028449960425432929 0 6.7564431469773073e-06 0.0028390654852606203 0 7.7651000843122378e-06 0.0028564806793140757 0 9.7916553452667636e-06 0.0028263045935864074 0 7.1732293129422458e-07 0.0028449960425432929 0 6.7564431469773073e-06 0.0028390654852606203 0 7.7651000843122378e-06 0.0028564806793140757 0 7.1732293129422458e-07 0.0028449960425432929 0 6.7564431469773073e-06 0.0028390654852606203 0 3.4779642101068026e-07 0.0028298251304804583 0 6.7564431469773073e-06 0.0028390654852606203 0 3.4779642101068026e-07 0.0028298251304804583 0 9.0423467993618405e-06 0.0028227981784696653 0 7.1732293129422458e-07 0.0028449960425432929 0 3.4779642101068026e-07 0.0028298251304804583 0 -1.0703161749504765e-05 0.002831614073375194 0 3.4779642101068026e-07 0.0028298251304804583 0 -1.0703161749504765e-05 0.002831614073375194 0 -7.3019140882369674e-06 0.0028087065688266132 0 -1.0703161749504765e-05 0.002831614073375194 0 -2.6226651571121943e-05 0.0028083294703121191 0 -2.7364653516658619e-05 0.0028362178831671104 0 -1.0703161749504765e-05 0.002831614073375194 0 -2.6226651571121943e-05 0.0028083294703121191 0 -7.3019140882369674e-06 0.0028087065688266132 0 -2.6226651571121943e-05 0.0028083294703121191 0 -2.7364653516658619e-05 0.0028362178831671104 0 -4.6907557747699795e-05 0.0028140850121718452 0 -1.0750466599606143e-05 0.0028544869087880624 0 -1.0703161749504765e-05 0.002831614073375194 0 -2.7364653516658619e-05 0.0028362178831671104 0 -6.1954987135460549e-07 0.0029322729916583471 0 1.1699957403505294e-05 0.002873937003667261 0 8.921454549454591e-06 0.0028843664988289909 0 -6.1954987135460549e-07 0.0029322729916583471 0 -3.1880102786721408e-05 0.0029704951403094217 0 5.8377672629796159e-06 0.0029911117846354771 0 -6.1954987135460549e-07 0.0029322729916583471 0 5.351245660503621e-05 0.002965408468608675 0 5.8377672629796159e-06 0.0029911117846354771 0 -1.0290672714360822e-06 0.002922183465350624 0 3.617013216581053e-05 0.0029219340859588665 0 1.1699957403505294e-05 0.002873937003667261 0 7.7651000843122378e-06 0.0028564806793140757 0 9.7916553452667636e-06 0.0028263045935864074 0 2.4990396852889056e-06 0.0028684633772210061 0 7.7651000843122378e-06 0.0028564806793140757 0 8.921454549454591e-06 0.0028843664988289909 0 1.1699957403505294e-05 0.002873937003667261 0 7.7651000843122378e-06 0.0028564806793140757 0 8.921454549454591e-06 0.0028843664988289909 0 2.4990396852889056e-06 0.0028684633772210061 0 6.1362377249642672e-06 0.0028927160534691554 0 2.1010382002056485e-06 0.0028817332025974631 0 2.4990396852889056e-06 0.0028684633772210061 0 8.921454549454591e-06 0.0028843664988289909 0 6.1362377249642672e-06 0.0028927160534691554 0 -6.1954987135460549e-07 0.0029322729916583471 0 6.1362377249642672e-06 0.0028927160534691554 0 -1.5161506392447107e-05 0.002911578799334786 0 -6.1954987135460549e-07 0.0029322729916583471 0 8.921454549454591e-06 0.0028843664988289909 0 6.1362377249642672e-06 0.0028927160534691554 0 -3.3964490981345175e-05 0.0028880397424905992 0 -5.8998717091642705e-05 0.002899836053549204 0 3.6950446061853363e-06 0.002882720056844599 0 -3.3269294322486965e-05 0.0028927860720369468 0 -1.5161506392447107e-05 0.002911578799334786 0 6.1362377249642672e-06 0.0028927160534691554 0 3.6950446061853363e-06 0.002882720056844599 0 -1.5161506392447107e-05 0.002911578799334786 0 -6.5378601768381205e-06 0.0028869280838630341 0 3.6950446061853363e-06 0.002882720056844599 0 2.1010382002056485e-06 0.0028817332025974631 0 6.1362377249642672e-06 0.0028927160534691554 0 3.6950446061853363e-06 0.002882720056844599 0 2.1010382002056485e-06 0.0028817332025974631 0 -3.3246167775416383e-05 0.0028848788188985753 0 -3.3964490981345175e-05 0.0028880397424905992 0 -6.5972281327699239e-05 0.0028735990972911271 0 -5.8998386003323231e-05 0.0028846677478098957 0 -6.9881428923002344e-05 0.0028923716887602298 0 -8.1401273152896449e-05 0.0028815315052520846 0 -6.5972281327699239e-05 0.0028735990972911271 0 -6.9881428923002344e-05 0.0028923716887602298 0 -8.1401273152896449e-05 0.0028815315052520846 0 -9.4458972243412524e-05 0.0028965663592284766 0 -8.2666932481610737e-05 0.0029031322994827508 0 -8.1401273152896449e-05 0.0028815315052520846 0 -6.9881428923002344e-05 0.0028923716887602298 0 -8.2666932481610737e-05 0.0029031322994827508 0 -0.00010353354334602641 0.0028817136739274821 0 -9.4458972243412524e-05 0.0028965663592284766 0 -0.00010831819805422308 0.0028999216482375216 0 -0.00010353354334602641 0.0028817136739274821 0 -8.1401273152896449e-05 0.0028815315052520846 0 -9.4458972243412524e-05 0.0028965663592284766 0 -3.3269294322486965e-05 0.0028927860720369468 0 -0.00010076175532970383 0.0029246239049778465 0 -5.5172149004900357e-05 0.0029358804556987943 0 -9.4458972243412524e-05 0.0028965663592284766 0 -8.2666932481610737e-05 0.0029031322994827508 0 -0.00010076175532970383 0.0029246239049778465 0 -5.8998717091642705e-05 0.002899836053549204 0 -9.8113405593054992e-05 0.0029200311481463893 0 -9.4458972243412524e-05 0.0028965663592284766 0 -0.00010831819805422308 0.0028999216482375216 0 -0.00010076175532970383 0.0029246239049778465 0 -3.3269294322486965e-05 0.0028927860720369468 0 -1.5161506392447107e-05 0.002911578799334786 0 -5.5172149004900357e-05 0.0029358804556987943 0 -0.00012690614604001567 0.0030686453369932879 0 -7.9886528680390997e-05 0.0033160868765194297 0 -9.1935487180512627e-05 0.0033932166989009095 0 -9.0305873466896167e-05 0.0034210531327639048 0 -0.00011391179920805432 0.0034010241470471829 0 -0.00017442605116724168 0.0030277854733867103 0 -0.00011853237481797869 0.0030151955863360613 0 -9.2794678611374755e-05 0.003150369881871817 0 -6.4953098430740893e-05 0.0033937674033223532 0 -9.1935487180512627e-05 0.0033932166989009095 0 -9.0305873466896167e-05 0.0034210531327639048 0 -8.4559314755669501e-05 0.0031525242330867039 0 -0.00012690614604001567 0.0030686453369932879 0 -0.00010353354334602641 0.0028817136739274821 0 -0.00010831819805422308 0.0028999216482375216 0 -0.00013536923639329327 0.002903947022808244 0 -0.00011307383273668342 0.0029964042077603539 0 -0.0001054093420636861 0.0029865084600244098 0 -9.0557259542041037e-05 0.002960196600352941 0 -0.00010076175532970383 0.0029246239049778465 0 -0.00013536923639329327 0.002903947022808244 0 -9.0557259542041037e-05 0.002960196600352941 0 -0.00012690614604001567 0.0030686453369932879 0 -0.00010097933082566627 0.0029236502781585529 0 -0.00010831819805422308 0.0028999216482375216 0 -0.00010076175532970383 0.0029246239049778465 0 -0.00013536923639329327 0.002903947022808244 0 -0.00011307383273668342 0.0029964042077603539 0 -0.00011224600766115556 0.0029956133626849895 0 -0.0001054093420636861 0.0029865084600244098 0 -0.00017442605116724168 0.0030277854733867103 0 -0.00012070101192135727 0.003002684920834445 0 -0.00011853237481797869 0.0030151955863360613 0 -0.00012690614604001567 0.0030686453369932879 0 -0.00011775033683521253 0.0030034510721920968 0 -0.00011307383273668342 0.0029964042077603539 0 -0.00011224600766115556 0.0029956133626849895 0 -0.00012070101192135727 0.003002684920834445 0 -0.00012070101192135727 0.003002684920834445 0 -0.00011853237481797869 0.0030151955863360613 0 -0.00012436443558333895 0.0030178569336714333 0 -0.00012070101192135727 0.003002684920834445 0 -0.00011564933733308368 0.0030218490439363963 0 -0.00012436443558333895 0.0030178569336714333 0 -0.00012070101192135727 0.003002684920834445 0 -0.00011564933733308368 0.0030218490439363963 0 -0.00011120140791907908 0.0030032541546133667 0 -0.00011224600766115556 0.0029956133626849895 0 -0.00012070101192135727 0.003002684920834445 0 -0.00011120140791907908 0.0030032541546133667 0 -0.00011224600766115556 0.0029956133626849895 0 -0.00011120140791907908 0.0030032541546133667 0 -0.0001054093420636861 0.0029865084600244098 0 -0.00011564933733308368 0.0030218490439363963 0 -0.00011120140791907908 0.0030032541546133667 0 -0.00010938855789471249 0.0030083154415831833 0 -0.00011120140791907908 0.0030032541546133667 0 -0.00010091775216765559 0.0029847018380652363 0 -0.00010938855789471249 0.0030083154415831833 0 -0.00010091775216765559 0.0029847018380652363 0 -9.5735875842459556e-05 0.0029901326856231732 0 -0.00010938855789471249 0.0030083154415831833 0 -0.00011120140791907908 0.0030032541546133667 0 -0.0001054093420636861 0.0029865084600244098 0 -0.00010091775216765559 0.0029847018380652363 0 -0.0001054093420636861 0.0029865084600244098 0 -0.00010091775216765559 0.0029847018380652363 0 -9.0557259542041037e-05 0.002960196600352941 0 -0.00010091775216765559 0.0029847018380652363 0 -9.5735875842459556e-05 0.0029901326856231732 0 -9.0557259542041037e-05 0.002960196600352941 0 -9.5735875842459556e-05 0.0029901326856231732 0 -0.00010925394102252603 0.0030158575925208976 0 -7.6968587438496934e-05 0.0029970288226713448 0 -9.5735875842459556e-05 0.0029901326856231732 0 -0.00010925394102252603 0.0030158575925208976 0 -0.00010938855789471249 0.0030083154415831833 0 -0.00010925394102252603 0.0030158575925208976 0 -0.00011567864695399702 0.0030234396770217765 0 -0.00011697353430834072 0.0030289025986511104 0 -0.00010925394102252603 0.0030158575925208976 0 -0.00010938855789471249 0.0030083154415831833 0 -0.00011697353430834072 0.0030289025986511104 0 -0.00011564933733308368 0.0030218490439363963 0 -0.00010938855789471249 0.0030083154415831833 0 -0.00011697353430834072 0.0030289025986511104 0 -0.00011564933733308368 0.0030218490439363963 0 -0.00011697353430834072 0.0030289025986511104 0 -0.00012040872994763819 0.0030652998980965013 0 -0.00011567864695399702 0.0030234396770217765 0 -0.00011697353430834072 0.0030289025986511104 0 -0.00012040872994763819 0.0030652998980965013 0 -1.5161506392447107e-05 0.002911578799334786 0 -5.5172149004900357e-05 0.0029358804556987943 0 -5.0118932944724672e-05 0.0029587242204838992 0 -6.1954987135460549e-07 0.0029322729916583471 0 -1.5161506392447107e-05 0.002911578799334786 0 -5.0118932944724672e-05 0.0029587242204838992 0 -0.00010076175532970383 0.0029246239049778465 0 -5.5172149004900357e-05 0.0029358804556987943 0 -9.0557259542041037e-05 0.002960196600352941 0 -9.5735875842459556e-05 0.0029901326856231732 0 -9.0557259542041037e-05 0.002960196600352941 0 -7.5591146155468088e-05 0.0029707776518916665 0 -5.5172149004900357e-05 0.0029358804556987943 0 -9.0557259542041037e-05 0.002960196600352941 0 -7.5591146155468088e-05 0.0029707776518916665 0 -5.5172149004900357e-05 0.0029358804556987943 0 -7.5591146155468088e-05 0.0029707776518916665 0 -5.0118932944724672e-05 0.0029587242204838992 0 -7.5591146155468088e-05 0.0029707776518916665 0 -7.6968587438496934e-05 0.0029970288226713448 0 -5.0118932944724672e-05 0.0029587242204838992 0 -9.5735875842459556e-05 0.0029901326856231732 0 -7.5591146155468088e-05 0.0029707776518916665 0 -7.6968587438496934e-05 0.0029970288226713448 0 -7.6968587438496934e-05 0.0029970288226713448 0 -5.0118932944724672e-05 0.0029587242204838992 0 -3.1880102786721408e-05 0.0029704951403094217 0 -6.1954987135460549e-07 0.0029322729916583471 0 -5.0118932944724672e-05 0.0029587242204838992 0 -3.1880102786721408e-05 0.0029704951403094217 0 -3.1880102786721408e-05 0.0029704951403094217 0 -3.4771282918795314e-05 0.0030101694382966325 0 5.8377672629796159e-06 0.0029911117846354771 0 -7.6968587438496934e-05 0.0029970288226713448 0 -3.1880102786721408e-05 0.0029704951403094217 0 -3.4771282918795314e-05 0.0030101694382966325 0 -6.1765140966996176e-05 0.0030331414990296289 0 -9.5742175609137332e-05 0.0030220852101213252 0 -8.9967524252694575e-05 0.0030417449433800168 0 -7.6968587438496934e-05 0.0029970288226713448 0 -3.4771282918795314e-05 0.0030101694382966325 0 -6.1765140966996176e-05 0.0030331414990296289 0 -7.6968587438496934e-05 0.0029970288226713448 0 -6.1765140966996176e-05 0.0030331414990296289 0 -9.5742175609137332e-05 0.0030220852101213252 0 2.8440607315788261e-05 0.0030648809985797092 0 3.3049085309088137e-05 0.0030687899945545721 0 3.2200915674376448e-05 0.0030653266830843744 0 4.4906150816616953e-05 0.002868331130792128 0 -3.5033964954154221e-05 0.0030615531421649919 0 -6.1765140966996176e-05 0.0030331414990296289 0 -4.3193399433461423e-05 0.003063290382089837 0 -8.9967524252694575e-05 0.0030417449433800168 0 -3.4771282918795314e-05 0.0030101694382966325 0 -6.1765140966996176e-05 0.0030331414990296289 0 -4.3193399433461423e-05 0.003063290382089837 0 -3.4771282918795314e-05 0.0030101694382966325 0 -4.3193399433461423e-05 0.003063290382089837 0 2.536040195562345e-05 0.0030318766590749038 0 4.4906150816616953e-05 0.002868331130792128 0 3.078443616796549e-05 0.0028636434294852884 0 -0.00010925394102252603 0.0030158575925208976 0 -0.00011567864695399702 0.0030234396770217765 0 -0.00011481479212981629 0.0030287764623048033 0 -4.7892042171422843e-05 0.003179147046639446 0 4.8572808390818663e-06 0.0032736042273103444 0 -0.00012903548088360805 0.0032278232343722134 0 -8.5178267779370038e-05 0.0030998335451792539 0 -2.9591061406187137e-05 0.0031499692043717251 0 -0.00011481479212981629 0.0030287764623048033 0 -9.5742175609137332e-05 0.0030220852101213252 0 -8.9967524252694575e-05 0.0030417449433800168 0 -0.00010925394102252603 0.0030158575925208976 0 -0.00011481479212981629 0.0030287764623048033 0 -9.5742175609137332e-05 0.0030220852101213252 0 -0.00010925394102252603 0.0030158575925208976 0 -7.6968587438496934e-05 0.0029970288226713448 0 -9.5742175609137332e-05 0.0030220852101213252 0 3.7694638358939333e-05 0.0030720306222812924 0 3.3049085309088137e-05 0.0030687899945545721 0 3.5706351150626175e-05 0.0030665008117829917 0 -2.9591061406187137e-05 0.0031499692043717251 0 -3.5033964954154221e-05 0.0030615531421649919 0 3.3049085309088137e-05 0.0030687899945545721 0 3.5706351150626175e-05 0.0030665008117829917 0 3.2200915674376448e-05 0.0030653266830843744 0 5.3647009407848764e-05 0.0032558962025471027 0 -6.2671981271964424e-05 0.0033720915928991662 0 -1.4614310875892412e-05 0.0032699607353975433 0 4.7475280118332361e-05 0.0033814874268795919 0 -7.1926194385377195e-05 0.0033600491848176789 0 -2.9591061406187137e-05 0.0031499692043717251 0 5.3647009407848764e-05 0.0032558962025471027 0 -1.4614310875892412e-05 0.0032699607353975433 0 -8.9346035912874272e-05 0.0032921288225089009 0 -7.1926194385377195e-05 0.0033600491848176789 0 -5.9237250631209323e-06 0.0034367410236054705 0 0.00010226462896318817 0.0034471321938215954 0 -4.9971288922324941e-05 0.0035295492176957823 0 -5.9237250631209323e-06 0.0034367410236054705 0 7.0759168105204661e-05 0.0033912784706054506 0 -5.8234063466986717e-05 0.0033672384254596656 0 -5.9237250631209323e-06 0.0034367410236054705 0 -4.9971288922324941e-05 0.0035295492176957823 0 -0.00010402256885079312 0.0034458842419984722 0 -5.9237250631209323e-06 0.0034367410236054705 0 -5.8234063466986717e-05 0.0033672384254596656 0 -0.00010402256885079312 0.0034458842419984722 0 -5.9237250631209323e-06 0.0034367410236054705 0 7.0759168105204661e-05 0.0033912784706054506 0 0.00010226462896318817 0.0034471321938215954 0 5.3647009407848764e-05 0.0032558962025471027 0 8.3765745928353938e-05 0.0032639100924247836 0 7.6190266287086905e-05 0.0031784422057460305 0 6.7079094816569634e-05 0.0031717963971536985 0 7.1457738531703963e-05 0.00316971478577205 0 3.5706351150626175e-05 0.0030665008117829917 0 3.2200915674376448e-05 0.0030653266830843744 0 3.2726676946475361e-05 0.0030649301728625368 0 7.6190266287086905e-05 0.0031784422057460305 0 6.7079094816569634e-05 0.0031717963971536985 0 6.4106934969122129e-05 0.0031754976529442414 0 5.3647009407848764e-05 0.0032558962025471027 0 6.5175686436854473e-05 0.0030563169339464544 0 5.7598568468488035e-05 0.0031053414949821735 0 3.0149008251398549e-05 0.0031466030840358746 0 -3.4761321819216373e-06 0.0029389449771726052 0 -2.1874195664419777e-05 0.0029633940633361005 0 3.1632338659276334e-05 0.0029734780411851945 0 5.7598568468488035e-05 0.0031053414949821735 0 8.3765745928353938e-05 0.0032639100924247836 0 7.8748058112267452e-05 0.0031354444656498102 0 -1.5536898243203971e-05 0.003185149590792192 0 8.3093498263796608e-06 0.0032278606538718559 0 8.3765745928353938e-05 0.0032639100924247836 0 3.0149008251398549e-05 0.0031466030840358746 0 -2.6370388837088911e-05 0.0029706024515320974 0 2.0226507000608711e-05 0.0030521053859118999 0 -0.00012016381716469403 0.0030904768767474264 0 3.0149008251398549e-05 0.0031466030840358746 0 -2.6883872968119379e-06 0.0033839989570306197 0 0.00021932978340504322 0.0033869048388649034 0 0.00023159240475405495 0.0034087973469145174 0 -3.3929518438301776e-05 0.0035259288754736469 0 3.0149008251398549e-05 0.0031466030840358746 0 7.4525044261018625e-06 0.0030222073234079435 0 8.3765745928353938e-05 0.0032639100924247836 0 -3.5851901877018155e-05 0.0035272033624725264 0 0.00023159240475405495 0.0034087973469145174 0 -3.3929518438301776e-05 0.0035259288754736469 0 5.4447354077264866e-05 0.0036479178218757667 0 3.1822058569761889e-05 0.0029197478084295038 0 9.464643059394299e-05 0.0029865374181404607 0 0.00017848737860790811 0.0029469981802749917 0 0.00011389496575056874 0.0027115186163177963 0 0.00014696278622555064 0.0026964010566495047 0 8.614582576334412e-05 0.0026777005402699137 0 7.0539280057070819e-05 0.0029474734420289594 0 0.00013306185250288016 0.0027944466522004567 0 4.4906150816616953e-05 0.002868331130792128 0 7.0539280057070819e-05 0.0029474734420289594 0 2.8440607315788261e-05 0.0030648809985797092 0 3.2200915674376448e-05 0.0030653266830843744 0 3.1938546298055565e-05 0.0030642988819734305 0 5.7649052436817315e-05 0.0030625266319500542 0 6.5175686436854473e-05 0.0030563169339464544 0 3.2200915674376448e-05 0.0030653266830843744 0 3.1938546298055565e-05 0.0030642988819734305 0 3.2960763288361915e-05 0.0030644688260361218 0 5.7598568468488035e-05 0.0031053414949821735 0 6.5175686436854473e-05 0.0030563169339464544 0 3.4918200541738387e-05 0.0030430505492944873 0 8.4172665657252199e-05 0.0030167754761723869 0 5.8456427209105898e-05 0.0030119293951880711 0 5.7598568468488035e-05 0.0031053414949821735 0 7.0539280057070819e-05 0.0029474734420289594 0 7.0539280057070819e-05 0.0029474734420289594 0 6.5175686436854473e-05 0.0030563169339464544 0 -3.4761321819216373e-06 0.0029389449771726052 0 3.1822058569761889e-05 0.0029197478084295038 0 3.1632338659276334e-05 0.0029734780411851945 0 3.1822058569761889e-05 0.0029197478084295038 0 3.1632338659276334e-05 0.0029734780411851945 0 9.464643059394299e-05 0.0029865374181404607 0 2.4050918236227924e-05 0.003046760705158684 0 9.464643059394299e-05 0.0029865374181404607 0 0.00012951468929689003 0.0030652745270969063 0 3.1632338659276334e-05 0.0029734780411851945 0 2.4050918236227924e-05 0.003046760705158684 0 9.464643059394299e-05 0.0029865374181404607 0 -2.1874195664419777e-05 0.0029633940633361005 0 3.1632338659276334e-05 0.0029734780411851945 0 2.4050918236227924e-05 0.003046760705158684 0 9.464643059394299e-05 0.0029865374181404607 0 0.00017313728311161116 0.0030158891106669031 0 0.00017848737860790811 0.0029469981802749917 0 9.464643059394299e-05 0.0029865374181404607 0 0.00017313728311161116 0.0030158891106669031 0 0.00012951468929689003 0.0030652745270969063 0 0.00017313728311161116 0.0030158891106669031 0 0.00024130410346129866 0.0030130515804921596 0 0.0002212005277496637 0.0030674266092672359 0 0.00024130410346129866 0.0030130515804921596 0 0.00017848737860790811 0.0029469981802749917 0 0.00032251382552542788 0.0029790198928504913 0 0.00017313728311161116 0.0030158891106669031 0 0.0002212005277496637 0.0030674266092672359 0 0.00012951468929689003 0.0030652745270969063 0 0.00024130410346129866 0.0030130515804921596 0 0.00030254300344474634 0.0030566766900171462 0 0.0002212005277496637 0.0030674266092672359 0 0.00017313728311161116 0.0030158891106669031 0 0.00024130410346129866 0.0030130515804921596 0 0.00017848737860790811 0.0029469981802749917 0 0.00011389496575056874 0.0027115186163177963 0 8.614582576334412e-05 0.0026777005402699137 0 4.7945746179678751e-05 0.0026789280142080862 0 8.614582576334412e-05 0.0026777005402699137 0 4.7945746179678751e-05 0.0026789280142080862 0 2.2485242637607071e-05 0.0026521892842265079 0 0.00013306185250288016 0.0027944466522004567 0 0.00017290581965159117 0.0028172274350398247 0 4.4906150816616953e-05 0.002868331130792128 0 4.3801531510506028e-05 0.0026400570840800796 0 7.5594425163732015e-05 0.0026760399110642547 0 2.684359378245859e-05 0.0026553079343181432 0 3.3982794828866238e-05 0.0026756923508764259 0 4.3801531510506028e-05 0.0026400570840800796 0 -1.8513281375329548e-05 0.0026465836843498759 0 4.7945746179678751e-05 0.0026789280142080862 0 2.2485242637607071e-05 0.0026521892842265079 0 -1.9904287627715724e-05 0.0026361716211320873 0 2.684359378245859e-05 0.0026553079343181432 0 1.9050793277249259e-08 0.0026576738208276577 0 1.5690140415321257e-05 0.0026688172871732092 0 1.9050793277249259e-08 0.0026576738208276577 0 2.357487722540366e-06 0.0026726905694585594 0 1.5690140415321257e-05 0.0026688172871732092 0 2.684359378245859e-05 0.0026553079343181432 0 3.3982794828866238e-05 0.0026756923508764259 0 1.5690140415321257e-05 0.0026688172871732092 0 0.00024130410346129866 0.0030130515804921596 0 0.00032251382552542788 0.0029790198928504913 0 0.00030254300344474634 0.0030566766900171462 0 0.00032251382552542788 0.0029790198928504913 0 0.00030254300344474634 0.0030566766900171462 0 0.00037886809873387419 0.0030503990401122313 0 0.00032251382552542788 0.0029790198928504913 0 0.00037886809873387419 0.0030503990401122313 0 0.00045088676106328515 0.0030148989027261133 0 0.00017290581965159117 0.0028172274350398247 0 0.00019548041416870095 0.0028245802896629687 0 2.2485242637607071e-05 0.0026521892842265079 0 -1.9904287627715724e-05 0.0026361716211320873 0 -4.1394008651824405e-05 0.0026238207344969683 0 0.00045088676106328515 0.0030148989027261133 0 0.00043774416131290607 0.0030675442196593048 0 0.00047583171049863895 0.0030636350392148843 0 0.00037886809873387419 0.0030503990401122313 0 0.00045088676106328515 0.0030148989027261133 0 0.00043774416131290607 0.0030675442196593048 0 -1.9904287627715724e-05 0.0026361716211320873 0 -4.1394008651824405e-05 0.0026238207344969683 0 -3.4279637847747292e-05 0.0026438743118509258 0 -4.1394008651824405e-05 0.0026238207344969683 0 -5.1882641887036818e-05 0.0026435782192447553 0 -7.3482506872236212e-05 0.0026370535584383445 0 -4.1394008651824405e-05 0.0026238207344969683 0 -5.1882641887036818e-05 0.0026435782192447553 0 -3.4279637847747292e-05 0.0026438743118509258 0 -5.1882641887036818e-05 0.0026435782192447553 0 -3.4279637847747292e-05 0.0026438743118509258 0 -4.1966458295344319e-05 0.0026572313251689759 0 -3.4279637847747292e-05 0.0026438743118509258 0 -4.1966458295344319e-05 0.0026572313251689759 0 -1.8759811043916069e-05 0.0026551957126144327 0 -4.1966458295344319e-05 0.0026572313251689759 0 -1.8759811043916069e-05 0.0026551957126144327 0 -2.3983845937806987e-05 0.0026724258100922303 0 -5.1882641887036818e-05 0.0026435782192447553 0 -4.1966458295344319e-05 0.0026572313251689759 0 -6.6254160844830584e-05 0.0026559013085351237 0 2.684359378245859e-05 0.0026553079343181432 0 -1.9904287627715724e-05 0.0026361716211320873 0 1.9050793277249259e-08 0.0026576738208276577 0 -1.9904287627715724e-05 0.0026361716211320873 0 -3.4279637847747292e-05 0.0026438743118509258 0 -1.8759811043916069e-05 0.0026551957126144327 0 -1.9904287627715724e-05 0.0026361716211320873 0 -1.8759811043916069e-05 0.0026551957126144327 0 1.9050793277249259e-08 0.0026576738208276577 0 -1.8759811043916069e-05 0.0026551957126144327 0 -9.3151179262125739e-06 0.002665626363859835 0 -2.3983845937806987e-05 0.0026724258100922303 0 -1.8759811043916069e-05 0.0026551957126144327 0 1.9050793277249259e-08 0.0026576738208276577 0 -9.3151179262125739e-06 0.002665626363859835 0 1.9050793277249259e-08 0.0026576738208276577 0 -9.3151179262125739e-06 0.002665626363859835 0 2.357487722540366e-06 0.0026726905694585594 0 2.357487722540366e-06 0.0026726905694585594 0 -8.2277045617376174e-06 0.0026765169978085384 0 8.2839674970720829e-07 0.0026839906434493687 0 -9.3151179262125739e-06 0.002665626363859835 0 2.357487722540366e-06 0.0026726905694585594 0 -8.2277045617376174e-06 0.0026765169978085384 0 -8.2277045617376174e-06 0.0026765169978085384 0 -2.3983845937806987e-05 0.0026724258100922303 0 -1.3494306769105649e-05 0.0026910655103581605 0 -9.3151179262125739e-06 0.002665626363859835 0 -8.2277045617376174e-06 0.0026765169978085384 0 -2.3983845937806987e-05 0.0026724258100922303 0 -1.3494306769105649e-05 0.0026910655103581605 0 8.2839674970720829e-07 0.0026839906434493687 0 7.3495782349557712e-06 0.0026942424987330365 0 -8.2277045617376174e-06 0.0026765169978085384 0 -1.3494306769105649e-05 0.0026910655103581605 0 8.2839674970720829e-07 0.0026839906434493687 0 -2.3983845937806987e-05 0.0026724258100922303 0 -1.3494306769105649e-05 0.0026910655103581605 0 -4.6294255848931872e-05 0.0026935666746117546 0 -4.1966458295344319e-05 0.0026572313251689759 0 -2.3983845937806987e-05 0.0026724258100922303 0 -4.6294255848931872e-05 0.0026935666746117546 0 -4.1966458295344319e-05 0.0026572313251689759 0 -4.6294255848931872e-05 0.0026935666746117546 0 -6.6254160844830584e-05 0.0026559013085351237 0 -2.6226651571121943e-05 0.0028083294703121191 0 -1.8293168190189348e-05 0.0027455138602040445 0 -5.310698176963937e-05 0.0027635741205612407 0 -2.6226651571121943e-05 0.0028083294703121191 0 -1.8293168190189348e-05 0.0027455138602040445 0 -7.3019140882369674e-06 0.0028087065688266132 0 -1.3494306769105649e-05 0.0026910655103581605 0 -4.6294255848931872e-05 0.0026935666746117546 0 -2.3882411829381338e-06 0.002716181825716109 0 -1.8293168190189348e-05 0.0027455138602040445 0 9.0423467993618405e-06 0.0028227981784696653 0 1.3478750490383499e-05 0.0028221659324657593 0 -1.8293168190189348e-05 0.0027455138602040445 0 -7.3019140882369674e-06 0.0028087065688266132 0 9.0423467993618405e-06 0.0028227981784696653 0 -4.3718967081957955e-05 0.0027053139868834955 0 2.4567434249341622e-05 0.0028502217475603127 0 -1.3494306769105649e-05 0.0026910655103581605 0 -2.3882411829381338e-06 0.002716181825716109 0 7.3495782349557712e-06 0.0026942424987330365 0 3.4779642101068026e-07 0.0028298251304804583 0 -7.3019140882369674e-06 0.0028087065688266132 0 9.0423467993618405e-06 0.0028227981784696653 0 2.3395188470431406e-05 0.0028486570631209513 0 2.4567434249341622e-05 0.0028502217475603127 0 6.7564431469773073e-06 0.0028390654852606203 0 9.0423467993618405e-06 0.0028227981784696653 0 9.7916553452667636e-06 0.0028263045935864074 0 5.351245660503621e-05 0.002965408468608675 0 0.00010480260534394774 0.0029897690045445303 0 2.536040195562345e-05 0.0030318766590749038 0 -2.3882411829381338e-06 0.002716181825716109 0 3.6816844931843263e-05 0.002694630445200664 0 7.3495782349557712e-06 0.0026942424987330365 0 3.617013216581053e-05 0.0029219340859588665 0 2.4567434249341622e-05 0.0028502217475603127 0 2.4567434249341622e-05 0.0028502217475603127 0 3.078443616796549e-05 0.0028636434294852884 0 -3.4771282918795314e-05 0.0030101694382966325 0 5.8377672629796159e-06 0.0029911117846354771 0 2.536040195562345e-05 0.0030318766590749038 0 5.351245660503621e-05 0.002965408468608675 0 5.8377672629796159e-06 0.0029911117846354771 0 2.536040195562345e-05 0.0030318766590749038 0 7.5594425163732015e-05 0.0026760399110642547 0 3.6816844931843263e-05 0.002694630445200664 0 3.3982794828866238e-05 0.0026756923508764259 0 3.6816844931843263e-05 0.002694630445200664 0 7.3495782349557712e-06 0.0026942424987330365 0 1.4847063739018289e-05 0.0026838447096483105 0 3.3982794828866238e-05 0.0026756923508764259 0 1.5690140415321257e-05 0.0026688172871732092 0 1.4847063739018289e-05 0.0026838447096483105 0 2.357487722540366e-06 0.0026726905694585594 0 1.5690140415321257e-05 0.0026688172871732092 0 1.4847063739018289e-05 0.0026838447096483105 0 2.357487722540366e-06 0.0026726905694585594 0 8.2839674970720829e-07 0.0026839906434493687 0 1.4847063739018289e-05 0.0026838447096483105 0 8.2839674970720829e-07 0.0026839906434493687 0 7.3495782349557712e-06 0.0026942424987330365 0 1.4847063739018289e-05 0.0026838447096483105 0 3.6816844931843263e-05 0.002694630445200664 0 3.3982794828866238e-05 0.0026756923508764259 0 1.4847063739018289e-05 0.0026838447096483105 0 3.9117657154192293e-07 0.0049988061768657041 0 -2.2572513050268877e-09 0.0049999890061666295 0 1.1936144295358686e-09 0.0050000004700240536 0 3.9117657154192293e-07 0.0049988061768657041 0 -2.2572513050268877e-09 0.0049999890061666295 0 2.7169138927185996e-07 0.004992395307799301 0 2.1222551452724252e-05 0.0049230352355630778 0 -1.5406954013505904e-05 0.0049346960013057295 0 2.0257724109800224e-05 0.0048473830762079803 0 3.9117657154192293e-07 0.0049988061768657041 0 3.6624866063066818e-06 0.0049970336799839039 0 2.7169138927185996e-07 0.004992395307799301 0 2.1222551452724252e-05 0.0049230352355630778 0 5.3419607821531826e-06 0.0049792568060954513 0 -1.5406954013505904e-05 0.0049346960013057295 0 3.6624866063066818e-06 0.0049970336799839039 0 5.3419607821531826e-06 0.0049792568060954513 0 2.7169138927185996e-07 0.004992395307799301 0 1.6897683712169303e-05 0.0050430697479566956 0 8.7762553611741672e-06 0.0049465751607667245 0 5.3419607821531826e-06 0.0049792568060954513 0 2.7169138927185996e-07 0.004992395307799301 0 1.5453993004994355e-06 0.0049897267201345465 0 -2.2572513050268877e-09 0.0049999890061666295 0 2.7169138927185996e-07 0.004992395307799301 0 1.6776614098592042e-09 0.0049999848254645455 0 1.6776614098592042e-09 0.0049999848254645455 0 9.644424076974218e-08 0.0049930334561080246 0 1.5453993004994355e-06 0.0049897267201345465 0 2.7169138927185996e-07 0.004992395307799301 0 1.6776614098592042e-09 0.0049999848254645455 0 1.5453993004994355e-06 0.0049897267201345465 0 6.0639991278941382e-10 0.004999988085983024 0 1.6776614098592042e-09 0.0049999848254645455 0 9.644424076974218e-08 0.0049930334561080246 0 -2.223005731762136e-06 0.0049888289597037633 0 6.0639991278941382e-10 0.004999988085983024 0 9.644424076974218e-08 0.0049930334561080246 0 -2.223005731762136e-06 0.0049888289597037633 0 9.644424076974218e-08 0.0049930334561080246 0 -1.0773631475098758e-06 0.0049867621317535634 0 5.3419607821531826e-06 0.0049792568060954513 0 -1.0773631475098758e-06 0.0049867621317535634 0 1.5453993004994355e-06 0.0049897267201345465 0 9.644424076974218e-08 0.0049930334561080246 0 -1.0773631475098758e-06 0.0049867621317535634 0 1.5453993004994355e-06 0.0049897267201345465 0 5.3419607821531826e-06 0.0049792568060954513 0 -7.5347012903377606e-06 0.0049795132135390672 0 -1.6789274382333404e-05 0.0049698588495890542 0 5.3419607821531826e-06 0.0049792568060954513 0 -1.0773631475098758e-06 0.0049867621317535634 0 -7.5347012903377606e-06 0.0049795132135390672 0 -2.223005731762136e-06 0.0049888289597037633 0 -1.0773631475098758e-06 0.0049867621317535634 0 -4.6776861872244892e-06 0.0049821795474540419 0 -1.0773631475098758e-06 0.0049867621317535634 0 -7.5347012903377606e-06 0.0049795132135390672 0 -4.6776861872244892e-06 0.0049821795474540419 0 -7.5347012903377606e-06 0.0049795132135390672 0 -4.6776861872244892e-06 0.0049821795474540419 0 -1.5870205138219524e-05 0.0049728269805528668 0 3.2973468732921686e-06 0.0049753889371669359 0 -4.6776861872244892e-06 0.0049821795474540419 0 7.5396233749640566e-06 0.004975416799475163 0 5.6530847753191102e-05 0.0051576731846586501 0 -5.1613154002310513e-05 0.0040377840284248458 0 -7.5347012903377606e-06 0.0049795132135390672 0 -1.6789274382333404e-05 0.0049698588495890542 0 -1.5870205138219524e-05 0.0049728269805528668 0 -0.00026802684607889768 0.0039923088104970939 0 -5.1613154002310513e-05 0.0040377840284248458 0 -0.00047946249824868775 0.0030213025735255231 0 -0.00044881836421875631 0.0031198343432454045 0 -0.00036122899117109383 0.0030231724240767249 0 -0.00047946249824868775 0.0030213025735255231 0 -0.00044881836421875631 0.0031198343432454045 0 -0.00055583205641480927 0.0031693963559580084 0 -0.00026802684607889768 0.0039923088104970939 0 -0.00033934371890950986 0.0040573703515582151 0 -0.00047946249824868775 0.0030213025735255231 0 -0.00055583205641480927 0.0031693963559580084 0 -0.0006461933102596707 0.0032504470154650416 0 5.3419607821531826e-06 0.0049792568060954513 0 -1.6789274382333404e-05 0.0049698588495890542 0 -1.5406954013505904e-05 0.0049346960013057295 0 -0.00044881836421875631 0.0031198343432454045 0 -0.00055583205641480927 0.0031693963559580084 0 -0.00043514004559196872 0.0032540784749607592 0 -0.00054150749959691223 0.0031781726185244096 0 -0.00037134766272590498 0.0033865119077724675 0 -0.00055583205641480927 0.0031693963559580084 0 -0.0006461933102596707 0.0032504470154650416 0 -0.00029011639051202797 0.0035294263914467578 0 -0.00044881836421875631 0.0031198343432454045 0 -0.00037233235533567669 0.0031245957039458998 0 -0.00043514004559196872 0.0032540784749607592 0 -0.00028256801088050203 0.0031483468917521524 0 -0.00037233235533567669 0.0031245957039458998 0 -0.00043514004559196872 0.0032540784749607592 0 -0.00028256801088050203 0.0031483468917521524 0 -0.00031444899663594087 0.0030821290001675577 0 -0.00037233235533567669 0.0031245957039458998 0 -0.00028256801088050203 0.0031483468917521524 0 -0.00031444899663594087 0.0030821290001675577 0 -0.00024576709802888143 0.0030295444189247902 0 -0.00031444899663594087 0.0030821290001675577 0 -0.00024576709802888143 0.0030295444189247902 0 -0.00036122899117109383 0.0030231724240767249 0 -0.00044881836421875631 0.0031198343432454045 0 -0.00037233235533567669 0.0031245957039458998 0 -0.00036122899117109383 0.0030231724240767249 0 -0.00031444899663594087 0.0030821290001675577 0 -0.00037233235533567669 0.0031245957039458998 0 -0.00036122899117109383 0.0030231724240767249 0 -0.00047946249824868775 0.0030213025735255231 0 -0.00036122899117109383 0.0030231724240767249 0 -0.00039060305328320933 0.0029161897746041326 0 -0.00036122899117109383 0.0030231724240767249 0 -0.00039060305328320933 0.0029161897746041326 0 -0.0002792031963359127 0.0029370037775002739 0 0.0001894085581809093 0.0032610770284875559 0 0.00026234016104195387 0.0031441244068898524 0 0.00013367989627021372 0.0031060129176547786 0 -5.1613154002310513e-05 0.0040377840284248458 0 -0.00010395554522421135 0.0029548838492515512 0 0.0001894085581809093 0.0032610770284875559 0 0.00013367989627021372 0.0031060129176547786 0 5.1733061276135812e-05 0.003168750606406456 0 -0.00024576709802888143 0.0030295444189247902 0 -0.00036122899117109383 0.0030231724240767249 0 -0.0002792031963359127 0.0029370037775002739 0 -0.00024576709802888143 0.0030295444189247902 0 -0.00017630256896290325 0.0029665204576469809 0 -0.00015868874280286228 0.0030143891392848555 0 -0.00024576709802888143 0.0030295444189247902 0 -0.0002792031963359127 0.0029370037775002739 0 -0.00017630256896290325 0.0029665204576469809 0 -0.00010395554522421135 0.0029548838492515512 0 -8.1578503780498922e-05 0.0030212889912274929 0 0.00013367989627021372 0.0031060129176547786 0 4.9271480216205408e-06 0.0030643228525766572 0 5.1733061276135812e-05 0.003168750606406456 0 -0.00011853237481797869 0.0030151955863360613 0 4.9271480216205408e-06 0.0030643228525766572 0 -9.2794678611374755e-05 0.003150369881871817 0 4.9271480216205408e-06 0.0030643228525766572 0 5.1733061276135812e-05 0.003168750606406456 0 -9.2794678611374755e-05 0.003150369881871817 0 -0.00011853237481797869 0.0030151955863360613 0 -0.00017630256896290325 0.0029665204576469809 0 -0.00015868874280286228 0.0030143891392848555 0 -0.00011853237481797869 0.0030151955863360613 0 -0.00015868874280286228 0.0030143891392848555 0 -0.00012436443558333895 0.0030178569336714333 0 -0.00012229301947070368 0.0030121308263383363 0 -8.1578503780498922e-05 0.0030212889912274929 0 -0.00012436443558333895 0.0030178569336714333 0 -0.00018062826465811306 0.0030611099591564975 0 -0.00012040872994763819 0.0030652998980965013 0 -0.00015868874280286228 0.0030143891392848555 0 -0.00012436443558333895 0.0030178569336714333 0 -0.00018062826465811306 0.0030611099591564975 0 -0.00011564933733308368 0.0030218490439363963 0 -0.00012436443558333895 0.0030178569336714333 0 -0.00012040872994763819 0.0030652998980965013 0 -0.00024576709802888143 0.0030295444189247902 0 -0.00015868874280286228 0.0030143891392848555 0 -0.00018062826465811306 0.0030611099591564975 0 -0.00028256801088050203 0.0031483468917521524 0 -0.00024576709802888143 0.0030295444189247902 0 -0.00018062826465811306 0.0030611099591564975 0 -0.00028256801088050203 0.0031483468917521524 0 -0.00018219629823479605 0.0031471246800066168 0 -0.00021321287364202965 0.0032353226341939757 0 -0.00028256801088050203 0.0031483468917521524 0 -0.00018062826465811306 0.0030611099591564975 0 -0.00018219629823479605 0.0031471246800066168 0 -0.00018219629823479605 0.0031471246800066168 0 -0.00012334824213110126 0.0031527621893560694 0 -0.00012040872994763819 0.0030652998980965013 0 -0.00018219629823479605 0.0031471246800066168 0 -0.00012334824213110126 0.0031527621893560694 0 -0.00012903548088360805 0.0032278232343722134 0 -4.7892042171422843e-05 0.003179147046639446 0 -0.00012334824213110126 0.0031527621893560694 0 -0.00012040872994763819 0.0030652998980965013 0 -8.5178267779370038e-05 0.0030998335451792539 0 -0.00011235781480919284 0.0030674533368460753 0 -0.00018062826465811306 0.0030611099591564975 0 -0.00018219629823479605 0.0031471246800066168 0 -0.00012040872994763819 0.0030652998980965013 0 -1.4614310875892412e-05 0.0032699607353975433 0 -0.00012903548088360805 0.0032278232343722134 0 -8.9346035912874272e-05 0.0032921288225089009 0 -2.9591061406187137e-05 0.0031499692043717251 0 -9.9808010810834355e-05 0.0032494681568979314 0 -4.7892042171422843e-05 0.003179147046639446 0 -0.00012334824213110126 0.0031527621893560694 0 -0.00012903548088360805 0.0032278232343722134 0 -0.00018219629823479605 0.0031471246800066168 0 -0.00012903548088360805 0.0032278232343722134 0 -0.00021321287364202965 0.0032353226341939757 0 -0.00021321287364202965 0.0032353226341939757 0 -0.00019051088677894931 0.0033425381179457256 0 -0.00029344098671227976 0.00327824501177235 0 -0.00012903548088360805 0.0032278232343722134 0 -0.00021321287364202965 0.0032353226341939757 0 -0.00019051088677894931 0.0033425381179457256 0 -0.00019051088677894931 0.0033425381179457256 0 -0.00027750274929384209 0.0034130420684166571 0 -0.0002822945082517323 0.0033481833345372913 0 -0.00012903548088360805 0.0032278232343722134 0 -0.00019051088677894931 0.0033425381179457256 0 -8.9346035912874272e-05 0.0032921288225089009 0 -0.00018220790405648228 0.0033423834441220503 0 -6.2671981271964424e-05 0.0033720915928991662 0 -0.00019051088677894931 0.0033425381179457256 0 -8.9346035912874272e-05 0.0032921288225089009 0 -7.1926194385377195e-05 0.0033600491848176789 0 -0.00019051088677894931 0.0033425381179457256 0 -5.8234063466986717e-05 0.0033672384254596656 0 -0.00010402256885079312 0.0034458842419984722 0 -0.00010402256885079312 0.0034458842419984722 0 -0.00016187538285824298 0.003511032329254064 0 -0.00019008413028102491 0.0034500744137189285 0 -4.9971288922324941e-05 0.0035295492176957823 0 -0.00010402256885079312 0.0034458842419984722 0 -0.00016187538285824298 0.003511032329254064 0 -3.5851901877018155e-05 0.0035272033624725264 0 -0.00019794417333003823 0.0037861296356332709 0 -4.9971288922324941e-05 0.0035295492176957823 0 -0.00016187538285824298 0.003511032329254064 0 -0.00020151309129521177 0.003611509893924547 0 -0.00016187538285824298 0.003511032329254064 0 -0.00026251463530564017 0.00351828095680694 0 -0.00020151309129521177 0.003611509893924547 0 -0.00016187538285824298 0.003511032329254064 0 -0.00019008413028102491 0.0034500744137189285 0 -0.00026251463530564017 0.00351828095680694 0 -9.6549584115035989e-05 0.0038422943631641164 0 -0.00019794417333003823 0.0037861296356332709 0 -0.00019051088677894931 0.0033425381179457256 0 -0.00019008413028102491 0.0034500744137189285 0 -0.00027750274929384209 0.0034130420684166571 0 -0.00019008413028102491 0.0034500744137189285 0 -0.00027750274929384209 0.0034130420684166571 0 -0.00026251463530564017 0.00351828095680694 0 -0.00019051088677894931 0.0033425381179457256 0 -0.00010402256885079312 0.0034458842419984722 0 -0.00019008413028102491 0.0034500744137189285 0 -0.00029337194250865278 0.0033133801907532629 0 -9.6549584115035989e-05 0.0038422943631641164 0 0.0001994515778138065 0.0043085851632129728 0 -2.1528607062127615e-05 0.004166919489175561 0 -3.5707087064008931e-05 0.0039246072256325648 0 -0.00027750274929384209 0.0034130420684166571 0 -0.00026130588391208657 0.0035231736706856885 0 -0.00035293356353102273 0.003372724818970981 0 -9.6549584115035989e-05 0.0038422943631641164 0 -0.0001805524952783379 0.0036664812768541764 0 8.2022010403407257e-05 0.0044479385481550268 0 -5.809451251603069e-05 0.0043431454548195367 0 -3.8720866627029581e-05 0.0045698463197705475 0 0.0001994515778138065 0.0043085851632129728 0 8.2022010403407257e-05 0.0044479385481550268 0 0.0002347250470795686 0.0045862631474889717 0 0.0001994515778138065 0.0043085851632129728 0 -5.809451251603069e-05 0.0043431454548195367 0 -2.1528607062127615e-05 0.004166919489175561 0 -9.6549584115035989e-05 0.0038422943631641164 0 -1.7999653140197764e-05 0.0042741513048248194 0 0.0001994515778138065 0.0043085851632129728 0 8.2022010403407257e-05 0.0044479385481550268 0 -5.809451251603069e-05 0.0043431454548195367 0 -5.809451251603069e-05 0.0043431454548195367 0 -0.00019729720054174782 0.0040912369341392415 0 -0.00049438018537219578 0.0041872479455009413 0 -0.00019729720054174782 0.0040912369341392415 0 -3.5707087064008931e-05 0.0039246072256325648 0 -0.00037029988056969896 0.0038695641470741591 0 -5.809451251603069e-05 0.0043431454548195367 0 -0.00019729720054174782 0.0040912369341392415 0 -2.1528607062127615e-05 0.004166919489175561 0 -0.00019729720054174782 0.0040912369341392415 0 -2.1528607062127615e-05 0.004166919489175561 0 -3.5707087064008931e-05 0.0039246072256325648 0 -0.0001805524952783379 0.0036664812768541764 0 -0.00037134766272590498 0.0033865119077724675 0 -0.00035293356353102273 0.003372724818970981 0 -0.00029344098671227976 0.00327824501177235 0 -0.00043514004559196872 0.0032540784749607592 0 -3.5707087064008931e-05 0.0039246072256325648 0 -0.00029011639051202797 0.0035294263914467578 0 -0.00037029988056969896 0.0038695641470741591 0 -0.00019051088677894931 0.0033425381179457256 0 -0.0002822945082517323 0.0033481833345372913 0 -0.00029344098671227976 0.00327824501177235 0 -0.00035293356353102273 0.003372724818970981 0 -0.0002822945082517323 0.0033481833345372913 0 -0.00029344098671227976 0.00327824501177235 0 -0.00027750274929384209 0.0034130420684166571 0 -0.00035293356353102273 0.003372724818970981 0 -0.0002822945082517323 0.0033481833345372913 0 -0.00028256801088050203 0.0031483468917521524 0 -0.00029344098671227976 0.00327824501177235 0 -0.00043514004559196872 0.0032540784749607592 0 -0.00028256801088050203 0.0031483468917521524 0 -0.00021321287364202965 0.0032353226341939757 0 -0.00029344098671227976 0.00327824501177235 0 -0.0006461933102596707 0.0032504470154650416 0 -0.00029011639051202797 0.0035294263914467578 0 -0.0005787186868915239 0.0036290401258871566 0 -0.00029011639051202797 0.0035294263914467578 0 -0.0005787186868915239 0.0036290401258871566 0 -0.00037029988056969896 0.0038695641470741591 0 -0.0006461933102596707 0.0032504470154650416 0 -0.0005787186868915239 0.0036290401258871566 0 -0.00089946052160135351 0.0036366133830366054 0 -0.0005787186868915239 0.0036290401258871566 0 -0.00065443749893381918 0.003874126366894355 0 -0.00089946052160135351 0.0036366133830366054 0 -0.0005787186868915239 0.0036290401258871566 0 -0.00065443749893381918 0.003874126366894355 0 -0.00037029988056969896 0.0038695641470741591 0 -0.00065443749893381918 0.003874126366894355 0 -0.00037029988056969896 0.0038695641470741591 0 -0.00049438018537219578 0.0041872479455009413 0 -0.00019729720054174782 0.0040912369341392415 0 -0.00037029988056969896 0.0038695641470741591 0 -0.00049438018537219578 0.0041872479455009413 0 -5.809451251603069e-05 0.0043431454548195367 0 -0.00041459949101679984 0.0042558579973987886 0 -0.00026639157853476376 0.0045324291493363819 0 -5.502443093423155e-05 0.0043483951210443522 0 -0.00049626950902005064 0.0041966356228819359 0 -0.00041459949101679984 0.0042558579973987886 0 -0.00054283128157812867 0.0044628612395014545 0 -0.00026639157853476376 0.0045324291493363819 0 -0.00041459949101679984 0.0042558579973987886 0 -0.00054283128157812867 0.0044628612395014545 0 -0.00075354675625876125 0.0041497824717792635 0 -0.00049626950902005064 0.0041966356228819359 0 -0.0006542725166956599 0.0042361488032027911 0 -0.00065443749893381918 0.003874126366894355 0 -0.00049438018537219578 0.0041872479455009413 0 -0.00093118007221177203 0.0040440602131867455 0 -0.0006542725166956599 0.0042361488032027911 0 -0.00015390150170090493 0.0048043755681340724 0 -0.0006542725166956599 0.0042361488032027911 0 -0.00027065179989180894 0.0047469041129733214 0 -0.00054283128157812867 0.0044628612395014545 0 -0.00075354675625876125 0.0041497824717792635 0 -0.00078081436032732571 0.0044770648863294623 0 -0.00030000809230326984 0.0046073333269230996 0 -0.00030213566107428915 0.0046114870483195593 0 -0.00029941188590978295 0.004617055792676455 0 -0.00030440416721717086 0.0046131817329043553 0 -0.00030213566107428915 0.0046114870483195593 0 -0.00029941188590978295 0.004617055792676455 0 -0.00010954745689427415 0.0047754396451494983 0 -0.00027065179989180894 0.0047469041129733214 0 -0.00010954745689427415 0.0047754396451494983 0 -0.00015390150170090493 0.0048043755681340724 0 -0.00030440416721717086 0.0046131817329043553 0 -0.00030213566107428915 0.0046114870483195593 0 -0.00030221927127535049 0.0046075729373759363 0 1.3751172526055252e-10 0.0049999977486477713 0 -7.2278668498798216e-07 0.0049991573556179636 0 -1.2269988315535934e-09 0.0049999990234253161 0 -0.00030000809230326984 0.0046073333269230996 0 -0.00030213566107428915 0.0046114870483195593 0 -0.00030221927127535049 0.0046075729373759363 0 -0.00015390150170090493 0.0048043755681340724 0 6.9115115288203676e-08 0.00499993503396265 0 -6.1742221193550677e-09 0.004999092864491691 0 -1.4930620649043258e-09 0.0049999950622968987 0 1.1936144295358686e-09 0.0050000004700240536 0 -8.1620036495739505e-07 0.0049985972766844787 0 -6.1742221193550677e-09 0.004999092864491691 0 -1.4930620649043258e-09 0.0049999950622968987 0 -8.1620036495739505e-07 0.0049985972766844787 0 -6.1742221193550677e-09 0.004999092864491691 0 6.3767420975308576e-07 0.0049976021236547742 0 -0.0003569161666948826 0.0045125446794987527 0 -0.00035714127527940984 0.0045132412280479749 0 -0.00035517990895488381 0.0045100061223780916 0 -0.00065443749893381918 0.003874126366894355 0 -0.00093118007221177203 0.0040440602131867455 0 -0.00089946052160135351 0.0036366133830366054 0 -0.0006542725166956599 0.0042361488032027911 0 -0.00029453900800035637 0.004471308423198081 0 -0.00015390150170090493 0.0048043755681340724 0 -0.00029453900800035637 0.004471308423198081 0 3.9117657154192293e-07 0.0049988061768657041 0 3.6624866063066818e-06 0.0049970336799839039 0 6.3767420975308576e-07 0.0049976021236547742 0 -0.00033934371890950986 0.0040573703515582151 0 -0.00029453900800035637 0.004471308423198081 0 1.6897683712169303e-05 0.0050430697479566956 0 -0.00029453900800035637 0.004471308423198081 0 3.9117657154192293e-07 0.0049988061768657041 0 -6.1742221193550677e-09 0.004999092864491691 0 6.3767420975308576e-07 0.0049976021236547742 0 3.9117657154192293e-07 0.0049988061768657041 0 -6.1742221193550677e-09 0.004999092864491691 0 1.1936144295358686e-09 0.0050000004700240536 0 -7.8728508397871347e-06 0.0049909160672949524 0 -1.5876123967853271e-06 0.0049984527234572425 0 -2.0383407843341162e-09 0.004999981977857778 0 -4.5510721102740468e-09 0.0049999936379890274 0 -1.5876123967853271e-06 0.0049984527234572425 0 -2.0383407843341162e-09 0.004999981977857778 0 -7.8728508397871347e-06 0.0049909160672949524 0 -1.6039613616842125e-05 0.0049943334676714494 0 -1.5876123967853271e-06 0.0049984527234572425 0 -7.8728508397871347e-06 0.0049909160672949524 0 -1.6039613616842125e-05 0.0049943334676714494 0 -2.8678580246060007e-05 0.0049829638963477703 0 -1.4712523917104662e-05 0.0049926788242437674 0 -2.3152629034862192e-06 0.0049967704280176597 0 -1.0632140692443924e-05 0.0049912632725941635 0 -2.383456025059337e-06 0.0049987130040335644 0 -1.2937031242957272e-05 0.0049960499647681124 0 -1.0632140692443924e-05 0.0049912632725941635 0 -1.5876123967853271e-06 0.0049984527234572425 0 -2.383456025059337e-06 0.0049987130040335644 0 -4.5510721102740468e-09 0.0049999936379890274 0 -1.5876123967853271e-06 0.0049984527234572425 0 -2.383456025059337e-06 0.0049987130040335644 0 -4.5510721102740468e-09 0.0049999936379890274 0 -2.383456025059337e-06 0.0049987130040335644 0 -4.2111125694854031e-09 0.0049999994002800927 0 -2.383456025059337e-06 0.0049987130040335644 0 -4.2111125694854031e-09 0.0049999994002800927 0 -6.7846622547647489e-06 0.0049997160594103893 0 -4.2111125694854031e-09 0.0049999994002800927 0 -5.7604381613016502e-06 0.0050000593456772024 0 -6.7846622547647489e-06 0.0049997160594103893 0 -3.7783584489392841e-09 0.005000001833141152 0 -4.2111125694854031e-09 0.0049999994002800927 0 -5.7604381613016502e-06 0.0050000593456772024 0 -1.0070001856471804e-05 0.0050059241815426491 0 -6.7846622547647489e-06 0.0049997160594103893 0 -2.2931499210226838e-05 0.005000849956795006 0 -0.00027065179989180894 0.0047469041129733214 0 -1.1310343189933088e-05 0.0050781942767754631 0 -1.2937031242957272e-05 0.0049960499647681124 0 -6.7846622547647489e-06 0.0049997160594103893 0 -2.2931499210226838e-05 0.005000849956795006 0 -2.383456025059337e-06 0.0049987130040335644 0 -1.2937031242957272e-05 0.0049960499647681124 0 -6.7846622547647489e-06 0.0049997160594103893 0 -1.2937031242957272e-05 0.0049960499647681124 0 -2.2931499210226838e-05 0.005000849956795006 0 -2.492362060920403e-05 0.0049888302998728224 0 -0.00054283128157812867 0.0044628612395014545 0 -0.00078081436032732571 0.0044770648863294623 0 -0.00046350536457009434 0.0046984131113648898 0 -0.00027065179989180894 0.0047469041129733214 0 -0.00027159323339945334 0.004843758300590661 0 -0.00054283128157812867 0.0044628612395014545 0 -0.00046350536457009434 0.0046984131113648898 0 -0.00026639157853476376 0.0045324291493363819 0 -0.00046350536457009434 0.0046984131113648898 0 -0.00026639157853476376 0.0045324291493363819 0 -0.00027329444374730929 0.0047094210263660431 0 -0.00026639157853476376 0.0045324291493363819 0 -0.00027329444374730929 0.0047094210263660431 0 -0.00017180514300198517 0.0046396036032559634 0 -2.2931499210226838e-05 0.005000849956795006 0 -2.492362060920403e-05 0.0049888302998728224 0 -4.0580526799189965e-05 0.0049903674137859073 0 -0.00046350536457009434 0.0046984131113648898 0 -0.00027329444374730929 0.0047094210263660431 0 -0.00015378227448956911 0.0049013540393798155 0 -0.00027159323339945334 0.004843758300590661 0 -7.7561216751295038e-05 0.0049415492468446185 0 -3.4309758640737768e-05 0.0049801958499613511 0 -3.733653009590996e-05 0.0049751614686253873 0 -3.9104536524231066e-05 0.0049582922710364827 0 -2.0966101280273253e-05 0.004984060706163489 0 -7.7561216751295038e-05 0.0049415492468446185 0 -3.4309758640737768e-05 0.0049801958499613511 0 -3.9104536524231066e-05 0.0049582922710364827 0 -4.2115602121568811e-05 0.00494210417152963 0 -1.6039613616842125e-05 0.0049943334676714494 0 -3.4309758640737768e-05 0.0049801958499613511 0 -2.8678580246060007e-05 0.0049829638963477703 0 -1.0632140692443924e-05 0.0049912632725941635 0 -1.2937031242957272e-05 0.0049960499647681124 0 -2.492362060920403e-05 0.0049888302998728224 0 -1.4712523917104662e-05 0.0049926788242437674 0 -2.0966101280273253e-05 0.004984060706163489 0 -3.4309758640737768e-05 0.0049801958499613511 0 -2.8678580246060007e-05 0.0049829638963477703 0 -3.733653009590996e-05 0.0049751614686253873 0 -2.8678580246060007e-05 0.0049829638963477703 0 -3.733653009590996e-05 0.0049751614686253873 0 -3.9287154943689069e-05 0.0049771987119391981 0 -2.4863192900008283e-05 0.0049603992811394952 0 -3.5256459967716411e-05 0.0049617426840729371 0 -3.9287154943689069e-05 0.0049771987119391981 0 -2.4863192900008283e-05 0.0049603992811394952 0 -3.9287154943689069e-05 0.0049771987119391981 0 -2.4554781273990058e-05 0.004974031238007221 0 -3.733653009590996e-05 0.0049751614686253873 0 -3.5256459967716411e-05 0.0049617426840729371 0 -3.9287154943689069e-05 0.0049771987119391981 0 -3.9287154943689069e-05 0.0049771987119391981 0 -2.4554781273990058e-05 0.004974031238007221 0 -4.4086790526104095e-05 0.0049863496261893323 0 -2.4554781273990058e-05 0.004974031238007221 0 6.2370821250870159e-06 0.0049628693097201722 0 -1.3930120748015254e-05 0.0049908257365428102 0 6.2370821250870159e-06 0.0049628693097201722 0 4.5164317214737642e-05 0.0049584546892883505 0 -1.3930120748015254e-05 0.0049908257365428102 0 -0.00030059991510726901 0.0046025483276415802 0 -8.8239079893112681e-05 0.0050873534810858944 0 6.2370821250870159e-06 0.0049628693097201722 0 4.0288805511275877e-06 0.0049511016969633996 0 1.6330449918411834e-05 0.0049482877868499593 0 6.2370821250870159e-06 0.0049628693097201722 0 4.0288805511275877e-06 0.0049511016969633996 0 -8.3288294243910334e-06 0.0049563045614659622 0 6.2370821250870159e-06 0.0049628693097201722 0 1.6330449918411834e-05 0.0049482877868499593 0 3.2408968688220287e-05 0.0049507767467212608 0 -2.4863192900008283e-05 0.0049603992811394952 0 -2.4554781273990058e-05 0.004974031238007221 0 -8.3288294243910334e-06 0.0049563045614659622 0 -2.4554781273990058e-05 0.004974031238007221 0 6.2370821250870159e-06 0.0049628693097201722 0 -8.3288294243910334e-06 0.0049563045614659622 0 4.0288805511275877e-06 0.0049511016969633996 0 -8.3288294243910334e-06 0.0049563045614659622 0 -2.8066288982636055e-06 0.0049458486563550268 0 -2.4863192900008283e-05 0.0049603992811394952 0 -8.3288294243910334e-06 0.0049563045614659622 0 -1.3752767577320685e-05 0.004947372213577445 0 1.4111159524236002e-05 0.0048867901732189238 0 -4.2115602121568811e-05 0.00494210417152963 0 3.4539532261003056e-05 0.0048613249803803379 0 -7.7561216751295038e-05 0.0049415492468446185 0 2.4536208632074314e-05 0.0048647290801612456 0 -2.4863192900008283e-05 0.0049603992811394952 0 -1.3752767577320685e-05 0.004947372213577445 0 -2.4274178872620625e-05 0.0049480970230031396 0 1.4111159524236002e-05 0.0048867901732189238 0 2.8977214089955957e-06 0.0049005683570921962 0 -4.2115602121568811e-05 0.00494210417152963 0 -1.3752767577320685e-05 0.004947372213577445 0 -1.6599304554798608e-05 0.0049414586167730772 0 -2.4274178872620625e-05 0.0049480970230031396 0 -1.3752767577320685e-05 0.004947372213577445 0 -2.8066288982636055e-06 0.0049458486563550268 0 -4.5527856299686509e-06 0.0049380324106308828 0 -8.3288294243910334e-06 0.0049563045614659622 0 -1.3752767577320685e-05 0.004947372213577445 0 -2.8066288982636055e-06 0.0049458486563550268 0 -2.8066288982636055e-06 0.0049458486563550268 0 -4.5527856299686509e-06 0.0049380324106308828 0 2.664999390557645e-06 0.0049352517681404149 0 -4.5527856299686509e-06 0.0049380324106308828 0 -4.5231760174516743e-06 0.0049305518022444228 0 -1.0375508141721225e-05 0.0049379169425503499 0 -1.3752767577320685e-05 0.004947372213577445 0 -4.5527856299686509e-06 0.0049380324106308828 0 -1.0375508141721225e-05 0.0049379169425503499 0 -4.5527856299686509e-06 0.0049380324106308828 0 2.664999390557645e-06 0.0049352517681404149 0 2.3701529057523397e-06 0.004928276074287306 0 -4.5527856299686509e-06 0.0049380324106308828 0 -4.5231760174516743e-06 0.0049305518022444228 0 2.3701529057523397e-06 0.004928276074287306 0 -4.5231760174516743e-06 0.0049305518022444228 0 2.3701529057523397e-06 0.004928276074287306 0 -1.1698339758689384e-06 0.0049226774668275014 0 -4.5231760174516743e-06 0.0049305518022444228 0 -9.0611385147936598e-06 0.0049323540715832609 0 -1.0375508141721225e-05 0.0049379169425503499 0 -4.5231760174516743e-06 0.0049305518022444228 0 -9.0611385147936598e-06 0.0049323540715832609 0 -6.4118407245090686e-06 0.0049258743807727885 0 -9.0611385147936598e-06 0.0049323540715832609 0 -1.3653672103629027e-05 0.0049342784581851299 0 -1.0833025932219181e-05 0.0049282332880045705 0 -1.3653672103629027e-05 0.0049342784581851299 0 -1.6599304554798608e-05 0.0049414586167730772 0 -1.0375508141721225e-05 0.0049379169425503499 0 -9.0611385147936598e-06 0.0049323540715832609 0 -1.3653672103629027e-05 0.0049342784581851299 0 -1.0375508141721225e-05 0.0049379169425503499 0 -1.3653672103629027e-05 0.0049342784581851299 0 -1.9148032441959489e-05 0.0049376898213215996 0 -1.6599304554798608e-05 0.0049414586167730772 0 -1.9148032441959489e-05 0.0049376898213215996 0 -1.6599304554798608e-05 0.0049414586167730772 0 -2.4274178872620625e-05 0.0049480970230031396 0 -1.3752767577320685e-05 0.004947372213577445 0 -1.6599304554798608e-05 0.0049414586167730772 0 -1.0375508141721225e-05 0.0049379169425503499 0 1.9629353667811997e-05 0.0049388671299797939 0 1.8545037176990293e-05 0.004930989678962913 0 2.6438694185185819e-05 0.0049319620290625438 0 1.9629353667811997e-05 0.0049388671299797939 0 2.6438694185185819e-05 0.0049319620290625438 0 2.7980721091911056e-05 0.0049417442295806024 0 1.6330449918411834e-05 0.0049482877868499593 0 1.9629353667811997e-05 0.0049388671299797939 0 2.7980721091911056e-05 0.0049417442295806024 0 1.6330449918411834e-05 0.0049482877868499593 0 1.9629353667811997e-05 0.0049388671299797939 0 9.612769485076093e-06 0.0049408452818359636 0 1.9629353667811997e-05 0.0049388671299797939 0 9.612769485076093e-06 0.0049408452818359636 0 1.8545037176990293e-05 0.004930989678962913 0 4.0288805511275877e-06 0.0049511016969633996 0 -2.8066288982636055e-06 0.0049458486563550268 0 9.612769485076093e-06 0.0049408452818359636 0 -2.8066288982636055e-06 0.0049458486563550268 0 9.612769485076093e-06 0.0049408452818359636 0 2.664999390557645e-06 0.0049352517681404149 0 4.0288805511275877e-06 0.0049511016969633996 0 1.6330449918411834e-05 0.0049482877868499593 0 9.612769485076093e-06 0.0049408452818359636 0 2.664999390557645e-06 0.0049352517681404149 0 2.3701529057523397e-06 0.004928276074287306 0 1.0640602852994392e-05 0.0049309282046655105 0 2.3701529057523397e-06 0.004928276074287306 0 1.0640602852994392e-05 0.0049309282046655105 0 4.0800857606494338e-06 0.0049214768057919073 0 1.1736226919246545e-05 0.0049211882671731351 0 1.0640602852994392e-05 0.0049309282046655105 0 4.0800857606494338e-06 0.0049214768057919073 0 1.1736226919246545e-05 0.0049211882671731351 0 1.0640602852994392e-05 0.0049309282046655105 0 1.6615295033287873e-05 0.0049241855439211965 0 9.612769485076093e-06 0.0049408452818359636 0 2.664999390557645e-06 0.0049352517681404149 0 1.0640602852994392e-05 0.0049309282046655105 0 1.0640602852994392e-05 0.0049309282046655105 0 1.8545037176990293e-05 0.004930989678962913 0 1.6615295033287873e-05 0.0049241855439211965 0 9.612769485076093e-06 0.0049408452818359636 0 1.0640602852994392e-05 0.0049309282046655105 0 1.8545037176990293e-05 0.004930989678962913 0 1.1736226919246545e-05 0.0049211882671731351 0 1.6615295033287873e-05 0.0049241855439211965 0 2.0476405609123855e-05 0.0049158443664691787 0 1.6615295033287873e-05 0.0049241855439211965 0 2.3289709558495459e-05 0.0049226998885421747 0 2.0476405609123855e-05 0.0049158443664691787 0 1.8545037176990293e-05 0.004930989678962913 0 1.6615295033287873e-05 0.0049241855439211965 0 2.3289709558495459e-05 0.0049226998885421747 0 2.3289709558495459e-05 0.0049226998885421747 0 2.7336790192091346e-05 0.0049125677193216895 0 3.0969252212262876e-05 0.0049203464845857577 0 2.3289709558495459e-05 0.0049226998885421747 0 2.7336790192091346e-05 0.0049125677193216895 0 2.0476405609123855e-05 0.0049158443664691787 0 1.8545037176990293e-05 0.004930989678962913 0 2.3289709558495459e-05 0.0049226998885421747 0 2.6438694185185819e-05 0.0049319620290625438 0 2.3289709558495459e-05 0.0049226998885421747 0 2.6438694185185819e-05 0.0049319620290625438 0 3.0969252212262876e-05 0.0049203464845857577 0 2.3039672598558145e-05 0.0049027379990356874 0 2.6873935714097695e-05 0.0048912563778360845 0 3.6319672844152724e-05 0.0049059892647070526 0 2.7336790192091346e-05 0.0049125677193216895 0 2.0476405609123855e-05 0.0049158443664691787 0 2.3039672598558145e-05 0.0049027379990356874 0 2.7336790192091346e-05 0.0049125677193216895 0 2.3039672598558145e-05 0.0049027379990356874 0 3.6319672844152724e-05 0.0049059892647070526 0 1.1736226919246545e-05 0.0049211882671731351 0 2.0476405609123855e-05 0.0049158443664691787 0 1.5742289361111951e-05 0.0049117283392533968 0 2.0476405609123855e-05 0.0049158443664691787 0 2.3039672598558145e-05 0.0049027379990356874 0 1.5742289361111951e-05 0.0049117283392533968 0 2.3039672598558145e-05 0.0049027379990356874 0 1.5742289361111951e-05 0.0049117283392533968 0 9.0546227770278746e-06 0.004913390973919571 0 2.3039672598558145e-05 0.0049027379990356874 0 9.0546227770278746e-06 0.004913390973919571 0 1.8469022810963841e-05 0.0048956034315610119 0 9.0546227770278746e-06 0.004913390973919571 0 9.1750707698681315e-06 0.0049036287683716416 0 1.8469022810963841e-05 0.0048956034315610119 0 1.1736226919246545e-05 0.0049211882671731351 0 1.5742289361111951e-05 0.0049117283392533968 0 9.0546227770278746e-06 0.004913390973919571 0 1.1736226919246545e-05 0.0049211882671731351 0 4.0800857606494338e-06 0.0049214768057919073 0 9.0546227770278746e-06 0.004913390973919571 0 4.0800857606494338e-06 0.0049214768057919073 0 9.0546227770278746e-06 0.004913390973919571 0 3.2120426217559818e-06 0.0049147703591581951 0 9.0546227770278746e-06 0.004913390973919571 0 9.1750707698681315e-06 0.0049036287683716416 0 3.2120426217559818e-06 0.0049147703591581951 0 9.1750707698681315e-06 0.0049036287683716416 0 1.4111159524236002e-05 0.0048867901732189238 0 2.8977214089955957e-06 0.0049005683570921962 0 9.1750707698681315e-06 0.0049036287683716416 0 1.4111159524236002e-05 0.0048867901732189238 0 1.8469022810963841e-05 0.0048956034315610119 0 1.8469022810963841e-05 0.0048956034315610119 0 2.5621256335001115e-05 0.0048840019912629951 0 2.6873935714097695e-05 0.0048912563778360845 0 2.3039672598558145e-05 0.0049027379990356874 0 1.8469022810963841e-05 0.0048956034315610119 0 2.6873935714097695e-05 0.0048912563778360845 0 1.4111159524236002e-05 0.0048867901732189238 0 1.8469022810963841e-05 0.0048956034315610119 0 2.5621256335001115e-05 0.0048840019912629951 0 2.5621256335001115e-05 0.0048840019912629951 0 2.6873935714097695e-05 0.0048912563778360845 0 3.5387688517140164e-05 0.004878798974887584 0 -4.4911395074060349e-06 0.0049095842461591753 0 2.8977214089955957e-06 0.0049005683570921962 0 -4.2115602121568811e-05 0.00494210417152963 0 -8.3627954176837237e-06 0.004921746630598669 0 -1.2159372715072064e-05 0.0049225535052160362 0 -1.4857726653332226e-05 0.004928975881269817 0 -8.3627954176837237e-06 0.004921746630598669 0 -1.2159372715072064e-05 0.0049225535052160362 0 -9.4209199280598549e-06 0.0049157995772516165 0 -1.2159372715072064e-05 0.0049225535052160362 0 -1.6922874317492227e-05 0.0049253340495564284 0 -9.4209199280598549e-06 0.0049157995772516165 0 -1.6922874317492227e-05 0.0049253340495564284 0 -1.4857726653332226e-05 0.004928975881269817 0 -1.9682589343519104e-05 0.0049325444254242207 0 -1.2159372715072064e-05 0.0049225535052160362 0 -1.6922874317492227e-05 0.0049253340495564284 0 -1.4857726653332226e-05 0.004928975881269817 0 -1.9148032441959489e-05 0.0049376898213215996 0 -1.4857726653332226e-05 0.004928975881269817 0 -1.9682589343519104e-05 0.0049325444254242207 0 -1.3653672103629027e-05 0.0049342784581851299 0 -1.9148032441959489e-05 0.0049376898213215996 0 -1.4857726653332226e-05 0.004928975881269817 0 -8.3627954176837237e-06 0.004921746630598669 0 -1.4857726653332226e-05 0.004928975881269817 0 -1.0833025932219181e-05 0.0049282332880045705 0 -1.3653672103629027e-05 0.0049342784581851299 0 -1.4857726653332226e-05 0.004928975881269817 0 -1.0833025932219181e-05 0.0049282332880045705 0 -8.3627954176837237e-06 0.004921746630598669 0 -1.0833025932219181e-05 0.0049282332880045705 0 -6.4118407245090686e-06 0.0049258743807727885 0 -9.0611385147936598e-06 0.0049323540715832609 0 -1.0833025932219181e-05 0.0049282332880045705 0 -6.4118407245090686e-06 0.0049258743807727885 0 -4.5231760174516743e-06 0.0049305518022444228 0 -6.4118407245090686e-06 0.0049258743807727885 0 -1.1698339758689384e-06 0.0049226774668275014 0 -6.4118407245090686e-06 0.0049258743807727885 0 -1.1698339758689384e-06 0.0049226774668275014 0 -2.8971859441443651e-06 0.0049180078565000214 0 2.3701529057523397e-06 0.004928276074287306 0 4.0800857606494338e-06 0.0049214768057919073 0 -1.1698339758689384e-06 0.0049226774668275014 0 4.0800857606494338e-06 0.0049214768057919073 0 -1.1698339758689384e-06 0.0049226774668275014 0 3.2120426217559818e-06 0.0049147703591581951 0 -1.1698339758689384e-06 0.0049226774668275014 0 3.2120426217559818e-06 0.0049147703591581951 0 -2.8971859441443651e-06 0.0049180078565000214 0 9.1750707698681315e-06 0.0049036287683716416 0 3.2120426217559818e-06 0.0049147703591581951 0 7.8738615437720858e-07 0.0049095955251539924 0 3.2120426217559818e-06 0.0049147703591581951 0 -2.8971859441443651e-06 0.0049180078565000214 0 7.8738615437720858e-07 0.0049095955251539924 0 -8.3627954176837237e-06 0.004921746630598669 0 -2.8971859441443651e-06 0.0049180078565000214 0 7.8738615437720858e-07 0.0049095955251539924 0 -8.3627954176837237e-06 0.004921746630598669 0 -6.4118407245090686e-06 0.0049258743807727885 0 -2.8971859441443651e-06 0.0049180078565000214 0 -8.3627954176837237e-06 0.004921746630598669 0 -4.4911395074060349e-06 0.0049095842461591753 0 7.8738615437720858e-07 0.0049095955251539924 0 -4.4911395074060349e-06 0.0049095842461591753 0 7.8738615437720858e-07 0.0049095955251539924 0 2.8977214089955957e-06 0.0049005683570921962 0 9.1750707698681315e-06 0.0049036287683716416 0 7.8738615437720858e-07 0.0049095955251539924 0 2.8977214089955957e-06 0.0049005683570921962 0 -8.3627954176837237e-06 0.004921746630598669 0 -4.4911395074060349e-06 0.0049095842461591753 0 -9.4209199280598549e-06 0.0049157995772516165 0 -4.4911395074060349e-06 0.0049095842461591753 0 -9.4209199280598549e-06 0.0049157995772516165 0 -4.2115602121568811e-05 0.00494210417152963 0 -1.6922874317492227e-05 0.0049253340495564284 0 -2.8711537378671533e-05 0.0049348699368722722 0 -4.2115602121568811e-05 0.00494210417152963 0 -1.6922874317492227e-05 0.0049253340495564284 0 -9.4209199280598549e-06 0.0049157995772516165 0 -4.2115602121568811e-05 0.00494210417152963 0 -2.8711537378671533e-05 0.0049348699368722722 0 -3.1585235166038013e-05 0.0049410240264174295 0 -4.2115602121568811e-05 0.00494210417152963 0 -3.1585235166038013e-05 0.0049410240264174295 0 -3.7053877488097564e-05 0.0049450905474597738 0 -4.2115602121568811e-05 0.00494210417152963 0 -2.8711537378671533e-05 0.0049348699368722722 0 -3.1585235166038013e-05 0.0049410240264174295 0 -2.7383240081430764e-05 0.0049379070570089445 0 -3.1585235166038013e-05 0.0049410240264174295 0 -2.7383240081430764e-05 0.0049379070570089445 0 -3.1078568933680511e-05 0.004946085528065006 0 -3.1585235166038013e-05 0.0049410240264174295 0 -3.1078568933680511e-05 0.004946085528065006 0 -3.7053877488097564e-05 0.0049450905474597738 0 -1.6922874317492227e-05 0.0049253340495564284 0 -2.8711537378671533e-05 0.0049348699368722722 0 -2.3246080656867538e-05 0.0049332874573545897 0 -1.6922874317492227e-05 0.0049253340495564284 0 -2.3246080656867538e-05 0.0049332874573545897 0 -1.9682589343519104e-05 0.0049325444254242207 0 -2.8711537378671533e-05 0.0049348699368722722 0 -2.3246080656867538e-05 0.0049332874573545897 0 -2.7383240081430764e-05 0.0049379070570089445 0 -2.7383240081430764e-05 0.0049379070570089445 0 -2.3983354780582293e-05 0.0049382700170118093 0 -3.1078568933680511e-05 0.004946085528065006 0 -2.3246080656867538e-05 0.0049332874573545897 0 -2.7383240081430764e-05 0.0049379070570089445 0 -2.3983354780582293e-05 0.0049382700170118093 0 -1.9148032441959489e-05 0.0049376898213215996 0 -2.3983354780582293e-05 0.0049382700170118093 0 -1.9682589343519104e-05 0.0049325444254242207 0 -2.3246080656867538e-05 0.0049332874573545897 0 -2.3983354780582293e-05 0.0049382700170118093 0 -1.9682589343519104e-05 0.0049325444254242207 0 -2.3983354780582293e-05 0.0049382700170118093 0 -2.4274178872620625e-05 0.0049480970230031396 0 -3.1078568933680511e-05 0.004946085528065006 0 -1.9148032441959489e-05 0.0049376898213215996 0 -2.3983354780582293e-05 0.0049382700170118093 0 -2.4274178872620625e-05 0.0049480970230031396 0 -3.5256459967716411e-05 0.0049617426840729371 0 -2.4274178872620625e-05 0.0049480970230031396 0 -3.1078568933680511e-05 0.004946085528065006 0 -2.4863192900008283e-05 0.0049603992811394952 0 -3.5256459967716411e-05 0.0049617426840729371 0 -2.4274178872620625e-05 0.0049480970230031396 0 -3.733653009590996e-05 0.0049751614686253873 0 -3.5256459967716411e-05 0.0049617426840729371 0 -3.9104536524231066e-05 0.0049582922710364827 0 -3.1078568933680511e-05 0.004946085528065006 0 -3.9104536524231066e-05 0.0049582922710364827 0 -3.7053877488097564e-05 0.0049450905474597738 0 -3.5256459967716411e-05 0.0049617426840729371 0 -3.1078568933680511e-05 0.004946085528065006 0 -3.9104536524231066e-05 0.0049582922710364827 0 -3.9104536524231066e-05 0.0049582922710364827 0 -3.7053877488097564e-05 0.0049450905474597738 0 -4.2115602121568811e-05 0.00494210417152963 0 -0.00027329444374730929 0.0047094210263660431 0 -0.00015378227448956911 0.0049013540393798155 0 -0.00016569521568297643 0.0047846321904245672 0 -0.00015378227448956911 0.0049013540393798155 0 -0.00016569521568297643 0.0047846321904245672 0 -7.0056128400599514e-05 0.0048312940398671546 0 -0.00027329444374730929 0.0047094210263660431 0 -0.00016569521568297643 0.0047846321904245672 0 -0.00017180514300198517 0.0046396036032559634 0 -5.809451251603069e-05 0.0043431454548195367 0 -0.00026639157853476376 0.0045324291493363819 0 -3.8720866627029581e-05 0.0045698463197705475 0 -0.00026639157853476376 0.0045324291493363819 0 -0.00017180514300198517 0.0046396036032559634 0 -3.8720866627029581e-05 0.0045698463197705475 0 -0.00016569521568297643 0.0047846321904245672 0 -0.00017180514300198517 0.0046396036032559634 0 -3.8720866627029581e-05 0.0045698463197705475 0 -0.00016569521568297643 0.0047846321904245672 0 -3.8720866627029581e-05 0.0045698463197705475 0 0.0002347250470795686 0.0045862631474889717 0 8.2022010403407257e-05 0.0044479385481550268 0 -3.8720866627029581e-05 0.0045698463197705475 0 0.0002347250470795686 0.0045862631474889717 0 -0.00015378227448956911 0.0049013540393798155 0 -7.0056128400599514e-05 0.0048312940398671546 0 3.4539532261003056e-05 0.0048613249803803379 0 -0.00016569521568297643 0.0047846321904245672 0 -6.0444449814168144e-06 0.0047845253025307049 0 4.1526662248572741e-05 0.0046997078477119709 0 -0.00016569521568297643 0.0047846321904245672 0 -6.0444449814168144e-06 0.0047845253025307049 0 -7.0056128400599514e-05 0.0048312940398671546 0 -0.00011308457367087326 0.0048892398329708113 0 -1.7999653140197764e-05 0.0042741513048248194 0 -6.0444449814168144e-06 0.0047845253025307049 0 -7.0056128400599514e-05 0.0048312940398671546 0 3.4539532261003056e-05 0.0048613249803803379 0 1.4111159524236002e-05 0.0048867901732189238 0 2.5621256335001115e-05 0.0048840019912629951 0 3.4539532261003056e-05 0.0048613249803803379 0 2.5621256335001115e-05 0.0048840019912629951 0 3.4539532261003056e-05 0.0048613249803803379 0 3.5387688517140164e-05 0.004878798974887584 0 3.4539532261003056e-05 0.0048613249803803379 0 5.9542432267457648e-05 0.0048545825242680123 0 3.5387688517140164e-05 0.004878798974887584 0 -0.00032303568687042539 0.0039079948906823566 0 -0.00029382611795570577 0.0038226813294451167 0 -0.0001204157078514168 0.0038855502256873527 0 -0.00012598017561646314 0.004419582479612421 0 -1.7999653140197764e-05 0.0042741513048248194 0 -0.00017151914103488299 0.0038739218199725267 0 -0.0003187909679335508 0.0034621087491334508 0 -6.0444449814168144e-06 0.0047845253025307049 0 5.9542432267457648e-05 0.0048545825242680123 0 4.1526662248572741e-05 0.0046997078477119709 0 -0.00032303568687042539 0.0039079948906823566 0 -0.00029382611795570577 0.0038226813294451167 0 -0.00035196465893953745 0.0037084768660820919 0 -6.0444449814168144e-06 0.0047845253025307049 0 3.4539532261003056e-05 0.0048613249803803379 0 5.9542432267457648e-05 0.0048545825242680123 0 -0.00029382611795570577 0.0038226813294451167 0 -0.00022955464654226155 0.0037490024819469389 0 -0.00012372569650102915 0.003882390101667008 0 -0.00035196465893953745 0.0037084768660820919 0 -0.00022955464654226155 0.0037490024819469389 0 -0.00028286223509860393 0.0036719174673247234 0 -0.00029382611795570577 0.0038226813294451167 0 -0.00035196465893953745 0.0037084768660820919 0 -0.00022955464654226155 0.0037490024819469389 0 -0.00010857698337421058 0.0038659580974731629 0 -8.50850972495309e-05 0.0040143846519445142 0 -2.9864327296648545e-05 0.0039846166899063706 0 -0.00024876542664100201 0.0037163165104404875 0 -0.00019794417333003823 0.0037861296356332709 0 -1.7999653140197764e-05 0.0042741513048248194 0 -0.00019794417333003823 0.0037861296356332709 0 -0.00022955464654226155 0.0037490024819469389 0 -0.00028611436228699247 0.0036644320041088431 0 -9.7963894236238129e-05 0.0036677565441688982 0 -9.9345735285241729e-05 0.0037366874890694367 0 -0.00012372569650102915 0.003882390101667008 0 5.4447354077264866e-05 0.0036479178218757667 0 -3.3929518438301776e-05 0.0035259288754736469 0 -0.00028611436228699247 0.0036644320041088431 0 -9.7963894236238129e-05 0.0036677565441688982 0 -9.7963894236238129e-05 0.0036677565441688982 0 -9.9345735285241729e-05 0.0037366874890694367 0 5.4447354077264866e-05 0.0036479178218757667 0 -0.00022955464654226155 0.0037490024819469389 0 -9.7963894236238129e-05 0.0036677565441688982 0 -9.9345735285241729e-05 0.0037366874890694367 0 -0.00022955464654226155 0.0037490024819469389 0 -9.9345735285241729e-05 0.0037366874890694367 0 -0.00012372569650102915 0.003882390101667008 0 -0.0003187909679335508 0.0034621087491334508 0 -0.00030307979556170651 0.0042453404791618979 0 -0.00064430110045602209 0.0030606082869027093 0 -0.00089157649815864914 0.003367107784242603 0 -0.00068997379152107923 0.0034290767228344139 0 -0.00064430110045602209 0.0030606082869027093 0 -0.00068997379152107923 0.0034290767228344139 0 -0.00051791720172221121 0.0033097087306083093 0 -0.00012598017561646314 0.004419582479612421 0 -0.00030307979556170651 0.0042453404791618979 0 -0.00032303568687042539 0.0039079948906823566 0 -0.0001204157078514168 0.0038855502256873527 0 -0.00029063400073452264 0.0041136668614327274 0 5.9542432267457648e-05 0.0048545825242680123 0 3.6319672844152724e-05 0.0049059892647070526 0 5.2591337214034425e-05 0.0049530724382069189 0 5.9542432267457648e-05 0.0048545825242680123 0 3.5387688517140164e-05 0.004878798974887584 0 3.6319672844152724e-05 0.0049059892647070526 0 2.6873935714097695e-05 0.0048912563778360845 0 3.5387688517140164e-05 0.004878798974887584 0 3.6319672844152724e-05 0.0049059892647070526 0 2.7336790192091346e-05 0.0049125677193216895 0 3.6319672844152724e-05 0.0049059892647070526 0 3.0969252212262876e-05 0.0049203464845857577 0 3.6319672844152724e-05 0.0049059892647070526 0 3.6223932685354834e-05 0.0049370417615455069 0 5.2591337214034425e-05 0.0049530724382069189 0 3.6319672844152724e-05 0.0049059892647070526 0 3.0969252212262876e-05 0.0049203464845857577 0 3.6223932685354834e-05 0.0049370417615455069 0 2.6438694185185819e-05 0.0049319620290625438 0 3.0969252212262876e-05 0.0049203464845857577 0 3.6223932685354834e-05 0.0049370417615455069 0 1.6330449918411834e-05 0.0049482877868499593 0 2.7980721091911056e-05 0.0049417442295806024 0 3.2408968688220287e-05 0.0049507767467212608 0 3.6223932685354834e-05 0.0049370417615455069 0 2.7980721091911056e-05 0.0049417442295806024 0 3.2408968688220287e-05 0.0049507767467212608 0 2.6438694185185819e-05 0.0049319620290625438 0 3.6223932685354834e-05 0.0049370417615455069 0 2.7980721091911056e-05 0.0049417442295806024 0 -0.00089157649815864914 0.003367107784242603 0 -0.00087679703258371959 0.0035058582747256842 0 -0.00068997379152107923 0.0034290767228344139 0 -0.00021725563058910106 0.0051579468832093373 0 -0.00023000344425101784 0.0051247428969699088 0 -0.00015029820599001971 0.005086154974191512 0 -0.00030307979556170651 0.0042453404791618979 0 -0.00041882895175188422 0.0044860433501863793 0 6.2370821250870159e-06 0.0049628693097201722 0 3.2408968688220287e-05 0.0049507767467212608 0 4.5164317214737642e-05 0.0049584546892883505 0 -0.00037759043145800118 0.00449691476282057 0 -0.00037282634835740795 0.0044904847643745579 0 -0.00038524839941208536 0.004461560183896816 0 3.6223932685354834e-05 0.0049370417615455069 0 3.2408968688220287e-05 0.0049507767467212608 0 4.5164317214737642e-05 0.0049584546892883505 0 3.6223932685354834e-05 0.0049370417615455069 0 5.2591337214034425e-05 0.0049530724382069189 0 4.5164317214737642e-05 0.0049584546892883505 0 -0.00030307979556170651 0.0042453404791618979 0 -0.00030059991510726901 0.0046025483276415802 0 -0.00030059991510726901 0.0046025483276415802 0 -0.00041882895175188422 0.0044860433501863793 0 -0.00068997379152107923 0.0034290767228344139 0 -0.00051791720172221121 0.0033097087306083093 0 -0.00048253703964187903 0.0037558388978458988 0 -0.00087679703258371959 0.0035058582747256842 0 -0.00068997379152107923 0.0034290767228344139 0 -0.00069746400289126304 0.0036502657078867681 0 -0.00069746400289126304 0.0036502657078867681 0 -0.00074802713120573515 0.0038886740139221351 0 -0.00048253703964187903 0.0037558388978458988 0 -0.00068997379152107923 0.0034290767228344139 0 -0.00069746400289126304 0.0036502657078867681 0 -0.00048253703964187903 0.0037558388978458988 0 -0.00087679703258371959 0.0035058582747256842 0 -0.00069746400289126304 0.0036502657078867681 0 -0.00074802713120573515 0.0038886740139221351 0 -0.00023000344425101784 0.0051247428969699088 0 -0.00020696357070110083 0.0050779732353421732 0 -0.00024780748499416067 0.0050500402205730585 0 -0.00041882895175188422 0.0044860433501863793 0 -0.00054904230861994657 0.0043772696121145288 0 -0.00028241495034514187 0.0049808690252026106 0 -0.00028577751197421722 0.0049863481183578537 0 -0.00028845559758806379 0.0049852824102013743 0 -0.00041882895175188422 0.0044860433501863793 0 -0.00025245769820747484 0.0051103124792637169 0 -0.00023000344425101784 0.0051247428969699088 0 -0.00020696357070110083 0.0050779732353421732 0 -0.00015029820599001971 0.005086154974191512 0 -0.00020696357070110083 0.0050779732353421732 0 -0.00019831899792024251 0.0050390838848415644 0 -0.00015029820599001971 0.005086154974191512 0 -0.00019831899792024251 0.0050390838848415644 0 -0.00024780748499416067 0.0050500402205730585 0 -0.00022151047568937771 0.0049925701518005669 0 -0.00020696357070110083 0.0050779732353421732 0 -0.00019831899792024251 0.0050390838848415644 0 -0.00024780748499416067 0.0050500402205730585 0 -0.00024780748499416067 0.0050500402205730585 0 -0.00022151047568937771 0.0049925701518005669 0 -0.00027743481615622161 0.0049577894713248487 0 -0.00028577751197421722 0.0049863481183578537 0 -0.00027743481615622161 0.0049577894713248487 0 -0.00028845559758806379 0.0049852824102013743 0 -0.00025245769820747484 0.0051103124792637169 0 -0.00028111555194422293 0.0049334595375774802 0 -0.00019831899792024251 0.0050390838848415644 0 -0.00022151047568937771 0.0049925701518005669 0 -0.00015605412700844037 0.0049807672770354992 0 -0.00022151047568937771 0.0049925701518005669 0 -0.00022477612686057444 0.0049344502450786483 0 -0.00015605412700844037 0.0049807672770354992 0 -0.00022151047568937771 0.0049925701518005669 0 -0.00027743481615622161 0.0049577894713248487 0 -0.00022477612686057444 0.0049344502450786483 0 -0.00074802713120573515 0.0038886740139221351 0 -0.00048253703964187903 0.0037558388978458988 0 -0.00046912483570446821 0.0042156123272497174 0 -0.00027743481615622161 0.0049577894713248487 0 -0.00028845559758806379 0.0049852824102013743 0 -0.0003055365955635088 0.0049131309679920016 0 -0.00054904230861994657 0.0043772696121145288 0 -0.00047532652150373005 0.0046084699666057161 0 -0.00028845559758806379 0.0049852824102013743 0 -0.0003055365955635088 0.0049131309679920016 0 -0.00036755981671448992 0.0048888884231822896 0 -0.00074802713120573515 0.0038886740139221351 0 -0.00060331290688332435 0.0042817844378587886 0 -0.00046912483570446821 0.0042156123272497174 0 -0.0003055365955635088 0.0049131309679920016 0 -0.00036755981671448992 0.0048888884231822896 0 -0.00030668698081843805 0.0048322574919796258 0 -0.00036755981671448992 0.0048888884231822896 0 -0.00034981840429969903 0.0047611986632226985 0 -0.00040811220751028161 0.0047024992809351169 0 -0.00047413248362098874 0.0045850337578278964 0 -0.00047532652150373005 0.0046084699666057161 0 -0.00046050606622716509 0.0046450961507217368 0 -0.00036755981671448992 0.0048888884231822896 0 -0.00040811220751028161 0.0047024992809351169 0 -0.00030668698081843805 0.0048322574919796258 0 -0.00034981840429969903 0.0047611986632226985 0 -0.00028989775380371634 0.0047420489110988166 0 -0.00036755981671448992 0.0048888884231822896 0 -0.00030668698081843805 0.0048322574919796258 0 -0.00034981840429969903 0.0047611986632226985 0 -0.00037456252303046334 0.0046604068669495692 0 -0.00034981840429969903 0.0047611986632226985 0 -0.00028989775380371634 0.0047420489110988166 0 -0.00037456252303046334 0.0046604068669495692 0 -0.00034981840429969903 0.0047611986632226985 0 -0.00040811220751028161 0.0047024992809351169 0 -0.00028989775380371634 0.0047420489110988166 0 -0.00023516380341200051 0.0048551783800476521 0 -0.0001683670129260718 0.0048009499273314578 0 -0.00030668698081843805 0.0048322574919796258 0 -0.00028989775380371634 0.0047420489110988166 0 -0.00023516380341200051 0.0048551783800476521 0 -0.00023516380341200051 0.0048551783800476521 0 -0.00022477612686057444 0.0049344502450786483 0 -0.00015284961023088152 0.0048939821216815197 0 -0.0003055365955635088 0.0049131309679920016 0 -0.00030668698081843805 0.0048322574919796258 0 -0.00023516380341200051 0.0048551783800476521 0 -0.0003055365955635088 0.0049131309679920016 0 -0.00023516380341200051 0.0048551783800476521 0 -0.00022477612686057444 0.0049344502450786483 0 -0.00027743481615622161 0.0049577894713248487 0 -0.0003055365955635088 0.0049131309679920016 0 -0.00022477612686057444 0.0049344502450786483 0 -0.00022477612686057444 0.0049344502450786483 0 -0.00015284961023088152 0.0048939821216815197 0 -0.00015605412700844037 0.0049807672770354992 0 -0.00015284961023088152 0.0048939821216815197 0 -7.083907753675633e-05 0.0049275967859532055 0 -0.00015605412700844037 0.0049807672770354992 0 -0.00015284961023088152 0.0048939821216815197 0 -7.7259012919588698e-05 0.0048423161524323187 0 -7.083907753675633e-05 0.0049275967859532055 0 -0.00015284961023088152 0.0048939821216815197 0 -0.0001683670129260718 0.0048009499273314578 0 -7.7259012919588698e-05 0.0048423161524323187 0 -0.00023516380341200051 0.0048551783800476521 0 -0.00015284961023088152 0.0048939821216815197 0 -0.0001683670129260718 0.0048009499273314578 0 -6.2125501580850619e-06 0.0048451986498213809 0 -7.7259012919588698e-05 0.0048423161524323187 0 -2.8699573662871164e-05 0.0049018703487747426 0 -7.7259012919588698e-05 0.0048423161524323187 0 -7.083907753675633e-05 0.0049275967859532055 0 -2.8699573662871164e-05 0.0049018703487747426 0 -7.083907753675633e-05 0.0049275967859532055 0 -6.6188710620898535e-05 0.0049883329647072332 0 -2.2447275977244516e-05 0.0049612334144044368 0 -7.083907753675633e-05 0.0049275967859532055 0 -6.6188710620898535e-05 0.0049883329647072332 0 -0.00015605412700844037 0.0049807672770354992 0 -6.6188710620898535e-05 0.0049883329647072332 0 -0.00015605412700844037 0.0049807672770354992 0 -0.00015029820599001971 0.005086154974191512 0 -0.00019831899792024251 0.0050390838848415644 0 -0.00015605412700844037 0.0049807672770354992 0 -0.00015029820599001971 0.005086154974191512 0 -5.486684501280082e-05 0.0049762098696705245 0 -8.8239079893112681e-05 0.0050873534810858944 0 -2.4554781273990058e-05 0.004974031238007221 0 -1.3930120748015254e-05 0.0049908257365428102 0 -4.4086790526104095e-05 0.0049863496261893323 0 -6.6188710620898535e-05 0.0049883329647072332 0 -1.3930120748015254e-05 0.0049908257365428102 0 -4.4086790526104095e-05 0.0049863496261893323 0 -6.6188710620898535e-05 0.0049883329647072332 0 -4.4086790526104095e-05 0.0049863496261893323 0 -3.571723112992581e-05 0.0049839514093902122 0 -3.9287154943689069e-05 0.0049771987119391981 0 -4.4086790526104095e-05 0.0049863496261893323 0 -3.571723112992581e-05 0.0049839514093902122 0 -2.8678580246060007e-05 0.0049829638963477703 0 -3.9287154943689069e-05 0.0049771987119391981 0 -3.571723112992581e-05 0.0049839514093902122 0 -7.8728508397871347e-06 0.0049909160672949524 0 -2.8678580246060007e-05 0.0049829638963477703 0 -1.4939811775174262e-05 0.0049805947404453826 0 -2.8678580246060007e-05 0.0049829638963477703 0 -3.571723112992581e-05 0.0049839514093902122 0 -1.4939811775174262e-05 0.0049805947404453826 0 -1.4939811775174262e-05 0.0049805947404453826 0 -2.2447275977244516e-05 0.0049612334144044368 0 -2.3604889851796348e-07 0.0049732545551011333 0 -6.6188710620898535e-05 0.0049883329647072332 0 -3.571723112992581e-05 0.0049839514093902122 0 -2.2447275977244516e-05 0.0049612334144044368 0 -3.571723112992581e-05 0.0049839514093902122 0 -1.4939811775174262e-05 0.0049805947404453826 0 -2.2447275977244516e-05 0.0049612334144044368 0 -2.2447275977244516e-05 0.0049612334144044368 0 -2.8699573662871164e-05 0.0049018703487747426 0 -1.533090405196021e-06 0.0049370366128607809 0 -7.083907753675633e-05 0.0049275967859532055 0 -2.2447275977244516e-05 0.0049612334144044368 0 -2.8699573662871164e-05 0.0049018703487747426 0 -6.2125501580850619e-06 0.0048451986498213809 0 -2.8699573662871164e-05 0.0049018703487747426 0 -1.533090405196021e-06 0.0049370366128607809 0 -2.2447275977244516e-05 0.0049612334144044368 0 -1.533090405196021e-06 0.0049370366128607809 0 -2.3604889851796348e-07 0.0049732545551011333 0 8.3015431819222511e-09 0.0049999391185046663 0 -1.533090405196021e-06 0.0049370366128607809 0 -2.3604889851796348e-07 0.0049732545551011333 0 8.3015431819222511e-09 0.0049999391185046663 0 -2.3604889851796348e-07 0.0049732545551011333 0 2.6428436648707873e-10 0.0049999718834100445 0 -2.3604889851796348e-07 0.0049732545551011333 0 2.6428436648707873e-10 0.0049999718834100445 0 -2.9272312980505348e-06 0.0049869121393539438 0 2.6428436648707873e-10 0.0049999718834100445 0 -2.9272312980505348e-06 0.0049869121393539438 0 -2.0383407843341162e-09 0.004999981977857778 0 -1.4939811775174262e-05 0.0049805947404453826 0 -2.3604889851796348e-07 0.0049732545551011333 0 -2.9272312980505348e-06 0.0049869121393539438 0 -7.8728508397871347e-06 0.0049909160672949524 0 -1.4939811775174262e-05 0.0049805947404453826 0 -2.9272312980505348e-06 0.0049869121393539438 0 -7.8728508397871347e-06 0.0049909160672949524 0 -2.9272312980505348e-06 0.0049869121393539438 0 -2.0383407843341162e-09 0.004999981977857778 0 0.00030398772303845032 0.0032307146400767091 0 0.00021093753278933797 0.0033722999048428717 0 0.00037923993582628194 0.0033201511974108944 0 0.00030398772303845032 0.0032307146400767091 0 0.00021093753278933797 0.0033722999048428717 0 0.00018058016201771799 0.0032215768091512953 0 0.00021093753278933797 0.0033722999048428717 0 0.00037923993582628194 0.0033201511974108944 0 0.00035371907395856416 0.0034554608026622687 0 0.00037923993582628194 0.0033201511974108944 0 0.00035371907395856416 0.0034554608026622687 0 0.00040892496695497737 0.0033984738913715859 0 0.00037923993582628194 0.0033201511974108944 0 0.00045907861765683656 0.0033636919028021332 0 0.00040892496695497737 0.0033984738913715859 0 0.00045907861765683656 0.0033636919028021332 0 0.00045260238024000016 0.0032755979971757737 0 0.00049187127303622011 0.0033110128495830141 0 0.00037923993582628194 0.0033201511974108944 0 0.00045907861765683656 0.0033636919028021332 0 0.00045260238024000016 0.0032755979971757737 0 0.00045907861765683656 0.0033636919028021332 0 0.00050189438891122507 0.0033572587893856034 0 0.00049187127303622011 0.0033110128495830141 0 0.00045260238024000016 0.0032755979971757737 0 0.00049187127303622011 0.0033110128495830141 0 0.00050157848614638056 0.0031916192503061041 0 0.00045260238024000016 0.0032755979971757737 0 0.00040624933649190456 0.0032186909156250942 0 0.00050157848614638056 0.0031916192503061041 0 0.00030398772303845032 0.0032307146400767091 0 0.00037923993582628194 0.0033201511974108944 0 0.00040624933649190456 0.0032186909156250942 0 0.00037923993582628194 0.0033201511974108944 0 0.00045260238024000016 0.0032755979971757737 0 0.00040624933649190456 0.0032186909156250942 0 0.00040624933649190456 0.0032186909156250942 0 0.0004379528287425799 0.0031524159601612023 0 0.00036366334993190194 0.0031358613780732357 0 0.00030398772303845032 0.0032307146400767091 0 0.00040624933649190456 0.0032186909156250942 0 0.00036366334993190194 0.0031358613780732357 0 0.00040624933649190456 0.0032186909156250942 0 0.0004379528287425799 0.0031524159601612023 0 0.00050157848614638056 0.0031916192503061041 0 0.0004379528287425799 0.0031524159601612023 0 0.00048796137946701253 0.0031445405276381332 0 0.00050157848614638056 0.0031916192503061041 0 0.0004379528287425799 0.0031524159601612023 0 0.00048796137946701253 0.0031445405276381332 0 0.00046859514149926698 0.0031029237281808629 0 0.0004379528287425799 0.0031524159601612023 0 0.00046859514149926698 0.0031029237281808629 0 0.00041356586342535017 0.0031039373331814691 0 0.00046859514149926698 0.0031029237281808629 0 0.00043774416131290607 0.0030675442196593048 0 0.00041356586342535017 0.0031039373331814691 0 0.00046859514149926698 0.0031029237281808629 0 0.00043774416131290607 0.0030675442196593048 0 0.00047583171049863895 0.0030636350392148843 0 0.00046859514149926698 0.0031029237281808629 0 0.00047583171049863895 0.0030636350392148843 0 0.00050313442156470244 0.0030832804015131221 0 0.00037886809873387419 0.0030503990401122313 0 0.00036366334993190194 0.0031358613780732357 0 0.00041356586342535017 0.0031039373331814691 0 0.00030254300344474634 0.0030566766900171462 0 0.00037886809873387419 0.0030503990401122313 0 0.00036366334993190194 0.0031358613780732357 0 0.0004379528287425799 0.0031524159601612023 0 0.00036366334993190194 0.0031358613780732357 0 0.00041356586342535017 0.0031039373331814691 0 0.00037886809873387419 0.0030503990401122313 0 0.00043774416131290607 0.0030675442196593048 0 0.00041356586342535017 0.0031039373331814691 0 0.00030254300344474634 0.0030566766900171462 0 0.00025763221145549937 0.0031415264327860387 0 0.0002212005277496637 0.0030674266092672359 0 0.00030254300344474634 0.0030566766900171462 0 0.00036366334993190194 0.0031358613780732357 0 0.00025763221145549937 0.0031415264327860387 0 0.00030398772303845032 0.0032307146400767091 0 0.00036366334993190194 0.0031358613780732357 0 0.00025763221145549937 0.0031415264327860387 0 0.00018058016201771799 0.0032215768091512953 0 0.00025763221145549937 0.0031415264327860387 0 0.00017228030996802116 0.0031255153402185939 0 0.00030398772303845032 0.0032307146400767091 0 0.00018058016201771799 0.0032215768091512953 0 0.00025763221145549937 0.0031415264327860387 0 0.00025763221145549937 0.0031415264327860387 0 0.0002212005277496637 0.0030674266092672359 0 0.00017228030996802116 0.0031255153402185939 0 0.0002212005277496637 0.0030674266092672359 0 0.00017228030996802116 0.0031255153402185939 0 0.00012951468929689003 0.0030652745270969063 0 0.00017228030996802116 0.0031255153402185939 0 0.00012951468929689003 0.0030652745270969063 0 6.983668630036612e-05 0.0031329777289764564 0 2.4050918236227924e-05 0.003046760705158684 0 0.00012951468929689003 0.0030652745270969063 0 6.983668630036612e-05 0.0031329777289764564 0 2.0226507000608711e-05 0.0030521053859118999 0 6.983668630036612e-05 0.0031329777289764564 0 -3.4033314547032542e-05 0.0031574911020082223 0 7.4525044261018625e-06 0.0030222073234079435 0 7.0006574949652524e-05 0.0031338943271727172 0 6.983668630036612e-05 0.0031329777289764564 0 3.2249042908513218e-05 0.003222384302110479 0 -3.4033314547032542e-05 0.0031574911020082223 0 0.00018058016201771799 0.0032215768091512953 0 6.983668630036612e-05 0.0031329777289764564 0 3.2249042908513218e-05 0.003222384302110479 0 0.00018058016201771799 0.0032215768091512953 0 0.00017228030996802116 0.0031255153402185939 0 6.983668630036612e-05 0.0031329777289764564 0 -0.0003187909679335508 0.0034621087491334508 0 -2.6883872968119379e-06 0.0033839989570306197 0 -0.00012016381716469403 0.0030904768767474264 0 -3.4033314547032542e-05 0.0031574911020082223 0 -0.00012170189912856418 0.0031850314304699198 0 -3.3929518438301776e-05 0.0035259288754736469 0 -9.7963894236238129e-05 0.0036677565441688982 0 5.4447354077264866e-05 0.0036479178218757667 0 2.0226507000608711e-05 0.0030521053859118999 0 -0.00012016381716469403 0.0030904768767474264 0 -3.4033314547032542e-05 0.0031574911020082223 0 -3.4033314547032542e-05 0.0031574911020082223 0 -0.00012170189912856418 0.0031850314304699198 0 -7.8134867425413163e-05 0.0032627063142632905 0 3.2249042908513218e-05 0.003222384302110479 0 -3.4033314547032542e-05 0.0031574911020082223 0 -7.8134867425413163e-05 0.0032627063142632905 0 -0.0003187909679335508 0.0034621087491334508 0 -0.0002399566621759066 0.0031773042438236064 0 -0.00021607133785049655 0.0032141073846312638 0 -0.00012016381716469403 0.0030904768767474264 0 -0.00012170189912856418 0.0031850314304699198 0 -0.00021607133785049655 0.0032141073846312638 0 -0.00012170189912856418 0.0031850314304699198 0 -7.8134867425413163e-05 0.0032627063142632905 0 -0.00064430110045602209 0.0030606082869027093 0 -0.00051791720172221121 0.0033097087306083093 0 -0.0003315516586715726 0.003189116349310473 0 -0.00051791720172221121 0.0033097087306083093 0 -0.0003315516586715726 0.003189116349310473 0 -0.00030611849914987142 0.0034420721775177496 0 -0.0003315516586715726 0.003189116349310473 0 -0.00030611849914987142 0.0034420721775177496 0 -4.4439209088422661e-05 0.003283146406653207 0 -0.0002399566621759066 0.0031773042438236064 0 2.04930462732815e-05 0.0033082497112883313 0 -0.00051791720172221121 0.0033097087306083093 0 -0.00030611849914987142 0.0034420721775177496 0 -0.00053641131031076242 0.003607911253743309 0 -0.00051692557246450104 0.0033307671798216217 0 -0.00051135822676007107 0.0036821397798604545 0 0.00018058016201771799 0.0032215768091512953 0 3.2249042908513218e-05 0.003222384302110479 0 6.1313057117994878e-05 0.0033149314849478962 0 0.00021093753278933797 0.0033722999048428717 0 0.00018058016201771799 0.0032215768091512953 0 6.1313057117994878e-05 0.0033149314849478962 0 3.2249042908513218e-05 0.003222384302110479 0 -7.8134867425413163e-05 0.0032627063142632905 0 6.1313057117994878e-05 0.0033149314849478962 0 -0.00030611849914987142 0.0034420721775177496 0 -4.4439209088422661e-05 0.003283146406653207 0 -0.00012305776450286036 0.003558775456916706 0 -4.4439209088422661e-05 0.003283146406653207 0 8.1705959697841261e-05 0.0035120775515582016 0 -0.00012305776450286036 0.003558775456916706 0 0.00021093753278933797 0.0033722999048428717 0 -4.4439209088422661e-05 0.003283146406653207 0 8.1705959697841261e-05 0.0035120775515582016 0 0.00019578693010506088 0.0033659430831776038 0 2.04930462732815e-05 0.0033082497112883313 0 8.1705959697841261e-05 0.0035120775515582016 0 -0.00012305776450286036 0.003558775456916706 0 6.1321009876684937e-05 0.0037292354409732046 0 6.1321009876684937e-05 0.0037292354409732046 0 -0.0002592881773712339 0.0037796270270689779 0 -0.00012957953000814349 0.0039585593982929832 0 -0.00012305776450286036 0.003558775456916706 0 6.1321009876684937e-05 0.0037292354409732046 0 -0.0002592881773712339 0.0037796270270689779 0 8.1705959697841261e-05 0.0035120775515582016 0 6.1321009876684937e-05 0.0037292354409732046 0 0.00026079372580272922 0.0036121548726027694 0 -0.00030611849914987142 0.0034420721775177496 0 -0.00053641131031076242 0.003607911253743309 0 -0.00034377762123546522 0.0036265085467722179 0 -0.00053641131031076242 0.003607911253743309 0 -0.00034377762123546522 0.0036265085467722179 0 -0.00043809407370737016 0.0037867507783610581 0 -0.00030611849914987142 0.0034420721775177496 0 -0.00012305776450286036 0.003558775456916706 0 -0.00034377762123546522 0.0036265085467722179 0 -0.00012305776450286036 0.003558775456916706 0 -0.00034377762123546522 0.0036265085467722179 0 -0.0002592881773712339 0.0037796270270689779 0 -0.0002592881773712339 0.0037796270270689779 0 -0.00043809407370737016 0.0037867507783610581 0 -0.00040570368391004149 0.0039281631133557893 0 -0.00034377762123546522 0.0036265085467722179 0 -0.0002592881773712339 0.0037796270270689779 0 -0.00043809407370737016 0.0037867507783610581 0 -0.00051135822676007107 0.0036821397798604545 0 -0.00051720333884719741 0.0041030800942008531 0 -0.00053641131031076242 0.003607911253743309 0 -0.00043809407370737016 0.0037867507783610581 0 -0.00056882961805847698 0.0039945101317697329 0 -0.00043809407370737016 0.0037867507783610581 0 -0.00056882961805847698 0.0039945101317697329 0 -0.00040570368391004149 0.0039281631133557893 0 -0.00056882961805847698 0.0039945101317697329 0 -0.00043904814509254056 0.004190131818580755 0 -0.00046078735336285725 0.0043078985574260646 0 -0.00056882961805847698 0.0039945101317697329 0 -0.00040570368391004149 0.0039281631133557893 0 -0.00041272265711964778 0.0040673000238328968 0 -0.00041272265711964778 0.0040673000238328968 0 -0.00033761000653456522 0.0042019179571281783 0 -0.00043904814509254056 0.004190131818580755 0 -0.00056882961805847698 0.0039945101317697329 0 -0.00041272265711964778 0.0040673000238328968 0 -0.00043904814509254056 0.004190131818580755 0 -0.0002592881773712339 0.0037796270270689779 0 -0.00029397462912511047 0.0040200907127080753 0 -0.00012957953000814349 0.0039585593982929832 0 -0.0002592881773712339 0.0037796270270689779 0 -0.00040570368391004149 0.0039281631133557893 0 -0.00029397462912511047 0.0040200907127080753 0 -0.00041272265711964778 0.0040673000238328968 0 -0.00029397462912511047 0.0040200907127080753 0 -0.00033761000653456522 0.0042019179571281783 0 -0.00040570368391004149 0.0039281631133557893 0 -0.00041272265711964778 0.0040673000238328968 0 -0.00029397462912511047 0.0040200907127080753 0 -0.00029397462912511047 0.0040200907127080753 0 -0.00033761000653456522 0.0042019179571281783 0 -0.0001687648651515584 0.0041950386274566907 0 -0.00029397462912511047 0.0040200907127080753 0 -0.00012957953000814349 0.0039585593982929832 0 -0.0001687648651515584 0.0041950386274566907 0 -0.00013028177549364862 0.0044251770505221322 0 -0.00030650997538448119 0.0043969824494131645 0 -0.0001687648651515584 0.0041950386274566907 0 -0.00030650997538448119 0.0043969824494131645 0 -0.00033761000653456522 0.0042019179571281783 0 -0.00038873321790359691 0.0043148136729675331 0 -0.00030650997538448119 0.0043969824494131645 0 -0.00033761000653456522 0.0042019179571281783 0 -0.0001687648651515584 0.0041950386274566907 0 -0.00046052400932270593 0.0046690670856417253 0 -0.00060331290688332435 0.0042817844378587886 0 -0.00046912483570446821 0.0042156123272497174 0 -0.00051594235246307861 0.004473862884613081 0 -0.00056882961805847698 0.0039945101317697329 0 -0.00046078735336285725 0.0043078985574260646 0 -0.00047413248362098874 0.0045850337578278964 0 -0.00051720333884719741 0.0041030800942008531 0 -0.00043904814509254056 0.004190131818580755 0 -0.00038873321790359691 0.0043148136729675331 0 -0.00046078735336285725 0.0043078985574260646 0 -0.00033761000653456522 0.0042019179571281783 0 -0.00043904814509254056 0.004190131818580755 0 -0.00038873321790359691 0.0043148136729675331 0 -0.00039882684901725149 0.0044389746778945756 0 -0.00030650997538448119 0.0043969824494131645 0 -0.00038873321790359691 0.0043148136729675331 0 -0.00039882684901725149 0.0044389746778945756 0 -0.00046078735336285725 0.0043078985574260646 0 -0.00045488916337686021 0.0044261627901150584 0 -0.00039882684901725149 0.0044389746778945756 0 -0.00038873321790359691 0.0043148136729675331 0 -0.00046078735336285725 0.0043078985574260646 0 -0.00051594235246307861 0.004473862884613081 0 -0.00046078735336285725 0.0043078985574260646 0 -0.00045488916337686021 0.0044261627901150584 0 6.1321009876684937e-05 0.0037292354409732046 0 2.9177558313838597e-05 0.0040666430844189683 0 0.00033765870835706784 0.0041086201619975121 0 6.9224115860584283e-05 0.0037459099929251752 0 0.00027124176835774009 0.0040194680457506455 0 2.9177558313838597e-05 0.0040666430844189683 0 -0.00012957953000814349 0.0039585593982929832 0 -0.0001687648651515584 0.0041950386274566907 0 6.1321009876684937e-05 0.0037292354409732046 0 2.9177558313838597e-05 0.0040666430844189683 0 -0.00012957953000814349 0.0039585593982929832 0 2.9177558313838597e-05 0.0040666430844189683 0 -0.0001687648651515584 0.0041950386274566907 0 7.4503030346280882e-05 0.0043207678661041689 0 -0.00013028177549364862 0.0044251770505221322 0 -0.0001687648651515584 0.0041950386274566907 0 7.4503030346280882e-05 0.0043207678661041689 0 0.00029021831484112227 0.0044033544168380397 0 7.4503030346280882e-05 0.0043207678661041689 0 0.00033765870835706784 0.0041086201619975121 0 2.9177558313838597e-05 0.0040666430844189683 0 7.4503030346280882e-05 0.0043207678661041689 0 0.00033765870835706784 0.0041086201619975121 0 0.00029021831484112227 0.0044033544168380397 0 0.00050725898516302203 0.0043996558150283588 0 0.00033765870835706784 0.0041086201619975121 0 0.00037979818732263276 0.0037096996620920022 0 0.00048450640749572878 0.0038559855147728321 0 0.00040829614630210855 0.0042482846333676879 0 0.00041821562193159498 0.0038888211315537317 0 0.0002151978456949857 0.0039358328089449373 0 0.00040829614630210855 0.0042482846333676879 0 0.00041821562193159498 0.0038888211315537317 0 0.00056818090339885979 0.0041792722260953477 0 0.00046010491271844523 0.0043247465398847532 0 0.00027124176835774009 0.0040194680457506455 0 0.00041821562193159498 0.0038888211315537317 0 0.0002151978456949857 0.0039358328089449373 0 0.00026079372580272922 0.0036121548726027694 0 6.1321009876684937e-05 0.0037292354409732046 0 0.0002151978456949857 0.0039358328089449373 0 0.00026079372580272922 0.0036121548726027694 0 0.00036149584438889283 0.0035381381693968461 0 0.00033602363298153298 0.0035412629195599081 0 0.00038504415087640498 0.0035101157527625067 0 0.00026079372580272922 0.0036121548726027694 0 0.00033602363298153298 0.0035412629195599081 0 0.00035371907395856416 0.0034554608026622687 0 0.00033602363298153298 0.0035412629195599081 0 0.00035371907395856416 0.0034554608026622687 0 0.00038504415087640498 0.0035101157527625067 0 0.00036149584438889283 0.0035381381693968461 0 0.00026079372580272922 0.0036121548726027694 0 0.00033602363298153298 0.0035412629195599081 0 0.00037979818732263276 0.0037096996620920022 0 0.0002688791592215953 0.0036072599053719851 0 0.00021093753278933797 0.0033722999048428717 0 0.00026079372580272922 0.0036121548726027694 0 0.00035371907395856416 0.0034554608026622687 0 0.00021093753278933797 0.0033722999048428717 0 8.1705959697841261e-05 0.0035120775515582016 0 0.00026079372580272922 0.0036121548726027694 0 0.00045907861765683656 0.0033636919028021332 0 0.00043663293268800398 0.0034408029014326305 0 0.00040892496695497737 0.0033984738913715859 0 0.00045907861765683656 0.0033636919028021332 0 0.00043663293268800398 0.0034408029014326305 0 0.00050479205636471606 0.0033975071923608938 0 0.00035371907395856416 0.0034554608026622687 0 0.00043663293268800398 0.0034408029014326305 0 0.00040892496695497737 0.0033984738913715859 0 0.00035371907395856416 0.0034554608026622687 0 0.00043663293268800398 0.0034408029014326305 0 0.00038504415087640498 0.0035101157527625067 0 0.00043663293268800398 0.0034408029014326305 0 0.00038504415087640498 0.0035101157527625067 0 0.00043802415789324125 0.0034707700194242497 0 0.00038504415087640498 0.0035101157527625067 0 0.00043802415789324125 0.0034707700194242497 0 0.00042457519015270408 0.0034981672168306727 0 0.00043802415789324125 0.0034707700194242497 0 0.00042457519015270408 0.0034981672168306727 0 0.00047659556470541043 0.0034494657460766771 0 0.00043663293268800398 0.0034408029014326305 0 0.00047659556470541043 0.0034494657460766771 0 0.00050479205636471606 0.0033975071923608938 0 0.00043663293268800398 0.0034408029014326305 0 0.00043802415789324125 0.0034707700194242497 0 0.00047659556470541043 0.0034494657460766771 0 0.00042457519015270408 0.0034981672168306727 0 0.00045584462405752647 0.0034923801082286064 0 0.00047659556470541043 0.0034494657460766771 0 0.00042457519015270408 0.0034981672168306727 0 0.00045584462405752647 0.0034923801082286064 0 0.00042500202300019231 0.003515698587816446 0 0.00038504415087640498 0.0035101157527625067 0 0.00042457519015270408 0.0034981672168306727 0 0.00039861397378338826 0.0035206773963557432 0 0.00036149584438889283 0.0035381381693968461 0 0.00038504415087640498 0.0035101157527625067 0 0.00039861397378338826 0.0035206773963557432 0 0.00042457519015270408 0.0034981672168306727 0 0.00039861397378338826 0.0035206773963557432 0 0.00042500202300019231 0.003515698587816446 0 0.00036149584438889283 0.0035381381693968461 0 0.00039861397378338826 0.0035206773963557432 0 0.00040714359400794553 0.003532008224862535 0 0.00039861397378338826 0.0035206773963557432 0 0.00040714359400794553 0.003532008224862535 0 0.00042500202300019231 0.003515698587816446 0 0.00040714359400794553 0.003532008224862535 0 0.00042500202300019231 0.003515698587816446 0 0.00044362278996453217 0.0035269104533251685 0 0.00045584462405752647 0.0034923801082286064 0 0.00044362278996453217 0.0035269104533251685 0 0.00047543119635222632 0.0035057769928516038 0 0.00045584462405752647 0.0034923801082286064 0 0.00042500202300019231 0.003515698587816446 0 0.00044362278996453217 0.0035269104533251685 0 0.00046198795454936205 0.0035380859701133142 0 0.00044362278996453217 0.0035269104533251685 0 0.00047543119635222632 0.0035057769928516038 0 0.00047543119635222632 0.0035057769928516038 0 0.00051970288110387945 0.0034990049472316607 0 0.0004986613359127932 0.0034582361438205574 0 0.00045584462405752647 0.0034923801082286064 0 0.00047543119635222632 0.0035057769928516038 0 0.0004986613359127932 0.0034582361438205574 0 0.00048762489535513517 0.0035296580071755798 0 0.00047543119635222632 0.0035057769928516038 0 0.00051970288110387945 0.0034990049472316607 0 0.00051970288110387945 0.0034990049472316607 0 0.00054576579970342417 0.0034458985898268694 0 0.0004986613359127932 0.0034582361438205574 0 0.00055880180185762429 0.0035156321457102016 0 0.00051970288110387945 0.0034990049472316607 0 0.00054576579970342417 0.0034458985898268694 0 0.00054001595203183978 0.0034076953378866823 0 0.0004986613359127932 0.0034582361438205574 0 0.00051857461845289442 0.0034174106743381444 0 0.00054576579970342417 0.0034458985898268694 0 0.00054001595203183978 0.0034076953378866823 0 0.0004986613359127932 0.0034582361438205574 0 0.00045584462405752647 0.0034923801082286064 0 0.0004986613359127932 0.0034582361438205574 0 0.00047659556470541043 0.0034494657460766771 0 0.00068003429166515073 0.0034363708946900857 0 0.00066722756293049849 0.0033436971089696598 0 0.00074958002398820694 0.003422235660074682 0 0.00065726872264505005 0.0034914256386530313 0 0.00068003429166515073 0.0034363708946900857 0 0.00060928178552887636 0.0034458422103560765 0 0.00068003429166515073 0.0034363708946900857 0 0.00060928178552887636 0.0034458422103560765 0 0.00066722756293049849 0.0033436971089696598 0 0.00054576579970342417 0.0034458985898268694 0 0.00060928178552887636 0.0034458422103560765 0 0.00059499035173482713 0.0033542652470368649 0 0.00055880180185762429 0.0035156321457102016 0 0.00054576579970342417 0.0034458985898268694 0 0.00060928178552887636 0.0034458422103560765 0 0.00054576579970342417 0.0034458985898268694 0 0.00054001595203183978 0.0034076953378866823 0 0.00059499035173482713 0.0033542652470368649 0 0.00060928178552887636 0.0034458422103560765 0 0.00059499035173482713 0.0033542652470368649 0 0.00066722756293049849 0.0033436971089696598 0 0.00059499035173482713 0.0033542652470368649 0 0.00065497123654715357 0.0032969110216531537 0 0.00066722756293049849 0.0033436971089696598 0 0.00065497123654715357 0.0032969110216531537 0 0.00066722756293049849 0.0033436971089696598 0 0.00069636826057212296 0.0032666023925375679 0 0.00059499035173482713 0.0033542652470368649 0 0.00065497123654715357 0.0032969110216531537 0 0.00065539074576365661 0.00322112578177542 0 0.00065497123654715357 0.0032969110216531537 0 0.00065539074576365661 0.00322112578177542 0 0.00069636826057212296 0.0032666023925375679 0 0.00059499035173482713 0.0033542652470368649 0 0.00065539074576365661 0.00322112578177542 0 0.00055358320945121566 0.0032341057116822237 0 0.00054001595203183978 0.0034076953378866823 0 0.00059499035173482713 0.0033542652470368649 0 0.00054979981794548425 0.0033963357839149827 0 0.00059258208379486842 0.0033576068263723143 0 0.00055671084047376879 0.0033161977597033856 0 0.00055358320945121566 0.0032341057116822237 0 0.00056684396248031586 0.0031792955311760501 0 0.00061269516660988378 0.0031836479675767708 0 0.00065539074576365661 0.00322112578177542 0 0.00055358320945121566 0.0032341057116822237 0 0.00061269516660988378 0.0031836479675767708 0 0.0004986613359127932 0.0034582361438205574 0 0.00051857461845289442 0.0034174106743381444 0 0.00047659556470541043 0.0034494657460766771 0 0.00051857461845289442 0.0034174106743381444 0 0.00047659556470541043 0.0034494657460766771 0 0.00050479205636471606 0.0033975071923608938 0 0.00054001595203183978 0.0034076953378866823 0 0.00051857461845289442 0.0034174106743381444 0 0.00054979981794548425 0.0033963357839149827 0 0.00054979981794548425 0.0033963357839149827 0 0.00050479205636471606 0.0033975071923608938 0 0.00054402545700968298 0.0033435570989461521 0 0.00055671084047376879 0.0033161977597033856 0 0.00053749417089315641 0.0032591915687570148 0 0.00051857461845289442 0.0034174106743381444 0 0.00054979981794548425 0.0033963357839149827 0 0.00050479205636471606 0.0033975071923608938 0 0.00045907861765683656 0.0033636919028021332 0 0.00050479205636471606 0.0033975071923608938 0 0.00050189438891122507 0.0033572587893856034 0 0.00050479205636471606 0.0033975071923608938 0 0.00050189438891122507 0.0033572587893856034 0 0.00054402545700968298 0.0033435570989461521 0 0.00050189438891122507 0.0033572587893856034 0 0.00054402545700968298 0.0033435570989461521 0 0.00049187127303622011 0.0033110128495830141 0 0.00053749417089315641 0.0032591915687570148 0 0.00050187731490085189 0.0031921572522748535 0 0.00054101234159688641 0.0031716540041765891 0 0.00050157848614638056 0.0031916192503061041 0 0.00053266888508860801 0.003151318652288133 0 0.00053889209914198012 0.0031806596436816403 0 0.00054101234159688641 0.0031716540041765891 0 0.00050157848614638056 0.0031916192503061041 0 0.00054402545700968298 0.0033435570989461521 0 0.00049187127303622011 0.0033110128495830141 0 0.00050157848614638056 0.0031916192503061041 0 0.00054101234159688641 0.0031716540041765891 0 0.00056684396248031586 0.0031792955311760501 0 0.00060375895861253714 0.003141570711129844 0 0.00054101234159688641 0.0031716540041765891 0 0.00059770645745277243 0.0031696891267448497 0 0.00056879710340813319 0.003140974371933183 0 0.00054652185084941643 0.0031671071425937065 0 0.00060223915335961479 0.0031576627609264125 0 0.00054101234159688641 0.0031716540041765891 0 0.00053266888508860801 0.003151318652288133 0 0.00056879710340813319 0.003140974371933183 0 0.00055358320945121566 0.0032341057116822237 0 0.00053889209914198012 0.0031806596436816403 0 0.00056684396248031586 0.0031792955311760501 0 0.00053889209914198012 0.0031806596436816403 0 0.00054101234159688641 0.0031716540041765891 0 0.00056684396248031586 0.0031792955311760501 0 0.00056684396248031586 0.0031792955311760501 0 0.00061269516660988378 0.0031836479675767708 0 0.00060375895861253714 0.003141570711129844 0 0.00065539074576365661 0.00322112578177542 0 0.00061269516660988378 0.0031836479675767708 0 0.00068659460150145716 0.0031385984429624417 0 0.00061269516660988378 0.0031836479675767708 0 0.00060375895861253714 0.003141570711129844 0 0.00068659460150145716 0.0031385984429624417 0 0.00059770645745277243 0.0031696891267448497 0 0.00060683131979679522 0.0031225698410384862 0 0.00064752643626884217 0.0031187549660612189 0 0.00060223915335961479 0.0031576627609264125 0 0.000664820972008511 0.0031517312853067787 0 0.00059770645745277243 0.0031696891267448497 0 0.00064752643626884217 0.0031187549660612189 0 0.00065434049341231437 0.003167773155324064 0 0.00059770645745277243 0.0031696891267448497 0 0.00060683131979679522 0.0031225698410384862 0 0.00056879710340813319 0.003140974371933183 0 0.00060683131979679522 0.0031225698410384862 0 0.00058935078048531991 0.0031014915802700526 0 0.00056879710340813319 0.003140974371933183 0 0.00060683131979679522 0.0031225698410384862 0 0.00062307030347630386 0.0030934899528151311 0 0.00058935078048531991 0.0031014915802700526 0 0.00060683131979679522 0.0031225698410384862 0 0.00062307030347630386 0.0030934899528151311 0 0.00064752643626884217 0.0031187549660612189 0 0.00042438806849525888 0.0027804546125021539 0 0.00042280694940223339 0.0027823012834386537 0 0.00062307030347630386 0.0030934899528151311 0 0.00066790382109479282 0.0030620227680868933 0 0.00064752643626884217 0.0031187549660612189 0 0.00062307030347630386 0.0030934899528151311 0 0.00066790382109479282 0.0030620227680868933 0 0.00060452114325520675 0.0030614654838752413 0 0.00058935078048531991 0.0031014915802700526 0 0.00056655388673660734 0.0030840608219512415 0 0.00060452114325520675 0.0030614654838752413 0 0.00062307030347630386 0.0030934899528151311 0 0.00058935078048531991 0.0031014915802700526 0 0.00060452114325520675 0.0030614654838752413 0 0.00056655388673660734 0.0030840608219512415 0 0.00054270519250059911 0.0030512883587840967 0 0.00060452114325520675 0.0030614654838752413 0 0.00058935078048531991 0.0031014915802700526 0 0.00056655388673660734 0.0030840608219512415 0 0.00055605077404260637 0.0031190096127525447 0 0.00053850884386288261 0.0030851781344082637 0 0.00051887495863181705 0.0031167494106229912 0 0.00055605077404260637 0.0031190096127525447 0 0.00056655388673660734 0.0030840608219512415 0 0.00053850884386288261 0.0030851781344082637 0 0.00055605077404260637 0.0031190096127525447 0 0.00056655388673660734 0.0030840608219512415 0 0.00053850884386288261 0.0030851781344082637 0 0.00054270519250059911 0.0030512883587840967 0 0.00053850884386288261 0.0030851781344082637 0 0.00050313442156470244 0.0030832804015131221 0 0.00052024606063699979 0.0030575815116010408 0 0.00047583171049863895 0.0030636350392148843 0 0.00050313442156470244 0.0030832804015131221 0 0.00052024606063699979 0.0030575815116010408 0 0.00046859514149926698 0.0031029237281808629 0 0.00050313442156470244 0.0030832804015131221 0 0.00051887495863181705 0.0031167494106229912 0 0.00048796137946701253 0.0031445405276381332 0 0.00046859514149926698 0.0031029237281808629 0 0.00051887495863181705 0.0031167494106229912 0 0.00053850884386288261 0.0030851781344082637 0 0.00050313442156470244 0.0030832804015131221 0 0.00051887495863181705 0.0031167494106229912 0 0.00051887495863181705 0.0031167494106229912 0 0.00053266888508860801 0.003151318652288133 0 0.00055605077404260637 0.0031190096127525447 0 0.00048796137946701253 0.0031445405276381332 0 0.00051887495863181705 0.0031167494106229912 0 0.00053266888508860801 0.003151318652288133 0 0.00048796137946701253 0.0031445405276381332 0 0.00050157848614638056 0.0031916192503061041 0 0.00053266888508860801 0.003151318652288133 0 0.00053266888508860801 0.003151318652288133 0 0.00056879710340813319 0.003140974371933183 0 0.00055605077404260637 0.0031190096127525447 0 0.00058935078048531991 0.0031014915802700526 0 0.00056879710340813319 0.003140974371933183 0 0.00055605077404260637 0.0031190096127525447 0 0.00063438976328187993 0.0030063684159367674 0 0.0007183039389532719 0.0030660525969943872 0 0.00067287766390037619 0.002893060185291473 0 0.0007183039389532719 0.0030660525969943872 0 0.00071374249838204252 0.0031147223405934435 0 0.00074877912612472718 0.0031283237251915085 0 0.00071908431811124355 0.0030575218658142281 0 0.00070983682669305942 0.0030110843583917675 0 0.00063438976328187993 0.0030063684159367674 0 0.00067287766390037619 0.002893060185291473 0 0.00054047330961191193 0.0028883887400265058 0 0.00063438976328187993 0.0030063684159367674 0 0.00053008953981024834 0.0030382541762978155 0 0.00054047330961191193 0.0028883887400265058 0 0.00018949994896767667 0.0025008643742804207 0 0.00018615642587804925 0.0024953222026954571 0 0.00018813064425985405 0.0024925675679515966 0 0.0003511997526711304 0.0027785338273937422 0 0.00044954083271897511 0.0027828562812772769 0 0.00018949994896767667 0.0025008643742804207 0 0.00018638802803200158 0.0024972016950575984 0 0.00018615642587804925 0.0024953222026954571 0 0.00063438976328187993 0.0030063684159367674 0 0.00053008953981024834 0.0030382541762978155 0 0.00071333136794107712 0.0030707996989178857 0 0.00063438976328187993 0.0030063684159367674 0 0.00071333136794107712 0.0030707996989178857 0 0.0007183039389532719 0.0030660525969943872 0 0.00018638802803200158 0.0024972016950575984 0 0.00018695012690824958 0.0024969103833886856 0 0.00018534037949451989 0.0024954764347522732 0 0.00018638802803200158 0.0024972016950575984 0 0.00018534037949451989 0.0024954764347522732 0 0.00018615642587804925 0.0024953222026954571 0 0.00044954083271897511 0.0027828562812772769 0 0.00042438806849525888 0.0027804546125021539 0 0.00018638802803200158 0.0024972016950575984 0 0.00019024819141298208 0.0024982875712925776 0 0.00018695012690824958 0.0024969103833886856 0 0.0007183039389532719 0.0030660525969943872 0 0.00066790382109479282 0.0030620227680868933 0 0.00068585546515896481 0.0030964030670947037 0 0.00071333136794107712 0.0030707996989178857 0 0.0007183039389532719 0.0030660525969943872 0 0.00066790382109479282 0.0030620227680868933 0 0.00064752643626884217 0.0031187549660612189 0 0.00068585546515896481 0.0030964030670947037 0 0.00068283292179857884 0.0031306105831467429 0 0.00066790382109479282 0.0030620227680868933 0 0.00064752643626884217 0.0031187549660612189 0 0.00068585546515896481 0.0030964030670947037 0 0.0007183039389532719 0.0030660525969943872 0 0.00068585546515896481 0.0030964030670947037 0 0.00071374249838204252 0.0031147223405934435 0 0.00068585546515896481 0.0030964030670947037 0 0.00071374249838204252 0.0031147223405934435 0 0.00068283292179857884 0.0031306105831467429 0 0.00071374249838204252 0.0031147223405934435 0 0.00068283292179857884 0.0031306105831467429 0 0.00071385098240175731 0.0031715186462610832 0 0.00064752643626884217 0.0031187549660612189 0 0.00068283292179857884 0.0031306105831467429 0 0.00065434049341231437 0.003167773155324064 0 0.00068283292179857884 0.0031306105831467429 0 0.00065434049341231437 0.003167773155324064 0 0.00071385098240175731 0.0031715186462610832 0 0.00065539074576365661 0.00322112578177542 0 0.00068659460150145716 0.0031385984429624417 0 0.00071657778306719218 0.0031771762651564527 0 0.000664820972008511 0.0031517312853067787 0 0.00075208701848489571 0.0031876500053831559 0 0.00068659460150145716 0.0031385984429624417 0 0.00074833519329285431 0.0031560058801042416 0 0.00071657778306719218 0.0031771762651564527 0 0.00074833519329285431 0.0031560058801042416 0 0.00071657778306719218 0.0031771762651564527 0 0.00074411172387615617 0.0031782840570497022 0 0.00074833519329285431 0.0031560058801042416 0 0.00075642926815385327 0.003181438917646186 0 0.00075993798382318852 0.0031665881510853019 0 0.00075208701848489571 0.0031876500053831559 0 0.00067066536765159176 0.0029532869788406369 0 0.00071385098240175731 0.0031715186462610832 0 0.00074877912612472718 0.0031283237251915085 0 0.00077324983107445908 0.003175997327367318 0 0.00070983682669305942 0.0030110843583917675 0 0.00067066536765159176 0.0029532869788406369 0 0.00071374249838204252 0.0031147223405934435 0 0.00071385098240175731 0.0031715186462610832 0 0.00074877912612472718 0.0031283237251915085 0 0.00067287766390037619 0.002893060185291473 0 0.00054047330961191193 0.0028883887400265058 0 0.00059664124888732337 0.0027280148352524076 0 0.00054047330961191193 0.0028883887400265058 0 0.00059664124888732337 0.0027280148352524076 0 0.00047749764209646287 0.0027997601270706974 0 0.00067066536765159176 0.0029532869788406369 0 0.000412621510621688 0.002675646499018925 0 0.00075642926815385327 0.003181438917646186 0 0.00076394717070305429 0.0031519826003180455 0 0.00067892872490528096 0.0031682060550031264 0 0.00055953931689234891 0.0027148556653808793 0 0.00046415660899750663 0.002562817289754481 0 0.00044411882925763496 0.0026972090002234722 0 0.00067066536765159176 0.0029532869788406369 0 0.00057124065010434588 0.0028564089291062693 0 0.00075993798382318852 0.0031665881510853019 0 0.00076086088225853817 0.0031609085547056486 0 0.00074411172387615617 0.0031782840570497022 0 0.00075642926815385327 0.003181438917646186 0 0.00076394717070305429 0.0031519826003180455 0 0.00075993798382318852 0.0031665881510853019 0 0.00076394717070305429 0.0031519826003180455 0 0.00075993798382318852 0.0031665881510853019 0 0.00076086088225853817 0.0031609085547056486 0 0.00076394717070305429 0.0031519826003180455 0 0.00076086088225853817 0.0031609085547056486 0 0.0007973796757690956 0.0030579304935030006 0 0.00076394717070305429 0.0031519826003180455 0 0.0007973796757690956 0.0030579304935030006 0 0.00067892872490528096 0.0031682060550031264 0 0.00065539074576365661 0.00322112578177542 0 0.00071657778306719218 0.0031771762651564527 0 0.00072652714697991796 0.003207338974674481 0 0.00074833519329285431 0.0031560058801042416 0 0.00075993798382318852 0.0031665881510853019 0 0.00074411172387615617 0.0031782840570497022 0 0.00071657778306719218 0.0031771762651564527 0 0.00074411172387615617 0.0031782840570497022 0 0.00072652714697991796 0.003207338974674481 0 0.00076086088225853817 0.0031609085547056486 0 0.00072652714697991796 0.003207338974674481 0 0.00072400952526376994 0.0032389550175970327 0 0.00076086088225853817 0.0031609085547056486 0 0.00074411172387615617 0.0031782840570497022 0 0.00072652714697991796 0.003207338974674481 0 0.00065539074576365661 0.00322112578177542 0 0.00072652714697991796 0.003207338974674481 0 0.00069636826057212296 0.0032666023925375679 0 0.00072652714697991796 0.003207338974674481 0 0.00069636826057212296 0.0032666023925375679 0 0.00072400952526376994 0.0032389550175970327 0 0.00069636826057212296 0.0032666023925375679 0 0.00072400952526376994 0.0032389550175970327 0 0.00069475113774046082 0.0032977386731979762 0 0.00066722756293049849 0.0033436971089696598 0 0.00069636826057212296 0.0032666023925375679 0 0.00069475113774046082 0.0032977386731979762 0 0.00072400952526376994 0.0032389550175970327 0 0.00072597421645485577 0.003263203660661709 0 0.00075797270418824698 0.003213078611113457 0 0.00075386155165853774 0.0033837890399179595 0 0.00075570640659439095 0.0031942279385002077 0 0.00072562873983193874 0.003305072279007885 0 0.00072597421645485577 0.003263203660661709 0 0.00075797270418824698 0.003213078611113457 0 0.00071241409312144781 0.0032591364012975223 0 0.00073780125456730827 0.0032779650970937873 0 0.00075797270418824698 0.003213078611113457 0 0.00072562873983193874 0.003305072279007885 0 0.00072597421645485577 0.003263203660661709 0 0.00069475113774046082 0.0032977386731979762 0 0.00072400952526376994 0.0032389550175970327 0 0.00072597421645485577 0.003263203660661709 0 0.00069475113774046082 0.0032977386731979762 0 0.00081860841782425086 0.003479027306722358 0 0.0007114612797738518 0.0034939232083534841 0 0.00074958002398820694 0.003422235660074682 0 0.00075386155165853774 0.0033837890399179595 0 0.00072003529987465934 0.003361760552946957 0 0.0007114612797738518 0.0034939232083534841 0 0.00068003429166515073 0.0034363708946900857 0 0.00074958002398820694 0.003422235660074682 0 0.0006714081052554894 0.0033381428698031138 0 0.00072003529987465934 0.003361760552946957 0 0.0007973796757690956 0.0030579304935030006 0 0.00080059776420891848 0.0031901458672963638 0 0.00088098422733251839 0.0032003788415552454 0 0.0007973796757690956 0.0030579304935030006 0 0.00080059776420891848 0.0031901458672963638 0 0.00077220435214553687 0.0031540052290540688 0 0.00078147726269436413 0.0030199446401659039 0 0.00076369981276930862 0.0029048576109083498 0 0.00076086088225853817 0.0031609085547056486 0 0.0007973796757690956 0.0030579304935030006 0 0.00077220435214553687 0.0031540052290540688 0 0.00076086088225853817 0.0031609085547056486 0 0.00077220435214553687 0.0031540052290540688 0 0.00075797270418824698 0.003213078611113457 0 0.00076086088225853817 0.0031609085547056486 0 0.00072400952526376994 0.0032389550175970327 0 0.00075797270418824698 0.003213078611113457 0 0.00080059776420891848 0.0031901458672963638 0 0.00077220435214553687 0.0031540052290540688 0 0.00075797270418824698 0.003213078611113457 0 0.00073780125456730827 0.0032779650970937873 0 0.00075797270418824698 0.003213078611113457 0 0.0007904115683652665 0.0032362171727664127 0 0.00080059776420891848 0.0031901458672963638 0 0.00083039933404545363 0.003233530927964919 0 0.00088098422733251839 0.0032003788415552454 0 0.00080059776420891848 0.0031901458672963638 0 0.0007904115683652665 0.0032362171727664127 0 0.00083039933404545363 0.003233530927964919 0 0.00080059776420891848 0.0031901458672963638 0 0.00075797270418824698 0.003213078611113457 0 0.0007904115683652665 0.0032362171727664127 0 0.00081537820473147815 0.0032767214114640471 0 0.0007904115683652665 0.0032362171727664127 0 0.00083039933404545363 0.003233530927964919 0 0.00092756977405796957 0.0032722054466677985 0 0.00086517296958699391 0.0032587642522854919 0 0.00088098422733251839 0.0032003788415552454 0 0.00086517296958699391 0.0032587642522854919 0 0.00083039933404545363 0.003233530927964919 0 0.00088098422733251839 0.0032003788415552454 0 0.00051632891142133481 0.0027985038688977328 0 0.00076369981276930862 0.0029048576109083498 0 0.00059049304939148698 0.002554208790360459 0 0.00047413889826266101 0.0026366465129705648 0 0.00049617796976509656 0.0025307129290609064 0 0.0007973796757690956 0.0030579304935030006 0 0.00059049304939148698 0.002554208790360459 0 0.00047413889826266101 0.0026366465129705648 0 0.00046517248012647631 0.002575378360072622 0 0.00047413889826266101 0.0026366465129705648 0 0.00046392924904295929 0.0025845079638099522 0 0.00047413889826266101 0.0026366465129705648 0 0.00046745973548136704 0.0025553107321740764 0 0.00049617796976509656 0.0025307129290609064 0 0.00046517248012647631 0.002575378360072622 0 0.00047413889826266101 0.0026366465129705648 0 0.00046745973548136704 0.0025553107321740764 0 0.00046517248012647631 0.002575378360072622 0 0.00046745973548136704 0.0025553107321740764 0 0.00044909271805711757 0.002529712444064493 0 0.00046745973548136704 0.0025553107321740764 0 0.00049617796976509656 0.0025307129290609064 0 0.0004755775104751831 0.0024925201085672305 0 0.00048634779364143538 0.0024308143524550412 0 0.00059049304939148698 0.002554208790360459 0 0.00049617796976509656 0.0025307129290609064 0 0.00046745973548136704 0.0025553107321740764 0 0.0004755775104751831 0.0024925201085672305 0 0.00045836081487855466 0.0024999812777053631 0 0.00048634779364143538 0.0024308143524550412 0 0.00049617796976509656 0.0025307129290609064 0 0.0004755775104751831 0.0024925201085672305 0 0.00046927418719245207 0.0024404380319119979 0 0.00048634779364143538 0.0024308143524550412 0 0.0004755775104751831 0.0024925201085672305 0 0.00046927418719245207 0.0024404380319119979 0 0.00043336309139633156 0.0024692581417067477 0 0.00045836081487855466 0.0024999812777053631 0 0.00046927418719245207 0.0024404380319119979 0 0.0004755775104751831 0.0024925201085672305 0 0.00045836081487855466 0.0024999812777053631 0 0.00043336309139633156 0.0024692581417067477 0 0.00045836081487855466 0.0024999812777053631 0 0.00044909271805711757 0.002529712444064493 0 0.00042472476613746881 0.0023747326961588472 0 0.00043336309139633156 0.0024692581417067477 0 0.00040003032577422222 0.0024417144427734384 0 0.00043336309139633156 0.0024692581417067477 0 0.00040003032577422222 0.0024417144427734384 0 0.00041176156412050066 0.0025071923487063543 0 0.00041176156412050066 0.0025071923487063543 0 0.0003968876183505516 0.0025353385254814629 0 0.00036917548314216854 0.0024800233153913181 0 0.00040003032577422222 0.0024417144427734384 0 0.00041176156412050066 0.0025071923487063543 0 0.00036917548314216854 0.0024800233153913181 0 0.00043336309139633156 0.0024692581417067477 0 0.00041176156412050066 0.0025071923487063543 0 0.00044909271805711757 0.002529712444064493 0 0.00041176156412050066 0.0025071923487063543 0 0.00044909271805711757 0.002529712444064493 0 0.00043431904773495581 0.002546567820837016 0 0.00046745973548136704 0.0025553107321740764 0 0.00045836081487855466 0.0024999812777053631 0 0.00044909271805711757 0.002529712444064493 0 0.00046517248012647631 0.002575378360072622 0 0.00044909271805711757 0.002529712444064493 0 0.00043431904773495581 0.002546567820837016 0 0.00046517248012647631 0.002575378360072622 0 0.00043431904773495581 0.002546567820837016 0 0.0004508787601365771 0.0025726764327612694 0 0.00043431904773495581 0.002546567820837016 0 0.00042693261593831195 0.0025628996970255367 0 0.0004508787601365771 0.0025726764327612694 0 0.00041176156412050066 0.0025071923487063543 0 0.00043431904773495581 0.002546567820837016 0 0.0003968876183505516 0.0025353385254814629 0 0.00043431904773495581 0.002546567820837016 0 0.0003968876183505516 0.0025353385254814629 0 0.00042693261593831195 0.0025628996970255367 0 0.0003968876183505516 0.0025353385254814629 0 0.00039818714081730924 0.0025604591327817675 0 0.00037162894485643906 0.0025434578589985713 0 0.0003968876183505516 0.0025353385254814629 0 0.00039818714081730924 0.0025604591327817675 0 0.00042693261593831195 0.0025628996970255367 0 0.00042693261593831195 0.0025628996970255367 0 0.00044130135561863362 0.0025788828844719286 0 0.00042339626030370024 0.0025749169113805002 0 0.00039818714081730924 0.0025604591327817675 0 0.00042693261593831195 0.0025628996970255367 0 0.00042339626030370024 0.0025749169113805002 0 0.00042693261593831195 0.0025628996970255367 0 0.00044130135561863362 0.0025788828844719286 0 0.0004508787601365771 0.0025726764327612694 0 0.00044130135561863362 0.0025788828844719286 0 0.00043599719470374307 0.002582921938063689 0 0.00042339626030370024 0.0025749169113805002 0 0.00044130135561863362 0.0025788828844719286 0 0.00043566898930841536 0.0025954174450138305 0 0.00044832628866283873 0.0025804766019210442 0 0.00044130135561863362 0.0025788828844719286 0 0.00043566898930841536 0.0025954174450138305 0 0.00043599719470374307 0.002582921938063689 0 0.00043566898930841536 0.0025954174450138305 0 0.00046415660899750663 0.002562817289754481 0 0.00044411882925763496 0.0026972090002234722 0 0.00043566898930841536 0.0025954174450138305 0 0.00046415660899750663 0.002562817289754481 0 0.00044832628866283873 0.0025804766019210442 0 0.00047979520617313015 0.0026568662267122331 0 0.00057124065010434588 0.0028564089291062693 0 0.0007973796757690956 0.0030579304935030006 0 0.00047413889826266101 0.0026366465129705648 0 0.00067892872490528096 0.0031682060550031264 0 0.00047413889826266101 0.0026366465129705648 0 0.00046415660899750663 0.002562817289754481 0 0.00046392924904295929 0.0025845079638099522 0 0.00046415660899750663 0.002562817289754481 0 0.00046392924904295929 0.0025845079638099522 0 0.00044832628866283873 0.0025804766019210442 0 0.00046517248012647631 0.002575378360072622 0 0.00046392924904295929 0.0025845079638099522 0 0.0004508787601365771 0.0025726764327612694 0 0.00044130135561863362 0.0025788828844719286 0 0.0004508787601365771 0.0025726764327612694 0 0.00044832628866283873 0.0025804766019210442 0 0.00046392924904295929 0.0025845079638099522 0 0.0004508787601365771 0.0025726764327612694 0 0.00044832628866283873 0.0025804766019210442 0 0.00026551008162367635 0.0024397887080116094 0 0.00031046449474341408 0.00248458694613681 0 0.00026387179275802795 0.0025019840181633437 0 0.00022684842767734529 0.0024787450925643027 0 0.00026551008162367635 0.0024397887080116094 0 0.00026387179275802795 0.0025019840181633437 0 0.00020714557446806169 0.0022758542025704152 0 0.00017854719386569179 0.0023332179151791701 0 0.00024195312142380538 0.0023905969347163694 0 0.00029283780588510621 0.0022899629698446911 0 0.00024195312142380538 0.0023905969347163694 0 0.00033262211919307438 0.002425026951959351 0 0.0002842860518513338 0.0024299107195044933 0 0.0003191552800835764 0.0024191231312173959 0 0.00026551008162367635 0.0024397887080116094 0 0.00031046449474341408 0.00248458694613681 0 0.00033262211919307438 0.002425026951959351 0 0.00031046449474341408 0.00248458694613681 0 0.00036917548314216854 0.0024800233153913181 0 0.00035031857921905571 0.0025187042692740667 0 0.00031046449474341408 0.00248458694613681 0 0.00033262211919307438 0.002425026951959351 0 0.00036917548314216854 0.0024800233153913181 0 0.00036518580886446523 0.0023816110989424663 0 0.00040003032577422222 0.0024417144427734384 0 0.00036917548314216854 0.0024800233153913181 0 0.00036518580886446523 0.0023816110989424663 0 0.00033262211919307438 0.002425026951959351 0 0.00036917548314216854 0.0024800233153913181 0 0.0003968876183505516 0.0025353385254814629 0 0.00036917548314216854 0.0024800233153913181 0 0.00035031857921905571 0.0025187042692740667 0 0.0003968876183505516 0.0025353385254814629 0 0.00037162894485643906 0.0025434578589985713 0 0.00035031857921905571 0.0025187042692740667 0 0.00039818714081730924 0.0025604591327817675 0 0.00037162894485643906 0.0025434578589985713 0 0.00035477131059921191 0.0025526914873830846 0 0.00037162894485643906 0.0025434578589985713 0 0.00033800936304594168 0.0025403462526853216 0 0.00035477131059921191 0.0025526914873830846 0 0.00037162894485643906 0.0025434578589985713 0 0.00033800936304594168 0.0025403462526853216 0 0.00035031857921905571 0.0025187042692740667 0 0.00033800936304594168 0.0025403462526853216 0 0.00035031857921905571 0.0025187042692740667 0 0.00030549408554197418 0.0025351082924145668 0 0.00031046449474341408 0.00248458694613681 0 0.00035031857921905571 0.0025187042692740667 0 0.00030549408554197418 0.0025351082924145668 0 0.00031046449474341408 0.00248458694613681 0 0.00030549408554197418 0.0025351082924145668 0 0.00026387179275802795 0.0025019840181633437 0 0.00033800936304594168 0.0025403462526853216 0 0.00030549408554197418 0.0025351082924145668 0 0.00031594530442722246 0.0025439365438729412 0 0.00030549408554197418 0.0025351082924145668 0 0.00031448950293099128 0.0025383917956928229 0 0.00031594530442722246 0.0025439365438729412 0 0.00033048660947872802 0.0025362789624528456 0 0.00031448950293099128 0.0025383917956928229 0 0.00032292119862006684 0.0025462563329542755 0 0.00030549408554197418 0.0025351082924145668 0 0.00031448950293099128 0.0025383917956928229 0 0.00032292119862006684 0.0025462563329542755 0 0.00030404220715455347 0.0025369808625459876 0 0.00028690801715246526 0.0025489797052559702 0 0.00030549408554197418 0.0025351082924145668 0 0.00024457933531403829 0.002545508464166576 0 0.00026387179275802795 0.0025019840181633437 0 0.00021529263292613607 0.0025236806687444703 0 0.00024457933531403829 0.002545508464166576 0 0.00026387179275802795 0.0025019840181633437 0 0.00033585011935091224 0.0025002111393478766 0 0.00032013847887565173 0.0025296600512753516 0 0.00031742808263906781 0.0024964142788997776 0 0.00032013847887565173 0.0025296600512753516 0 0.00030433369140439495 0.0025346684481161079 0 0.00031742808263906781 0.0024964142788997776 0 0.00033048660947872802 0.0025362789624528456 0 0.00031448950293099128 0.0025383917956928229 0 0.00032013847887565173 0.0025296600512753516 0 0.00031448950293099128 0.0025383917956928229 0 0.00032013847887565173 0.0025296600512753516 0 0.00031594530442722246 0.0025439365438729412 0 0.00032013847887565173 0.0025296600512753516 0 0.00031594530442722246 0.0025439365438729412 0 0.00030433369140439495 0.0025346684481161079 0 0.00030433369140439495 0.0025346684481161079 0 0.00033680866178439456 0.002556313224289032 0 0.00035766849654932721 0.0025915502238681638 0 0.00031594530442722246 0.0025439365438729412 0 0.00030433369140439495 0.0025346684481161079 0 0.00033680866178439456 0.002556313224289032 0 0.00033800936304594168 0.0025403462526853216 0 0.00031594530442722246 0.0025439365438729412 0 0.00035477131059921191 0.0025526914873830846 0 0.00031594530442722246 0.0025439365438729412 0 0.00033680866178439456 0.002556313224289032 0 0.00035477131059921191 0.0025526914873830846 0 0.00033680866178439456 0.002556313224289032 0 0.00035477131059921191 0.0025526914873830846 0 0.00038793323132650274 0.0025738647057737918 0 0.00033680866178439456 0.002556313224289032 0 0.00035766849654932721 0.0025915502238681638 0 0.00038793323132650274 0.0025738647057737918 0 0.00025189585473100258 0.0025183881835984813 0 0.00026254383975040914 0.0024809481773899545 0 0.00023549805800064544 0.002490398765078125 0 0.00026254383975040914 0.0024809481773899545 0 0.00023549805800064544 0.002490398765078125 0 0.00023790704900610702 0.0024682377733923956 0 0.00026254383975040914 0.0024809481773899545 0 0.00029705929882622062 0.0024773341580432593 0 0.00027973440858138819 0.0024427505922624102 0 0.00030433369140439495 0.0025346684481161079 0 0.00026254383975040914 0.0024809481773899545 0 0.00029705929882622062 0.0024773341580432593 0 0.00030633342441711831 0.0025392539055860311 0 0.00030757079936417697 0.0025542699288255669 0 0.00030433369140439495 0.0025346684481161079 0 0.00025189585473100258 0.0025183881835984813 0 0.00026254383975040914 0.0024809481773899545 0 0.00030433369140439495 0.0025346684481161079 0 0.00029705929882622062 0.0024773341580432593 0 0.00031742808263906781 0.0024964142788997776 0 0.00029705929882622062 0.0024773341580432593 0 0.00031742808263906781 0.0024964142788997776 0 0.00032068686835811028 0.0024437555987531765 0 0.00034032270493146606 0.0024555633783277459 0 0.00031742808263906781 0.0024964142788997776 0 0.00032068686835811028 0.0024437555987531765 0 0.00036922013862662582 0.002784273141383342 0 0.00032230238400098547 0.002995481248776593 0 0.00043337642550776977 0.0029013604784789483 0 0.00043556351697482691 0.0025832473385246865 0 0.0004256823612873943 0.0025921904685411753 0 0.00043261109193151249 0.0026115189414858495 0 0.00040870030994130397 0.0027138473036207775 0 0.00031259564197929767 0.0026670544785841401 0 0.00043556351697482691 0.0025832473385246865 0 0.0004256823612873943 0.0025921904685411753 0 0.00042925036374753296 0.002582887266335869 0 0.00054047330961191193 0.0028883887400265058 0 0.00047749764209646287 0.0027997601270706974 0 0.00043337642550776977 0.0029013604784789483 0 0.00036922013862662582 0.002784273141383342 0 0.00047749764209646287 0.0027997601270706974 0 0.00043337642550776977 0.0029013604784789483 0 0.00059664124888732337 0.0027280148352524076 0 0.00047749764209646287 0.0027997601270706974 0 0.00044411882925763496 0.0026972090002234722 0 0.00043566898930841536 0.0025954174450138305 0 0.00036922013862662582 0.002784273141383342 0 0.00044411882925763496 0.0026972090002234722 0 0.00043151793441878 0.0025890120953645903 0 0.00040870030994130397 0.0027138473036207775 0 0.00036922013862662582 0.002784273141383342 0 0.00047749764209646287 0.0027997601270706974 0 0.00044411882925763496 0.0026972090002234722 0 0.00043566898930841536 0.0025954174450138305 0 0.00043556351697482691 0.0025832473385246865 0 0.00043599719470374307 0.002582921938063689 0 0.00043556351697482691 0.0025832473385246865 0 0.00042925036374753296 0.002582887266335869 0 0.00043599719470374307 0.002582921938063689 0 0.00042925036374753296 0.002582887266335869 0 0.00043599719470374307 0.002582921938063689 0 0.00042339626030370024 0.0025749169113805002 0 0.00042339626030370024 0.0025749169113805002 0 0.00038793323132650274 0.0025738647057737918 0 0.00041628317121073584 0.0025846521360483169 0 0.00042925036374753296 0.002582887266335869 0 0.00042339626030370024 0.0025749169113805002 0 0.00041628317121073584 0.0025846521360483169 0 0.00039818714081730924 0.0025604591327817675 0 0.00042339626030370024 0.0025749169113805002 0 0.00038793323132650274 0.0025738647057737918 0 0.00039818714081730924 0.0025604591327817675 0 0.00035477131059921191 0.0025526914873830846 0 0.00038793323132650274 0.0025738647057737918 0 0.00035766849654932721 0.0025915502238681638 0 0.00038793323132650274 0.0025738647057737918 0 0.00040325002194654849 0.0026069453536718061 0 0.00038793323132650274 0.0025738647057737918 0 0.00041628317121073584 0.0025846521360483169 0 0.00040325002194654849 0.0026069453536718061 0 0.0004256823612873943 0.0025921904685411753 0 0.00041628317121073584 0.0025846521360483169 0 0.00040325002194654849 0.0026069453536718061 0 0.0004256823612873943 0.0025921904685411753 0 0.00042925036374753296 0.002582887266335869 0 0.00041628317121073584 0.0025846521360483169 0 0.0004256823612873943 0.0025921904685411753 0 0.00040325002194654849 0.0026069453536718061 0 0.00043261109193151249 0.0026115189414858495 0 0.00031113121974830958 0.0025441167386977565 0 0.00031259564197929767 0.0026670544785841401 0 0.00022193347439173589 0.002505135922101929 0 0.00021540776825027777 0.0024914805461356531 0 0.00020087665919253967 0.0024993197211334627 0 0.00025189585473100258 0.0025183881835984813 0 0.00022193347439173589 0.002505135922101929 0 0.00023549805800064544 0.002490398765078125 0 0.00022193347439173589 0.002505135922101929 0 0.00023549805800064544 0.002490398765078125 0 0.00021540776825027777 0.0024914805461356531 0 0.00030757079936417697 0.0025542699288255669 0 0.00031113121974830958 0.0025441167386977565 0 0.00023549805800064544 0.002490398765078125 0 0.00021540776825027777 0.0024914805461356531 0 0.00021879703527378521 0.0024779999412050751 0 0.00023549805800064544 0.002490398765078125 0 0.00021879703527378521 0.0024779999412050751 0 0.00023790704900610702 0.0024682377733923956 0 0.00021540776825027777 0.0024914805461356531 0 0.0002041818164222869 0.0024845275827544118 0 0.00021879703527378521 0.0024779999412050751 0 0.00020672093161037356 0.0024944437101276757 0 0.00020459680134089444 0.0025061349846635457 0 0.00019572669962296949 0.0024940947240289757 0 0.00021540776825027777 0.0024914805461356531 0 0.0002041818164222869 0.0024845275827544118 0 0.00020087665919253967 0.0024993197211334627 0 0.00021371594245269811 0.0024682855167225304 0 0.00031259564197929767 0.0026670544785841401 0 0.00020672093161037356 0.0024944437101276757 0 0.00019572669962296949 0.0024940947240289757 0 0.00019942018108833566 0.0024859089649455347 0 0.0003511997526711304 0.0027785338273937422 0 0.00031259564197929767 0.0026670544785841401 0 0.00053008953981024834 0.0030382541762978155 0 0.00032230238400098547 0.002995481248776593 0 0.00043337642550776977 0.0029013604784789483 0 0.00053008953981024834 0.0030382541762978155 0 0.00054047330961191193 0.0028883887400265058 0 0.00043337642550776977 0.0029013604784789483 0 0.00018949994896767667 0.0025008643742804207 0 0.00020459680134089444 0.0025061349846635457 0 0.00019572669962296949 0.0024940947240289757 0 0.00018949994896767667 0.0025008643742804207 0 0.00019572669962296949 0.0024940947240289757 0 0.00018813064425985405 0.0024925675679515966 0 0.00019572669962296949 0.0024940947240289757 0 0.00019233925620139365 0.0024872049303126904 0 0.00018813064425985405 0.0024925675679515966 0 0.00019572669962296949 0.0024940947240289757 0 0.00019233925620139365 0.0024872049303126904 0 0.00019942018108833566 0.0024859089649455347 0 0.00019233925620139365 0.0024872049303126904 0 0.00019800519208766957 0.0024768212818713649 0 0.00019942018108833566 0.0024859089649455347 0 0.00019233925620139365 0.0024872049303126904 0 0.00019117133783920818 0.0024826258136695467 0 0.00018642704352267727 0.0024891240002903881 0 0.00019233925620139365 0.0024872049303126904 0 0.00019117133783920818 0.0024826258136695467 0 0.00019800519208766957 0.0024768212818713649 0 0.00019117133783920818 0.0024826258136695467 0 0.00019800519208766957 0.0024768212818713649 0 0.0001948900114885372 0.0024735072601149754 0 0.00019117133783920818 0.0024826258136695467 0 0.0001948900114885372 0.0024735072601149754 0 0.00018648001349100138 0.0024849305573112967 0 0.00019800519208766957 0.0024768212818713649 0 0.00020797125994470903 0.0024607446233797783 0 0.0001948900114885372 0.0024735072601149754 0 0.00019800519208766957 0.0024768212818713649 0 0.00020747826236524466 0.0024755165965600406 0 0.00020797125994470903 0.0024607446233797783 0 0.00021371594245269811 0.0024682855167225304 0 0.00020608721749830155 0.0024846206265454617 0 0.00020672093161037356 0.0024944437101276757 0 0.00020747826236524466 0.0024755165965600406 0 0.00019942018108833566 0.0024859089649455347 0 0.00019800519208766957 0.0024768212818713649 0 0.00020747826236524466 0.0024755165965600406 0 0.00019942018108833566 0.0024859089649455347 0 0.00020747826236524466 0.0024755165965600406 0 0.00021879703527378521 0.0024779999412050751 0 0.00022264692010485614 0.0024591570217694161 0 0.0002041818164222869 0.0024845275827544118 0 0.00020747826236524466 0.0024755165965600406 0 0.00021879703527378521 0.0024779999412050751 0 0.00021879703527378521 0.0024779999412050751 0 0.00023790704900610702 0.0024682377733923956 0 0.00022264692010485614 0.0024591570217694161 0 0.00022264692010485614 0.0024591570217694161 0 0.00022505620735636719 0.0024255588651132861 0 0.00024798357679037259 0.0024421512775890195 0 0.00023790704900610702 0.0024682377733923956 0 0.00022264692010485614 0.0024591570217694161 0 0.00024798357679037259 0.0024421512775890195 0 0.00020747826236524466 0.0024755165965600406 0 0.00022264692010485614 0.0024591570217694161 0 0.00020797125994470903 0.0024607446233797783 0 0.00020797125994470903 0.0024607446233797783 0 0.00022505620735636719 0.0024255588651132861 0 0.00020602219683629004 0.002449999049089564 0 0.00022264692010485614 0.0024591570217694161 0 0.00020797125994470903 0.0024607446233797783 0 0.00022505620735636719 0.0024255588651132861 0 0.00022505620735636719 0.0024255588651132861 0 0.00024953114554513019 0.002397897606151788 0 0.00022867948004242557 0.0023795648902407429 0 0.00022505620735636719 0.0024255588651132861 0 0.00019129261052137434 0.0023940884880394096 0 0.00022867948004242557 0.0023795648902407429 0 0.00022329607044544505 0.0024293045846573535 0 0.00018980878351202652 0.0024438162737904848 0 0.00022505620735636719 0.0024255588651132861 0 0.00017162071598664591 0.0024384379719830872 0 0.00019129261052137434 0.0023940884880394096 0 0.00018980878351202652 0.0024438162737904848 0 0.00015615440553577495 0.0024615824529069805 0 0.00017162071598664591 0.0024384379719830872 0 0.00015195689847060897 0.0024154711264869847 0 0.00019129261052137434 0.0023940884880394096 0 0.00017162071598664591 0.0024384379719830872 0 0.00015195689847060897 0.0024154711264869847 0 0.00011825670037238465 0.0024533856956068067 0 0.00015195689847060897 0.0024154711264869847 0 0.00011825670037238465 0.0024533856956068067 0 0.00012374092106729994 0.0024114958126416411 0 0.00011825670037238465 0.0024533856956068067 0 0.00012374092106729994 0.0024114958126416411 0 9.6250131989715498e-05 0.0024320010284042564 0 0.00020602219683629004 0.002449999049089564 0 0.0001943490672363024 0.0024709312942746333 0 0.0001948900114885372 0.0024735072601149754 0 0.0001943490672363024 0.0024709312942746333 0 0.0001948900114885372 0.0024735072601149754 0 0.000184492600664768 0.0024855465149223452 0 0.0001948900114885372 0.0024735072601149754 0 0.00018648001349100138 0.0024849305573112967 0 0.000184492600664768 0.0024855465149223452 0 0.00020797125994470903 0.0024607446233797783 0 0.00020602219683629004 0.002449999049089564 0 0.0001948900114885372 0.0024735072601149754 0 0.00031470664074412095 0.0024113106897632763 0 0.00032068686835811028 0.0024437555987531765 0 0.00027973440858138819 0.0024427505922624102 0 0.00029705929882622062 0.0024773341580432593 0 0.00032068686835811028 0.0024437555987531765 0 0.00027973440858138819 0.0024427505922624102 0 0.00031470664074412095 0.0024113106897632763 0 0.00027973440858138819 0.0024427505922624102 0 0.0002922937280105537 0.0024086618726253026 0 0.00027973440858138819 0.0024427505922624102 0 0.00026536796630030059 0.002415296994290485 0 0.0002922937280105537 0.0024086618726253026 0 0.00027973440858138819 0.0024427505922624102 0 0.00024798357679037259 0.0024421512775890195 0 0.00026536796630030059 0.002415296994290485 0 0.00023790704900610702 0.0024682377733923956 0 0.00027973440858138819 0.0024427505922624102 0 0.00024798357679037259 0.0024421512775890195 0 0.00026254383975040914 0.0024809481773899545 0 0.00023790704900610702 0.0024682377733923956 0 0.00027973440858138819 0.0024427505922624102 0 0.00022505620735636719 0.0024255588651132861 0 0.00024798357679037259 0.0024421512775890195 0 0.00026536796630030059 0.002415296994290485 0 0.00022505620735636719 0.0024255588651132861 0 0.00024953114554513019 0.002397897606151788 0 0.00026536796630030059 0.002415296994290485 0 0.00024953114554513019 0.002397897606151788 0 0.00026536796630030059 0.002415296994290485 0 0.00028397574973286564 0.0023896371600396751 0 0.00024953114554513019 0.002397897606151788 0 0.00028397574973286564 0.0023896371600396751 0 0.00026547361311635078 0.0023649983443465514 0 0.00026536796630030059 0.002415296994290485 0 0.0002922937280105537 0.0024086618726253026 0 0.00028397574973286564 0.0023896371600396751 0 0.00031470664074412095 0.0024113106897632763 0 0.0002922937280105537 0.0024086618726253026 0 0.00031581515233800224 0.00237850806159553 0 0.00028397574973286564 0.0023896371600396751 0 0.00031581515233800224 0.00237850806159553 0 0.0002960254627606088 0.0023647567275239772 0 0.0002922937280105537 0.0024086618726253026 0 0.00028397574973286564 0.0023896371600396751 0 0.00031581515233800224 0.00237850806159553 0 0.00032128716525302043 0.0023470882525746849 0 0.00029169257559599933 0.0023383823179515847 0 0.00032672004693758524 0.0023056229273347539 0 0.00031581515233800224 0.00237850806159553 0 0.00032128716525302043 0.0023470882525746849 0 0.0002960254627606088 0.0023647567275239772 0 0.00032128716525302043 0.0023470882525746849 0 0.0002960254627606088 0.0023647567275239772 0 0.00029169257559599933 0.0023383823179515847 0 0.0002960254627606088 0.0023647567275239772 0 0.00029169257559599933 0.0023383823179515847 0 0.00026547361311635078 0.0023649983443465514 0 0.00029169257559599933 0.0023383823179515847 0 0.00025802405393509953 0.0023391534777952227 0 0.00028451646547679444 0.0023084745415249924 0 0.00029169257559599933 0.0023383823179515847 0 0.00025802405393509953 0.0023391534777952227 0 0.00026547361311635078 0.0023649983443465514 0 0.00028397574973286564 0.0023896371600396751 0 0.0002960254627606088 0.0023647567275239772 0 0.00026547361311635078 0.0023649983443465514 0 0.00026547361311635078 0.0023649983443465514 0 0.00023898035347771454 0.0023498211733688754 0 0.00022867948004242557 0.0023795648902407429 0 0.00024953114554513019 0.002397897606151788 0 0.00026547361311635078 0.0023649983443465514 0 0.00022867948004242557 0.0023795648902407429 0 0.00025802405393509953 0.0023391534777952227 0 0.00026547361311635078 0.0023649983443465514 0 0.00023898035347771454 0.0023498211733688754 0 0.00025802405393509953 0.0023391534777952227 0 0.00023898035347771454 0.0023498211733688754 0 0.00023068783480858273 0.0023286542852946767 0 0.00025970676068685466 0.0023017704417909735 0 0.00022753239825241574 0.0023267870028358473 0 0.00025802405393509953 0.0023391534777952227 0 0.00026224612009520656 0.0023055111113374346 0 0.00023068783480858273 0.0023286542852946767 0 0.00022689296574933532 0.0023008620823526411 0 0.00025532625471325922 0.0022991034533448554 0 0.00022499998819451673 0.0023241018998107501 0 0.00025701711686766882 0.0023111154700312334 0 0.00027339546584656001 0.0022759185674898355 0 0.00023872763641509772 0.0022802086699893432 0 0.00025701711686766882 0.0023111154700312334 0 0.00027339546584656001 0.0022759185674898355 0 0.00031513804372136595 0.0022760840030161896 0 0.00022689296574933532 0.0023008620823526411 0 0.0002572094539966661 0.0022635333450807494 0 0.00025532625471325922 0.0022991034533448554 0 0.0002432496009447912 0.0023054937186025707 0 0.00028455608658274048 0.0022718080893994494 0 0.00025280603489134898 0.0022421717646105587 0 0.00027339546584656001 0.0022759185674898355 0 0.00023872763641509772 0.0022802086699893432 0 0.0002572094539966661 0.0022635333450807494 0 0.00025532625471325922 0.0022991034533448554 0 0.00029519508373498042 0.0022765943230323555 0 0.00025802405393509953 0.0023391534777952227 0 0.00026224612009520656 0.0023055111113374346 0 0.00028451646547679444 0.0023084745415249924 0 0.00029169257559599933 0.0023383823179515847 0 0.00028451646547679444 0.0023084745415249924 0 0.00032672004693758524 0.0023056229273347539 0 0.00026224612009520656 0.0023055111113374346 0 0.00028451646547679444 0.0023084745415249924 0 0.00029519508373498042 0.0022765943230323555 0 0.00025970676068685466 0.0023017704417909735 0 0.00029357895827280688 0.0022797042875066652 0 0.00028451646547679444 0.0023084745415249924 0 0.00029519508373498042 0.0022765943230323555 0 0.00032672004693758524 0.0023056229273347539 0 0.00029543839176748431 0.0022222356771594374 0 0.0002572094539966661 0.0022635333450807494 0 0.00029519508373498042 0.0022765943230323555 0 0.00029543839176748431 0.0022222356771594374 0 0.00029519508373498042 0.0022765943230323555 0 0.0003116707715588666 0.0022467641499205331 0 0.000354037862051199 0.0022614488127536791 0 0.00032388585508008442 0.0022627584245346762 0 0.00032672004693758524 0.0023056229273347539 0 0.00029519508373498042 0.0022765943230323555 0 0.0003116707715588666 0.0022467641499205331 0 0.00032388585508008442 0.0022627584245346762 0 0.00033303415048376603 0.0022246983705598872 0 0.0003116707715588666 0.0022467641499205331 0 0.00032388585508008442 0.0022627584245346762 0 0.000354037862051199 0.0022614488127536791 0 0.00033303415048376603 0.0022246983705598872 0 0.00032388585508008442 0.0022627584245346762 0 0.00029519508373498042 0.0022765943230323555 0 0.00032388585508008442 0.0022627584245346762 0 0.00032672004693758524 0.0023056229273347539 0 0.00015279571763639134 0.0023801240654711176 0 0.00019956454148426636 0.0023538654078253418 0 0.00018206770886196081 0.0023375907304721026 0 0.00015607604187077182 0.0023767163382849886 0 0.00019542566645107154 0.0023529223328033139 0 0.00015279571763639134 0.0023801240654711176 0 0.00013173478218417539 0.0023484558453187262 0 0.00015943997686507694 0.0023271654205079058 0 0.00015279571763639134 0.0023801240654711176 0 0.00018206770886196081 0.0023375907304721026 0 0.00015943997686507694 0.0023271654205079058 0 0.00015279571763639134 0.0023801240654711176 0 0.00013173478218417539 0.0023484558453187262 0 0.00011379890118525523 0.0023764985610011187 0 0.00013173478218417539 0.0023484558453187262 0 0.00011379890118525523 0.0023764985610011187 0 0.00010008605061187426 0.0023413516889285264 0 0.00015279571763639134 0.0023801240654711176 0 0.00011379890118525523 0.0023764985610011187 0 0.00012374092106729994 0.0024114958126416411 0 0.00015195689847060897 0.0024154711264869847 0 0.00015279571763639134 0.0023801240654711176 0 0.00012374092106729994 0.0024114958126416411 0 0.00015195689847060897 0.0024154711264869847 0 0.00015279571763639134 0.0023801240654711176 0 0.00019129261052137434 0.0023940884880394096 0 0.00019129261052137434 0.0023940884880394096 0 0.00020698159551606958 0.0023708074633923986 0 0.00019416911025705891 0.0023514256345353885 0 0.00015279571763639134 0.0023801240654711176 0 0.00019129261052137434 0.0023940884880394096 0 0.00019416911025705891 0.0023514256345353885 0 0.00019129261052137434 0.0023940884880394096 0 0.00022867948004242557 0.0023795648902407429 0 0.00020698159551606958 0.0023708074633923986 0 0.00022867948004242557 0.0023795648902407429 0 0.00020698159551606958 0.0023708074633923986 0 0.00021926273333331339 0.0023560259873491272 0 0.00021926273333331339 0.0023560259873491272 0 0.00019416911025705891 0.0023514256345353885 0 0.00023068783480858273 0.0023286542852946767 0 0.00019542566645107154 0.0023529223328033139 0 0.00022753239825241574 0.0023267870028358473 0 0.00019956454148426636 0.0023538654078253418 0 0.00020432379640954954 0.0023404562782504568 0 0.00022499998819451673 0.0023241018998107501 0 0.00023898035347771454 0.0023498211733688754 0 0.00022867948004242557 0.0023795648902407429 0 0.00021926273333331339 0.0023560259873491272 0 0.00020698159551606958 0.0023708074633923986 0 0.00021926273333331339 0.0023560259873491272 0 0.00019416911025705891 0.0023514256345353885 0 0.00023898035347771454 0.0023498211733688754 0 0.00021926273333331339 0.0023560259873491272 0 0.00023068783480858273 0.0023286542852946767 0 0.00019956454148426636 0.0023538654078253418 0 0.00020432379640954954 0.0023404562782504568 0 0.00018206770886196081 0.0023375907304721026 0 0.00020432379640954954 0.0023404562782504568 0 0.00019015570690926557 0.0023195009773267169 0 0.00021291549930820152 0.0022987526503703607 0 0.00019015570690926557 0.0023195009773267169 0 0.00021291549930820152 0.0022987526503703607 0 0.00017132003512624954 0.0022968532744214731 0 0.00020432379640954954 0.0023404562782504568 0 0.00018206770886196081 0.0023375907304721026 0 0.00019015570690926557 0.0023195009773267169 0 0.00025701711686766882 0.0023111154700312334 0 0.00020432379640954954 0.0023404562782504568 0 0.00021291549930820152 0.0022987526503703607 0 0.0002432496009447912 0.0023054937186025707 0 0.00020688153855787 0.0023368240246855808 0 0.00022689296574933532 0.0023008620823526411 0 0.00020432379640954954 0.0023404562782504568 0 0.00022499998819451673 0.0023241018998107501 0 0.00019178378737041917 0.0022596346729356321 0 0.00023872763641509772 0.0022802086699893432 0 0.00021291549930820152 0.0022987526503703607 0 0.00025701711686766882 0.0023111154700312334 0 0.00023872763641509772 0.0022802086699893432 0 0.00021291549930820152 0.0022987526503703607 0 0.00019178378737041917 0.0022596346729356321 0 0.00021291549930820152 0.0022987526503703607 0 0.00017132003512624954 0.0022968532744214731 0 0.00019178378737041917 0.0022596346729356321 0 0.00017132003512624954 0.0022968532744214731 0 0.00013170777873003394 0.0022706026598821229 0 0.00017132003512624954 0.0022968532744214731 0 0.00013049537598876232 0.0023147347885414372 0 0.00013170777873003394 0.0022706026598821229 0 0.00017132003512624954 0.0022968532744214731 0 0.00015943997686507694 0.0023271654205079058 0 0.00013049537598876232 0.0023147347885414372 0 0.00019015570690926557 0.0023195009773267169 0 0.00017132003512624954 0.0022968532744214731 0 0.00015943997686507694 0.0023271654205079058 0 0.00018206770886196081 0.0023375907304721026 0 0.00019015570690926557 0.0023195009773267169 0 0.00015943997686507694 0.0023271654205079058 0 0.00013049537598876232 0.0023147347885414372 0 9.2337218722635795e-05 0.0023082843905653959 0 0.00010008605061187426 0.0023413516889285264 0 0.00013173478218417539 0.0023484558453187262 0 0.00013049537598876232 0.0023147347885414372 0 0.00010008605061187426 0.0023413516889285264 0 0.00013173478218417539 0.0023484558453187262 0 0.00015943997686507694 0.0023271654205079058 0 0.00013049537598876232 0.0023147347885414372 0 0.00013049537598876232 0.0023147347885414372 0 0.00013170777873003394 0.0022706026598821229 0 9.2337218722635795e-05 0.0023082843905653959 0 0.00013170777873003394 0.0022706026598821229 0 8.2705965826946281e-05 0.0022700661438234413 0 9.2337218722635795e-05 0.0023082843905653959 0 8.2705965826946281e-05 0.0022700661438234413 0 9.2337218722635795e-05 0.0023082843905653959 0 5.8456561141409059e-05 0.002309899233910635 0 8.2705965826946281e-05 0.0022700661438234413 0 4.0693033658229136e-05 0.0022827824751549632 0 5.8456561141409059e-05 0.002309899233910635 0 4.0693033658229136e-05 0.0022827824751549632 0 5.8456561141409059e-05 0.002309899233910635 0 3.2827671234830789e-05 0.0023160959294232062 0 3.2827671234830789e-05 0.0023160959294232062 0 4.5748614504318154e-05 0.0023329425375896314 0 2.4912346140910579e-05 0.0023402766701333369 0 5.8456561141409059e-05 0.002309899233910635 0 3.2827671234830789e-05 0.0023160959294232062 0 4.5748614504318154e-05 0.0023329425375896314 0 5.8456561141409059e-05 0.002309899233910635 0 4.5748614504318154e-05 0.0023329425375896314 0 6.7277902704443964e-05 0.002338248378384809 0 4.5748614504318154e-05 0.0023329425375896314 0 6.7277902704443964e-05 0.002338248378384809 0 4.4520118306982145e-05 0.002360494322536961 0 6.7277902704443964e-05 0.002338248378384809 0 7.8581667465287331e-05 0.0023690296606308676 0 4.4520118306982145e-05 0.002360494322536961 0 4.5748614504318154e-05 0.0023329425375896314 0 4.4520118306982145e-05 0.002360494322536961 0 2.4912346140910579e-05 0.0023402766701333369 0 9.2337218722635795e-05 0.0023082843905653959 0 5.8456561141409059e-05 0.002309899233910635 0 6.7277902704443964e-05 0.002338248378384809 0 9.2337218722635795e-05 0.0023082843905653959 0 6.7277902704443964e-05 0.002338248378384809 0 0.00010008605061187426 0.0023413516889285264 0 6.7277902704443964e-05 0.002338248378384809 0 0.00010008605061187426 0.0023413516889285264 0 7.8581667465287331e-05 0.0023690296606308676 0 0.00011379890118525523 0.0023764985610011187 0 0.00010008605061187426 0.0023413516889285264 0 7.8581667465287331e-05 0.0023690296606308676 0 0.00011379890118525523 0.0023764985610011187 0 7.8581667465287331e-05 0.0023690296606308676 0 9.0055665107249838e-05 0.0024043099968860376 0 7.8581667465287331e-05 0.0023690296606308676 0 5.7991211594522937e-05 0.0023984774984131749 0 9.0055665107249838e-05 0.0024043099968860376 0 7.8581667465287331e-05 0.0023690296606308676 0 4.4520118306982145e-05 0.002360494322536961 0 5.7991211594522937e-05 0.0023984774984131749 0 4.4520118306982145e-05 0.002360494322536961 0 5.7991211594522937e-05 0.0023984774984131749 0 2.5887214720316405e-05 0.0023896530913555137 0 5.7991211594522937e-05 0.0023984774984131749 0 6.836948841553433e-05 0.002436438598912362 0 9.0055665107249838e-05 0.0024043099968860376 0 5.7991211594522937e-05 0.0023984774984131749 0 3.6138141528560022e-05 0.002427252826951976 0 2.5887214720316405e-05 0.0023896530913555137 0 5.7991211594522937e-05 0.0023984774984131749 0 6.836948841553433e-05 0.002436438598912362 0 3.6138141528560022e-05 0.002427252826951976 0 6.836948841553433e-05 0.002436438598912362 0 3.6138141528560022e-05 0.002427252826951976 0 3.8317249191835277e-05 0.0024594543340704764 0 6.836948841553433e-05 0.002436438598912362 0 9.0055665107249838e-05 0.0024043099968860376 0 9.6250131989715498e-05 0.0024320010284042564 0 0.00011379890118525523 0.0023764985610011187 0 0.00012374092106729994 0.0024114958126416411 0 9.0055665107249838e-05 0.0024043099968860376 0 0.00012374092106729994 0.0024114958126416411 0 9.0055665107249838e-05 0.0024043099968860376 0 9.6250131989715498e-05 0.0024320010284042564 0 -4.6912116795368781e-05 0.0024317362687952 0 5.8170706638098674e-06 0.0024559520258696042 0 -4.1320042454084489e-05 0.0024915940005447979 0 -4.6912116795368781e-05 0.0024317362687952 0 5.8170706638098674e-06 0.0024559520258696042 0 3.7836041719992231e-08 0.0024134472096129867 0 5.8170706638098674e-06 0.0024559520258696042 0 3.6138141528560022e-05 0.002427252826951976 0 3.8317249191835277e-05 0.0024594543340704764 0 3.6138141528560022e-05 0.002427252826951976 0 3.7836041719992231e-08 0.0024134472096129867 0 2.5887214720316405e-05 0.0023896530913555137 0 5.8170706638098674e-06 0.0024559520258696042 0 3.6138141528560022e-05 0.002427252826951976 0 3.7836041719992231e-08 0.0024134472096129867 0 3.7836041719992231e-08 0.0024134472096129867 0 2.5887214720316405e-05 0.0023896530913555137 0 -3.402720951333631e-06 0.0023773594669874148 0 4.4520118306982145e-05 0.002360494322536961 0 2.5887214720316405e-05 0.0023896530913555137 0 1.6964384032616368e-05 0.0023632200710329196 0 2.5887214720316405e-05 0.0023896530913555137 0 1.6964384032616368e-05 0.0023632200710329196 0 -3.402720951333631e-06 0.0023773594669874148 0 -3.402720951333631e-06 0.0023773594669874148 0 -3.4699416921771027e-05 0.0023864103453791617 0 -2.8339164657580506e-05 0.0023502640641660708 0 -4.6912116795368781e-05 0.0024317362687952 0 3.7836041719992231e-08 0.0024134472096129867 0 -3.4699416921771027e-05 0.0023864103453791617 0 3.7836041719992231e-08 0.0024134472096129867 0 -3.402720951333631e-06 0.0023773594669874148 0 -3.4699416921771027e-05 0.0023864103453791617 0 -4.6912116795368781e-05 0.0024317362687952 0 -3.4699416921771027e-05 0.0023864103453791617 0 -6.9294010246710196e-05 0.0023883274303434145 0 -3.4699416921771027e-05 0.0023864103453791617 0 -6.1140919413657621e-05 0.0023591445179852941 0 -6.9294010246710196e-05 0.0023883274303434145 0 -2.8339164657580506e-05 0.0023502640641660708 0 -5.3081144993943286e-05 0.0023355783369149131 0 -6.1140919413657621e-05 0.0023591445179852941 0 -3.4699416921771027e-05 0.0023864103453791617 0 -2.8339164657580506e-05 0.0023502640641660708 0 -6.1140919413657621e-05 0.0023591445179852941 0 -3.402720951333631e-06 0.0023773594669874148 0 -2.8339164657580506e-05 0.0023502640641660708 0 5.1455361106175112e-07 0.0023425319618556525 0 -2.8339164657580506e-05 0.0023502640641660708 0 -1.7865815230862694e-05 0.0023293347498012026 0 5.1455361106175112e-07 0.0023425319618556525 0 -2.8339164657580506e-05 0.0023502640641660708 0 -1.7865815230862694e-05 0.0023293347498012026 0 -3.5846834969393325e-05 0.0023211314827606949 0 -1.7865815230862694e-05 0.0023293347498012026 0 -5.9277972445136179e-06 0.0023165857704307703 0 -2.1799016169234655e-05 0.0023151191630674316 0 -1.7865815230862694e-05 0.0023293347498012026 0 -3.5846834969393325e-05 0.0023211314827606949 0 -2.1799016169234655e-05 0.0023151191630674316 0 -2.8339164657580506e-05 0.0023502640641660708 0 -3.5846834969393325e-05 0.0023211314827606949 0 -5.3081144993943286e-05 0.0023355783369149131 0 -3.5846834969393325e-05 0.0023211314827606949 0 -5.3081144993943286e-05 0.0023355783369149131 0 -5.9441365684781923e-05 0.0023130723309722824 0 1.6964384032616368e-05 0.0023632200710329196 0 2.4912346140910579e-05 0.0023402766701333369 0 5.1455361106175112e-07 0.0023425319618556525 0 4.4520118306982145e-05 0.002360494322536961 0 1.6964384032616368e-05 0.0023632200710329196 0 2.4912346140910579e-05 0.0023402766701333369 0 1.6964384032616368e-05 0.0023632200710329196 0 -3.402720951333631e-06 0.0023773594669874148 0 5.1455361106175112e-07 0.0023425319618556525 0 5.1455361106175112e-07 0.0023425319618556525 0 1.3777591022550442e-05 0.0023229849579041294 0 -5.9277972445136179e-06 0.0023165857704307703 0 -1.7865815230862694e-05 0.0023293347498012026 0 5.1455361106175112e-07 0.0023425319618556525 0 -5.9277972445136179e-06 0.0023165857704307703 0 2.4912346140910579e-05 0.0023402766701333369 0 5.1455361106175112e-07 0.0023425319618556525 0 1.3777591022550442e-05 0.0023229849579041294 0 3.2827671234830789e-05 0.0023160959294232062 0 2.4912346140910579e-05 0.0023402766701333369 0 1.3777591022550442e-05 0.0023229849579041294 0 3.2827671234830789e-05 0.0023160959294232062 0 1.3777591022550442e-05 0.0023229849579041294 0 1.0937420167300963e-05 0.0023022098160849244 0 4.0693033658229136e-05 0.0022827824751549632 0 3.2827671234830789e-05 0.0023160959294232062 0 1.0937420167300963e-05 0.0023022098160849244 0 1.0937420167300963e-05 0.0023022098160849244 0 -7.9105468931089806e-06 0.0023017180148892785 0 -4.3108474185128642e-06 0.0022893559449954251 0 1.0937420167300963e-05 0.0023022098160849244 0 -5.9277972445136179e-06 0.0023165857704307703 0 -7.9105468931089806e-06 0.0023017180148892785 0 1.3777591022550442e-05 0.0023229849579041294 0 1.0937420167300963e-05 0.0023022098160849244 0 -5.9277972445136179e-06 0.0023165857704307703 0 -5.9277972445136179e-06 0.0023165857704307703 0 -7.9105468931089806e-06 0.0023017180148892785 0 -1.9159837475143339e-05 0.002303232062591077 0 1.0937420167300963e-05 0.0023022098160849244 0 -4.3108474185128642e-06 0.0022893559449954251 0 9.3876713072399434e-06 0.0022773146125921028 0 -4.3108474185128642e-06 0.0022893559449954251 0 -1.597914379854716e-05 0.0022933038396686697 0 -1.4499431793761997e-05 0.0022856767222071014 0 -7.9105468931089806e-06 0.0023017180148892785 0 -4.3108474185128642e-06 0.0022893559449954251 0 -1.597914379854716e-05 0.0022933038396686697 0 -4.3108474185128642e-06 0.0022893559449954251 0 -8.3084347822758076e-06 0.0022760494006521916 0 -1.4499431793761997e-05 0.0022856767222071014 0 -4.3108474185128642e-06 0.0022893559449954251 0 -8.3084347822758076e-06 0.0022760494006521916 0 9.3876713072399434e-06 0.0022773146125921028 0 2.8352337276601158e-05 0.0022582738888779329 0 4.0693033658229136e-05 0.0022827824751549632 0 9.3876713072399434e-06 0.0022773146125921028 0 4.0693033658229136e-05 0.0022827824751549632 0 1.0937420167300963e-05 0.0023022098160849244 0 9.3876713072399434e-06 0.0022773146125921028 0 -4.3674124667790687e-05 0.0023067098148316354 0 -3.6733892155415498e-05 0.0022949012712475949 0 -5.0360936444269939e-05 0.002294911294687966 0 -4.3674124667790687e-05 0.0023067098148316354 0 -3.0462480951627087e-05 0.0023054574052276005 0 -3.6733892155415498e-05 0.0022949012712475949 0 -4.3674124667790687e-05 0.0023067098148316354 0 -5.0360936444269939e-05 0.002294911294687966 0 -5.9441365684781923e-05 0.0023130723309722824 0 -3.5846834969393325e-05 0.0023211314827606949 0 -4.3674124667790687e-05 0.0023067098148316354 0 -5.9441365684781923e-05 0.0023130723309722824 0 -3.5846834969393325e-05 0.0023211314827606949 0 -4.3674124667790687e-05 0.0023067098148316354 0 -3.0462480951627087e-05 0.0023054574052276005 0 -3.5846834969393325e-05 0.0023211314827606949 0 -2.1799016169234655e-05 0.0023151191630674316 0 -3.0462480951627087e-05 0.0023054574052276005 0 -2.1799016169234655e-05 0.0023151191630674316 0 -1.9159837475143339e-05 0.002303232062591077 0 -3.0462480951627087e-05 0.0023054574052276005 0 -5.9277972445136179e-06 0.0023165857704307703 0 -2.1799016169234655e-05 0.0023151191630674316 0 -1.9159837475143339e-05 0.002303232062591077 0 -7.9105468931089806e-06 0.0023017180148892785 0 -1.9159837475143339e-05 0.002303232062591077 0 -1.597914379854716e-05 0.0022933038396686697 0 -1.9159837475143339e-05 0.002303232062591077 0 -2.5258523526643621e-05 0.0022950550225555996 0 -1.597914379854716e-05 0.0022933038396686697 0 -1.9159837475143339e-05 0.002303232062591077 0 -3.0462480951627087e-05 0.0023054574052276005 0 -2.5258523526643621e-05 0.0022950550225555996 0 -3.0462480951627087e-05 0.0023054574052276005 0 -2.5258523526643621e-05 0.0022950550225555996 0 -3.6733892155415498e-05 0.0022949012712475949 0 -2.5258523526643621e-05 0.0022950550225555996 0 -2.8741208957937553e-05 0.0022866579847293203 0 -3.6733892155415498e-05 0.0022949012712475949 0 -2.8741208957937553e-05 0.0022866579847293203 0 -4.3829661274507317e-05 0.0022844045830239562 0 -3.6733892155415498e-05 0.0022949012712475949 0 -2.5258523526643621e-05 0.0022950550225555996 0 -1.597914379854716e-05 0.0022933038396686697 0 -2.0998651220761874e-05 0.0022877826679488593 0 -2.5258523526643621e-05 0.0022950550225555996 0 -2.8741208957937553e-05 0.0022866579847293203 0 -2.0998651220761874e-05 0.0022877826679488593 0 -1.597914379854716e-05 0.0022933038396686697 0 -2.0998651220761874e-05 0.0022877826679488593 0 -1.4499431793761997e-05 0.0022856767222071014 0 -8.3084347822758076e-06 0.0022760494006521916 0 -1.4499431793761997e-05 0.0022856767222071014 0 -2.4136090254856009e-05 0.0022768365075226974 0 -2.8741208957937553e-05 0.0022866579847293203 0 -2.0998651220761874e-05 0.0022877826679488593 0 -2.4136090254856009e-05 0.0022768365075226974 0 -2.0998651220761874e-05 0.0022877826679488593 0 -1.4499431793761997e-05 0.0022856767222071014 0 -2.4136090254856009e-05 0.0022768365075226974 0 -2.8741208957937553e-05 0.0022866579847293203 0 -2.5197808854642173e-05 0.0022784428743807873 0 -4.3829661274507317e-05 0.0022844045830239562 0 -7.8287253688491551e-05 0.0022924680760614438 0 -8.9848236641597781e-05 0.0023051791457561503 0 -6.4381666064138664e-05 0.0022714689029290146 0 -2.5197808854642173e-05 0.0022784428743807873 0 -4.3829661274507317e-05 0.0022844045830239562 0 -4.3829661274507317e-05 0.0022844045830239562 0 -3.6733892155415498e-05 0.0022949012712475949 0 -5.0360936444269939e-05 0.002294911294687966 0 -4.3829661274507317e-05 0.0022844045830239562 0 -5.0360936444269939e-05 0.002294911294687966 0 -5.665197641109582e-05 0.0022861065204813876 0 -5.0360936444269939e-05 0.002294911294687966 0 -5.665197641109582e-05 0.0022861065204813876 0 -6.8073232200280159e-05 0.0022938279713319871 0 -6.4381666064138664e-05 0.0022714689029290146 0 -4.3829661274507317e-05 0.0022844045830239562 0 -5.665197641109582e-05 0.0022861065204813876 0 -6.4381666064138664e-05 0.0022714689029290146 0 -6.8073232200280159e-05 0.0022938279713319871 0 -0.00010613896081879663 0.0022956397285489641 0 -6.4381666064138664e-05 0.0022714689029290146 0 -5.665197641109582e-05 0.0022861065204813876 0 -6.8073232200280159e-05 0.0022938279713319871 0 -5.0360936444269939e-05 0.002294911294687966 0 -6.8073232200280159e-05 0.0022938279713319871 0 -5.9441365684781923e-05 0.0023130723309722824 0 -6.8073232200280159e-05 0.0022938279713319871 0 -5.9441365684781923e-05 0.0023130723309722824 0 -8.2847549810530384e-05 0.0023127093953377855 0 -6.8073232200280159e-05 0.0022938279713319871 0 -8.2847549810530384e-05 0.0023127093953377855 0 -0.00010613896081879663 0.0022956397285489641 0 -8.2847549810530384e-05 0.0023127093953377855 0 -0.00010613896081879663 0.0022956397285489641 0 -0.00010339085407153448 0.0023293571518569998 0 -4.7176178960148469e-05 0.0028614656737880988 0 -4.6202430436887308e-05 0.0028637586524273614 0 -5.3185252089419794e-05 0.0028658032356103195 0 -4.6202430436887308e-05 0.0028637586524273614 0 -5.3185252089419794e-05 0.0028658032356103195 0 -5.4138961624279733e-05 0.0028703686387919407 0 -4.7176178960148469e-05 0.0028614656737880988 0 -5.3185252089419794e-05 0.0028658032356103195 0 -5.0539822244302043e-05 0.0028644659134933925 0 -6.3335220246766736e-05 0.0025580458420920819 0 -9.3485978865489686e-05 0.0027191961536132698 0 -0.00010613896081879663 0.0022956397285489641 0 -0.00014834242453109109 0.0023534309482934708 0 -0.00010339085407153448 0.0023293571518569998 0 -5.7237083728793865e-05 0.0029121196161954336 0 -9.3485978865489686e-05 0.0027191961536132698 0 -0.00014834242453109109 0.0023534309482934708 0 -9.9921590919737927e-05 0.0023593710601565185 0 -0.00010339085407153448 0.0023293571518569998 0 -9.9921590919737927e-05 0.0023593710601565185 0 -6.1140919413657621e-05 0.0023591445179852941 0 -7.7682362160907023e-05 0.002332877051164594 0 -5.3081144993943286e-05 0.0023355783369149131 0 -5.9441365684781923e-05 0.0023130723309722824 0 -7.7682362160907023e-05 0.002332877051164594 0 -5.3081144993943286e-05 0.0023355783369149131 0 -6.1140919413657621e-05 0.0023591445179852941 0 -7.7682362160907023e-05 0.002332877051164594 0 -5.9441365684781923e-05 0.0023130723309722824 0 -8.2847549810530384e-05 0.0023127093953377855 0 -7.7682362160907023e-05 0.002332877051164594 0 -8.2847549810530384e-05 0.0023127093953377855 0 -7.7682362160907023e-05 0.002332877051164594 0 -0.00010339085407153448 0.0023293571518569998 0 -9.9921590919737927e-05 0.0023593710601565185 0 -7.7682362160907023e-05 0.002332877051164594 0 -0.00010339085407153448 0.0023293571518569998 0 -5.0251251392228063e-05 0.0028675364766747717 0 -4.4470164422160091e-05 0.0028790627667196959 0 -5.6363238357619519e-05 0.0028691234867554284 0 -4.4470164422160091e-05 0.0028790627667196959 0 -5.6363238357619519e-05 0.0028691234867554284 0 -5.1065463415364106e-05 0.0028692021937262338 0 -5.0251251392228063e-05 0.0028675364766747717 0 -5.6363238357619519e-05 0.0028691234867554284 0 -5.0539822244302043e-05 0.0028644659134933925 0 -5.3185252089419794e-05 0.0028658032356103195 0 -5.6363238357619519e-05 0.0028691234867554284 0 -5.0539822244302043e-05 0.0028644659134933925 0 -5.3185252089419794e-05 0.0028658032356103195 0 -6.8508032700307443e-05 0.0028645156602495709 0 -5.6363238357619519e-05 0.0028691234867554284 0 -6.8508032700307443e-05 0.0028645156602495709 0 -5.6363238357619519e-05 0.0028691234867554284 0 -6.552913753303451e-05 0.0028627291306752385 0 -5.6363238357619519e-05 0.0028691234867554284 0 -6.552913753303451e-05 0.0028627291306752385 0 -5.1065463415364106e-05 0.0028692021937262338 0 -3.2879833255946245e-05 0.0028716400262262282 0 -5.1065463415364106e-05 0.0028692021937262338 0 -5.0407736889807122e-05 0.0028506877991059066 0 -6.552913753303451e-05 0.0028627291306752385 0 -5.1065463415364106e-05 0.0028692021937262338 0 -5.0407736889807122e-05 0.0028506877991059066 0 -9.3485978865489686e-05 0.0027191961536132698 0 -0.00010753457185489727 0.0028992008420263855 0 -6.8508032700307443e-05 0.0028645156602495709 0 -6.552913753303451e-05 0.0028627291306752385 0 -8.9864778738785484e-05 0.002842151592229536 0 -6.552913753303451e-05 0.0028627291306752385 0 -5.0407736889807122e-05 0.0028506877991059066 0 -8.9864778738785484e-05 0.002842151592229536 0 -5.0407736889807122e-05 0.0028506877991059066 0 -8.9864778738785484e-05 0.002842151592229536 0 -7.7254124531601369e-05 0.0028038307780300789 0 -7.7254124531601369e-05 0.0028038307780300789 0 -0.00014314659719052606 0.0028001967455455433 0 -9.4609248037651889e-05 0.0027345878154558536 0 -8.9864778738785484e-05 0.002842151592229536 0 -7.7254124531601369e-05 0.0028038307780300789 0 -0.00014314659719052606 0.0028001967455455433 0 -5.0407736889807122e-05 0.0028506877991059066 0 -7.7254124531601369e-05 0.0028038307780300789 0 -4.6907557747699795e-05 0.0028140850121718452 0 -7.7254124531601369e-05 0.0028038307780300789 0 -4.6907557747699795e-05 0.0028140850121718452 0 -5.310698176963937e-05 0.0027635741205612407 0 -2.6226651571121943e-05 0.0028083294703121191 0 -4.6907557747699795e-05 0.0028140850121718452 0 -5.310698176963937e-05 0.0027635741205612407 0 -2.7364653516658619e-05 0.0028362178831671104 0 -5.0407736889807122e-05 0.0028506877991059066 0 -4.6907557747699795e-05 0.0028140850121718452 0 -4.6912116795368781e-05 0.0024317362687952 0 -0.00010419396105900882 0.0024075492152766638 0 -6.9294010246710196e-05 0.0023883274303434145 0 -9.9921590919737927e-05 0.0023593710601565185 0 -6.1140919413657621e-05 0.0023591445179852941 0 -6.9294010246710196e-05 0.0023883274303434145 0 -9.9921590919737927e-05 0.0023593710601565185 0 -0.00010419396105900882 0.0024075492152766638 0 -6.9294010246710196e-05 0.0023883274303434145 0 -0.00014834242453109109 0.0023534309482934708 0 -9.9921590919737927e-05 0.0023593710601565185 0 -0.00010419396105900882 0.0024075492152766638 0 -0.00014834242453109109 0.0023534309482934708 0 -0.00010419396105900882 0.0024075492152766638 0 -0.00016046207082853674 0.0024603765719418275 0 -0.00013072923971720797 0.0029112227205207375 0 -8.9864778738785484e-05 0.002842151592229536 0 -0.00014314659719052606 0.0028001967455455433 0 -9.3485978865489686e-05 0.0027191961536132698 0 -0.00015677929766238659 0.0026090500917372765 0 -0.00016046207082853674 0.0024603765719418275 0 -9.5347989417016315e-05 0.0024603527402736547 0 -8.8213769117591477e-05 0.0025317618780847768 0 -0.00010419396105900882 0.0024075492152766638 0 -0.00016046207082853674 0.0024603765719418275 0 -9.5347989417016315e-05 0.0024603527402736547 0 -4.6912116795368781e-05 0.0024317362687952 0 -0.00010419396105900882 0.0024075492152766638 0 -9.5347989417016315e-05 0.0024603527402736547 0 -4.6912116795368781e-05 0.0024317362687952 0 -9.5347989417016315e-05 0.0024603527402736547 0 -4.1320042454084489e-05 0.0024915940005447979 0 -9.5347989417016315e-05 0.0024603527402736547 0 -8.8213769117591477e-05 0.0025317618780847768 0 -4.1320042454084489e-05 0.0024915940005447979 0 -8.8213769117591477e-05 0.0025317618780847768 0 -4.1320042454084489e-05 0.0024915940005447979 0 -4.201238821773433e-05 0.0025608741921664823 0 -0.00015677929766238659 0.0026090500917372765 0 -0.00014318740596563716 0.0026447605111654081 0 -0.00016046207082853674 0.0024603765719418275 0 -8.8213769117591477e-05 0.0025317618780847768 0 -0.00014335057299694635 0.002636906143871911 0 -8.8213769117591477e-05 0.0025317618780847768 0 -0.00014335057299694635 0.002636906143871911 0 -0.00010177462267553934 0.0026197141612707528 0 -0.00014335057299694635 0.002636906143871911 0 -0.00010177462267553934 0.0026197141612707528 0 -0.00012404093536917937 0.0026370568134214513 0 -0.00010177462267553934 0.0026197141612707528 0 -5.2301249497116312e-05 0.0026422438940274218 0 -4.201238821773433e-05 0.0025608741921664823 0 -8.8213769117591477e-05 0.0025317618780847768 0 -0.00010177462267553934 0.0026197141612707528 0 -4.201238821773433e-05 0.0025608741921664823 0 -5.310698176963937e-05 0.0027635741205612407 0 -9.4609248037651889e-05 0.0027345878154558536 0 -9.0255380823859612e-05 0.0026614219918656809 0 -7.7254124531601369e-05 0.0028038307780300789 0 -5.310698176963937e-05 0.0027635741205612407 0 -9.4609248037651889e-05 0.0027345878154558536 0 -0.00014314659719052606 0.0028001967455455433 0 -0.00014335057299694635 0.002636906143871911 0 -9.4609248037651889e-05 0.0027345878154558536 0 -0.00014335057299694635 0.002636906143871911 0 -9.0255380823859612e-05 0.0026614219918656809 0 -0.00010961347458187634 0.0026375434643237626 0 -0.00014335057299694635 0.002636906143871911 0 -9.4609248037651889e-05 0.0027345878154558536 0 -9.0255380823859612e-05 0.0026614219918656809 0 -4.6294255848931872e-05 0.0026935666746117546 0 -9.0255380823859612e-05 0.0026614219918656809 0 -6.6254160844830584e-05 0.0026559013085351237 0 -1.8293168190189348e-05 0.0027455138602040445 0 -5.310698176963937e-05 0.0027635741205612407 0 -9.0255380823859612e-05 0.0026614219918656809 0 -4.3718967081957955e-05 0.0027053139868834955 0 -8.5347053783403154e-05 0.0026712605850098569 0 -5.1882641887036818e-05 0.0026435782192447553 0 -7.3482506872236212e-05 0.0026370535584383445 0 -6.6254160844830584e-05 0.0026559013085351237 0 -7.3482506872236212e-05 0.0026370535584383445 0 -6.6254160844830584e-05 0.0026559013085351237 0 -8.7038979925309898e-05 0.0026459533626624946 0 -9.0255380823859612e-05 0.0026614219918656809 0 -6.6254160844830584e-05 0.0026559013085351237 0 -8.7038979925309898e-05 0.0026459533626624946 0 -7.3482506872236212e-05 0.0026370535584383445 0 -8.7038979925309898e-05 0.0026459533626624946 0 -9.1924900189389335e-05 0.0026344644086448675 0 -8.7038979925309898e-05 0.0026459533626624946 0 -9.1924900189389335e-05 0.0026344644086448675 0 -0.00010961347458187634 0.0026375434643237626 0 -9.0255380823859612e-05 0.0026614219918656809 0 -8.7038979925309898e-05 0.0026459533626624946 0 -0.00010961347458187634 0.0026375434643237626 0 -0.00010961347458187634 0.0026375434643237626 0 -9.5617713149213405e-05 0.0026166648594237313 0 -0.00011984905719464522 0.0026462839669987828 0 0.00026758965862842951 0.0027879939591082094 0 7.3392881438858093e-06 0.0025575606449910917 0 -9.1924900189389335e-05 0.0026344644086448675 0 -0.00010961347458187634 0.0026375434643237626 0 -9.5617713149213405e-05 0.0026166648594237313 0 0.00045088676106328515 0.0030148989027261133 0 0.00047583171049863895 0.0030636350392148843 0 0.00052024606063699979 0.0030575815116010408 0 -4.1394008651824405e-05 0.0026238207344969683 0 -7.3482506872236212e-05 0.0026370535584383445 0 -9.5617713149213405e-05 0.0026166648594237313 0 0.00045088676106328515 0.0030148989027261133 0 0.00055084526568427938 0.0030460818337845938 0 0.00052024606063699979 0.0030575815116010408 0 0.00019548041416870095 0.0028245802896629687 0 0.00026758965862842951 0.0027879939591082094 0 -7.3482506872236212e-05 0.0026370535584383445 0 -9.1924900189389335e-05 0.0026344644086448675 0 -9.5617713149213405e-05 0.0026166648594237313 0 0.00053850884386288261 0.0030851781344082637 0 0.00054270519250059911 0.0030512883587840967 0 0.00052024606063699979 0.0030575815116010408 0 0.00026758965862842951 0.0027879939591082094 0 0.00046990164947887557 0.0029014225964751937 0 0.00019502880364724324 0.0025049698057982043 0 0.0001922634675865353 0.0025017539238618249 0 0.00018958077909952351 0.0025016164017563998 0 7.3392881438858093e-06 0.0025575606449910917 0 7.5186824945216204e-05 0.0025709285022449692 0 -0.00010177462267553934 0.0026197141612707528 0 -0.00011984905719464522 0.0026462839669987828 0 -5.2301249497116312e-05 0.0026422438940274218 0 -0.00014335057299694635 0.002636906143871911 0 -0.00010961347458187634 0.0026375434643237626 0 -0.00012404093536917937 0.0026370568134214513 0 -0.00010177462267553934 0.0026197141612707528 0 -0.00012404093536917937 0.0026370568134214513 0 -0.00011984905719464522 0.0026462839669987828 0 -0.00010961347458187634 0.0026375434643237626 0 -0.00012404093536917937 0.0026370568134214513 0 -0.00011984905719464522 0.0026462839669987828 0 0.00026758965862842951 0.0027879939591082094 0 0.00042280694940223339 0.0027823012834386537 0 0.00020167810703654044 0.0025071755286057906 0 0.00019502880364724324 0.0025049698057982043 0 0.00019538054077238132 0.0025020590613377535 0 0.00019024819141298208 0.0024982875712925776 0 0.00019538054077238132 0.0025020590613377535 0 0.0001922634675865353 0.0025017539238618249 0 0.00019502880364724324 0.0025049698057982043 0 0.00019538054077238132 0.0025020590613377535 0 0.0001922634675865353 0.0025017539238618249 0 0.00019024819141298208 0.0024982875712925776 0 0.00018958077909952351 0.0025016164017563998 0 0.00018629301097109841 0.0024968070191442064 0 0.00019024819141298208 0.0024982875712925776 0 0.0001922634675865353 0.0025017539238618249 0 0.00018958077909952351 0.0025016164017563998 0 7.5186824945216204e-05 0.0025709285022449692 0 0.00012007659025873121 0.0025419887307938753 0 0.00018629301097109841 0.0024968070191442064 0 0.00018327200107358198 0.0024940543873004082 0 0.00018597405853290505 0.0024979960102923544 0 0.00018958077909952351 0.0025016164017563998 0 0.00018629301097109841 0.0024968070191442064 0 0.00018597405853290505 0.0024979960102923544 0 0.00018629301097109841 0.0024968070191442064 0 0.0001846099248106766 0.0024946879039367503 0 0.00018327200107358198 0.0024940543873004082 0 0.00018629301097109841 0.0024968070191442064 0 0.00018534037949451989 0.0024954764347522732 0 0.0001846099248106766 0.0024946879039367503 0 0.00019024819141298208 0.0024982875712925776 0 0.00018629301097109841 0.0024968070191442064 0 0.00018695012690824958 0.0024969103833886856 0 0.00018629301097109841 0.0024968070191442064 0 0.00018695012690824958 0.0024969103833886856 0 0.00018534037949451989 0.0024954764347522732 0 0.00018534037949451989 0.0024954764347522732 0 0.00018615642587804925 0.0024953222026954571 0 0.00018368295884386645 0.0024922926965375196 0 0.00018534037949451989 0.0024954764347522732 0 0.00018368295884386645 0.0024922926965375196 0 0.0001846099248106766 0.0024946879039367503 0 0.00018615642587804925 0.0024953222026954571 0 0.00018368295884386645 0.0024922926965375196 0 0.00018813064425985405 0.0024925675679515966 0 0.00018368295884386645 0.0024922926965375196 0 0.00018813064425985405 0.0024925675679515966 0 0.00018642704352267727 0.0024891240002903881 0 0.00019233925620139365 0.0024872049303126904 0 0.00018813064425985405 0.0024925675679515966 0 0.00018642704352267727 0.0024891240002903881 0 0.00018642704352267727 0.0024891240002903881 0 0.00018340600921116072 0.0024902477059945624 0 0.00018648001349100138 0.0024849305573112967 0 0.00019117133783920818 0.0024826258136695467 0 0.00018642704352267727 0.0024891240002903881 0 0.00018648001349100138 0.0024849305573112967 0 0.00018368295884386645 0.0024922926965375196 0 0.00018340600921116072 0.0024902477059945624 0 0.00017974804748723753 0.002491875989047895 0 0.00018368295884386645 0.0024922926965375196 0 0.00018642704352267727 0.0024891240002903881 0 0.00018340600921116072 0.0024902477059945624 0 0.00018648001349100138 0.0024849305573112967 0 0.00017974804748723753 0.002491875989047895 0 0.000184492600664768 0.0024855465149223452 0 0.00018340600921116072 0.0024902477059945624 0 0.00018648001349100138 0.0024849305573112967 0 0.00017974804748723753 0.002491875989047895 0 0.00018368295884386645 0.0024922926965375196 0 0.0001846099248106766 0.0024946879039367503 0 0.00018327200107358198 0.0024940543873004082 0 0.00018368295884386645 0.0024922926965375196 0 0.00017974804748723753 0.002491875989047895 0 0.00018327200107358198 0.0024940543873004082 0 0.00017974804748723753 0.002491875989047895 0 0.00018327200107358198 0.0024940543873004082 0 0.00017268922373142392 0.0024971563546755796 0 0.00016921044172242317 0.0025044354843900213 0 0.00012007659025873121 0.0025419887307938753 0 0.00017268922373142392 0.0024971563546755796 0 0.00015313848384025338 0.0024797665738263879 0 5.8673044989344903e-05 0.002589672275921918 0 0.00018327200107358198 0.0024940543873004082 0 0.00017268922373142392 0.0024971563546755796 0 0.00018597405853290505 0.0024979960102923544 0 0.0001943490672363024 0.0024709312942746333 0 0.00017268922373142392 0.0024971563546755796 0 0.000184492600664768 0.0024855465149223452 0 0.00017974804748723753 0.002491875989047895 0 0.00017268922373142392 0.0024971563546755796 0 0.000184492600664768 0.0024855465149223452 0 0.0001943490672363024 0.0024709312942746333 0 0.00017268922373142392 0.0024971563546755796 0 0.00015313848384025338 0.0024797665738263879 0 0.00011825670037238465 0.0024533856956068067 0 8.6295217345178489e-05 0.0024484872113182355 0 6.1898146955094723e-05 0.0024716737597033967 0 0.00015615440553577495 0.0024615824529069805 0 0.00010422159010024528 0.0024780610670153864 0 6.836948841553433e-05 0.002436438598912362 0 8.6295217345178489e-05 0.0024484872113182355 0 9.6250131989715498e-05 0.0024320010284042564 0 0.00011825670037238465 0.0024533856956068067 0 8.6295217345178489e-05 0.0024484872113182355 0 9.6250131989715498e-05 0.0024320010284042564 0 6.836948841553433e-05 0.002436438598912362 0 8.6295217345178489e-05 0.0024484872113182355 0 6.1898146955094723e-05 0.0024716737597033967 0 6.836948841553433e-05 0.002436438598912362 0 6.1898146955094723e-05 0.0024716737597033967 0 3.8317249191835277e-05 0.0024594543340704764 0 0.00010422159010024528 0.0024780610670153864 0 1.2779185142576067e-05 0.0024986456359373257 0 6.1898146955094723e-05 0.0024716737597033967 0 3.8317249191835277e-05 0.0024594543340704764 0 6.1032953007764276e-06 0.0025051165984232202 0 5.8170706638098674e-06 0.0024559520258696042 0 3.8317249191835277e-05 0.0024594543340704764 0 6.1032953007764276e-06 0.0025051165984232202 0 5.8170706638098674e-06 0.0024559520258696042 0 -4.1320042454084489e-05 0.0024915940005447979 0 6.1032953007764276e-06 0.0025051165984232202 0 -4.1320042454084489e-05 0.0024915940005447979 0 6.1032953007764276e-06 0.0025051165984232202 0 -4.201238821773433e-05 0.0025608741921664823 0 -5.2301249497116312e-05 0.0026422438940274218 0 -4.201238821773433e-05 0.0025608741921664823 0 5.8673044989344903e-05 0.002589672275921918 0 6.1032953007764276e-06 0.0025051165984232202 0 -4.201238821773433e-05 0.0025608741921664823 0 5.8673044989344903e-05 0.002589672275921918 0 0.00015313848384025338 0.0024797665738263879 0 6.1032953007764276e-06 0.0025051165984232202 0 5.8673044989344903e-05 0.002589672275921918 0 
</DataArray>
</PointData>
<CellData Scalars="region_id,cross_section_updated," Vectors="" Tensors="stress,">
<DataArray type="Float64" Name="region_id" format="ascii">
5 5 5 5 5 5 5 5 5 5 6 5 6 5 5 5 5 5 5 5 6 5 6 5 5 5 5 6 5 5 5 5 5 5 5 5 5 5 5 5 5 5 5 5 5 5 5 5 5 5 5 5 5 5 5 5 5 5 6 5 5 5 6 5 5 5 5 5 5 5 5 5 5 5 5 5 5 5 5 5 5 6 5 5 5 5 5 5 5 5 5 5 5 6 6 5 5 5 5 5 5 5 5 5 5 5 5 5 5 5 6 5 5 5 5 5 5 6 5 5 5 5 5 5 5 5 5 5 5 5 5 5 5 6 5 5 5 5 5 5 5 5 5 5 5 5 5 6 5 5 5 5 6 5 5 6 5 6 6 5 5 5 5 5 6 5 5 5 5 5 5 5 5 5 5 5 5 5 5 6 5 5 5 5 5 5 5 6 5 5 6 5 5 5 5 5 5 5 5 5 5 5 5 5 5 5 5 5 5 5 6 5 5 5 5 6 5 5 5 5 5 5 5 5 6 5 5 5 6 5 5 5 5 5 5 5 5 5 5 5 6 5 6 5 5 5 5 5 5 5 6 5 6 5 5 5 6 5 6 5 5 5 5 5 5 6 5 5 5 5 5 6 5 5 6 5 5 5 5 5 5 5 6 5 5 5 5 5 5 5 5 5 5 5 5 5 5 5 5 5 5 5 5 6 5 5 6 5 5 5 5 5 5 5 5 5 5 5 5 5 5 5 5 5 5 5 5 5 5 5 5 5 5 5 5 5 5 5 5 5 5 5 5 5 5 5 5 5 5 5 5 5 5 5 5 5 5 5 5 5 5 5 5 5 5 5 5 5 5 5 6 5 5 5 5 5 5 5 5 5 6 6 5 5 6 5 5 5 6 5 5 5 5 5 5 6 5 5 5 5 5 5 5 5 5 5 5 5 5 5 5 5 5 6 5 6 5 5 5 5 5 5 5 6 6 5 5 5 5 6 5 5 5 5 5 5 6 5 5 5 5 5 5 5 5 5 5 5 5 6 5 5 5 5 6 5 5 5 5 5 5 5 5 5 5 5 5 5 6 5 6 5 5 5 5 5 5 5 5 5 5 5 5 5 5 6 5 5 5 5 5 5 5 5 5 5 5 5 5 5 5 5 5 5 5 5 5 5 5 5 5 5 5 5 5 5 5 5 5 5 5 5 5 5 5 5 5 5 6 5 5 5 5 5 6 5 5 6 5 5 6 5 5 5 6 5 5 6 5 5 5 5 5 5 5 5 5 5 5 5 5 5 5 5 5 5 5 5 6 6 5 5 5 5 6 5 5 5 6 5 5 5 5 6 5 5 6 5 5 6 5 5 5 6 5 5 5 5 5 5 5 5 5 5 5 5 5 5 5 5 5 5 5 5 5 5 5 5 5 5 5 5 6 5 6 5 6 5 5 5 5 6 5 5 5 5 5 5 6 5 5 5 6 5 5 6 6 5 5 5 5 6 5 5 5 6 5 5 5 6 5 6 5 5 5 5 6 5 5 5 5 5 5 5 5 6 5 5 5 5 5 6 5 5 5 5 5 5 5 5 5 5 5 5 6 5 5 5 5 5 5 5 5 5 5 5 5 5 5 6 5 5 6 5 5 5 5 5 6 5 5 6 5 5 5 5 5 5 6 5 5 5 5 5 5 6 5 5 6 5 5 6 6 5 5 6 5 5 6 5 6 6 6 5 5 5 5 5 6 5 5 5 6 5 6 5 5 6 5 5 5 5 5 5 5 5 5 5 5 5 5 5 5 6 5 6 5 5 6 5 5 6 5 6 5 5 5 5 5 6 6 5 5 5 5 6 5 5 5 5 5 5 5 5 5 6 5 5 5 5 5 5 5 6 5 5 6 5 5 5 6 6 5 5 6 5 5 5 6 5 6 5 5 5 6 5 5 6 5 5 5 5 5 5 5 5 5 6 5 5 5 5 5 5 5 5 5 5 5 5 5 5 5 5 6 5 6 5 5 5 5 5 5 5 5 5 5 5 5 5 5 5 5 5 5 5 5 5 5 6 6 5 5 5 5 5 5 5 5 5 5 5 5 5 5 5 5 5 5 5 6 5 5 5 5 5 5 5 5 5 5 5 5 5 5 5 5 5 5 5 5 5 5 5 5 5 5 5 5 5 5 6 5 5 5 6 6 5 5 5 5 5 5 5 5 5 5 5 5 5 6 5 5 5 5 5 5 5 6 5 5 5 5 5 5 5 5 5 5 5 5 6 5 5 5 5 5 5 5 5 5 5 5 6 5 5 5 5 5 5 5 5 5 5 5 5 5 5 6 5 5 5 5 5 5 5 5 5 5 6 6 5 5 5 5 5 5 6 5 5 5 5 5 5 5 5 5 5 5 5 6 5 5 5 5 5 5 5 6 5 5 5 5 5 5 5 5 5 5 5 5 6 5 5 5 5 5 5 5 5 5 5 5 5 5 6 5 5 5 5 5 5 5 5 5 5 5 5 5 5 5 5 5 6 5 5 5 5 5 5 5 5 5 5 5 5 5 5 5 5 5 5 5 5 5 5 5 5 5 5 5 5 5 5 5 5 5 5 5 5 5 5 5 5 5 5 5 5 5 5 5 5 5 5 5 5 5 5 5 5 5 5 5 5 6 5 5 5 5 5 5 5 5 5 5 5 6 5 5 5 6 5 5 5 5 6 5 5 5 5 5 5 6 5 5 5 5 5 6 5 6 5 5 6 5 5 5 5 5 5 5 5 5 5 5 5 5 5 6 5 5 5 5 5 5 6 5 5 5 5 5 6 5 5 5 5 6 5 6 5 5 5 5 5 5 6 6 5 5 6 6 6 5 5 5 6 5 5 6 5 6 5 5 5 6 5 5 5 6 5 5 5 5 6 5 5 5 5 5 5 5 5 5 5 5 5 5 5 5 5 5 5 5 5 5 5 5 5 5 5 5 5 5 5 5 5 5 5 5 5 5 5 5 5 5 5 6 5 5 5 5 5 5 5 5 6 6 6 5 5 5 5 6 5 5 6 5 5 5 5 5 6 5 5 6 5 5 5 5 5 6 5 6 5 5 6 5 5 5 5 5 5 5 5 5 5 5 5 5 5 6 6 6 5 5 6 5 5 5 5 5 6 6 5 5 5 5 6 5 6 5 5 5 6 6 5 5 5 5 6 6 5 5 5 5 5 5 5 5 5 5 5 5 5 5 5 5 5 5 5 6 5 5 5 5 5 5 5 5 5 5 5 5 5 5 5 6 5 6 5 5 5 5 5 5 6 5 6 5 5 5 5 6 5 6 6 5 6 5 5 5 5 5 5 5 6 5 5 5 5 5 6 6 5 6 5 5 5 5 5 5 5 5 5 5 5 5 5 5 5 5 5 5 5 6 5 5 5 5 5 5 5 5 5 5 5 5 5 5 5 5 5 5 5 5 5 5 5 5 5 5 5 6 5 5 6 5 5 5 6 5 5 5 5 5 6 5 5 6 5 5 5 5 5 5 5 5 5 5 5 5 5 5 5 5 5 5 5 5 5 5 5 5 5 5 5 5 6 5 5 5 6 5 5 5 6 6 5 5 5 6 5 5 5 5 5 5 5 5 5 5 6 5 6 5 5 5 5 5 5 6 5 6 5 6 5 5 5 5 5 6 6 5 5 5 5 5 5 5 5 5 5 5 5 5 5 5 5 5 5 5 5 5 5 5 5 5 5 5 5 5 6 5 5 5 6 5 5 5 5 5 5 5 5 5 5 5 5 5 5 6 5 5 5 6 5 5 5 5 5 5 5 5 5 5 5 5 5 5 5 6 5 5 5 5 5 5 5 5 5 5 5 5 5 5 5 5 5 5 5 5 5 5 5 5 5 5 5 6 5 5 5 5 5 5 5 5 5 5 5 5 5 5 5 6 5 6 5 5 5 6 6 6 5 5 5 5 5 5 5 5 5 5 5 5 5 5 5 5 5 5 5 5 5 5 5 5 5 5 5 6 5 5 5 5 5 5 5 5 6 5 5 5 6 5 5 5 6 5 5 5 5 5 5 5 5 6 6 5 5 5 6 5 5 5 5 6 5 5 6 5 5 6 5 6 5 5 5 5 5 5 5 5 5 5 5 5 5 5 6 5 5 6 5 6 6 5 5 5 6 5 5 5 5 5 6 6 5 6 5 5 6 5 5 5 5 5 5 5 5 5 5 5 5 5 6 6 5 5 5 5 5 5 5 5 6 5 5 5 5 5 6 5 5 5 5 6 5 5 5 5 5 5 5 6 6 5 5 5 5 5 5 5 5 5 6 5 5 5 6 5 5 5 5 5 5 5 5 5 5 5 5 5 5 5 5 5 5 5 5 6 5 5 5 5 5 6 5 6 5 5 5 5 5 5 5 5 5 6 5 5 5 5 5 5 5 6 5 5 6 5 5 5 6 5 5 6 5 5 5 5 5 5 5 5 5 5 5 5 5 5 5 5 5 5 5 5 5 5 5 5 5 5 5 5 5 6 5 5 5 5 5 5 5 5 5 5 5 5 5 5 5 5 5 5 5 5 5 5 5 5 5 5 5 5 5 5 5 6 5 5 5 5 5 5 5 5 5 5 5 5 5 5 5 5 5 5 5 5 5 5 5 5 6 5 5 5 5 5 5 5 5 5 6 5 5 5 6 5 5 6 5 5 6 5 5 5 6 5 5 5 5 6 5 5 5 5 5 5 5 5 5 6 5 6 5 5 5 5 6 5 5 5 6 5 6 5 5 5 5 5 5 5 5 5 5 5 5 5 5 5 5 5 5 5 5 5 5 5 5 5 5 5 5 5 5 5 5 5 5 5 6 6 5 5 5 5 5 5 5 5 5 5 5 5 6 5 5 5 5 5 5 5 6 6 5 5 5 5 6 5 5 5 5 5 5 5 5 5 5 5 5 5 5 5 5 6 5 5 5 5 6 5 5 6 5 6 5 5 5 6 5 6 5 5 5 5 5 5 5 6 5 5 5 6 5 5 5 5 5 5 5 5 5 5 5 5 5 6 5 6 5 5 6 5 5 5 5 5 5 5 5 5 5 5 5 6 5 5 5 5 5 5 5 5 5 5 5 5 5 5 5 5 5 5 5 6 5 5 5 5 5 5 6 5 5 5 6 5 5 5 5 5 5 5 5 5 5 5 5 5 5 5 5 5 5 5 6 5 5 5 5 5 5 5 5 5 5 5 5 5 5 5 5 5 5 5 5 5 5 5 5 6 5 5 5 5 5 5 6 5 5 5 5 6 5 5 5 5 6 6 6 5 5 5 5 5 5 6 5 5 5 6 5 5 5 5 6 5 5 6 6 5 5 5 5 6 5 5 6 5 5 5 5 5 5 5 5 5 5 5 5 5 5 6 5 6 5 6 5 6 5 5 5 5 5 5 6 5 5 5 5 6 5 5 5 5 5 6 5 6 5 5 5 5 5 5 5 5 5 6 5 5 5 5 5 5 5 5 5 5 5 5 5 5 5 5 6 5 5 5 5 5 5 5 5 5 5 5 5 5 5 5 5 5 5 5 5 5 5 5 5 5 6 5 5 6 5 5 5 5 6 5 6 5 5 5 5 5 5 5 5 5 5 5 5 6 5 5 5 6 5 5 5 5 6 5 5 5 5 5 5 5 5 6 5 5 5 5 5 5 5 5 5 5 5 5 5 5 5 5 5 5 5 5 5 5 5 5 5 5 5 5 5 5 5 5 6 5 5 6 5 5 5 5 5 5 5 5 5 5 5 5 6 5 6 5 5 5 6 5 5 5 5 6 6 5 6 6 5 5 6 5 5 5 5 5 5 5 5 5 5 5 5 6 5 5 5 5 5 5 5 5 5 5 5 5 5 5 5 6 5 5 5 5 5 6 5 5 6 5 6 5 5 5 5 5 5 5 5 5 5 5 6 5 5 5 5 6 5 5 6 5 5 5 5 5 5 6 5 6 6 5 5 5 6 6 5 5 5 5 5 6 5 5 5 5 5 5 5 5 5 5 5 5 5 6 5 6 5 5 5 5 5 5 5 6 5 5 6 5 5 5 5 5 5 6 5 6 5 5 5 5 5 5 5 5 6 5 5 5 6 5 5 5 5 5 5 5 5 5 5 5 5 6 5 5 5 6 5 6 5 5 5 5 5 6 6 5 5 5 5 5 5 5 5 5 5 5 5 5 5 5 5 5 5 5 5 5 5 5 5 5 5 5 5 5 5 5 5 5 5 5 5 5 5 5 5 5 5 5 5 5 5 5 5 6 5 6 5 5 5 5 5 5 6 5 5 5 5 5 5 5 5 5 5 5 5 5 5 5 5 5 5 5 5 5 5 5 5 5 5 5 6 5 5 5 5 6 5 5 6 6 5 5 5 5 6 5 5 6 5 5 6 5 5 5 5 5 5 5 5 5 6 5 5 5 5 5 5 5 5 5 5 5 5 5 5 5 5 5 5 5 5 5 5 5 5 5 6 5 5 5 5 6 5 6 5 5 5 5 5 5 5 5 5 5 5 5 5 6 5 6 5 5 5 5 5 5 5 5 5 5 5 5 5 5 5 5 5 5 5 5 5 5 6 5 5 5 5 5 5 5 5 5 5 5 5 5 5 5 5 5 5 5 5 5 5 5 5 5 5 6 5 5 5 5 5 5 5 5 5 5 5 5 5 5 5 5 5 5 5 5 5 5 5 5 5 5 5 5 5 5 6 5 5 5 5 5 5 5 5 5 5 5 5 5 5 5 5 5 5 5 6 5 5 5 5 5 5 5 5 5 5 5 5 5 5 5 5 5 5 5 5 5 5 5 5 6 5 6 5 5 5 5 5 5 5 5 5 5 5 5 5 6 5 5 6 5 6 5 6 5 5 5 5 5 5 5 5 5 5 5 6 5 5 5 5 5 6 5 5 6 5 5 5 5 5 5 6 5 5 5 6 5 5 5 5 5 5 5 5 6 5 5 5 5 5 5 5 5 5 5 6 5 5 5 5 5 6 5 5 5 6 5 5 5 6 5 5 5 6 6 5 5 5 6 5 5 6 5 5 6 5 5 5 5 5 5 5 5 5 5 6 5 5 6 5 5 5 5 6 5 6 5 5 5 5 6 5 5 5 5 5 5 5 6 5 5 5 5 6 5 5 6 5 5 6 5 5 5 5 5 5 5 5 5 5 5 5 5 5 5 5 5 5 5 5 5 5 6 5 5 5 5 6 5 5 5 5 5 5 6 5 5 5 5 5 5 5 5 6 5 6 5 5 5 5 5 5 5 5 5 5 5 5 5 5 5 5 5 5 5 5 5 6 5 5 5 5 5 5 5 6 5 5 5 6 5 5 6 6 5 5 5 5 5 5 5 5 5 6 5 5 5 5 5 5 5 5 5 5 5 5 5 5 5 5 5 5 5 5 5 5 5 5 5 5 5 5 5 5 6 5 5 5 5 5 5 5 5 5 5 6 5 5 5 5 5 5 5 5 5 5 5 5 5 6 5 5 5 5 5 5 5 5 5 5 5 5 6 5 6 5 5 5 6 6 5 5 5 5 5 5 5 5 6 5 5 5 6 5 5 5 5 5 5 5 5 5 5 5 5 5 5 5 5 5 5 5 5 5 5 6 6 5 5 5 5 5 6 5 5 5 5 5 5 6 5 5 5 5 5 5 5 5 5 5 5 5 5 5 5 5 5 5 5 5 5 5 5 5 5 5 5 5 5 5 5 5 5 6 5 5 5 5 5 5 5 5 5 5 5 5 6 5 5 6 5 5 6 5 6 5 5 5 6 6 5 5 5 5 5 5 6 5 5 5 5 5 5 5 6 6 5 6 5 5 5 6 5 5 5 5 5 5 5 5 5 5 5 6 6 5 5 5 5 5 6 5 5 5 5 5 5 5 5 6 6 5 5 5 5 6 5 5 5 6 5 5 5 5 5 5 5 6 5 5 5 5 5 5 5 5 5 5 5 6 5 5 6 5 5 6 5 6 5 5 6 5 6 5 6 5 5 6 5 5 6 5 5 5 5 6 5 5 5 5 6 5 5 5 5 5 6 5 5 5 5 5 5 5 5 6 5 5 5 5 5 5 5 5 6 5 5 5 5 5 5 5 5 5 5 5 5 5 5 5 5 5 5 5 5 6 5 5 5 5 5 5 5 5 5 5 5 6 5 5 5 5 5 5 5 5 5 5 5 5 5 6 5 5 5 5 5 6 5 5 6 5 5 5 5 5 5 6 5 5 6 5 6 5 5 6 6 5 5 5 5 5 5 5 5 5 5 5 5 5 5 5 6 5 5 5 5 5 5 5 5 5 5 5 5 5 5 5 5 5 5 5 5 6 5 5 5 5 5 5 5 5 5 5 5 5 5 5 5 5 5 6 5 5 5 5 5 5 5 5 5 5 5 6 5 5 5 5 5 5 5 5 5 5 5 5 5 5 6 5 5 5 5 5 5 6 5 5 5 5 5 5 5 5 5 5 5 5 5 5 5 5 5 5 5 5 5 5 5 5 5 5 5 5 5 5 5 5 5 5 5 5 5 5 5 5 5 5 5 5 5 5 5 5 5 5 6 5 5 5 5 6 5 6 5 5 5 5 5 6 5 5 5 5 5 5 5 5 5 5 5 5 5 5 5 5 5 5 6 5 5 5 5 6 5 5 5 5 6 5 5 6 6 5 6 5 5 5 5 5 6 5 5 6 5 5 5 5 5 5 5 5 5 5 5 5 5 5 5 5 5 5 6 5 5 5 5 5 5 5 5 5 5 5 5 5 6 5 5 6 6 5 5 5 6 5 6 5 6 6 5 5 5 5 6 5 5 5 6 5 5 5 5 5 5 5 5 5 5 5 5 5 5 5 5 5 5 5 6 6 5 5 6 5 6 5 6 5 5 5 5 5 5 5 5 5 5 5 5 5 6 6 5 5 5 6 5 5 6 5 5 5 6 5 5 5 5 5 6 5 5 5 5 6 6 5 5 5 5 5 5 5 5 5 5 5 6 5 5 5 5 5 5 5 5 5 5 5 5 5 5 5 5 5 5 5 6 5 5 5 5 6 5 5 5 5 6 6 5 5 5 5 5 5 6 5 5 5 5 5 5 6 5 5 5 5 6 6 5 5 5 5 5 5 5 5 6 5 5 5 5 5 6 5 5 5 5 6 5 5 5 5 5 5 5 5 5 5 5 5 5 5 5 5 5 5 5 5 5 5 5 5 5 5 5 5 5 5 5 5 5 5 5 5 6 5 5 5 6 5 6 5 5 5 6 5 5 5 6 5 5 5 5 5 5 6 5 5 5 5 5 5 5 5 5 5 5 5 5 5 5 5 5 5 5 5 5 5 5 5 5 5 5 5 5 5 5 5 5 5 5 5 5 5 5 5 5 5 5 5 5 5 5 5 5 5 5 5 5 5 5 5 5 5 5 5 5 5 5 5 5 5 5 5 5 5 5 5 5 5 5 5 5 5 5 5 5 5 5 5 5 5 5 5 5 5 5 5 5 5 5 5 5 5 5 5 5 5 5 6 5 5 5 5 5 6 5 5 5 5 5 5 5 5 5 5 5 5 5 5 5 5 5 5 5 5 5 5 5 5 5 5 6 5 5 5 6 5 5 5 5 5 6 5 5 5 5 5 5 5 5 5 5 5 5 5 5 5 5 5 5 5 5 5 6 5 5 5 6 5 5 6 5 5 5 5 6 5 5 5 5 5 5 5 5 5 5 5 5 6 5 6 5 5 5 5 5 5 5 5 5 5 5 5 5 5 6 5 5 5 5 5 5 5 6 5 5 6 5 5 5 5 5 5 5 5 5 5 5 5 5 5 5 5 5 5 6 6 5 5 5 5 5 5 5 5 5 5 5 5 5 5 5 5 5 5 5 5 6 5 6 5 5 5 5 5 5 5 5 6 5 5 5 5 5 5 6 5 5 6 5 5 5 5 5 5 6 6 6 6 5 5 6 5 5 5 5 5 5 5 5 5 5 5 5 5 5 5 5 5 5 5 6 5 5 5 5 5 5 5 5 5 5 5 5 5 5 5 5 5 5 5 5 5 5 5 5 5 5 6 6 6 5 5 5 6 5 5 5 5 5 5 5 5 5 5 5 5 5 5 5 5 5 5 5 5 5 5 5 5 5 5 5 5 5 5 5 5 5 5 5 5 5 5 5 6 5 5 5 5 6 6 5 6 5 5 6 5 5 6 5 5 5 5 5 5 6 5 5 5 5 5 5 5 6 5 6 5 6 6 5 5 5 5 5 5 5 5 5 5 5 5 6 5 5 5 5 5 5 5 5 5 5 5 6 5 5 5 5 5 5 5 5 5 5 5 5 5 5 5 5 6 5 5 5 5 5 5 5 5 5 5 5 6 5 5 5 5 5 5 6 5 5 6 6 5 5 6 5 5 5 5 5 6 5 5 5 6 5 6 5 5 5 5 6 5 5 5 6 5 5 6 5 5 5 5 5 5 6 5 5 5 5 5 6 5 6 5 5 6 6 5 5 5 5 5 5 6 5 5 5 5 5 5 5 5 5 5 5 5 5 5 5 5 6 5 5 5 5 5 6 5 5 6 5 5 5 5 6 5 5 5 5 6 5 5 5 5 5 5 5 5 6 5 5 5 5 5 5 6 5 5 6 5 5 5 6 5 5 5 6 6 5 5 5 5 5 5 5 5 6 5 5 6 5 5 5 5 5 5 5 5 5 5 6 5 5 5 5 5 5 5 6 5 5 5 5 6 5 5 5 6 5 5 5 5 6 6 6 5 6 5 6 5 5 5 6 5 6 5 6 6 6 6 5 5 5 5 6 5 6 5 5 5 6 5 6 5 6 5 5 6 5 5 5 5 5 5 6 5 5 5 5 5 5 5 5 5 5 5 5 5 5 5 5 6 5 5 5 6 5 6 6 5 5 6 5 5 6 5 5 5 5 5 5 5 6 5 5 5 5 5 5 5 6 5 5 5 6 6 5 5 5 5 5 5 5 6 5 6 6 5 6 6 5 6 6 5 5 5 6 5 5 5 5 5 5 5 5 5 5 5 5 5 5 5 5 6 5 5 6 5 5 5 5 5 5 5 5 5 5 5 5 5 5 5 5 5 5 5 5 5 5 5 5 5 5 5 5 5 5 5 5 5 5 5 5 5 5 5 5 5 5 5 5 6 5 5 6 5 5 5 5 5 5 5 5 5 5 5 5 5 5 5 5 5 5 5 5 5 5 5 5 5 5 5 6 6 5 6 5 5 5 5 5 5 5 5 5 5 5 5 5 5 5 5 5 5 5 5 5 5 5 5 5 5 5 6 5 5 5 5 5 5 6 5 6 5 5 6 5 5 5 5 5 5 5 5 5 5 5 5 5 5 5 6 5 5 5 5 5 5 5 5 5 5 5 5 5 5 5 5 5 5 5 5 5 5 5 5 5 5 5 5 5 5 5 5 5 5 5 5 5 5 5 5 5 5 5 5 5 5 5 5 5 5 5 5 5 5 5 5 5 5 5 5 5 5 5 5 5 5 5 6 5 5 6 5 5 6 6 5 6 5 6 5 5 5 5 5 5 6 5 5 5 5 5 5 5 5 6 5 5 5 6 5 5 5 5 5 5 5 5 5 5 5 6 6 5 5 5 5 5 6 6 5 5 5 5 5 5 5 5 5 6 5 5 5 6 5 6 5 5 5 5 5 5 5 5 5 5 5 5 5 5 5 5 5 5 5 5 6 5 5 5 5 5 5 5 5 5 5 5 6 5 5 5 5 5 5 6 6 5 5 5 6 5 5 5 5 5 5 6 5 5 5 5 5 5 5 5 5 5 5 5 5 5 5 5 5 5 5 5 5 5 5 5 5 5 5 5 6 5 5 5 5 5 5 6 5 5 5 5 5 5 5 5 5 5 5 5 5 5 5 5 5 5 5 5 5 5 5 5 5 5 5 5 5 5 5 5 5 5 5 5 5 5 5 5 5 5 5 6 5 6 5 5 5 5 6 5 5 6 5 5 5 5 5 5 5 5 5 6 5 5 6 6 6 5 5 5 6 5 5 5 5 5 5 5 5 5 5 5 5 6 5 5 5 6 6 6 5 5 5 6 5 6 5 5 5 5 5 6 5 5 5 5 5 5 6 5 5 5 5 5 5 5 5 5 5 5 5 5 5 5 6 6 5 5 6 5 5 5 5 5 5 6 5 5 5 5 5 6 5 5 5 5 5 6 5 5 5 5 6 5 5 6 5 5 5 5 6 5 5 5 5 5 5 5 5 6 5 5 5 5 5 5 6 5 5 5 5 5 5 6 5 5 5 5 6 5 5 5 6 6 5 5 5 6 5 6 6 6 5 5 5 5 5 5 5 5 5 5 5 5 5 5 5 5 5 5 6 6 5 5 5 6 6 5 5 5 6 5 5 5 5 5 5 5 5 5 5 5 5 5 5 5 5 5 5 5 5 5 5 5 5 5 5 5 5 5 6 5 5 5 5 5 5 5 6 5 5 5 5 5 6 5 6 5 5 5 6 5 5 6 5 5 5 5 6 5 5 5 5 5 5 5 6 6 5 5 5 5 6 5 6 5 5 5 6 5 5 5 5 6 5 5 5 5 6 5 6 6 5 5 5 5 6 5 6 6 6 6 6 5 5 5 6 5 5 6 6 5 5 6 5 5 5 5 5 6 6 5 5 5 6 5 5 6 5 5 5 5 5 5 5 5 5 5 5 5 5 5 5 5 5 5 5 5 5 5 5 5 6 5 5 5 5 5 6 5 6 5 5 5 5 5 6 5 5 5 5 5 5 5 5 5 5 5 5 5 5 5 5 5 5 5 5 5 5 5 5 5 5 5 5 5 5 5 5 5 5 5 5 5 5 6 5 5 6 5 5 5 6 5 6 5 6 6 5 6 5 6 5 5 5 6 5 5 5 5 5 5 6 5 5 5 5 5 6 5 5 6 5 5 5 5 5 6 5 6 5 5 5 6 5 5 5 5 6 5 5 5 5 6 5 5 6 5 6 5 5 5 5 5 5 5 5 6 5 5 5 5 6 5 5 5 5 5 5 5 5 5 5 5 6 5 5 5 5 5 5 5 5 5 5 5 5 6 5 5 5 5 5 6 5 6 5 5 6 5 5 6 6 5 5 5 5 5 5 5 5 5 5 6 5 5 5 6 5 5 5 5 5 5 6 5 5 5 5 5 5 5 5 5 5 5 5 5 5 5 5 5 5 5 5 5 5 5 5 5 5 5 5 5 5 5 5 6 5 5 5 5 5 5 5 6 5 5 6 5 5 5 5 5 5 5 5 5 5 5 5 5 6 5 5 5 5 5 5 5 5 5 5 5 5 5 5 5 5 5 5 5 5 6 5 5 5 6 5 5 5 5 5 5 6 5 5 5 6 5 5 5 5 5 5 5 5 5 5 5 5 5 5 5 5 5 5 5 5 6 5 5 5 5 6 5 5 5 5 5 5 5 5 5 5 5 5 5 5 5 5 5 5 5 6 5 5 5 5 5 5 5 6 5 5 5 5 5 5 5 5 5 5 5 5 5 5 5 6 5 5 5 5 5 5 5 6 5 5 6 6 5 5 6 6 5 5 5 6 5 5 5 6 5 5 5 5 5 5 5 5 5 6 5 5 5 5 5 5 6 5 5 5 5 5 5 5 5 6 6 6 5 5 6 5 5 5 5 5 5 5 5 5 5 5 5 5 5 6 5 5 5 5 6 6 6 5 5 5 6 5 5 5 5 5 5 5 5 5 5 5 5 5 5 5 5 5 5 5 5 6 6 5 5 6 6 5 5 5 5 5 5 5 5 6 5 5 6 5 5 5 5 5 5 5 5 5 5 5 5 5 5 5 5 5 5 5 6 5 5 5 5 5 5 6 5 5 5 5 5 5 5 5 5 5 5 5 5 5 5 5 5 5 5 5 5 5 5 5 5 5 5 5 5 5 5 5 5 5 5 5 5 5 5 5 5 5 5 5 5 5 5 5 5 5 6 5 5 5 6 5 5 5 5 6 5 6 5 5 5 6 6 5 5 5 5 6 5 5 6 5 5 5 5 5 5 6 5 6 5 5 5 5 5 5 5 5 5 5 6 5 6 5 5 5 5 5 5 5 5 6 5 5 5 5 5 6 5 5 5 6 5 5 5 5 5 6 5 5 5 5 5 5 5 5 6 5 5 5 5 5 5 5 5 6 5 5 6 6 5 5 6 6 5 6 5 5 5 5 5 5 5 5 5 5 5 5 5 5 5 5 5 5 5 5 5 5 5 5 5 5 5 5 5 5 5 6 5 5 5 5 5 5 5 5 5 5 5 5 5 5 5 5 6 5 5 5 5 5 5 5 5 6 5 5 5 5 5 5 5 5 5 5 5 5 6 5 5 5 5 5 5 5 5 5 5 5 5 5 5 5 5 5 5 5 5 5 5 5 5 6 5 6 5 5 5 5 5 5 5 5 5 5 6 5 5 5 5 5 6 5 5 5 5 5 5 5 5 5 5 5 5 5 5 5 5 5 5 5 5 5 6 5 5 5 5 5 5 5 5 5 5 5 5 5 6 6 5 5 5 6 5 5 5 6 5 5 6 5 5 5 5 5 5 5 6 5 5 5 5 5 5 6 6 5 6 5 5 5 5 5 5 5 5 6 5 5 5 5 5 5 5 5 5 5 5 5 5 5 6 5 5 5 5 6 5 5 5 5 5 5 5 5 5 5 5 5 5 5 5 5 5 5 5 6 5 5 5 5 5 6 5 5 5 5 5 5 6 5 5 5 5 5 5 5 5 5 6 5 5 5 6 6 5 5 5 5 5 6 5 5 5 5 5 5 5 5 5 5 5 5 5 5 5 5 5 5 5 5 5 5 5 5 6 6 5 5 5 6 5 5 5 5 5 5 5 5 5 5 5 5 5 5 6 5 5 5 5 5 6 5 5 5 6 5 5 5 5 5 5 5 5 5 5 5 5 5 5 5 5 5 5 5 5 6 5 5 5 5 5 5 5 5 5 5 6 5 5 5 5 5 5 5 5 5 5 5 5 5 5 5 5 5 6 5 6 5 5 5 5 5 5 5 5 5 6 5 5 5 5 5 5 5 5 5 5 5 5 5 5 5 5 5 5 5 5 5 5 5 5 5 5 5 5 5 5 5 5 5 6 5 5 5 5 5 5 5 5 5 5 6 5 5 5 5 5 6 5 5 5 5 5 6 5 5 5 5 6 5 5 5 5 5 5 5 5 5 5 5 5 5 5 5 6 5 5 5 5 5 5 5 6 5 5 5 5 6 5 5 5 5 5 5 5 5 6 5 5 5 5 5 5 5 5 5 5 6 5 5 5 5 5 5 5 5 6 5 5 5 6 6 5 5 6 5 5 5 5 5 5 5 5 5 5 6 5 5 5 6 5 5 5 5 5 5 5 5 5 5 5 6 5 5 5 5 5 5 5 5 5 5 5 5 5 5 5 5 5 5 5 6 5 5 5 5 5 5 5 5 5 5 5 5 5 5 5 5 5 6 5 5 5 5 6 5 5 5 5 6 5 5 5 5 5 5 5 5 5 5 5 6 5 5 5 6 5 5 5 5 5 5 5 6 5 5 5 5 5 5 5 5 5 5 6 5 6 5 5 5 5 6 6 5 5 5 5 5 5 5 5 5 5 5 5 5 5 5 5 5 5 5 5 5 6 5 5 5 5 5 6 5 5 5 5 5 6 5 5 5 6 5 5 5 5 5 5 5 5 5 5 5 5 5 5 5 5 6 5 5 5 5 5 5 5 5 5 6 5 6 5 5 5 6 6 5 6 5 5 5 5 5 5 5 5 6 5 5 5 5 6 5 5 5 6 5 5 6 5 5 6 5 5 5 5 5 5 6 5 5 5 5 6 6 5 5 5 5 5 5 5 5 5 6 5 5 5 5 6 6 5 5 5 5 6 5 5 6 5 6 5 5 5 5 6 5 5 5 5 6 5 5 5 5 5 5 5 5 5 5 5 5 5 5 5 5 5 5 5 5 6 5 5 5 5 5 5 5 6 5 5 5 5 6 5 5 5 5 5 5 5 5 5 5 5 5 5 5 5 5 5 5 5 5 5 5 5 5 5 5 5 5 5 5 5 5 5 5 5 5 5 5 5 5 5 5 5 5 5 5 5 5 5 5 5 5 5 5 5 5 5 6 5 5 5 5 6 5 5 5 5 5 6 5 5 5 5 5 5 5 5 5 5 5 5 6 5 5 5 5 6 5 5 6 5 5 5 5 6 5 5 5 5 5 6 5 5 5 5 6 5 6 5 5 5 6 5 5 5 5 6 5 6 5 5 6 6 5 5 6 5 5 5 5 5 5 5 6 5 5 5 6 5 6 5 5 5 5 5 5 6 5 6 6 5 5 5 5 5 5 5 5 5 5 5 5 6 5 5 5 5 6 5 5 5 5 5 5 5 5 5 5 6 5 5 5 5 5 5 6 5 5 5 5 5 5 5 5 5 5 6 5 5 6 5 5 5 5 5 5 5 5 6 5 5 5 5 6 5 5 5 6 5 6 5 5 5 6 6 5 5 6 5 5 6 5 5 5 5 6 6 5 6 5 5 5 5 6 5 5 5 5 6 5 5 5 5 6 5 5 5 5 6 5 5 5 5 6 6 6 5 6 5 6 5 5 6 5 5 5 5 5 5 6 5 5 5 5 5 5 6 5 5 5 5 5 5 5 5 5 5 5 5 5 5 5 6 5 5 5 6 5 5 5 5 5 6 5 5 6 5 5 5 5 5 5 5 6 5 5 5 5 5 5 5 5 5 5 5 5 5 5 5 5 6 5 5 5 5 5 6 5 5 5 5 5 5 5 5 5 5 5 5 6 5 5 5 6 5 5 6 5 6 5 5 5 5 6 6 6 5 5 5 5 5 5 5 5 5 5 5 5 5 5 5 5 6 5 5 5 5 5 5 5 5 5 5 5 5 5 5 5 5 5 5 5 5 5 5 5 6 5 6 5 6 5 5 5 5 5 5 5 6 5 5 5 5 6 5 6 5 5 5 5 5 5 5 5 5 5 5 5 5 5 6 5 5 6 5 5 5 5 5 5 5 5 5 5 5 5 5 5 5 5 5 5 6 5 5 5 5 5 6 5 5 6 5 5 6 5 5 5 5 5 5 5 5 5 5 5 5 5 6 5 5 5 5 5 5 5 5 5 5 5 5 5 5 5 5 5 5 5 5 5 5 5 5 5 5 5 5 5 5 5 5 5 5 5 5 5 5 5 5 5 5 5 5 5 5 5 5 5 5 5 6 5 5 5 5 5 5 5 5 5 5 5 5 5 5 5 5 5 5 5 5 5 5 5 5 5 5 5 5 5 5 5 5 5 5 5 5 5 5 5 5 5 6 5 5 6 5 5 6 5 5 5 5 5 6 5 5 5 5 6 5 6 5 5 5 5 5 6 5 5 5 5 5 5 5 5 5 5 5 5 5 5 5 5 5 5 5 5 5 5 5 5 5 5 5 5 5 5 5 5 5 6 5 6 5 5 6 5 5 5 5 5 6 5 5 5 5 5 5 6 5 5 5 5 5 5 5 5 5 5 5 6 5 6 5 5 5 6 5 5 5 5 6 5 5 6 5 5 5 5 5 5 5 6 5 5 5 6 5 5 5 5 5 6 5 5 5 5 5 5 5 5 5 5 5 5 5 5 5 5 5 5 5 5 5 5 5 5 5 5 5 5 5 5 5 6 5 5 6 5 5 5 5 6 5 5 6 6 5 5 5 6 5 5 5 5 5 5 6 5 5 5 5 5 5 5 5 5 5 5 5 5 5 5 5 5 5 5 5 5 5 5 5 5 5 6 6 5 5 5 5 5 6 5 5 6 5 5 5 5 5 6 5 5 5 6 5 5 5 5 5 5 5 5 5 5 5 5 5 5 5 6 5 6 5 5 5 5 5 5 6 5 5 6 5 5 5 5 5 5 5 5 5 5 5 5 5 5 5 5 5 5 5 5 5 5 5 5 5 5 6 5 5 6 5 5 5 5 6 5 5 5 5 5 5 5 5 5 5 5 5 5 5 5 5 5 5 5 5 5 5 5 5 5 5 5 5 5 5 5 5 5 5 5 5 5 5 5 5 6 5 5 5 5 6 5 5 6 5 6 5 5 5 5 5 5 5 6 5 5 5 5 5 5 5 5 5 6 5 5 5 5 5 5 5 6 5 5 5 5 6 5 5 5 5 5 5 5 5 5 5 6 5 5 5 5 5 5 5 5 5 5 5 6 5 6 5 5 5 5 5 5 5 5 5 5 5 5 5 5 5 5 5 5 5 5 5 5 5 5 6 5 5 5 5 5 5 6 5 6 5 5 5 6 5 5 5 6 5 5 5 5 5 5 5 5 6 5 5 5 6 5 5 6 5 5 5 5 5 5 5 5 5 5 5 5 6 5 5 5 6 5 5 5 5 5 5 5 6 5 5 5 5 5 5 5 5 5 5 6 5 5 5 5 5 6 6 5 6 5 5 5 6 5 5 5 5 5 5 5 5 5 6 5 5 5 5 5 6 5 5 5 5 5 5 5 5 6 5 5 5 6 5 5 6 5 5 5 6 5 5 5 5 5 5 5 5 5 5 5 5 5 5 5 5 5 5 5 6 5 5 6 5 5 5 5 5 5 5 5 5 5 5 5 5 5 5 5 5 5 6 5 5 5 5 6 5 5 5 5 5 5 5 5 5 5 6 5 5 5 5 5 5 6 5 5 5 5 5 5 5 5 5 5 5 5 5 5 5 5 5 5 5 5 5 6 5 5 5 5 5 5 6 5 5 6 5 6 5 5 6 5 6 5 5 5 6 5 5 6 6 5 5 5 6 5 5 5 6 5 5 6 5 5 5 6 5 5 5 5 5 5 5 5 5 5 5 5 5 5 5 5 5 5 5 5 5 5 5 5 6 5 6 5 5 5 6 5 5 6 5 5 5 5 5 5 5 5 5 5 5 6 5 5 5 5 6 6 5 5 6 5 5 5 5 6 5 5 5 5 5 5 5 6 5 5 6 5 5 5 6 5 5 5 6 5 5 5 5 5 5 5 5 5 5 5 5 5 5 5 5 5 5 5 6 5 5 5 5 6 5 5 6 5 5 5 6 5 5 6 5 5 6 5 5 6 5 5 5 5 5 5 5 5 5 5 5 5 5 5 5 5 5 6 6 6 5 6 6 5 5 5 6 5 5 5 5 5 6 5 6 5 5 5 5 6 5 5 5 5 5 5 5 5 5 5 5 5 5 5 5 5 5 5 6 5 5 5 5 6 5 5 6 5 5 5 5 5 5 5 6 6 5 5 5 6 5 6 5 5 5 5 5 5 5 5 5 5 6 5 5 5 5 5 5 5 5 5 5 6 5 5 5 5 6 5 5 5 5 6 5 5 5 5 6 5 5 5 6 5 5 5 6 6 5 6 5 6 5 5 5 5 5 5 5 5 6 5 5 6 5 5 5 6 5 5 5 6 5 5 5 5 5 5 5 5 5 5 5 6 5 5 5 6 5 5 5 6 5 5 5 6 5 5 5 5 5 5 5 5 5 5 5 6 5 5 5 5 6 5 5 5 5 5 5 5 6 5 5 5 5 5 5 6 5 5 5 5 5 5 5 5 5 5 6 5 5 6 5 5 5 5 5 5 6 5 6 5 5 5 5 6 5 5 5 5 5 6 5 5 5 5 5 5 5 5 5 5 5 5 5 5 6 5 5 5 5 5 5 5 5 5 5 5 5 5 5 5 5 5 5 5 5 5 5 5 5 5 6 6 5 5 5 5 6 6 5 5 5 5 6 5 5 5 5 5 5 5 5 5 5 5 5 5 5 5 6 5 5 6 5 5 5 5 5 5 5 5 5 5 5 5 5 5 5 5 5 5 5 6 5 5 5 5 5 5 5 5 5 5 6 5 5 5 5 5 5 5 6 5 5 5 5 5 5 6 5 5 5 6 5 5 5 5 5 5 5 5 6 5 5 5 5 5 5 5 5 5 5 5 5 5 5 5 5 5 5 5 5 5 5 5 5 5 5 5 6 5 5 5 5 5 5 5 6 5 5 5 5 6 5 5 5 5 5 5 5 5 6 5 5 6 5 5 5 6 5 5 5 6 5 5 5 6 5 5 5 5 5 5 5 5 5 5 5 5 5 5 5 5 5 5 5 5 5 5 5 5 5 5 5 5 5 5 5 5 5 5 5 6 5 5 5 6 5 5 6 5 5 5 5 6 5 6 5 6 5 5 5 5 5 5 6 5 5 5 6 6 5 6 5 6 5 6 5 6 6 5 5 5 6 6 5 6 5 6 5 6 6 5 5 5 5 5 5 5 5 5 5 5 5 5 5 6 6 5 6 5 5 5 5 5 5 5 6 5 5 5 5 5 5 5 5 5 5 5 5 5 5 5 5 5 5 5 5 5 5 5 5 5 5 5 5 5 5 6 5 5 6 5 5 5 6 6 5 5 5 5 5 5 5 5 5 5 5 5 5 5 5 6 5 5 5 5 5 5 5 5 5 5 5 5 5 5 5 6 5 6 5 5 6 5 5 5 6 5 5 5 5 5 5 5 5 5 5 5 6 5 5 5 5 6 5 5 5 5 5 6 5 5 5 5 5 5 5 5 5 5 6 5 5 6 5 5 5 5 5 5 6 5 5 5 5 6 5 5 5 6 5 5 5 6 5 5 6 5 5 5 6 5 5 5 5 5 6 5 5 5 5 5 5 5 5 5 5 5 5 5 5 5 6 5 5 6 5 6 6 5 5 5 6 6 5 5 5 6 5 5 5 5 5 6 6 5 6 6 5 5 5 5 5 5 6 5 5 5 5 5 5 5 5 6 5 5 5 5 6 5 5 5 5 5 6 5 6 5 5 5 6 5 5 5 5 5 5 5 5 6 5 5 5 5 5 5 5 5 6 5 5 5 5 5 5 5 5 5 5 5 5 5 5 5 5 5 5 5 5 5 5 5 5 5 5 5 5 5 5 5 5 5 5 5 5 5 5 5 5 5 5 5 5 5 5 5 5 5 5 5 5 5 5 5 5 5 5 5 5 5 5 5 5 5 5 5 5 5 5 5 5 5 5 5 5 5 5 5 5 5 5 5 5 5 5 5 5 5 5 5 5 5 5 5 5 5 5 5 5 5 5 5 5 5 5 5 5 5 5 5 5 5 5 5 5 5 5 6 5 5 5 5 5 6 6 5 5 5 5 5 5 5 6 6 5 5 5 5 5 5 6 5 5 6 5 5 5 5 5 5 5 5 5 5 5 5 5 6 5 5 5 5 6 6 5 5 5 5 5 5 6 5 6 5 5 5 5 5 5 6 5 5 5 5 5 6 5 5 5 5 6 5 5 5 5 5 5 5 5 5 5 5 5 5 5 5 5 5 5 5 5 5 5 6 5 5 5 5 5 5 5 5 5 5 5 5 5 5 5 5 5 5 5 5 5 5 5 5 5 5 5 5 5 5 5 5 5 5 5 5 5 5 5 5 5 5 5 5 5 5 5 5 5 5 5 5 5 5 5 5 6 5 5 5 6 5 5 5 5 5 6 5 5 5 5 5 6 5 6 5 5 5 5 5 5 6 5 5 5 5 5 5 5 5 5 5 6 5 5 5 5 5 5 5 5 5 5 5 5 5 5 5 5 5 6 5 5 5 5 5 5 5 6 5 5 5 5 5 5 5 6 5 5 6 5 5 5 5 5 5 6 5 5 5 5 5 5 5 5 5 5 5 5 5 5 5 5 5 5 5 5 5 5 5 5 5 5 5 5 5 5 5 5 5 5 5 5 5 5 5 5 5 5 5 6 5 5 5 5 5 5 6 5 5 5 5 6 5 5 5 5 5 6 5 5 5 5 5 5 5 6 5 5 5 5 5 6 5 5 5 5 5 5 5 5 5 5 5 5 5 5 5 5 5 5 5 5 5 6 5 5 5 6 5 5 5 5 5 6 5 5 5 5 5 5 5 5 5 5 5 6 5 5 5 6 5 6 5 5 5 6 5 5 6 5 5 5 5 5 5 5 5 5 5 5 5 5 5 5 6 5 5 5 5 5 6 5 6 5 5 6 5 5 5 5 5 5 5 5 5 5 5 6 5 5 5 5 5 5 5 5 5 5 5 5 5 5 5 5 5 5 5 5 5 5 5 5 5 5 5 5 5 5 5 5 5 5 5 5 6 5 5 5 5 5 5 5 5 5 5 6 5 5 5 5 5 5 5 5 5 5 5 5 5 5 5 5 5 6 5 5 5 5 5 5 5 5 5 5 5 5 5 5 5 5 5 6 5 5 5 5 5 5 6 5 5 5 5 5 6 5 5 5 5 5 5 5 5 5 5 5 5 5 6 5 5 5 6 5 5 5 5 5 6 5 6 5 5 5 5 5 5 5 5 5 5 5 5 5 6 5 5 5 5 5 5 5 5 5 5 5 5 6 5 6 5 5 5 5 5 5 5 5 5 5 5 5 5 5 5 5 5 5 5 5 5 5 5 5 5 5 5 5 5 5 5 5 5 5 6 5 5 5 5 5 6 5 5 5 5 5 6 5 5 5 5 5 5 5 5 5 6 5 5 5 5 5 5 5 5 5 5 5 5 6 5 5 5 5 5 5 5 5 5 6 5 5 5 5 5 5 5 5 5 5 5 5 5 5 5 5 5 5 5 5 5 5 5 5 5 5 5 5 5 5 5 5 5 5 5 5 5 5 5 5 5 5 5 5 5 5 5 5 5 5 5 5 5 5 5 5 5 5 5 5 5 5 5 5 5 5 5 5 5 5 5 5 5 5 5 5 5 5 5 5 5 5 5 5 5 5 5 5 5 5 5 5 5 5 5 5 5 5 5 5 5 6 5 5 5 5 5 5 5 5 5 5 5 5 5 5 6 5 6 5 5 5 5 5 5 5 5 5 5 5 5 5 5 5 5 6 5 5 5 5 5 5 5 5 5 5 5 5 5 5 5 6 5 5 5 5 5 5 6 5 5 5 5 5 5 5 5 5 5 5 5 6 5 5 5 5 5 5 5 6 5 5 5 5 6 5 5 6 5 6 5 5 5 5 6 5 5 5 5 5 6 5 5 5 5 5 5 5 5 5 5 5 5 5 5 5 5 5 5 5 5 6 5 5 5 5 5 5 6 5 5 5 5 6 5 5 5 5 5 5 5 
</DataArray>
<DataArray type="Float64" Name="stress" NumberOfComponents="9" format="ascii">
-9.9728570456162888 183.35900525282523 0 183.35900525282523 -499.06763251544726 0 0 0 0 -0.12472702107045275 34.284008785654578 0 34.284008785654578 -223.28079344908474 0 0 0 0 70.266663912847434 76.41526438735491 0 76.41526438735491 -447.07914110198544 0 0 0 0 -3.7773394612487579 95.465244779080422 0 95.465244779080422 -282.45194583685225 0 0 0 0 -16.997649779917683 51.890154147245426 0 51.890154147245426 -40.842118833570566 0 0 0 0 -5.0762476456411747 16.74225015778029 0 16.74225015778029 -93.637408834580128 0 0 0 0 18.127347663184459 2.4109526687070684 0 2.4109526687070684 23.178623597988008 0 0 0 0 16.194324740999022 55.171173825354344 0 55.171173825354344 -53.131224689217561 0 0 0 0 100.72243484976002 -24.021373590815529 0 -24.021373590815529 -28.93250857838575 0 0 0 0 200.31885641631385 -9.3021792665585963 0 -9.3021792665585963 -54.293275175248709 0 0 0 0 0.85393895403942754 0.31263023943359514 0 0.31263023943359514 -6.8470841943080956 0 0 0 0 -0.36211792250408059 43.297271781023028 0 43.297271781023028 -16.14117656934468 0 0 0 0 0.45448414686795824 -0.2121342615329318 0 -0.2121342615329318 -2.9955214686454923 0 0 0 0 85.241789056829234 -43.04404975520265 0 -43.04404975520265 -5.6315985643159365 0 0 0 0 5.1059060800995706 -2.9148267036572406 0 -2.9148267036572406 -4.9428246303250489 0 0 0 0 -74.229766943551184 76.642105947350501 0 76.642105947350501 -0.49691265932051465 0 0 0 0 5.4133036378245833 -2.1877601016294648 0 -2.1877601016294648 -5.8786576381135092 0 0 0 0 272.78317463628656 -146.87118381370237 0 -146.87118381370237 -28.273205733122268 0 0 0 0 132.9551796237804 -83.697229929635796 0 -83.697229929635796 60.99882797934697 0 0 0 0 -26.403311625159471 -44.372752990398112 0 -44.372752990398112 -59.042605598082446 0 0 0 0 0.22473700733326235 -1.4008533487743478 0 -1.4008533487743478 -5.9043234248301175 0 0 0 0 -101.6506929811584 185.30021171462249 0 185.30021171462249 -190.29724119990169 0 0 0 0 -0.083437270944142591 0.35529443810801986 0 0.35529443810801986 -1.4400165050871863 0 0 0 0 -4.7281373830477165 199.08752148578697 0 199.08752148578697 -337.09270562137635 0 0 0 0 -90.09431237885201 263.77376014797301 0 263.77376014797301 -391.7742044385177 0 0 0 0 -41.125234872103249 -325.50202338870986 0 -325.50202338870986 -143.25953912141631 0 0 0 0 -69.298374782671132 -265.9640748484785 0 -265.9640748484785 13.570931602698693 0 0 0 0 -0.19428050837793581 -0.65332618630377581 0 -0.65332618630377581 -2.8861046278854872 0 0 0 0 43.187685605893805 -216.56574510194332 0 -216.56574510194332 -498.76340998292289 0 0 0 0 50.361290801785387 -83.230459644083567 0 -83.230459644083567 -218.26089425432428 0 0 0 0 44.792960835778736 -1.0671907502155591 0 -1.0671907502155591 62.736422032702194 0 0 0 0 255.147076274178 -66.019476166533991 0 -66.019476166533991 -65.266618328980258 0 0 0 0 3.4370834248566027 -83.893908895246568 0 -83.893908895246568 -387.02505461981764 0 0 0 0 19.159164559244083 -106.95430479667084 0 -106.95430479667084 -500.20134197426955 0 0 0 0 35.084058145464944 -191.92353270544913 0 -191.92353270544913 -297.4855834726568 0 0 0 0 -39.234271633407111 -36.609522888904394 0 -36.609522888904394 -270.13437677087063 0 0 0 0 -47.255988649581361 -19.102187421604867 0 -19.102187421604867 -381.85795729297752 0 0 0 0 -41.434109961456883 -46.707515933756895 0 -46.707515933756895 -313.13606636656368 0 0 0 0 -66.582072342513584 34.412421416869165 0 34.412421416869165 -350.88539491931624 0 0 0 0 -64.58296126217158 50.796474264023345 0 50.796474264023345 -267.92209585046612 0 0 0 0 -73.4082951864862 59.320064189153754 0 59.320064189153754 -150.53671082485562 0 0 0 0 -72.585671445704634 62.125886801182617 0 62.125886801182617 -283.10497212313931 0 0 0 0 -90.988028179133607 115.24168049920445 0 115.24168049920445 -205.35009003982032 0 0 0 0 -87.454973842281774 138.5194253301197 0 138.5194253301197 -309.87738563318635 0 0 0 0 33.178866432946322 14.199472801162301 0 14.199472801162301 -157.95397764479094 0 0 0 0 40.746227809899437 -19.071746422012438 0 -19.071746422012438 -44.498560291860485 0 0 0 0 113.56734443418854 26.416681979344617 0 26.416681979344617 -47.775695868171169 0 0 0 0 -36.163443270645097 -51.87765435741494 0 -51.87765435741494 -240.79461309224462 0 0 0 0 -36.921183251258739 -36.230768696038922 0 -36.230768696038922 -61.462714970451998 0 0 0 0 -39.294467066159093 59.064303537570595 0 59.064303537570595 -184.43445754668392 0 0 0 0 -38.366395406671678 67.901221232541047 0 67.901221232541047 -101.16209719063954 0 0 0 0 32.28884215351232 55.674049380982979 0 55.674049380982979 -138.96445149100145 0 0 0 0 61.614900113294951 91.875822424465696 0 91.875822424465696 -95.155588529256875 0 0 0 0 30.784287162745983 125.1047939988257 0 125.1047939988257 -161.27888564930799 0 0 0 0 -19.695239351151212 122.75517513331852 0 122.75517513331852 -118.40657597495374 0 0 0 0 -35.740349319968949 88.196319512055197 0 88.196319512055197 -192.7651709433012 0 0 0 0 -1.3602653742629585 169.04039734977323 0 169.04039734977323 -231.33989181504739 0 0 0 0 -162.87619611357275 182.60200794987344 0 182.60200794987344 -133.69745591293031 0 0 0 0 0.77747060486819231 0.63942244666111847 0 0.63942244666111847 -0.23234500798430702 0 0 0 0 -35.323662909959438 220.39164371393053 0 220.39164371393053 -191.00919423407868 0 0 0 0 -3.7075814333036732 169.9885961126696 0 169.9885961126696 -126.48019081688108 0 0 0 0 -19.127143557971547 204.49906926169706 0 204.49906926169706 -378.7378936290952 0 0 0 0 1.2189581286370523 0.73217024743877346 0 0.73217024743877346 -0.70933719874890855 0 0 0 0 15.751752688304492 317.92871709540577 0 317.92871709540577 -307.20798542577177 0 0 0 0 -99.243828113883055 129.32091559471064 0 129.32091559471064 -174.7468058215361 0 0 0 0 -92.724389828733237 145.5485972316601 0 145.5485972316601 -223.46213957826922 0 0 0 0 -147.22390036179695 88.254951874561812 0 88.254951874561812 -106.80102974024521 0 0 0 0 16.989500583313017 142.37925280736999 0 142.37925280736999 -149.65166868678079 0 0 0 0 20.497227375482737 112.48422874982771 0 112.48422874982771 77.201946164319452 0 0 0 0 -144.6262560748869 27.423743522293989 0 27.423743522293989 -259.8882979980981 0 0 0 0 -156.45046055894335 79.96192442677193 0 79.96192442677193 -63.244775714610114 0 0 0 0 10.609680469057842 113.11698918176717 0 113.11698918176717 -295.94553352581897 0 0 0 0 -4.8291745290835237 84.8054515770732 0 84.8054515770732 -259.1667263332929 0 0 0 0 -78.34420051589484 146.85270628945273 0 146.85270628945273 -118.74812208648746 0 0 0 0 -42.410765231140935 56.051177893177737 0 56.051177893177737 -286.03094316780744 0 0 0 0 -2.2396825133374207 42.198457783652429 0 42.198457783652429 -335.43280643482649 0 0 0 0 -11.0104109176078 22.98142051340983 0 22.98142051340983 -371.19078128169258 0 0 0 0 -43.836008011379249 -12.584293063836412 0 -12.584293063836412 -431.59647627933737 0 0 0 0 10.281259586399898 122.25840263745067 0 122.25840263745067 -347.24745891559814 0 0 0 0 8.2375451596421456 102.27927103179445 0 102.27927103179445 -536.56765826095761 0 0 0 0 -216.9520836933882 282.32687733516195 0 282.32687733516195 -261.04179820366244 0 0 0 0 -0.1321724004325934 0.35131575156239059 0 0.35131575156239059 -3.4815136320635105 0 0 0 0 23.839461266118917 -32.900957353470403 0 -32.900957353470403 -46.041365955181391 0 0 0 0 -154.1181529223328 42.649425469515791 0 42.649425469515791 -282.6176942906568 0 0 0 0 29.923395687329801 41.430431123161952 0 41.430431123161952 -345.84458583019477 0 0 0 0 0.038795897017084593 33.788348005570242 0 33.788348005570242 -223.3848146320147 0 0 0 0 16.242879745674195 18.836394164586636 0 18.836394164586636 -252.61733136899511 0 0 0 0 -34.087757222003432 156.73359125765273 0 156.73359125765273 -492.43823345851024 0 0 0 0 109.14230104383856 -69.643884265568886 0 -69.643884265568886 -354.48986445201535 0 0 0 0 18.45203382225246 33.056783141385495 0 33.056783141385495 28.227539103983872 0 0 0 0 8.326804519403062 -25.054626070537779 0 -25.054626070537779 -32.284883881900896 0 0 0 0 97.948532892020552 -47.509073022378288 0 -47.509073022378288 -27.275890600245475 0 0 0 0 95.871888917000206 54.645792358825929 0 54.645792358825929 -78.495068522197471 0 0 0 0 0.31729501917518149 1.1686952859392257 0 1.1686952859392257 0.33143572161324641 0 0 0 0 0.53730872794812867 -0.19580908286889942 0 -0.19580908286889942 -8.9995317128637495 0 0 0 0 50.438358301109361 74.131589464795979 0 74.131589464795979 -50.398291194851481 0 0 0 0 -6.9775351563965273 58.875274709595033 0 58.875274709595033 -44.943551686692444 0 0 0 0 -99.371438086017349 106.43021784085568 0 106.43021784085568 -38.737869659962598 0 0 0 0 61.803965135345038 40.254927442087137 0 40.254927442087137 -66.079848509920339 0 0 0 0 -2.6659232262359751 33.942600352051159 0 33.942600352051159 -0.95135208831197815 0 0 0 0 -15.528288155469394 80.160659447648868 0 80.160659447648868 -293.49044246882067 0 0 0 0 -10.086061409954638 4.3014190545695783 0 4.3014190545695783 -380.40555550676345 0 0 0 0 -12.177596749480699 36.486105734324241 0 36.486105734324241 -537.21551508042648 0 0 0 0 -21.552153805406192 66.773518208502423 0 66.773518208502423 -448.86363044768495 0 0 0 0 -4.2035542400322123 63.545205465558411 0 63.545205465558411 -500.15186645690574 0 0 0 0 -16.531411765121653 51.49348404138459 0 51.49348404138459 -460.15311390950046 0 0 0 0 -16.405608671784073 53.422557697584125 0 53.422557697584125 -465.17257519018585 0 0 0 0 -44.114717489447997 52.351717352757987 0 52.351717352757987 -446.34675562967459 0 0 0 0 -25.363880982820188 27.206121773639097 0 27.206121773639097 -499.32602451709408 0 0 0 0 -37.835917554055023 27.009803521635604 0 27.009803521635604 -432.59353530727458 0 0 0 0 -0.02723939568226862 -0.19032368802998434 0 -0.19032368802998434 -1.1940380499462311 0 0 0 0 -54.269520022203167 55.148644185188004 0 55.148644185188004 -257.7458819379608 0 0 0 0 -45.58171203832012 59.452948966764779 0 59.452948966764779 -407.87220464631446 0 0 0 0 -23.818950919154581 54.874708573761836 0 54.874708573761836 -498.81001096267755 0 0 0 0 -11.86224132172795 82.389602204632411 0 82.389602204632411 -445.65317627813147 0 0 0 0 -41.730917765015818 62.225634923011057 0 62.225634923011057 -444.17917295424286 0 0 0 0 4.3698000252284857 113.5018051913853 0 113.5018051913853 -613.0221478169492 0 0 0 0 0.18040404609684868 -0.89044494826676335 0 -0.89044494826676335 -1.0617658396734733 0 0 0 0 -25.815602058821781 87.66896871420613 0 87.66896871420613 -447.84582676260106 0 0 0 0 -37.351479109251216 115.62107410659792 0 115.62107410659792 -511.6104609839565 0 0 0 0 -21.226172177177013 80.690075191875621 0 80.690075191875621 -445.1611031413845 0 0 0 0 -12.588352881274503 71.097064827882605 0 71.097064827882605 -481.75587973665188 0 0 0 0 10.449971996660622 97.228010326659387 0 97.228010326659387 -449.26253295212155 0 0 0 0 -34.478827456695434 71.625949379724261 0 71.625949379724261 -461.45958641503239 0 0 0 0 -23.085291194903341 72.417010300226593 0 72.417010300226593 -461.78851218226919 0 0 0 0 -5.4446503950479244 63.92144915437575 0 63.92144915437575 -477.72834788158798 0 0 0 0 -16.978033412997959 116.83832422220985 0 116.83832422220985 -467.20711402840152 0 0 0 0 -17.346513936292737 53.341758584392664 0 53.341758584392664 -485.92257100913776 0 0 0 0 -29.522457885442172 189.92008787399482 0 189.92008787399482 -499.84385049967659 0 0 0 0 -17.595368314554833 144.62252627342627 0 144.62252627342627 -330.584867060119 0 0 0 0 -41.090353645474323 1.1959630121737064 0 1.1959630121737064 -295.38559252260575 0 0 0 0 32.160220989603118 58.565841922240907 0 58.565841922240907 -499.90770405724925 0 0 0 0 -49.692325489850305 31.104197764439959 0 31.104197764439959 -517.45631340807267 0 0 0 0 -0.0042434175173615279 -0.25628562651472464 0 -0.25628562651472464 -1.0127436852276954 0 0 0 0 -8.3610893749711064 104.77067588796081 0 104.77067588796081 -569.23390118547286 0 0 0 0 -62.16659598403696 23.166253719480665 0 23.166253719480665 -446.8508610068202 0 0 0 0 -2.0169203638910691 -8.288100005520846 0 -8.288100005520846 -407.5243987107915 0 0 0 0 0.29873473164700837 -7.2769004066094567 0 -7.2769004066094567 -439.68439067245072 0 0 0 0 -10.735410108172665 -39.65855794962863 0 -39.65855794962863 -499.83263040401442 0 0 0 0 -44.734653100771247 -13.831525286253054 0 -13.831525286253054 -372.169074054882 0 0 0 0 -80.383129470287713 53.026586498707729 0 53.026586498707729 -373.9131882634772 0 0 0 0 -77.283629432654223 40.757361586252046 0 40.757361586252046 -408.55237825535733 0 0 0 0 -57.123768687682471 43.213265589172579 0 43.213265589172579 -416.64221860442376 0 0 0 0 -98.973916516812324 69.209918027363528 0 69.209918027363528 -422.86643796471662 0 0 0 0 -20.652442982413561 126.25719843641673 0 126.25719843641673 -412.36739806925311 0 0 0 0 -59.16481986949448 98.235244935656738 0 98.235244935656738 -405.44577306715473 0 0 0 0 -78.299351277031121 191.11221261507035 0 191.11221261507035 -456.88055239450114 0 0 0 0 0.47879894415306962 0.16798597203072241 0 0.16798597203072241 -0.8129930509961234 0 0 0 0 -177.48718806851153 -28.700774171328703 0 -28.700774171328703 -356.82810736714055 0 0 0 0 -76.764111365110097 133.72328570820173 0 133.72328570820173 -432.48877415499192 0 0 0 0 -84.996067063952069 263.84288459318304 0 263.84288459318304 -430.5367574219199 0 0 0 0 -266.0530148745969 288.85217485978501 0 288.85217485978501 -324.63686455695643 0 0 0 0 3.6786235806607386 -2.4129156893716335 0 -2.4129156893716335 -3.8452435400484752 0 0 0 0 -28.214170177285773 -1.5143040918665065 0 -1.5143040918665065 -295.94153330688096 0 0 0 0 59.603547018121731 -35.928718139986813 0 -35.928718139986813 -584.81238497364666 0 0 0 0 0.8899399926825029 -0.13780912088587005 0 -0.13780912088587005 -1.6650922021925112 0 0 0 0 27.98131233686459 -7.7239324725509846 0 -7.7239324725509846 -13.229227842442924 0 0 0 0 0.87413800852364976 2.4010298190007298 0 2.4010298190007298 -12.502392614224995 0 0 0 0 1.0696534193536493 1.2202217993850191 0 1.2202217993850191 -2.0286897614862855 0 0 0 0 -129.59712920248904 200.17369705603232 0 200.17369705603232 -270.11989015004474 0 0 0 0 38.026116247201344 66.673606932696202 0 66.673606932696202 112.69845877906937 0 0 0 0 82.286437364795859 81.240313240214164 0 81.240313240214164 59.949290526617915 0 0 0 0 62.215171733332781 127.74154882980883 0 127.74154882980883 -21.796151086053214 0 0 0 0 260.76014283730956 46.497211473539664 0 46.497211473539664 -109.64562524339226 0 0 0 0 -0.046605084011507175 2.0835201360484579 0 2.0835201360484579 -9.6098767354329624 0 0 0 0 34.980559087046913 25.030328352469951 0 25.030328352469951 -73.688515409682623 0 0 0 0 -0.84734748575897356 -20.474105666092328 0 -20.474105666092328 -12.099621817912748 0 0 0 0 -37.305485484479419 19.290205048743701 0 19.290205048743701 -19.048145151722565 0 0 0 0 -3.3885001432831814 6.2692191132164226 0 6.2692191132164226 -24.679854819378079 0 0 0 0 -23.949014975634327 -6.3826019535645173 0 -6.3826019535645173 -9.6748475537591503 0 0 0 0 -3.2451660763624126 11.344705885496296 0 11.344705885496296 -157.71704953790686 0 0 0 0 -33.909087068549773 -19.157704996395751 0 -19.157704996395751 -33.654464167725564 0 0 0 0 -16.052166575909418 48.565577568760318 0 48.565577568760318 18.684215643279458 0 0 0 0 16.440250394214218 32.975415159133945 0 32.975415159133945 -40.435806207815403 0 0 0 0 6.4369532384826016 -10.847759608615434 0 -10.847759608615434 -4.5128228465805478 0 0 0 0 -29.740686828115685 6.3417278185409032 0 6.3417278185409032 -8.0540215628279839 0 0 0 0 30.803909609417587 10.87100906163414 0 10.87100906163414 -8.0615748501966209 0 0 0 0 -13.662985145838725 131.930516614515 0 131.930516614515 -407.95845458996882 0 0 0 0 -14.347010707355757 78.409977124772468 0 78.409977124772468 -441.52858899780949 0 0 0 0 1.4286367973409528 -2.5927958433153293 0 -2.5927958433153293 -1.8540103759840214 0 0 0 0 -48.964763465116135 -87.944636668566091 0 -87.944636668566091 5.3016513170473445 0 0 0 0 57.595555927182893 48.171603011583329 0 48.171603011583329 -119.77772438872671 0 0 0 0 -0.20525181881254539 -4.7005880580263693 0 -4.7005880580263693 78.726450485565692 0 0 0 0 17.214469788141638 -53.062074845303869 0 -53.062074845303869 -45.433235877570041 0 0 0 0 37.897219122565858 -29.191482518646069 0 -29.191482518646069 -78.333170052810601 0 0 0 0 31.73999087561117 56.422481940677244 0 56.422481940677244 -15.552032535477338 0 0 0 0 32.108471891824912 -69.613981973761838 0 -69.613981973761838 -140.64403824658115 0 0 0 0 -0.17383740358187949 0.58886023508579299 0 0.58886023508579299 -1.3107868789664785 0 0 0 0 47.451135477528133 101.81262330841128 0 101.81262330841128 4.3835594647753169 0 0 0 0 -39.038616795114933 24.565233171684042 0 24.565233171684042 73.958504080344937 0 0 0 0 -0.090076268162061573 1.0572224483473205 0 1.0572224483473205 -2.9649886174628328 0 0 0 0 103.39837954344357 25.772491613934562 0 25.772491613934562 -45.421913917395386 0 0 0 0 119.58449347432881 75.008702833982852 0 75.008702833982852 -114.78003824492498 0 0 0 0 18.832005733515338 -25.54665255747932 0 -25.54665255747932 -30.827506314355674 0 0 0 0 12.09256851952528 -47.213845647155949 0 -47.213845647155949 -14.99450009386419 0 0 0 0 -8.091396216635502 2.520716813245599 0 2.520716813245599 -59.046551754678148 0 0 0 0 -66.978887869152459 15.39001092512899 0 15.39001092512899 -36.894923550076783 0 0 0 0 -16.715533597131618 -35.158778054462346 0 -35.158778054462346 -58.295183040750771 0 0 0 0 -42.993586198289918 -3.9306721915136222 0 -3.9306721915136222 -38.615700978535642 0 0 0 0 11.261607831352254 -4.4072103402295397 0 -4.4072103402295397 -87.306967364211232 0 0 0 0 12.20345287961773 -68.768357042572006 0 -68.768357042572006 -88.178349747028733 0 0 0 0 7.3939778807822414 -37.034054358553249 0 -37.034054358553249 -196.46524176912317 0 0 0 0 -25.481847544616151 -38.124303279001424 0 -38.124303279001424 -86.699800290429266 0 0 0 0 22.444362247151503 -7.8360585170848935 0 -7.8360585170848935 -11.272330396859616 0 0 0 0 -11.115068060496696 54.886032050864742 0 54.886032050864742 -194.13760963706682 0 0 0 0 20.865247768856193 14.123262626913402 0 14.123262626913402 -14.618619613751434 0 0 0 0 25.623318682290574 2.0835531018728943 0 2.0835531018728943 -38.149026423528994 0 0 0 0 18.080002763882078 -5.0282982656226523 0 -5.0282982656226523 -41.573618677062768 0 0 0 0 11.201567685688133 -8.6984846458344691 0 -8.6984846458344691 -31.59341310169566 0 0 0 0 39.25623478156831 -5.9161082284535951 0 -5.9161082284535951 -31.323222121453 0 0 0 0 0.85527512321504573 -2.0241510000540153 0 -2.0241510000540153 -1.9960147869049472 0 0 0 0 14.444651136680591 -21.2558388284383 0 -21.2558388284383 -19.496473052202418 0 0 0 0 4.6143329761505356 -15.202663228816164 0 -15.202663228816164 -20.208051558641955 0 0 0 0 -24.406395843555487 32.310528701435032 0 32.310528701435032 -127.65048085696799 0 0 0 0 -27.759135042241581 67.507913962352632 0 67.507913962352632 -141.32821509871064 0 0 0 0 -1.1378335431696032 -0.95594237281819971 0 -0.95594237281819971 -0.78708416915447543 0 0 0 0 -17.553651507320183 68.92878055242727 0 68.92878055242727 -165.5070751078747 0 0 0 0 -7.7399392240324687 25.705060705764481 0 25.705060705764481 -158.65274429255601 0 0 0 0 -43.322196734101226 39.987392136576091 0 39.987392136576091 -158.49835362809426 0 0 0 0 -40.526103501840218 87.965951999234221 0 87.965951999234221 -146.1699416368283 0 0 0 0 15.070698295390457 58.278593087527952 0 58.278593087527952 -158.59745090888646 0 0 0 0 -3.7594079008893573 90.723531313664353 0 90.723531313664353 -147.09708365803817 0 0 0 0 -20.727176679053766 155.98857796356094 0 155.98857796356094 -97.345825430120385 0 0 0 0 25.382550057016601 18.666180260381225 0 18.666180260381225 2.3713140282543463 0 0 0 0 -0.81628560646361048 0.019447246393147211 0 0.019447246393147211 -0.1765473861949749 0 0 0 0 -15.02517274444466 86.799023808992843 0 86.799023808992843 -317.00823785550892 0 0 0 0 -97.144608775844887 114.37624878359293 0 114.37624878359293 -109.44277159225203 0 0 0 0 -53.053443371616041 34.109931663223051 0 34.109931663223051 32.90994263362154 0 0 0 0 -0.18672796542592351 0.60020395173116459 0 0.60020395173116459 -1.465109188085961 0 0 0 0 5.6663185569107242 169.26952167728268 0 169.26952167728268 -105.10959673783782 0 0 0 0 41.089561400122108 40.419214371888302 0 40.419214371888302 -230.9528572680556 0 0 0 0 7.9932729847800381 -95.734872245555835 0 -95.734872245555835 -142.87743333800427 0 0 0 0 -199.29961369396048 25.692409554857477 0 25.692409554857477 -107.37903168704349 0 0 0 0 46.437371102402238 9.6190032808181058 0 9.6190032808181058 -75.985737296022307 0 0 0 0 14.766980946150944 -67.382205347569425 0 -67.382205347569425 -31.195710110298023 0 0 0 0 73.894533654732783 -75.798792233184031 0 -75.798792233184031 -60.249413802324625 0 0 0 0 134.30019305612967 -156.14708334331908 0 -156.14708334331908 16.627582033736871 0 0 0 0 61.476870276788461 -41.118207688115149 0 -41.118207688115149 38.061178946189102 0 0 0 0 72.710687223605476 -29.000775536836045 0 -29.000775536836045 -113.2727600372491 0 0 0 0 15.384264179914936 7.7065993851656458 0 7.7065993851656458 -15.566242671369764 0 0 0 0 -0.3814238832787944 -0.4198288105558543 0 -0.4198288105558543 -0.59042542786945873 0 0 0 0 55.225514297305239 45.610420041214184 0 45.610420041214184 -113.30364116275678 0 0 0 0 0.32598879267145348 -2.7051121713887056 0 -2.7051121713887056 -2.4922346633458332 0 0 0 0 -17.752360748238488 52.17862831641105 0 52.17862831641105 -162.4387452219562 0 0 0 0 -19.681898929650291 52.444958366541414 0 52.444958366541414 -162.44634970997504 0 0 0 0 -17.907584402291917 53.288607060896084 0 53.288607060896084 -163.33950502085827 0 0 0 0 8.8895762148192432 9.3386608951245762 0 9.3386608951245762 -115.15455888758515 0 0 0 0 -16.006914608370323 53.085809747363783 0 53.085809747363783 -163.3399183692095 0 0 0 0 43.515304585981085 31.098692034460328 0 31.098692034460328 -129.09301445000528 0 0 0 0 1.7069484183307395 1.6258504547513439 0 1.6258504547513439 -175.28621021810886 0 0 0 0 -0.097546660923563344 -0.60676245300520826 0 -0.60676245300520826 -1.5314221431190536 0 0 0 0 76.092742171841735 13.206394104916569 0 13.206394104916569 -41.074419374544959 0 0 0 0 0.99682562979338551 -1.4167850439282006 0 -1.4167850439282006 -4.761731046519035 0 0 0 0 77.199074781546997 4.3483685687391471 0 4.3483685687391471 -6.1211123652119568 0 0 0 0 82.463037427529457 -24.360572601162858 0 -24.360572601162858 -163.70274610433944 0 0 0 0 101.97025965830267 -3.7844308133126106 0 -3.7844308133126106 -44.374176459619775 0 0 0 0 0.60151106036446467 -1.2073836452702764 0 -1.2073836452702764 -4.1089998151382083 0 0 0 0 128.48258514640173 -105.02459426465975 0 -105.02459426465975 3.1918565844637214 0 0 0 0 0.36119397796173902 -0.39411773709340991 0 -0.39411773709340991 -1.7417683762820957 0 0 0 0 -110.91517983023567 165.79813716692206 0 165.79813716692206 -182.67631524793592 0 0 0 0 -34.858316905123786 92.889918547287834 0 92.889918547287834 -131.66532714063032 0 0 0 0 -59.831977628886307 60.407308543004774 0 60.407308543004774 -8.0080682774296292 0 0 0 0 -38.809048001430256 197.55696483175734 0 197.55696483175734 -173.93519759456649 0 0 0 0 21.726642035888631 104.71930594924015 0 104.71930594924015 -130.22516747731243 0 0 0 0 -202.4601562640529 153.0686280473974 0 153.0686280473974 -68.035449160102871 0 0 0 0 -0.0042442755505764929 0.75035476179666838 0 0.75035476179666838 -3.9047509688465851 0 0 0 0 111.73925291048104 -134.59709146810474 0 -134.59709146810474 -89.955118975211008 0 0 0 0 74.36037745243415 83.453837497538188 0 83.453837497538188 -46.374732970964942 0 0 0 0 218.80160673802845 -116.77553656924329 0 -116.77553656924329 -176.24508998359215 0 0 0 0 114.54254140096069 -34.786062540259707 0 -34.786062540259707 -237.29715206109177 0 0 0 0 -193.13976260764741 166.54279700298684 0 166.54279700298684 41.029843270184756 0 0 0 0 3.0451681395591392 0.60134630053921256 0 0.60134630053921256 -2.6060559165486019 0 0 0 0 88.651550068638471 -149.24688608442193 0 -149.24688608442193 -175.57057014313767 0 0 0 0 -82.096689521994222 -50.170189063607722 0 -50.170189063607722 -19.113039477782877 0 0 0 0 -0.70335797260231603 -1.7702621729330179 0 -1.7702621729330179 -2.6780687088055579 0 0 0 0 -24.264592501978314 143.70474736815959 0 143.70474736815959 -258.56350997008667 0 0 0 0 -80.572225004755282 -139.34794088984836 0 -139.34794088984836 -141.25335132576765 0 0 0 0 21.11635708380004 -39.512598935568803 0 -39.512598935568803 -86.372422444275799 0 0 0 0 -60.798979822043748 9.7336347401542298 0 9.7336347401542298 11.830985603996851 0 0 0 0 55.02067249326808 -51.945754638443759 0 -51.945754638443759 -315.67209967682538 0 0 0 0 4.7739249993610429 -139.2771476089747 0 -139.2771476089747 68.123599025457224 0 0 0 0 85.534119375116006 -162.98827035700197 0 -162.98827035700197 -347.65188355542477 0 0 0 0 -1.4196775240382475 -1.2010739438039693 0 -1.2010739438039693 -0.86273769384565924 0 0 0 0 -115.16067456559378 159.20898826785765 0 159.20898826785765 -22.90461985910224 0 0 0 0 -67.435692778795783 -111.25601377817975 0 -111.25601377817975 195.96457172449254 0 0 0 0 9.652898918874655 54.137820891556657 0 54.137820891556657 -415.47616097270111 0 0 0 0 -47.323563847418086 -106.35809270148911 0 -106.35809270148911 -299.23118514373436 0 0 0 0 -20.700467422786858 -41.047737581425736 0 -41.047737581425736 -222.33055552649421 0 0 0 0 -48.003123131256359 3.955329921182738 0 3.955329921182738 -127.29188765850085 0 0 0 0 -27.088090177618369 15.782891588341045 0 15.782891588341045 -56.330683933216278 0 0 0 0 -51.183747959115294 -32.48317121812488 0 -32.48317121812488 -99.768295033292816 0 0 0 0 -4.1754246572775173 -8.1679758550699262 0 -8.1679758550699262 -116.12563779244942 0 0 0 0 -23.529328510830055 -5.4205403869145812 0 -5.4205403869145812 -115.32047673879879 0 0 0 0 -39.044848717798914 58.923653359358468 0 58.923653359358468 -211.22236771891403 0 0 0 0 6.9080998669770111 -4.8349038689420922 0 -4.8349038689420922 -190.98439886158121 0 0 0 0 -22.012991891551593 22.203659162179747 0 22.203659162179747 -167.00842491870753 0 0 0 0 -0.89692839714712136 -8.0228239210891843 0 -8.0228239210891843 -142.4663299450458 0 0 0 0 22.27033088185965 -6.4245090764461565 0 -6.4245090764461565 -123.98048984025596 0 0 0 0 -5.518262215042796 -11.965456318953102 0 -11.965456318953102 -124.16978588200072 0 0 0 0 1.8502612528090552 0.50729229314310942 0 0.50729229314310942 -117.91618595372711 0 0 0 0 -3.8322695443412016 14.753017619143975 0 14.753017619143975 -112.95457668518793 0 0 0 0 -12.951262733726935 31.099285158294606 0 31.099285158294606 -142.23567898719779 0 0 0 0 -4.4764455828404266 33.059776380378935 0 33.059776380378935 -186.81408784019914 0 0 0 0 -1.8545239167699683 -3.195017283221441 0 -3.195017283221441 -2.3313323850232184 0 0 0 0 85.490207469435518 11.781416578670814 0 11.781416578670814 -214.39103336762219 0 0 0 0 51.218631410180734 7.9488522340857344 0 7.9488522340857344 -118.78860193618129 0 0 0 0 -0.62820512378709037 -3.274159609454216 0 -3.274159609454216 -2.7510193750645424 0 0 0 0 83.064953331237049 24.633077367859528 0 24.633077367859528 -134.229522752712 0 0 0 0 -1.2230209454462795 22.052059881181776 0 22.052059881181776 -119.40179728490784 0 0 0 0 2.755475470572641 8.701809896636405 0 8.701809896636405 -75.954741129785361 0 0 0 0 2.5799105751878812 2.9891740783887144 0 2.9891740783887144 -70.934310257621291 0 0 0 0 9.4529422258097497 3.9834511553967786 0 3.9834511553967786 -101.00040973758223 0 0 0 0 17.131269786787755 -5.2677097586738455 0 -5.2677097586738455 -99.415930409242719 0 0 0 0 13.341126490837652 0.29323793238381768 0 0.29323793238381768 -104.11998408527194 0 0 0 0 -2.5979143842380523 21.570289853762461 0 21.570289853762461 -104.78650305874362 0 0 0 0 17.876624945469956 -5.0633825168024487 0 -5.0633825168024487 -122.17787916424524 0 0 0 0 1.9559262204807482 14.954122521658974 0 14.954122521658974 -122.97465433226171 0 0 0 0 15.142501016627648 -15.266460900432321 0 -15.266460900432321 -120.43537061770803 0 0 0 0 13.893155241787838 -20.975662843593454 0 -20.975662843593454 -78.408873398264404 0 0 0 0 8.0486432273060302 -6.2244839105428582 0 -6.2244839105428582 -77.259472410612034 0 0 0 0 22.933258698963428 -7.5352358192521933 0 -7.5352358192521933 -108.07951413773299 0 0 0 0 15.826530443633718 -6.0813221469747987 0 -6.0813221469747987 -107.8880095862105 0 0 0 0 20.40994759335544 -6.4620300292253887 0 -6.4620300292253887 -110.93946645092001 0 0 0 0 14.439966366871275 0.38972546649938522 0 0.38972546649938522 -109.38942818655414 0 0 0 0 18.775485427253955 -6.1780138832773446 0 -6.1780138832773446 -108.2777430355427 0 0 0 0 18.640240849721067 -7.088571695592691 0 -7.088571695592691 -111.20339776188121 0 0 0 0 14.297861883050047 1.0076902188268377 0 1.0076902188268377 -116.3398636975071 0 0 0 0 14.843841575242209 -5.2904462607739333 0 -5.2904462607739333 -109.56366720970982 0 0 0 0 20.433357216951062 -7.2105904568935983 0 -7.2105904568935983 -107.85264740810271 0 0 0 0 15.644639375500219 -5.884974759825127 0 -5.884974759825127 -100.14753064234537 0 0 0 0 5.4111637179797754 10.646926350707872 0 10.646926350707872 -105.63755455382216 0 0 0 0 3.2715051801325217 4.4051525590507481 0 4.4051525590507481 -100.68366580803931 0 0 0 0 9.6094849495935932 8.6689323091404731 0 8.6689323091404731 -106.02571743882254 0 0 0 0 -12.305166575380326 27.470704694047527 0 27.470704694047527 -118.0615702628329 0 0 0 0 3.2039088456259606 20.123861046538877 0 20.123861046538877 -113.10120038292371 0 0 0 0 2.5006355285305517 15.483038995651441 0 15.483038995651441 -112.434070870293 0 0 0 0 11.245926984363791 11.13024800952644 0 11.13024800952644 -122.53177288185179 0 0 0 0 5.2556401356796414 18.09543495836806 0 18.09543495836806 -129.09569001787168 0 0 0 0 12.786156977025939 -4.1669991660655796 0 -4.1669991660655796 -124.85780010716735 0 0 0 0 9.1945682490525655 13.028548700386409 0 13.028548700386409 -139.81975875889111 0 0 0 0 9.0154842083858071 11.075330714116319 0 11.075330714116319 -121.12672801464942 0 0 0 0 12.3964175632387 -1.2178771408636067 0 -1.2178771408636067 -141.80264010381688 0 0 0 0 13.737150847043083 -0.28334209998456572 0 -0.28334209998456572 -117.35907589763883 0 0 0 0 14.841602232354717 -10.28175873915643 0 -10.28175873915643 -114.44089828254209 0 0 0 0 7.5097112808331303 -2.7022432133549046 0 -2.7022432133549046 -113.60253842137536 0 0 0 0 10.097380974504176 -12.745952711024074 0 -12.745952711024074 -106.95755142976486 0 0 0 0 11.567383706900273 -4.5344740810996882 0 -4.5344740810996882 -99.113472613067643 0 0 0 0 10.079972027835311 -12.619357154316276 0 -12.619357154316276 -90.753865457207212 0 0 0 0 15.632775328036672 -12.396581878462712 0 -12.396581878462712 -100.79940301201168 0 0 0 0 14.410437236576115 -5.9135936894062979 0 -5.9135936894062979 -103.22932306857729 0 0 0 0 16.895830481535114 -6.3571068305304834 0 -6.3571068305304834 -99.775050990956515 0 0 0 0 11.350151274426935 -4.7229691595707664 0 -4.7229691595707664 -73.956459376666317 0 0 0 0 18.44571352714712 -9.0467118792257679 0 -9.0467118792257679 -99.214487024682512 0 0 0 0 14.968038350442271 -5.6200670229927709 0 -5.6200670229927709 -89.10308394580079 0 0 0 0 15.757659952699726 0.78936076237323505 0 0.78936076237323505 -70.095387363970076 0 0 0 0 4.863485110309 4.9916886489036187 0 4.9916886489036187 -76.128542914479112 0 0 0 0 5.1323733831262359 -1.8485645108453355 0 -1.8485645108453355 -37.657374200302002 0 0 0 0 9.8307159863435345 -9.0787780915306939 0 -9.0787780915306939 -43.364419440244092 0 0 0 0 16.208423193987414 -0.73426784362163744 0 -0.73426784362163744 -56.161741951160366 0 0 0 0 6.6791834426878722 -1.8087939696924877 0 -1.8087939696924877 -38.465440747893808 0 0 0 0 7.8892344171476338 -10.654652336686553 0 -10.654652336686553 -63.503228866855352 0 0 0 0 7.5046705157665059 0.65488618432718226 0 0.65488618432718226 -55.218367073986883 0 0 0 0 13.972524585641622 -12.529041235637123 0 -12.529041235637123 -82.827975114187211 0 0 0 0 13.864244511653965 -2.2245542341988767 0 -2.2245542341988767 -74.197467270199922 0 0 0 0 -34.653333016619911 62.333140739232476 0 62.333140739232476 -97.779468190386979 0 0 0 0 -46.832521242584789 82.216356512884886 0 82.216356512884886 -96.383344053992914 0 0 0 0 -56.860379983879341 70.466668553635827 0 70.466668553635827 -91.611879924311324 0 0 0 0 -45.185223965142512 66.884198548997119 0 66.884198548997119 -106.26091246771466 0 0 0 0 -61.4132361614611 61.63022462652043 0 61.63022462652043 -82.392643221472213 0 0 0 0 -39.409203396849193 10.249743130386378 0 10.249743130386378 -42.856203087918402 0 0 0 0 -3.834978755543077 -3.6285008104031942 0 -3.6285008104031942 -3.2243231316336569 0 0 0 0 -40.65684965249423 47.879703484184574 0 47.879703484184574 -107.3633982081883 0 0 0 0 -60.059910169830083 64.701362208266801 0 64.701362208266801 -22.083287493998796 0 0 0 0 -15.539922914233387 34.470562265647459 0 34.470562265647459 -81.667200497738918 0 0 0 0 -482.294735518371 292.62451844822863 0 292.62451844822863 -192.89529028761172 0 0 0 0 225.73670775550454 161.64448684337276 0 161.64448684337276 -603.0637234788901 0 0 0 0 148.60709574433963 289.11347182784266 0 289.11347182784266 -441.67085640061305 0 0 0 0 196.15039715907196 123.56063335117051 0 123.56063335117051 -489.06456702290961 0 0 0 0 -36.048497558330538 58.401344004136263 0 58.401344004136263 -93.228710030160983 0 0 0 0 -48.532995706438783 -77.751548977139464 0 -77.751548977139464 -115.38441973427507 0 0 0 0 -1.0198624219657069 -1.2609299296439325 0 -1.2609299296439325 -1.7653823860787465 0 0 0 0 -0.77246814783867335 -1.2145572691396431 0 -1.2145572691396431 -1.759951538635498 0 0 0 0 -28.008040608314047 96.992201663912056 0 96.992201663912056 -209.16633239067778 0 0 0 0 -48.274378914455852 88.359537057131092 0 88.359537057131092 -197.18478641646743 0 0 0 0 -0.61517004664115049 -0.3928344436575486 0 -0.3928344436575486 -0.83576905077658559 0 0 0 0 -1.1596283936851526 65.021390279103798 0 65.021390279103798 -295.54506561182097 0 0 0 0 -96.700790918279552 160.76160153157798 0 160.76160153157798 -190.96976391249063 0 0 0 0 -0.11194270552901892 2.3581779591513623 0 2.3581779591513623 -53.391821212428113 0 0 0 0 0.077850611928397387 0.12712947881769665 0 0.12712947881769665 -0.85477966658152127 0 0 0 0 -20.105802587266368 65.74829771513123 0 65.74829771513123 -116.62474776469389 0 0 0 0 -106.74650784984468 122.99341174484198 0 122.99341174484198 -97.629581436689477 0 0 0 0 -76.989736814201535 78.342692297069334 0 78.342692297069334 -32.544014756636898 0 0 0 0 -50.122178420761713 89.053493043596973 0 89.053493043596973 -110.15225568677624 0 0 0 0 -69.291263936535515 154.34055921201991 0 154.34055921201991 -320.9563160425696 0 0 0 0 0.011172474139012943 51.907787840470284 0 51.907787840470284 -315.09962740302217 0 0 0 0 0.091421478130692402 0.097622537245303675 0 0.097622537245303675 -0.82267855226723441 0 0 0 0 -22.722101751916313 -8.2806186245225035 0 -8.2806186245225035 -62.863091535775993 0 0 0 0 -56.022187399037236 83.42214223717383 0 83.42214223717383 -90.347241791088891 0 0 0 0 -35.556599584575622 86.30361572957554 0 86.30361572957554 -275.29215893834407 0 0 0 0 -15.716681704800493 32.702445192411687 0 32.702445192411687 -220.95262333711798 0 0 0 0 -19.041643766900862 13.719684532612291 0 13.719684532612291 -126.3877187446451 0 0 0 0 -48.947124441303174 86.991427306751575 0 86.991427306751575 -103.63163867681055 0 0 0 0 -57.343524638456074 72.809889490325077 0 72.809889490325077 -107.88822878675546 0 0 0 0 -46.64906117928124 46.838115169918638 0 46.838115169918638 -193.70557685355379 0 0 0 0 -14.093808265278781 47.628115073054687 0 47.628115073054687 -308.85611479794534 0 0 0 0 -54.236992739430377 34.847099322341819 0 34.847099322341819 -192.77964236188893 0 0 0 0 -36.648998324830771 16.416251005032564 0 16.416251005032564 -315.15552497522003 0 0 0 0 -67.95615837099075 74.844946262623125 0 74.844946262623125 -337.42781650756558 0 0 0 0 -31.293821372522221 26.651099257995156 0 26.651099257995156 -274.08259427715529 0 0 0 0 -31.90627626438728 106.31931815263829 0 106.31931815263829 -412.20125210735205 0 0 0 0 -32.714599957177235 100.10331044106215 0 100.10331044106215 -360.79273683438441 0 0 0 0 -41.245964351585513 39.798963887952823 0 39.798963887952823 -394.90071899460963 0 0 0 0 -22.125395861258767 -36.027331526101989 0 -36.027331526101989 8.4536055971184396 0 0 0 0 -0.67518160868535682 -0.24053298809604229 0 -0.24053298809604229 -1.0951762381153749 0 0 0 0 18.553585891678352 7.8974753811885421 0 7.8974753811885421 -40.105577752296085 0 0 0 0 -1.9414573565856714 -1.7563917340469857 0 -1.7563917340469857 -2.4671257281911991 0 0 0 0 -132.17542551943149 87.429636283610307 0 87.429636283610307 -1.1275470305199633 0 0 0 0 -39.336031838790774 -7.2946182191608386 0 -7.2946182191608386 -48.447537572723377 0 0 0 0 -8.1911089805491741 92.6806148758169 0 92.6806148758169 -100.95063782345278 0 0 0 0 -46.808594924082932 43.180390174711306 0 43.180390174711306 -141.72184240450588 0 0 0 0 -20.119219125319663 114.60949928171613 0 114.60949928171613 -238.58588433434124 0 0 0 0 -26.556613845112842 -151.5757550452754 0 -151.5757550452754 -235.59245587239559 0 0 0 0 75.235266934221983 73.623703878045717 0 73.623703878045717 -283.00677664604882 0 0 0 0 -1.2234374682742999 -0.98567817227226762 0 -0.98567817227226762 -1.6984983320019325 0 0 0 0 1.3630255813292087 1.4120596941805097 0 1.4120596941805097 -2.4316593037459509 0 0 0 0 -0.70262071042816387 23.247715053239517 0 23.247715053239517 -17.130907718755225 0 0 0 0 -94.859923675412659 -25.678561631458251 0 -25.678561631458251 -11.970625456524431 0 0 0 0 29.718725122309422 -67.984894898731 0 -67.984894898731 -116.22561984217919 0 0 0 0 115.65910501458151 -53.29205536596055 0 -53.29205536596055 -116.94284503671042 0 0 0 0 1.9285038961663132 1.8538062739005241 0 1.8538062739005241 -1.8401709106005786 0 0 0 0 4.1148759703072528 -6.7446412375657019 0 -6.7446412375657019 -51.541687860157253 0 0 0 0 24.488526495474332 21.000987718108263 0 21.000987718108263 -130.47405492289181 0 0 0 0 4.4049144783525502 -23.132962453046567 0 -23.132962453046567 -49.97651762329042 0 0 0 0 51.745638527258336 -37.337372987215531 0 -37.337372987215531 -170.71923177657845 0 0 0 0 51.091799831020467 -39.148796177143595 0 -39.148796177143595 -169.71437905282073 0 0 0 0 -1.6511189486940339 -67.142229322822459 0 -67.142229322822459 -93.404475999026545 0 0 0 0 0.8521356332191119 0.13733419387927626 0 0.13733419387927626 -1.0085993052099713 0 0 0 0 24.134483615174986 0.56554311559921189 0 0.56554311559921189 -28.27649447433032 0 0 0 0 -77.31652482426648 -8.3395423659821972 0 -8.3395423659821972 17.731635021634247 0 0 0 0 -25.746153100014453 39.414622717486054 0 39.414622717486054 -52.012694288897364 0 0 0 0 24.472043961335032 23.215473692687738 0 23.215473692687738 -69.326080259967057 0 0 0 0 82.942235612725653 71.104220357237864 0 71.104220357237864 -204.39953321006578 0 0 0 0 29.232464273682183 -95.14167072201144 0 -95.14167072201144 -299.69104437502074 0 0 0 0 -254.72891278600127 -36.997379475304115 0 -36.997379475304115 -71.400025675913639 0 0 0 0 -99.980375124411694 -59.415027961054875 0 -59.415027961054875 -264.6796169750869 0 0 0 0 73.161492357495575 -21.456035296782147 0 -21.456035296782147 -337.12616598568638 0 0 0 0 -71.521248523336226 -94.060690514355883 0 -94.060690514355883 -665.38158510831272 0 0 0 0 -144.17415120935493 -290.04126740241372 0 -290.04126740241372 -486.68316859704373 0 0 0 0 -156.27391802484021 -247.52293482343612 0 -247.52293482343612 -377.96342995828263 0 0 0 0 -0.39671655090947233 1.4046076909311367 0 1.4046076909311367 -3.9816701046656888 0 0 0 0 -57.830868319688932 -78.805841456402504 0 -78.805841456402504 -135.15804832210051 0 0 0 0 -25.576218662328074 -68.197887945346793 0 -68.197887945346793 -132.18032103045743 0 0 0 0 40.925662668913816 3.2181257388426729 0 3.2181257388426729 -50.430047690784704 0 0 0 0 -21.912179020948315 -57.479337248645606 0 -57.479337248645606 -107.50403968344199 0 0 0 0 -1.1449416470337892 3.9348619494900916 0 3.9348619494900916 -10.258481865653984 0 0 0 0 155.99622164637435 22.730870442382638 0 22.730870442382638 -25.338498498585977 0 0 0 0 58.355814559590613 -27.342313424042914 0 -27.342313424042914 -158.70323080527942 0 0 0 0 49.894386419606519 -37.890752853950062 0 -37.890752853950062 -166.91296008685276 0 0 0 0 40.367402161905673 -70.077211916811393 0 -70.077211916811393 -180.05912609699453 0 0 0 0 83.191715830135209 -73.067090107868353 0 -73.067090107868353 -148.28487884642982 0 0 0 0 31.425488844031122 -65.318856107774536 0 -65.318856107774536 -140.25106255842547 0 0 0 0 27.76920712236857 -48.885249837564288 0 -48.885249837564288 -116.03675860379735 0 0 0 0 -52.770453743097278 -84.113977258342857 0 -84.113977258342857 -116.18714291180913 0 0 0 0 -152.40004404928129 -64.084491119739141 0 -64.084491119739141 -74.997004897662919 0 0 0 0 31.609501363626009 -60.074921782950696 0 -60.074921782950696 -213.39822977338372 0 0 0 0 -68.932673897923223 65.726090647941419 0 65.726090647941419 -66.861632230426949 0 0 0 0 103.96352801343465 70.992550154071978 0 70.992550154071978 -83.506829613882928 0 0 0 0 31.893147558917892 -70.294273344402427 0 -70.294273344402427 -20.682093602481473 0 0 0 0 0.28787855173333754 2.9877489566668576 0 2.9877489566668576 -2.2533766769949395 0 0 0 0 -0.98629621718646376 193.49632265089167 0 193.49632265089167 -223.69791908779007 0 0 0 0 0.95425205006985192 2.3007498431162272 0 2.3007498431162272 -9.8650593068052146 0 0 0 0 187.46873195975144 -71.92828714842517 0 -71.92828714842517 4.5744382999728259 0 0 0 0 59.001555528394704 61.575341470477724 0 61.575341470477724 23.099232975249834 0 0 0 0 59.09162037468252 59.263430520334623 0 59.263430520334623 -41.693931696509026 0 0 0 0 7.4814298853707442 80.07825295798466 0 80.07825295798466 -5.1220099154979835 0 0 0 0 24.87218275550066 -18.671751196309742 0 -18.671751196309742 -53.556405639101285 0 0 0 0 -27.932681650005236 25.47758438843357 0 25.47758438843357 -46.763559001778049 0 0 0 0 -2.8001347521681055 67.509816806659728 0 67.509816806659728 -27.876735912990625 0 0 0 0 18.633984004340505 59.066284065545915 0 59.066284065545915 -27.487293360376498 0 0 0 0 -34.126624130117989 25.548622162186803 0 25.548622162186803 -40.934870850929656 0 0 0 0 -60.7420510829661 38.648090853495887 0 38.648090853495887 -45.958596754313476 0 0 0 0 -20.51699168339178 37.166514952184116 0 37.166514952184116 -94.8085738614609 0 0 0 0 37.117032674533334 -12.843211778223122 0 -12.843211778223122 -26.6734089781894 0 0 0 0 39.869716166619696 -19.353976009913822 0 -19.353976009913822 -15.552426464817472 0 0 0 0 0.87664029134595012 8.6821238220663872 0 8.6821238220663872 -49.518041719113626 0 0 0 0 -0.98931022032988025 6.3469807986924796 0 6.3469807986924796 -14.786450837288193 0 0 0 0 44.837673994881015 0.39822813989667338 0 0.39822813989667338 -16.222657275653546 0 0 0 0 15.221257467429041 5.5661274732192396 0 5.5661274732192396 -17.121967379882562 0 0 0 0 9.4082493340183646 -11.550648061410357 0 -11.550648061410357 -7.8662716371691204 0 0 0 0 17.671197596593629 -12.938783813132432 0 -12.938783813132432 -11.751260576467757 0 0 0 0 22.388902893866771 -8.556761238899071 0 -8.556761238899071 -11.950645100061593 0 0 0 0 10.060639667069722 -20.84607053322452 0 -20.84607053322452 12.551019971340793 0 0 0 0 -15.741456269900254 -39.1542408824007 0 -39.1542408824007 0.9833864747242842 0 0 0 0 -15.719229078161218 -41.039209692118831 0 -41.039209692118831 82.2325317420582 0 0 0 0 -20.883297085361107 9.4335993701697589 0 9.4335993701697589 29.996056305652019 0 0 0 0 -10.873969537314224 -41.804927610885898 0 -41.804927610885898 -12.79922425965924 0 0 0 0 43.379277153780606 -37.203619474531479 0 -37.203619474531479 -99.922690756244265 0 0 0 0 23.560380561195643 -94.94623419052914 0 -94.94623419052914 12.608334485019441 0 0 0 0 -1.741197964428693 -78.297682328237897 0 -78.297682328237897 -32.876925232943904 0 0 0 0 32.619034611737789 -46.234696353455547 0 -46.234696353455547 -6.4367476294182779 0 0 0 0 90.873073545699867 -58.313411020021704 0 -58.313411020021704 -43.701604977330135 0 0 0 0 50.629029145324637 -20.449040327785951 0 -20.449040327785951 -68.862883857762426 0 0 0 0 30.762580856928366 -39.427940148707421 0 -39.427940148707421 -1.2779194283702964 0 0 0 0 -5.169533289333458 5.7013417008583929 0 5.7013417008583929 -39.112888502931128 0 0 0 0 -54.28021995991034 45.598509768412441 0 45.598509768412441 -172.3450811812836 0 0 0 0 8.0069962834032822 -22.793203100955452 0 -22.793203100955452 -209.3465987961099 0 0 0 0 -46.759676640904331 34.12726443655356 0 34.12726443655356 -191.46303482928852 0 0 0 0 -78.582427349295813 -39.318414528432186 0 -39.318414528432186 -330.54013782257243 0 0 0 0 99.128492115548056 96.908217866241102 0 96.908217866241102 -362.25123169268772 0 0 0 0 61.20766141980107 15.377228934303275 0 15.377228934303275 -501.01055850561033 0 0 0 0 90.954132292729355 119.05720079627099 0 119.05720079627099 -228.88009221361426 0 0 0 0 135.58150024773613 281.62403339013053 0 281.62403339013053 -169.31309025156588 0 0 0 0 46.924569913953746 193.82196336822562 0 193.82196336822562 -26.836975556809193 0 0 0 0 39.321880003352987 9.7776320805351133 0 9.7776320805351133 -442.26746270042895 0 0 0 0 -0.10636102972155884 -43.416544839435183 0 -43.416544839435183 -284.94473897281205 0 0 0 0 48.328357012128521 92.704986971433755 0 92.704986971433755 -488.96185542614057 0 0 0 0 49.403408000803182 100.97058058895527 0 100.97058058895527 -433.13458856114812 0 0 0 0 -127.72830863142727 111.06254661331445 0 111.06254661331445 -327.45345388185524 0 0 0 0 4.0187797689612808 6.1056170628507971 0 6.1056170628507971 -261.97658450006929 0 0 0 0 -32.181890098973646 52.248647060116127 0 52.248647060116127 -247.99592787313668 0 0 0 0 22.178000156621607 6.7092023313125537 0 6.7092023313125537 -230.43162202817712 0 0 0 0 -30.514871396590507 -37.923607020007694 0 -37.923607020007694 -95.561931072214065 0 0 0 0 -40.228194845565952 45.088515363704573 0 45.088515363704573 -165.21087227465523 0 0 0 0 31.212427010336185 -11.505039168281655 0 -11.505039168281655 -140.90979921468897 0 0 0 0 -0.030889785119245686 -46.365249905229575 0 -46.365249905229575 -14.798104503446666 0 0 0 0 -36.768325677888313 -43.923023140685473 0 -43.923023140685473 -3.4175823491314077 0 0 0 0 73.88238671603682 2.867255584384111 0 2.867255584384111 14.182577534550546 0 0 0 0 -16.322473679758005 -48.862321592790977 0 -48.862321592790977 98.441827379883762 0 0 0 0 0.041937505947274245 0.1931287268476477 0 0.1931287268476477 0.7299006092675171 0 0 0 0 91.319957418746213 -81.09426622230967 0 -81.09426622230967 52.006613549046051 0 0 0 0 -5.7882911802591224 -9.8527508066836162 0 -9.8527508066836162 10.028409525522875 0 0 0 0 -0.010973155347908575 -48.748484476655904 0 -48.748484476655904 48.35707043181992 0 0 0 0 12.0402670680988 -45.322545541551335 0 -45.322545541551335 40.096933781709595 0 0 0 0 3.541945750057522 -14.980798717937432 0 -14.980798717937432 57.119949357417681 0 0 0 0 -0.0063132640899148593 -0.31675229627014889 0 -0.31675229627014889 2.0490179618176043 0 0 0 0 1.5776148496237852 -2.3908298948181255 0 -2.3908298948181255 -2.1689123086052859 0 0 0 0 0.88234936100636485 -1.2801594342299722 0 -1.2801594342299722 -0.83231393312235014 0 0 0 0 0.018973980168373948 -0.9337394512265853 0 -0.9337394512265853 -1.0297812307868952 0 0 0 0 0.00089730204540811054 -0.8921331010560607 0 -0.8921331010560607 -0.55989512487030879 0 0 0 0 0.11641434898093084 -1.1044728189717716 0 -1.1044728189717716 -0.2032472764758495 0 0 0 0 0.16182575180905692 -0.21304848096309925 0 -0.21304848096309925 0.24453428254363274 0 0 0 0 0.71555277752588609 -8.3502728206140091 0 -8.3502728206140091 -0.96985630356721231 0 0 0 0 -0.7754399576921287 -13.148075504659573 0 -13.148075504659573 4.6752599018782348 0 0 0 0 -10.349010027906612 -7.0708050035430006 0 -7.0708050035430006 0.86396348429479985 0 0 0 0 0.95595432932384983 -2.2593869163613043 0 -2.2593869163613043 1.5527208100518806 0 0 0 0 -0.11996090825277861 -8.5216477791036596 0 -8.5216477791036596 -3.9051296629249919 0 0 0 0 1.936178390931957 -2.5451479719504277 0 -2.5451479719504277 -2.3475170179499401 0 0 0 0 3.9310666738395859 -2.7050534713601486 0 -2.7050534713601486 -0.61619879474433503 0 0 0 0 10.004318478946175 -4.8055725009680827 0 -4.8055725009680827 -11.116354790474361 0 0 0 0 0.32811801733362245 -9.6674709543513018 0 -9.6674709543513018 -1.3369228188366833 0 0 0 0 2.46324453611129 -2.3655298859789582 0 -2.3655298859789582 -3.8601990580991696 0 0 0 0 2.4604806101314978 -2.5135774846494314 0 -2.5135774846494314 -3.3201906862777832 0 0 0 0 2.3387620987961171 -1.5801865535504476 0 -1.5801865535504476 -3.171072911547526 0 0 0 0 1.9516471712794257 -2.2133982745767753 0 -2.2133982745767753 -3.1364927494287258 0 0 0 0 2.4871178373540772 -1.7143193923948274 0 -1.7143193923948274 -3.7448673548187799 0 0 0 0 1.9559478698527641 -2.2831839365908309 0 -2.2831839365908309 -2.2546294076673803 0 0 0 0 3.3135385983630385 -0.63573176459703973 0 -0.63573176459703973 -2.4655417527555983 0 0 0 0 2.3797446196633416 -2.4986728181302169 0 -2.4986728181302169 -2.4091035152687255 0 0 0 0 3.1924642280722537 0.069035312486448674 0 0.069035312486448674 -3.812896209938117 0 0 0 0 3.3304703560239695 2.6831259040136501 0 2.6831259040136501 -1.3255480983516463 0 0 0 0 2.8445978000299235 -1.7920466670948372 0 -1.7920466670948372 -5.1929028233862482 0 0 0 0 3.0237558868313528 -1.461419437200675 0 -1.461419437200675 -4.9531690168169007 0 0 0 0 3.0303348560517733 -1.1015998155544366 0 -1.1015998155544366 -7.6208585530330311 0 0 0 0 1.9318662913424589 -3.4765374709586467 0 -3.4765374709586467 -6.3598787930568506 0 0 0 0 4.5851102089124893 3.8588755595792463 0 3.8588755595792463 -7.9998580369137926 0 0 0 0 4.6294366688975686 3.9100815522251651 0 3.9100815522251651 -13.786909728979936 0 0 0 0 2.971405141436037 -8.1475641150100273 0 -8.1475641150100273 -16.55179801813847 0 0 0 0 -8.3209661124747072 -1.8748422173484869 0 -1.8748422173484869 -6.3780578315199818 0 0 0 0 -0.15165149248529564 0.48855605672974889 0 0.48855605672974889 -0.4473632431178558 0 0 0 0 -0.076773612911703898 0.50697182395685125 0 0.50697182395685125 -0.52911765241063335 0 0 0 0 0.3199187859665642 -3.1845355414880032 0 -3.1845355414880032 1.3598102252508397 0 0 0 0 -0.0011610007490536892 -0.72704423298728216 0 -0.72704423298728216 -1.125874043938893 0 0 0 0 0.3363722751480141 -1.1511431139386659 0 -1.1511431139386659 -0.65927493631170364 0 0 0 0 0.34074795572067507 -0.77579393503039284 0 -0.77579393503039284 -1.289441819764761 0 0 0 0 0.19640287985927221 -0.43781441324072101 0 -0.43781441324072101 -1.9227663230286538 0 0 0 0 0.15698803612167245 -0.77443117958318908 0 -0.77443117958318908 -1.2819165274509032 0 0 0 0 0.32372918745936879 -0.83833698170928983 0 -0.83833698170928983 -1.4181598007089633 0 0 0 0 3.6534622422498595 3.7516420207302872 0 3.7516420207302872 2.9314310864983781 0 0 0 0 0.003716681308877803 -0.041167248513307442 0 -0.041167248513307442 -0.17936720719633037 0 0 0 0 0.0018752415008028035 4.3115448168737203 0 4.3115448168737203 8.4239630035172013 0 0 0 0 -0.053059917723057737 4.2435541810100403 0 4.2435541810100403 8.3590772362385906 0 0 0 0 -0.3417146836555478 7.0073455488500258 0 7.0073455488500258 12.461317254294045 0 0 0 0 1.838652137948853 9.990240493485544 0 9.990240493485544 16.542122976959945 0 0 0 0 0.084460265302683205 0.19836558091480705 0 0.19836558091480705 0.020122628743436621 0 0 0 0 -3.0804578843961248 3.0706770300257631 0 3.0706770300257631 6.2843292604011367 0 0 0 0 8.0134624696607943 7.2047624052702304 0 7.2047624052702304 5.6661982490732044 0 0 0 0 0.64468093944434468 1.0588003407354449 0 1.0588003407354449 -1.1594234971114599 0 0 0 0 3.3144173179102978 1.8515080236120411 0 1.8515080236120411 -2.6178675445353292 0 0 0 0 -6.1066031235532137 3.2135869436756366 0 3.2135869436756366 3.5607217288606989 0 0 0 0 -0.11246736641379854 1.573984715527434 0 1.573984715527434 -0.87527681511503097 0 0 0 0 -1.2265180151281321 1.3886401237814425 0 1.3886401237814425 -2.7373509205044684 0 0 0 0 -0.90840488282441711 0.20918968728074105 0 0.20918968728074105 0.75922073810943402 0 0 0 0 9.4949185050836817 5.6034918805580674 0 5.6034918805580674 -3.4749549099979049 0 0 0 0 0.042701131240313855 0.11564422055979051 0 0.11564422055979051 0.15609017321000707 0 0 0 0 6.2952606615511613 13.851602074129914 0 13.851602074129914 7.7675960759725058 0 0 0 0 12.644390501185427 -1.0041019832776783 0 -1.0041019832776783 0.5778052183050022 0 0 0 0 5.6957958616106978 14.107974573154934 0 14.107974573154934 22.810079230427618 0 0 0 0 5.1026705842566429 5.809252851167912 0 5.809252851167912 1.0843201134302944 0 0 0 0 -0.99674600323041318 -6.4075197002257482 0 -6.4075197002257482 37.083763203492708 0 0 0 0 -3.9621763496798224 5.5336582807058221 0 5.5336582807058221 1.1765336907681103 0 0 0 0 -3.0398615046488793 0.25389986072877946 0 0.25389986072877946 0.50549287970466139 0 0 0 0 3.0634203200370376 -0.2408817341233771 0 -0.2408817341233771 -15.323624565713544 0 0 0 0 -3.3624833645954517 -0.94636086233458627 0 -0.94636086233458627 2.4057758874746469 0 0 0 0 0.0027906293709967587 3.2634564220279572 0 3.2634564220279572 -12.323087151746222 0 0 0 0 1.4668110943533432 0.33369007602004785 0 0.33369007602004785 1.7263398195882473 0 0 0 0 -0.0062697834473551669 4.2631679071664621 0 4.2631679071664621 8.2552702786178997 0 0 0 0 -3.1641206570198621 -0.23692572277377622 0 -0.23692572277377622 15.551208972434324 0 0 0 0 2.1147012214108258 5.3279902702252002 0 5.3279902702252002 -4.2502835288014467 0 0 0 0 -2.0842836136915253 3.7295433770632371 0 3.7295433770632371 6.7254649712249375 0 0 0 0 2.0831822605073 11.527889850346128 0 11.527889850346128 -4.5903730841619108 0 0 0 0 -2.5672620152489003 17.398745999961648 0 17.398745999961648 -14.856719535860066 0 0 0 0 -1.9348689814809745 8.7580099904162125 0 8.7580099904162125 -12.475126149229254 0 0 0 0 -5.891705204870334 11.833950503564665 0 11.833950503564665 -4.7921774858223216 0 0 0 0 -3.7258422631870758 5.8036946144629837 0 5.8036946144629837 -2.5655923284848541 0 0 0 0 -0.74522168398952715 12.681427410760989 0 12.681427410760989 -3.3363445843447153 0 0 0 0 -3.1954925251791053 2.9057964326775618 0 2.9057964326775618 3.1591217020659315 0 0 0 0 -3.0414641321438154 9.4937703669611437 0 9.4937703669611437 14.971314034291936 0 0 0 0 0.07309734774959864 -1.366358455628415 0 -1.366358455628415 12.963359828332614 0 0 0 0 -3.6858342416728647 9.7023385120401144 0 9.7023385120401144 0.29876607648384379 0 0 0 0 2.4205126529442396 4.022522389968799 0 4.022522389968799 7.522433725027895 0 0 0 0 -6.7456822099911022 6.7377967286365674 0 6.7377967286365674 7.2341773999669385 0 0 0 0 -3.402927038404286 4.410658323531834 0 4.410658323531834 11.570331906406864 0 0 0 0 -0.72286285806581596 1.7390403051561378 0 1.7390403051561378 -0.87867327940622175 0 0 0 0 -1.1210468502082733 -0.60943461166698398 0 -0.60943461166698398 12.484269621489148 0 0 0 0 0.16672986454336133 0.60812178486238366 0 0.60812178486238366 -0.51521192778501046 0 0 0 0 0.80360055950995957 2.4844575743163659 0 2.4844575743163659 -9.6656021630660689 0 0 0 0 0.21941656583745128 0.57969098444121769 0 0.57969098444121769 -0.24649087472292308 0 0 0 0 -0.46612532653989547 2.4156419565497345 0 2.4156419565497345 -2.5466004553409221 0 0 0 0 0.14600412733986445 -2.9944621825534341 0 -2.9944621825534341 0.13547973239292332 0 0 0 0 -0.30501191355448753 1.5082610611787004 0 1.5082610611787004 -2.3265696437356382 0 0 0 0 -5.155892204434025 8.8576036609506446 0 8.8576036609506446 13.259115572931478 0 0 0 0 -0.66642787669809822 1.6425065049805418 0 1.6425065049805418 -1.0333471436118895 0 0 0 0 0.49601721450051173 3.2730737245037744 0 3.2730737245037744 -0.30900773441226193 0 0 0 0 0.84393366614708043 2.703505801114261 0 2.703505801114261 -1.0061398932866723 0 0 0 0 -0.93128506443463266 3.7977125050911127 0 3.7977125050911127 -1.6256299664255494 0 0 0 0 -7.4612447518549061 9.5666815562854026 0 9.5666815562854026 2.0576716462310287 0 0 0 0 4.3011693102024395 5.1107477765706335 0 5.1107477765706335 -5.3286733039894898 0 0 0 0 3.8293453282401515 1.2502119800819855 0 1.2502119800819855 -3.0060982491249888 0 0 0 0 0.031167071228650922 0.1025795453195002 0 0.1025795453195002 0.2222403905150756 0 0 0 0 -9.06569203873687 -4.517410346041288 0 -4.517410346041288 -1.1435222967847949 0 0 0 0 1.9117094851799266 3.1523118413342672 0 3.1523118413342672 -9.3959338463237145 0 0 0 0 1.4945363203465831 3.5819066880972059 0 3.5819066880972059 -8.0833294607782591 0 0 0 0 1.1751942896763796 2.5531519502899691 0 2.5531519502899691 -1.026386642140027 0 0 0 0 3.2714811908697357 5.4377555365881562 0 5.4377555365881562 -7.6362731727847404 0 0 0 0 22.614489905493429 10.596835385123995 0 10.596835385123995 -19.290108099618919 0 0 0 0 0.42220172699056002 4.2477128462965421 0 4.2477128462965421 -7.8566960426600581 0 0 0 0 -1.1951686364902487 1.690630893432413 0 1.690630893432413 0.4812943455914418 0 0 0 0 1.4625717456521556 6.2776295027942979 0 6.2776295027942979 -13.126066618004188 0 0 0 0 -5.7181526592937075 6.4386090819439232 0 6.4386090819439232 -11.074849127579 0 0 0 0 -4.7698422103541134 6.1615668199556239 0 6.1615668199556239 -3.1541086913530307 0 0 0 0 4.7271045396178124 5.0171448294959191 0 5.0171448294959191 -15.300365170916848 0 0 0 0 0.14301542714658222 1.8041432749537449 0 1.8041432749537449 0.73193160777501731 0 0 0 0 0.17753201935909146 2.4688436209380598 0 2.4688436209380598 -8.2228029572243031 0 0 0 0 0.20910995062911297 3.6457509318970551 0 3.6457509318970551 -11.171602518377767 0 0 0 0 -0.62882516609283812 1.5111036969774432 0 1.5111036969774432 -9.3579603597809182 0 0 0 0 1.3027136783215534 -0.62780426875038664 0 -0.62780426875038664 -3.5963025295507975 0 0 0 0 -0.48518471085867532 2.0308605171248928 0 2.0308605171248928 -6.3712259354565504 0 0 0 0 2.6787927283138799 -2.0380795790010779 0 -2.0380795790010779 -3.6100073344587145 0 0 0 0 -1.4488819022494397 3.5681898031270975 0 3.5681898031270975 -8.8233048024849268 0 0 0 0 0.76959257707950535 1.1019191165594151 0 1.1019191165594151 -2.3590084560280236 0 0 0 0 -2.0851482540131201 2.6982513874399956 0 2.6982513874399956 -8.758953780203683 0 0 0 0 3.6222733604223127 0.38834919622956754 0 0.38834919622956754 -8.1971557136826476 0 0 0 0 8.612537852899095 -4.2548458972974004 0 -4.2548458972974004 -8.3740870994533907 0 0 0 0 -1.5914319791149865 4.6263710252833334 0 4.6263710252833334 -8.3382106027402187 0 0 0 0 -1.3636164930594532 4.1800257302675163 0 4.1800257302675163 -7.8555294797406532 0 0 0 0 0.81827747532241801 2.2486787515972537 0 2.2486787515972537 -8.4281033509250847 0 0 0 0 2.8923991428468918 3.0411421229804754 0 3.0411421229804754 -9.241539195838385 0 0 0 0 4.2276452378799547 6.4687696595583475 0 6.4687696595583475 -7.672465467139773 0 0 0 0 16.022093149992997 -8.0718491987481684 0 -8.0718491987481684 -8.0580355928887002 0 0 0 0 -7.070703378956523 42.946440388417614 0 42.946440388417614 22.25785129142605 0 0 0 0 71.733612878804138 29.769410309562772 0 29.769410309562772 -12.876762981552474 0 0 0 0 43.557233675528607 -11.6586924973858 0 -11.6586924973858 27.120117931608547 0 0 0 0 5.325228064275052 7.1834390548519877 0 7.1834390548519877 -7.2788602149562394 0 0 0 0 87.527346723347364 -78.200059784212499 0 -78.200059784212499 153.78539600752993 0 0 0 0 2.5223809393947647 2.7143808590235494 0 2.7143808590235494 -9.011035810039175 0 0 0 0 -0.47849793574400878 3.1390738897827353 0 3.1390738897827353 -9.1555033779420825 0 0 0 0 15.541635650198714 66.48200378389447 0 66.48200378389447 -10.731570046351408 0 0 0 0 18.855005650889552 57.230406667405987 0 57.230406667405987 -12.767093405262131 0 0 0 0 14.514983432373356 72.215009437575645 0 72.215009437575645 -24.9120937657799 0 0 0 0 15.941883833527299 75.053111059845833 0 75.053111059845833 -15.465744690825886 0 0 0 0 36.210669383078312 67.963044191248628 0 67.963044191248628 -15.147491673124023 0 0 0 0 -0.3610978317476865 0.22784165394795863 0 0.22784165394795863 -0.4578523174363589 0 0 0 0 33.738023020904961 56.311130316380513 0 56.311130316380513 -23.703898985477281 0 0 0 0 -7.1763988762673989 58.208619591552633 0 58.208619591552633 -21.281760112218763 0 0 0 0 67.755130191099511 37.141249084838819 0 37.141249084838819 -12.28313283215175 0 0 0 0 13.503439147358222 50.800548313145555 0 50.800548313145555 -15.721277296712287 0 0 0 0 38.941963192851517 26.571712896655299 0 26.571712896655299 -16.942906244978076 0 0 0 0 6.4311978736998299 50.077934125552929 0 50.077934125552929 -32.468168006238557 0 0 0 0 -27.430144777944292 33.236743421922256 0 33.236743421922256 -17.11784744727629 0 0 0 0 -18.168039710579933 -8.2235263181573828 0 -8.2235263181573828 -25.943616228176325 0 0 0 0 -28.290443877349048 -4.738248206139815 0 -4.738248206139815 18.246403278197249 0 0 0 0 0.85456025708276684 12.942944322880066 0 12.942944322880066 -16.063675974123726 0 0 0 0 -7.314079169181241 17.140061553796841 0 17.140061553796841 11.243602697784809 0 0 0 0 -13.544763923692017 9.5191110474024754 0 9.5191110474024754 61.153946295393325 0 0 0 0 -0.29122223576780532 2.0517416951734173 0 2.0517416951734173 0.81819511708185644 0 0 0 0 8.9430240485255581 37.481047172081162 0 37.481047172081162 46.349502588896939 0 0 0 0 2.7942221959740436 14.75458757250999 0 14.75458757250999 18.243054043185111 0 0 0 0 -7.5768267731869514 5.7576061627141826 0 5.7576061627141826 26.25063137502093 0 0 0 0 17.389394648347661 13.09343859519231 0 13.09343859519231 26.322661933631935 0 0 0 0 -21.109769892712848 5.7875097380510852 0 5.7875097380510852 30.539848588248333 0 0 0 0 -5.2577093442943124 -6.6004832267699385 0 -6.6004832267699385 6.6483503590643522 0 0 0 0 -27.3700937406104 -7.3043787172023258 0 -7.3043787172023258 7.5326783660275396 0 0 0 0 -9.6645635837186319 1.1757841788935366 0 1.1757841788935366 -29.593036820491761 0 0 0 0 -45.613896707170227 -25.338522512317013 0 -25.338522512317013 -37.786661894022473 0 0 0 0 -15.57735528201772 -1.5385806158269588 0 -1.5385806158269588 -38.573976130937808 0 0 0 0 -4.2882658144054631 -14.10124959028235 0 -14.10124959028235 -34.83977055381979 0 0 0 0 -7.4123780024773964 -5.9338283804690946 0 -5.9338283804690946 6.4913861282220751 0 0 0 0 31.775115666867066 27.877693254820315 0 27.877693254820315 -30.023680955157033 0 0 0 0 -22.226380449909769 -51.144359171738643 0 -51.144359171738643 -64.06489099173632 0 0 0 0 0.012412211437750731 -0.0057179060315970531 0 -0.0057179060315970531 -0.33772835456957395 0 0 0 0 4.9441088507848008 -18.848335253414007 0 -18.848335253414007 -2.0324465745425186 0 0 0 0 5.1406070265488779 -9.5310066831307267 0 -9.5310066831307267 13.873037141116583 0 0 0 0 -0.030337630538031068 0.61101734985884537 0 0.61101734985884537 -0.17996681921037805 0 0 0 0 21.373485161574848 -6.3546758377256083 0 -6.3546758377256083 4.1399355736102734 0 0 0 0 3.6618551168254498 -12.406546827627608 0 -12.406546827627608 8.5002369995590925 0 0 0 0 -1.753814091638958 5.0311319482696035 0 5.0311319482696035 7.1412642935192707 0 0 0 0 -3.2981356053653599 10.092466689364301 0 10.092466689364301 -4.1317318502406124 0 0 0 0 8.3429900946543967 10.172181312795146 0 10.172181312795146 -7.6689070401657773 0 0 0 0 1.4846403134952504 3.9413758288345306 0 3.9413758288345306 0.26635724490134827 0 0 0 0 -1.5422425809338449 3.8844957778937896 0 3.8844957778937896 -7.7771871080512938 0 0 0 0 19.88543801181288 11.386268919950453 0 11.386268919950453 -21.379051780910231 0 0 0 0 0.56419541296510034 0.41532833625643661 0 0.41532833625643661 -2.102840308758573 0 0 0 0 5.7093881193283096 10.6232080006248 0 10.6232080006248 8.0788900687057321 0 0 0 0 17.543768941130629 5.4440602329889316 0 5.4440602329889316 -8.9855424189972837 0 0 0 0 11.359440597099194 19.660119609854519 0 19.660119609854519 2.0095952423835115 0 0 0 0 19.671025599163841 19.046490361926772 0 19.046490361926772 -6.0361102952501824 0 0 0 0 -10.652190483728646 20.849170280893304 0 20.849170280893304 3.2464933090841441 0 0 0 0 -15.149396436459028 8.9441358168405714 0 8.9441358168405714 8.5901054690916681 0 0 0 0 -0.48587712023004137 0.145929971939875 0 0.145929971939875 0.19955132356702876 0 0 0 0 1.2527759239085547 -3.7118735299909815 0 -3.7118735299909815 -23.209352908364963 0 0 0 0 9.2720477090338136 -1.5042762893826875 0 -1.5042762893826875 -2.0631632003465938 0 0 0 0 10.913825525253344 -3.6591352015748271 0 -3.6591352015748271 4.7301524482936657 0 0 0 0 0.95732862294153165 5.1881539780179082 0 5.1881539780179082 -1.5441946233770523 0 0 0 0 16.796860054836088 9.2714065893324005 0 9.2714065893324005 -4.1185512003157783 0 0 0 0 -8.210938096493301 -0.032656978161412553 0 -0.032656978161412553 -2.1230301459254406 0 0 0 0 -1.770692126110863 3.9288783099106981 0 3.9288783099106981 -2.8758943224597289 0 0 0 0 6.0556383129664937 9.1416447894844168 0 9.1416447894844168 0.75941485908879258 0 0 0 0 5.8913764993564932 9.5721001222439099 0 9.5721001222439099 8.9542064758061315 0 0 0 0 6.0641924672943333 5.6604199768534613 0 5.6604199768534613 -2.1710778198960536 0 0 0 0 -5.635879686797125 -0.16638130241608451 0 -0.16638130241608451 32.127737341044849 0 0 0 0 3.6717174817813429 7.9614539246708773 0 7.9614539246708773 4.7382043297366181 0 0 0 0 3.6540009783976295 4.5985466925353045 0 4.5985466925353045 1.3813425479285799 0 0 0 0 0.15703138242739634 1.9215915319504919 0 1.9215915319504919 1.9992699402104464 0 0 0 0 11.110471571645689 -4.5380317861593085 0 -4.5380317861593085 -4.2278550174869451 0 0 0 0 -0.58869116457717041 1.0992220776497561 0 1.0992220776497561 -3.450654507296349 0 0 0 0 1.7388425341950844 1.4798568685162317 0 1.4798568685162317 -5.0224548459278004 0 0 0 0 -0.50321272165996334 1.4698835112999404 0 1.4698835112999404 -3.3002759888458968 0 0 0 0 -1.850197315832844 17.762279467315238 0 17.762279467315238 -90.272032982729797 0 0 0 0 0.23076707152718257 0.69076417496972731 0 0.69076417496972731 -3.2475683262457444 0 0 0 0 0.90346268269922803 0.19018252882960951 0 0.19018252882960951 -1.3077297947274928 0 0 0 0 0.49259667018657449 -0.15901048841432619 0 -0.15901048841432619 -1.4059163921235154 0 0 0 0 2.3574211114771977 -2.0680651740802745 0 -2.0680651740802745 -1.2917503364055172 0 0 0 0 0.059867069085696278 -0.47502853855681337 0 -0.47502853855681337 0.16864943468428351 0 0 0 0 -24.403897521856265 40.778408876759386 0 40.778408876759386 -89.393063849824102 0 0 0 0 -9.1984771023287522 -1.526500434614718 0 -1.526500434614718 11.295370602238108 0 0 0 0 1.8378270374876706 25.09349071423776 0 25.09349071423776 -123.7220825809236 0 0 0 0 -1.9843211819447788 17.450624641460308 0 17.450624641460308 -88.806525097388658 0 0 0 0 1.3271041638066379 27.35447490327374 0 27.35447490327374 -92.741399566097243 0 0 0 0 -0.17782137486343497 -0.031515348834986412 0 -0.031515348834986412 -0.61801552070854893 0 0 0 0 -15.592108367721352 2.4890200067648038 0 2.4890200067648038 -3.0445307191200754 0 0 0 0 -14.807040466355486 12.977936900208135 0 12.977936900208135 -28.18636260150015 0 0 0 0 3.2807405682015656 15.503199194740773 0 15.503199194740773 -92.33085500454763 0 0 0 0 1.1852505836762774 -0.30441095327813095 0 -0.30441095327813095 -1.2538122272922969 0 0 0 0 18.649009881424604 -9.8980853144385037 0 -9.8980853144385037 -18.676989151959788 0 0 0 0 1.8115939926327671 0.35924102193697749 0 0.35924102193697749 -1.1426579572125171 0 0 0 0 16.76203842068935 21.810684890087941 0 21.810684890087941 -3.9918141636990185 0 0 0 0 -43.828017653469715 8.5913823460432468 0 8.5913823460432468 -16.273274486120499 0 0 0 0 0.26532436630201994 -0.14658411588088605 0 -0.14658411588088605 -0.094472120724065078 0 0 0 0 -6.2487353747552277 5.7726794065547438 0 5.7726794065547438 32.999389186478766 0 0 0 0 -9.4583506290643982 -2.4760701719860663 0 -2.4760701719860663 -26.43733841615267 0 0 0 0 -23.977387601892275 53.145430998898519 0 53.145430998898519 -29.276327470596698 0 0 0 0 13.668775067837515 29.553320841347158 0 29.553320841347158 -8.6923417159105156 0 0 0 0 15.237691009930405 15.278860212990367 0 15.278860212990367 -62.745819326475612 0 0 0 0 14.686184830788793 -12.403760092878656 0 -12.403760092878656 -72.738552809264547 0 0 0 0 7.2386375697651388 -4.3167294376216887 0 -4.3167294376216887 -33.211541573901741 0 0 0 0 11.250296786364391 1.9711119743155905 0 1.9711119743155905 -60.134439783447306 0 0 0 0 5.9778548178372386 11.627344432557891 0 11.627344432557891 -14.632221277954159 0 0 0 0 1.4340502562049551 -12.345390277876504 0 -12.345390277876504 -43.197578406538923 0 0 0 0 -6.5727665978994025 5.1969365182221736 0 5.1969365182221736 -11.405608906286034 0 0 0 0 5.1109059574905373 3.2317867871859107 0 3.2317867871859107 -11.591127785741264 0 0 0 0 6.1890072628922326 -2.0738277517821189 0 -2.0738277517821189 -10.006577360518349 0 0 0 0 -3.884215097385578 5.38075769723946 0 5.38075769723946 7.7634500514814135 0 0 0 0 1.1610839236795982 1.7023033446694171 0 1.7023033446694171 -6.2261009529420335 0 0 0 0 0.84830171139492216 0.18808151364141068 0 0.18808151364141068 -1.2532500463735587 0 0 0 0 -0.74914430108140095 5.5585132973574218 0 5.5585132973574218 -9.5876973498834559 0 0 0 0 -0.037504629136612344 3.3876657566194135 0 3.3876657566194135 -7.0800491348585126 0 0 0 0 2.8006900579439389 8.8808984875709029 0 8.8808984875709029 -16.452777800714102 0 0 0 0 9.9991830454314936 2.2379378173964142 0 2.2379378173964142 -14.80330397027501 0 0 0 0 0.61891182352839302 2.2057268540740083 0 2.2057268540740083 -1.6675194629004544 0 0 0 0 2.1210341880125441 2.0274726472443945 0 2.0274726472443945 -5.5614614795313173 0 0 0 0 1.8090593203298795 0.38885817951540957 0 0.38885817951540957 -3.478918321283345 0 0 0 0 -0.17175540312859708 1.5988641402002743 0 1.5988641402002743 -5.5777026914447632 0 0 0 0 6.9810863244884445 11.658341844100505 0 11.658341844100505 -3.1075867928338994 0 0 0 0 0.34730178199608314 1.8551916473470813 0 1.8551916473470813 -4.1442862863550687 0 0 0 0 -0.53342757440509558 4.1430336400380838 0 4.1430336400380838 -7.9382420129841194 0 0 0 0 0.74162305152407271 3.2646323728968127 0 3.2646323728968127 -5.4914287897549912 0 0 0 0 -1.9616297688678515 6.5419624096193729 0 6.5419624096193729 -9.1754043953551445 0 0 0 0 0.7243781269995111 1.8733743396896898 0 1.8733743396896898 -3.8992011477821507 0 0 0 0 1.501674837510194 3.1042661562228204 0 3.1042661562228204 -5.6781744230684126 0 0 0 0 1.2056550822360617 1.2548496821035338 0 1.2548496821035338 -3.5516555506290572 0 0 0 0 0.39357933803768097 0.53947557420270886 0 0.53947557420270886 -0.3511943815438805 0 0 0 0 0.95530324696618862 2.3284186644062856 0 2.3284186644062856 -6.301217735697719 0 0 0 0 0.92840179501470743 2.7478393282326579 0 2.7478393282326579 -5.9007179759119026 0 0 0 0 1.1028836988949138 3.8844834365563656 0 3.8844834365563656 -8.5860928065885673 0 0 0 0 24.666783752153265 -14.209058830518643 0 -14.209058830518643 4.7542461171369723 0 0 0 0 1.1051509675093643 1.4930725121683075 0 1.4930725121683075 -7.0385331596321912 0 0 0 0 10.291600264227782 -8.5830328819774877 0 -8.5830328819774877 19.583490052964407 0 0 0 0 18.691225060040495 -7.1131590603820314 0 -7.1131590603820314 -1.3706219707983109 0 0 0 0 30.845100794942027 -42.013467794774897 0 -42.013467794774897 -6.9733675318566384 0 0 0 0 -13.002576575897592 -1.2529702201804866 0 -1.2529702201804866 -12.067627686579726 0 0 0 0 -6.2079318702869841 10.434900728478169 0 10.434900728478169 6.3161585891159575 0 0 0 0 -17.187306263346386 -18.430930576662604 0 -18.430930576662604 -1.2406190158399113 0 0 0 0 0.15248037143817328 -5.1292224665794492 0 -5.1292224665794492 -2.7778325230301562 0 0 0 0 36.387148013523529 -23.548539548621193 0 -23.548539548621193 -3.3286232693608326 0 0 0 0 37.331307883115187 6.9704194341702532 0 6.9704194341702532 -13.121668468818825 0 0 0 0 1.2084025858096477 1.2420319794198154 0 1.2420319794198154 -8.7339621550242867 0 0 0 0 70.849560961533712 -28.971875868802499 0 -28.971875868802499 -25.271960149297229 0 0 0 0 5.5919111437574998 1.1726611424976454 0 1.1726611424976454 -10.066833163029514 0 0 0 0 4.1365501066973138 -2.0194952972406099 0 -2.0194952972406099 -9.1440598540693827 0 0 0 0 1.0142217076323732 0.81675739753200105 0 0.81675739753200105 -10.655036883738603 0 0 0 0 2.3093233490399143 1.4812584446472101 0 1.4812584446472101 -11.902313789159962 0 0 0 0 3.4972344819436785 3.2318718708011147 0 3.2318718708011147 -10.862206401193362 0 0 0 0 1.3699462299210268 4.658285952031747 0 4.658285952031747 -20.691078970856324 0 0 0 0 1.1287911245205682 2.203332803957843 0 2.203332803957843 -9.8895112969353391 0 0 0 0 2.2654246033116578 5.2588210646154039 0 5.2588210646154039 -22.519183356856956 0 0 0 0 -11.242637351487701 7.9366587598397018 0 7.9366587598397018 -8.0932453269379039 0 0 0 0 1.5020755312540468 -1.8218904045269633 0 -1.8218904045269633 -1.3734357764523253 0 0 0 0 7.1287430950326325 17.818952305216953 0 17.818952305216953 -13.135272534218529 0 0 0 0 10.44185234075124 -13.010448212704432 0 -13.010448212704432 -18.355141677452821 0 0 0 0 29.114138551901419 21.578486494457138 0 21.578486494457138 -3.7416588840533223 0 0 0 0 1.069304438660309 -0.3390619062405138 0 -0.3390619062405138 -0.55698224594156898 0 0 0 0 0.60930212769971137 2.7260132829998742 0 2.7260132829998742 1.0854108739423864 0 0 0 0 84.652607449488301 16.253024507076589 0 16.253024507076589 -10.808441021126782 0 0 0 0 -4.168411934455662 2.65184991382921 0 2.65184991382921 -10.937316324250787 0 0 0 0 0.33183514235127665 2.0091871859592967 0 2.0091871859592967 -10.155552148652625 0 0 0 0 12.130735387169011 23.750208319449484 0 23.750208319449484 -4.3264642252343037 0 0 0 0 27.419522518250233 14.149632150550133 0 14.149632150550133 -24.804978604117423 0 0 0 0 -32.647811253843997 13.811229327811816 0 13.811229327811816 10.10337704973972 0 0 0 0 0.50278855539742806 0.75805862607222529 0 0.75805862607222529 0.23770099114887699 0 0 0 0 8.1498926374734424 0.5326871196493812 0 0.5326871196493812 -9.1369635602893595 0 0 0 0 0.81057767398244196 0.55979601492355968 0 0.55979601492355968 -8.0201437311682753 0 0 0 0 31.848168948363877 25.659739975206321 0 25.659739975206321 -15.899892702360376 0 0 0 0 5.3377278689195293 2.493552965464005 0 2.493552965464005 -9.6025611724580813 0 0 0 0 0.99656586588079676 0.97989587059146288 0 0.97989587059146288 -7.9215240559606173 0 0 0 0 1.2073598086252286 0.93447034113575089 0 0.93447034113575089 -9.6839430930094643 0 0 0 0 87.395704662545 -26.926767226309266 0 -26.926767226309266 -26.161702712655824 0 0 0 0 8.380924548424673 -0.87572065520089382 0 -0.87572065520089382 -10.729048785920895 0 0 0 0 1.393811037026945 2.7788596002682704 0 2.7788596002682704 -10.590886632492186 0 0 0 0 91.141578626373757 5.9023545842737803 0 5.9023545842737803 -55.977152798621319 0 0 0 0 -5.4540156866776215 59.611355709744203 0 59.611355709744203 -39.039944874378307 0 0 0 0 61.100451674976739 44.218442931821528 0 44.218442931821528 -72.83652245121084 0 0 0 0 -34.225974158514973 45.872121064010969 0 45.872121064010969 -39.50871657774951 0 0 0 0 -32.048651240360527 -37.554890270759643 0 -37.554890270759643 -1.5308667978151789 0 0 0 0 0.84320948154697817 2.4519790838321569 0 2.4519790838321569 -0.75460358946929773 0 0 0 0 -1.6482963963689485 3.976267371403992 0 3.976267371403992 3.1173831231435543 0 0 0 0 -3.5899543321453393 1.5357770823038663 0 1.5357770823038663 -0.0025406510580978647 0 0 0 0 -1.1050560317611371 4.4815725152043342 0 4.4815725152043342 -3.9151405758821056 0 0 0 0 -1.9221625856650979 1.8984702414707435 0 1.8984702414707435 -1.479412406006837 0 0 0 0 7.7770157486472726 25.792110561631489 0 25.792110561631489 -3.3189026701329567 0 0 0 0 8.3219195663423235 10.954185748270049 0 10.954185748270049 -3.0943876238088706 0 0 0 0 -16.253281868667045 28.898192945025585 0 28.898192945025585 -15.554465403375616 0 0 0 0 3.6553431798031397 2.6156262624499504 0 2.6156262624499504 -19.631912328260114 0 0 0 0 -19.000421415744796 2.4545843974568697 0 2.4545843974568697 1.3257673645421164 0 0 0 0 -3.0814655430101539 11.12454155456544 0 11.12454155456544 3.8280896960345672 0 0 0 0 25.88070346285815 13.272343758719217 0 13.272343758719217 -19.7231087528844 0 0 0 0 11.747788765944904 8.7465089565125709 0 8.7465089565125709 -17.533010900933732 0 0 0 0 20.678027451040066 18.899329289132766 0 18.899329289132766 -5.3183213065713062 0 0 0 0 26.050168779593832 30.679047225126851 0 30.679047225126851 9.3852854579963605 0 0 0 0 26.7565499056725 9.1796541090570827 0 9.1796541090570827 4.4832679015744361 0 0 0 0 -3.1350073195005734 13.110925188426336 0 13.110925188426336 0.5373475444766882 0 0 0 0 -21.814182382887566 24.985225063461257 0 24.985225063461257 18.306961205104017 0 0 0 0 -13.052977705610374 10.095223438420362 0 10.095223438420362 14.019225009034926 0 0 0 0 -19.433298876445633 7.4631352616834192 0 7.4631352616834192 13.933829349682355 0 0 0 0 -33.292833528226879 10.45038026014754 0 10.45038026014754 15.23225357971387 0 0 0 0 -1.2822365439590095 0.70630026436584004 0 0.70630026436584004 0.93844635119468478 0 0 0 0 -132.54601807335166 -34.69704098152215 0 -34.69704098152215 16.9680217405039 0 0 0 0 -0.49373455462699978 0.26581084427193602 0 0.26581084427193602 0.45502980973694029 0 0 0 0 34.807351342509264 52.189887710300354 0 52.189887710300354 9.2197725048863504 0 0 0 0 45.00637761726648 -3.134234364677468 0 -3.134234364677468 25.349955885674262 0 0 0 0 -27.654500879051625 97.002207799143434 0 97.002207799143434 -104.37003322185774 0 0 0 0 189.63429876268651 -32.245542400878549 0 -32.245542400878549 -89.715512039289024 0 0 0 0 104.02410000193618 38.492190748710527 0 38.492190748710527 -28.469692346949159 0 0 0 0 16.996592046308479 -61.103366528405786 0 -61.103366528405786 -114.36988031575675 0 0 0 0 5.0403094559228521 -41.61201187747065 0 -41.61201187747065 63.579120484380837 0 0 0 0 -3.2601031145040906 15.023223734391649 0 15.023223734391649 -56.203052473712887 0 0 0 0 5.3383046264093537 12.158397366547433 0 12.158397366547433 -91.052830041611742 0 0 0 0 -7.1705977856968275 61.012791007953638 0 61.012791007953638 -280.60544709440546 0 0 0 0 -184.16968677575528 67.089402714282187 0 67.089402714282187 -39.220451807253994 0 0 0 0 -65.95863824153912 86.464077506425383 0 86.464077506425383 -75.940332788875367 0 0 0 0 -59.746310017871565 -5.2009473374419031 0 -5.2009473374419031 -5.6299014122796507 0 0 0 0 16.441498025041255 6.9132329267322348 0 6.9132329267322348 -9.2212224511895329 0 0 0 0 -21.382025029055967 36.412591107089611 0 36.412591107089611 -12.735058055599438 0 0 0 0 -25.536184130250604 35.162701212431784 0 35.162701212431784 -13.091302513046685 0 0 0 0 -19.421416945000544 47.884242261450254 0 47.884242261450254 -48.813662172447948 0 0 0 0 -11.4422417645618 31.541831849581285 0 31.541831849581285 -16.171891783162209 0 0 0 0 -11.585187052414426 30.287638180405338 0 30.287638180405338 -18.643765449342027 0 0 0 0 2.4233268623781328 16.590305137534415 0 16.590305137534415 -44.085246157061192 0 0 0 0 1.2274046698306051 20.023039939623231 0 20.023039939623231 -51.495756539422473 0 0 0 0 -1.8156095006397095 1.878246068394219 0 1.878246068394219 3.5276479855674552 0 0 0 0 -0.10381250166182898 1.4805459779992489 0 1.4805459779992489 -1.0273380157123455 0 0 0 0 -0.45858455811233823 1.6009664383966218 0 1.6009664383966218 -1.0198481595988298 0 0 0 0 -3.3296664862624539 9.2524181311655411 0 9.2524181311655411 -5.5454082584083153 0 0 0 0 2.7953512786376287 10.822056836787397 0 10.822056836787397 -17.773593857673404 0 0 0 0 -3.0780381271006974 16.207268838733626 0 16.207268838733626 -16.584006780905838 0 0 0 0 -9.8927497923289138 23.723714040163031 0 23.723714040163031 -13.711740587817985 0 0 0 0 -5.3781515925938947 23.097860906196729 0 23.097860906196729 -22.107670949023031 0 0 0 0 -8.6497508615788661 16.804096699857837 0 16.804096699857837 -18.971293221467931 0 0 0 0 -10.638746071950607 17.61939722284842 0 17.61939722284842 -10.325009652704466 0 0 0 0 -10.748093941079674 13.176020924835939 0 13.176020924835939 -14.945208008090049 0 0 0 0 -11.161139827862712 10.607611031104852 0 10.607611031104852 -20.167387045043142 0 0 0 0 -3.1873887046270966 11.038213306905163 0 11.038213306905163 -15.990691029906884 0 0 0 0 -11.052896033913044 14.692493121136067 0 14.692493121136067 -16.361268955415653 0 0 0 0 -10.486357101155107 11.700957192882015 0 11.700957192882015 -0.86193810394979664 0 0 0 0 -10.663292552036637 25.434623633479532 0 25.434623633479532 -8.3955784480822331 0 0 0 0 -14.65220663559785 23.000562159002584 0 23.000562159002584 -6.4876403028138157 0 0 0 0 -27.016334058153689 35.535596586709289 0 35.535596586709289 2.8214462222604197 0 0 0 0 -35.969642495535425 15.820408687050985 0 15.820408687050985 29.304960090277746 0 0 0 0 23.721657481074999 -18.453473450485035 0 -18.453473450485035 19.903417827297744 0 0 0 0 -3.6105240015624531 17.752223724555733 0 17.752223724555733 -1.2042139254117501 0 0 0 0 -10.091122640097979 14.573896312635043 0 14.573896312635043 7.2693805722406069 0 0 0 0 0.18682271292739339 0.22671577561417955 0 0.22671577561417955 -0.13270008949499612 0 0 0 0 157.9615651613027 -62.556612663875967 0 -62.556612663875967 -6.389524865682688 0 0 0 0 55.417245863041671 27.512740078976094 0 27.512740078976094 -3.3851234696885513 0 0 0 0 14.6488696550349 18.530599638698277 0 18.530599638698277 -7.9424047818283725 0 0 0 0 12.141581591167096 15.26414960951297 0 15.26414960951297 -4.1745471648348484 0 0 0 0 13.606535818572979 16.931188414712778 0 16.931188414712778 -12.953633642766363 0 0 0 0 -0.52396024244433193 3.8379761671039887 0 3.8379761671039887 1.9813852784291157 0 0 0 0 8.7880178433001106 6.0313872956000978 0 6.0313872956000978 -2.354647330732405 0 0 0 0 10.675837301099591 1.4460329147059383 0 1.4460329147059383 -20.428665711063786 0 0 0 0 2.4271453951212152 11.631071633123611 0 11.631071633123611 -32.392345712268252 0 0 0 0 -1.1948686819923751 4.2991190993161581 0 4.2991190993161581 -46.665103255889107 0 0 0 0 -5.5022830027555756 6.7230838149816918 0 6.7230838149816918 -47.6724059219232 0 0 0 0 -7.8390389918540109 3.3477351478113633 0 3.3477351478113633 -39.571593800203118 0 0 0 0 -11.540861595442607 5.4064837529858778 0 5.4064837529858778 -30.263116003779942 0 0 0 0 -7.7657922822972978 12.560212753493033 0 12.560212753493033 -29.16017461987758 0 0 0 0 -7.4940457045544235 5.9127643098554472 0 5.9127643098554472 -27.432907625949156 0 0 0 0 -8.5662018693199826 6.6114386951061306 0 6.6114386951061306 -27.859273817670328 0 0 0 0 -1.6053819371766167 -0.48591365677907561 0 -0.48591365677907561 -28.985236327178427 0 0 0 0 -7.5010310355257843 9.4403261034858588 0 9.4403261034858588 -13.523643061142138 0 0 0 0 -11.967161651221813 1.5383515270975323 0 1.5383515270975323 1.8914646213124797 0 0 0 0 4.1932525570027792 17.706928820789472 0 17.706928820789472 -3.2453571319636012 0 0 0 0 -32.797616512280804 15.951228713239036 0 15.951228713239036 6.5747675421807799 0 0 0 0 -11.328875951956547 19.027183308910935 0 19.027183308910935 2.8292440283112228 0 0 0 0 -0.25166787980197114 15.643465065050805 0 15.643465065050805 -2.8504741873257444 0 0 0 0 -38.17140404868546 0.65198219967032855 0 0.65198219967032855 2.1361373683084821 0 0 0 0 -46.321259232948989 30.068357655977479 0 30.068357655977479 0.94791800485290878 0 0 0 0 0.60638913501088609 21.391811227009384 0 21.391811227009384 0.81771177551854635 0 0 0 0 3.3865497693235511 17.231385450495509 0 17.231385450495509 0.42631021935812896 0 0 0 0 36.697741041206314 8.7384145041196462 0 8.7384145041196462 -4.9537074496765854 0 0 0 0 15.078820252600281 26.096328293268016 0 26.096328293268016 -1.8598211529497348 0 0 0 0 32.888392817205613 25.035632802914733 0 25.035632802914733 -7.4110783446467394 0 0 0 0 0.63634297081450186 2.5770087375508832 0 2.5770087375508832 -13.762564105380878 0 0 0 0 14.026504491651622 14.05865931128028 0 14.05865931128028 -3.2835881797946058 0 0 0 0 6.3232507397783593 21.783860754680063 0 21.783860754680063 -0.71859237335229409 0 0 0 0 3.017611554133282 15.561537177823993 0 15.561537177823993 -3.4669286942801136 0 0 0 0 -0.29688722732706552 3.3383187596932489 0 3.3383187596932489 -10.547003712836968 0 0 0 0 0.57666873863011126 1.6090515075349412 0 1.6090515075349412 -1.8062879862356525 0 0 0 0 -10.206684040015602 20.641833954649883 0 20.641833954649883 5.6548184575385676 0 0 0 0 66.519238892109456 -3.2767093533593652 0 -3.2767093533593652 -24.213766536999174 0 0 0 0 34.093216533507075 16.762745729161907 0 16.762745729161907 -25.042890654862276 0 0 0 0 12.031075022787036 15.598705412735399 0 15.598705412735399 0.76430463698034146 0 0 0 0 -60.376473725037329 48.623592275641158 0 48.623592275641158 -13.519416649645791 0 0 0 0 7.0556625925189564 0.5394007222403161 0 0.5394007222403161 -16.866505524531931 0 0 0 0 26.390385633953201 15.632622888010701 0 15.632622888010701 0.45117981017574493 0 0 0 0 27.856651269274607 13.287947601887936 0 13.287947601887936 -23.253146347514303 0 0 0 0 87.3075845766067 -21.616257355170546 0 -21.616257355170546 -10.68593375995988 0 0 0 0 -3.2512185457235319 21.454281969333351 0 21.454281969333351 -36.894430930892213 0 0 0 0 42.599146797881644 22.991504184571113 0 22.991504184571113 -37.42872229200475 0 0 0 0 9.5973336919887515 69.950128077853151 0 69.950128077853151 -78.563868518518575 0 0 0 0 -33.63764811803776 78.711800196191689 0 78.711800196191689 -64.16421261135838 0 0 0 0 -0.091908843172376686 -0.25847585953293351 0 -0.25847585953293351 -0.19558718756191951 0 0 0 0 -97.799579044498159 59.133638870154755 0 59.133638870154755 -17.856573224842577 0 0 0 0 -41.023176222690608 3.6156306503617088 0 3.6156306503617088 -18.264924137030903 0 0 0 0 9.178486444029204 27.07052143164583 0 27.07052143164583 -46.170486572278605 0 0 0 0 35.190242561763228 52.282672823139933 0 52.282672823139933 -17.593852056626929 0 0 0 0 8.3433156792534646 28.230075617328112 0 28.230075617328112 29.44635699799619 0 0 0 0 60.758294373845047 -24.566824312192693 0 -24.566824312192693 -162.82027873190236 0 0 0 0 -82.377610108969066 69.078476028487785 0 69.078476028487785 -41.00041537512152 0 0 0 0 -0.53099501811257221 1.7594969461339671 0 1.7594969461339671 0.49904763808377339 0 0 0 0 35.843706931245379 23.552766039165363 0 23.552766039165363 -144.25015486828124 0 0 0 0 13.555811122070736 16.170153416702306 0 16.170153416702306 -51.476040433713024 0 0 0 0 48.826510341991025 -19.296672316721015 0 -19.296672316721015 -23.626903893287817 0 0 0 0 67.115487408268564 82.179347039747881 0 82.179347039747881 -88.974219514802826 0 0 0 0 -14.107281235982327 89.031828903433961 0 89.031828903433961 82.770301711201682 0 0 0 0 8.3863276511463027 54.836621349501002 0 54.836621349501002 -35.180420133270673 0 0 0 0 36.226174894432006 138.11412903855489 0 138.11412903855489 -66.131354427227052 0 0 0 0 67.846938877874436 82.192897757846595 0 82.192897757846595 -218.35736711895879 0 0 0 0 41.477437720924229 -88.272784113842405 0 -88.272784113842405 -84.617423156010773 0 0 0 0 19.668114375512232 31.129533018895017 0 31.129533018895017 -146.73774927752129 0 0 0 0 -2.5715500823018829 -21.861937701105489 0 -21.861937701105489 22.69353767812936 0 0 0 0 36.823015842982841 -1.64232730241838 0 -1.64232730241838 -87.149729954078794 0 0 0 0 1.5692707439584344 4.6167402983662544 0 4.6167402983662544 4.7023523191560912 0 0 0 0 -32.764796343160469 28.279508384435758 0 28.279508384435758 -9.7065312811319018 0 0 0 0 -33.155400256048779 20.469615874993906 0 20.469615874993906 -14.815640264655713 0 0 0 0 -3.871930008360323 29.177503972387058 0 29.177503972387058 -45.696413498240872 0 0 0 0 -71.134703573934985 45.485229360292578 0 45.485229360292578 -16.625964161154116 0 0 0 0 -44.959679074802807 78.048111536874785 0 78.048111536874785 -100.98379961554383 0 0 0 0 -3.5939241028604556 31.270835769482801 0 31.270835769482801 -71.412606644165862 0 0 0 0 22.60638287840311 2.2532554710378463 0 2.2532554710378463 -19.024819296264468 0 0 0 0 -6.2432197167913728 33.061425565800164 0 33.061425565800164 -46.970332013943334 0 0 0 0 56.098011991057845 -3.9088556761116138 0 -3.9088556761116138 -5.0981857320311974 0 0 0 0 56.452608254466938 8.890501556968843 0 8.890501556968843 -47.409838214622141 0 0 0 0 57.537519768165907 41.41463859766418 0 41.41463859766418 11.501386218234984 0 0 0 0 1.3122330073258501 -0.40267466988260736 0 -0.40267466988260736 0.33875505217549495 0 0 0 0 19.137149057017496 11.46955719778407 0 11.46955719778407 -7.6496945623948704 0 0 0 0 9.3090241695624627 11.792976054949577 0 11.792976054949577 -5.7863966999357217 0 0 0 0 87.358445333700388 12.694947319458151 0 12.694947319458151 -28.273889101044915 0 0 0 0 52.30444511237954 -25.166169536570578 0 -25.166169536570578 23.362492936386843 0 0 0 0 21.637784317768592 6.4081163144828679 0 6.4081163144828679 -42.622614645868452 0 0 0 0 49.499749965423632 -0.82186785948829311 0 -0.82186785948829311 -44.157240997770714 0 0 0 0 45.193557634478566 17.089456915105984 0 17.089456915105984 -23.267860338548417 0 0 0 0 22.016560694027476 2.2404347561696341 0 2.2404347561696341 -61.105027894925115 0 0 0 0 -7.2310602161816178 16.731239205814745 0 16.731239205814745 -33.011338700232955 0 0 0 0 10.170585748559802 13.491415199767857 0 13.491415199767857 -36.575446439148436 0 0 0 0 -1.4207792818251619 26.678166386527664 0 26.678166386527664 -23.608733222167757 0 0 0 0 2.0173748760580565 20.956192338824621 0 20.956192338824621 -39.720147314681526 0 0 0 0 -8.4646669008966029 -0.87733304877929186 0 -0.87733304877929186 -62.055631573746723 0 0 0 0 1.5311697843699505 -19.255113282063803 0 -19.255113282063803 -125.57177178224174 0 0 0 0 -1.1084694875434047 0.27351700798752177 0 0.27351700798752177 -0.1345140426552569 0 0 0 0 32.763478651693021 11.483718018167565 0 11.483718018167565 -82.045654904926778 0 0 0 0 -18.240130165638902 19.924731322650587 0 19.924731322650587 29.039380140148637 0 0 0 0 62.857283629758854 -32.08252953535839 0 -32.08252953535839 -141.45781438529229 0 0 0 0 -18.453634645964314 7.1051430689353765 0 7.1051430689353765 -57.611158343819625 0 0 0 0 55.149395077666099 -50.378333863371381 0 -50.378333863371381 -59.062466531571772 0 0 0 0 42.578877338916072 -13.227633223652447 0 -13.227633223652447 -85.192380021411736 0 0 0 0 37.941026332122419 -5.832916769591975 0 -5.832916769591975 -25.236901463196773 0 0 0 0 22.278790991592132 -99.223269003417954 0 -99.223269003417954 89.59999155780315 0 0 0 0 74.675906990404656 -105.81505159934568 0 -105.81505159934568 69.695395890996224 0 0 0 0 94.765120423819553 -59.61837353520059 0 -59.61837353520059 43.523749905156365 0 0 0 0 -0.68304984425688087 -0.55285541228994006 0 -0.55285541228994006 -0.073268036331420205 0 0 0 0 -1.4394953283497784 -3.3115502615536059 0 -3.3115502615536059 -5.7773810071453937 0 0 0 0 43.29828603308215 -52.241920602040409 0 -52.241920602040409 62.052557118950062 0 0 0 0 3.9657709778723529 -0.1838789519497368 0 -0.1838789519497368 -28.566275503408178 0 0 0 0 1.1074773262221242 10.292978280101124 0 10.292978280101124 -30.024820536196785 0 0 0 0 -3.0674536258034095 -0.70563599359047657 0 -0.70563599359047657 -3.0521584492432794 0 0 0 0 106.3387428396326 -55.147873057135143 0 -55.147873057135143 -28.944780434405402 0 0 0 0 97.286168207481296 -5.3262544729741421 0 -5.3262544729741421 -99.436183158912172 0 0 0 0 -1.7923969527871328 -3.9922000457203666 0 -3.9922000457203666 -7.1062533532245666 0 0 0 0 -7.5274500731040916 4.5229160518210847 0 4.5229160518210847 -70.984483760542389 0 0 0 0 -9.0742690303997335 1.248082020277252 0 1.248082020277252 -47.58421327234646 0 0 0 0 -3.4776409107592485 -0.82189634002043022 0 -0.82189634002043022 -68.266789327442893 0 0 0 0 -8.0992921866426286 0.26177306195768324 0 0.26177306195768324 -45.589508566872155 0 0 0 0 -4.2419500151394232 0.15649486571055604 0 0.15649486571055604 -39.076577953115248 0 0 0 0 -0.87281038639611097 3.6502641327210767 0 3.6502641327210767 -65.714298705492183 0 0 0 0 9.0582319654983507 5.3441775265298475 0 5.3441775265298475 -65.397624877481576 0 0 0 0 -2.1547893656706947 11.274273911767523 0 11.274273911767523 -83.225600609908724 0 0 0 0 -11.600870368611709 2.2747641120786284 0 2.2747641120786284 -65.237216453541635 0 0 0 0 -4.2978201204530819 -5.0555788117985685 0 -5.0555788117985685 -94.735690344210525 0 0 0 0 -8.2662683457160711 -4.592668934039466 0 -4.592668934039466 -69.063210304023869 0 0 0 0 2.3311889268248365 1.7843514558098832 0 1.7843514558098832 -107.61442204381547 0 0 0 0 -3.731522343494551 0.027051134101437668 0 0.027051134101437668 -0.13655662883210695 0 0 0 0 -13.254099803857258 -7.5025287673506682 0 -7.5025287673506682 -7.8862527793517074 0 0 0 0 17.358718038840948 31.824530636259624 0 31.824530636259624 -35.881202924103491 0 0 0 0 -12.409447125692395 11.516003285614715 0 11.516003285614715 -47.831316158160917 0 0 0 0 89.168930928185887 23.056168318422351 0 23.056168318422351 -91.801996682877871 0 0 0 0 70.081145301534661 -95.38421396652484 0 -95.38421396652484 -247.96995434034034 0 0 0 0 -6.7998666996981569 -4.3176154617385691 0 -4.3176154617385691 -81.88430246110147 0 0 0 0 -5.8479107985871224 6.2597160711984543 0 6.2597160711984543 -92.889436950435993 0 0 0 0 -5.3274488727126368 -0.61727363327651119 0 -0.61727363327651119 -0.13930285181965463 0 0 0 0 -0.86514246185839738 2.2858835728275153 0 2.2858835728275153 -98.009261475163839 0 0 0 0 -232.70631395254168 -69.24131264438347 0 -69.24131264438347 20.365180740296637 0 0 0 0 -194.7823220039736 121.41790207753729 0 121.41790207753729 -126.03702560355555 0 0 0 0 -51.657835813570273 -127.39005350734317 0 -127.39005350734317 -416.26809002778464 0 0 0 0 -47.893282102909311 -66.534189440235082 0 -66.534189440235082 -160.2888697766939 0 0 0 0 -169.02375902389576 -138.99715797557292 0 -138.99715797557292 -201.04228829099156 0 0 0 0 -268.39349213886726 -207.42503876407864 0 -207.42503876407864 -123.6089346325316 0 0 0 0 -441.44193392996476 -105.60185881791404 0 -105.60185881791404 -143.33309626261735 0 0 0 0 21.267378294555783 23.478087340670754 0 23.478087340670754 -638.86502152679168 0 0 0 0 -698.58134991332008 133.92143123578717 0 133.92143123578717 -291.06722406535118 0 0 0 0 -196.96281832002114 -260.44915012195997 0 -260.44915012195997 -644.40283088232172 0 0 0 0 -820.70073407808195 -362.54559152109141 0 -362.54559152109141 2.9148416169336997 0 0 0 0 -0.080316036795273549 -0.20399264634156644 0 -0.20399264634156644 -0.86038142675194962 0 0 0 0 -333.48986204298672 -24.20607445519272 0 -24.20607445519272 93.400534752452586 0 0 0 0 -64.236548047799261 19.082006496162649 0 19.082006496162649 -16.279673000864022 0 0 0 0 -258.17142394009761 517.11813681003696 0 517.11813681003696 -480.4675137224549 0 0 0 0 -131.74714127315292 159.31372980093875 0 159.31372980093875 8.7005450140495668 0 0 0 0 8.5903114373008975 73.700434355770994 0 73.700434355770994 -132.65307015200233 0 0 0 0 141.53376184445167 -15.076542279695843 0 -15.076542279695843 -237.71281328233817 0 0 0 0 7.042347192284069 104.92063543376207 0 104.92063543376207 -229.27547785104622 0 0 0 0 -52.106213929995647 209.4326379987433 0 209.4326379987433 -321.50558069087856 0 0 0 0 1.0206655881772804 33.192273398180987 0 33.192273398180987 -372.2242830957548 0 0 0 0 1.0527835482619139 61.267590036521142 0 61.267590036521142 -230.38563747610897 0 0 0 0 141.68646825535598 41.770392190115672 0 41.770392190115672 -325.31237158518161 0 0 0 0 76.320629579009847 -49.751835246443989 0 -49.751835246443989 -167.84557427057609 0 0 0 0 -9.0455849134019104 -29.126789604152691 0 -29.126789604152691 -137.51541205394642 0 0 0 0 -3.7616781459583208 -0.90559604267695093 0 -0.90559604267695093 -0.33387602326147636 0 0 0 0 -4.1227013367274168 1.9191717564849569 0 1.9191717564849569 -89.247375955441385 0 0 0 0 -6.9689604335179638 4.7729764959221939 0 4.7729764959221939 -82.652161348092704 0 0 0 0 -6.5303519220215449 -0.53902256978642527 0 -0.53902256978642527 -79.641218597167608 0 0 0 0 -3.8421976983567276 -1.1615688757919997 0 -1.1615688757919997 -78.602969054012647 0 0 0 0 -4.1845518011420495 2.3332739569050318 0 2.3332739569050318 -79.416937386925042 0 0 0 0 -6.7045034164837034 2.0609669490713713 0 2.0609669490713713 -65.816783784755899 0 0 0 0 -6.6527834730465543 4.9478900042515761 0 4.9478900042515761 -66.084925463077525 0 0 0 0 -7.8978684314090515 -0.30318053708469961 0 -0.30318053708469961 -57.525058909623112 0 0 0 0 -5.2887306268611383 2.4220430234163359 0 2.4220430234163359 -65.945862942193799 0 0 0 0 -13.813073958199713 1.9148636371112389 0 1.9148636371112389 -57.638370654343817 0 0 0 0 -12.570264628663161 6.4102429282302182 0 6.4102429282302182 -73.438398781210253 0 0 0 0 -10.934076603236036 9.9596503979837507 0 9.9596503979837507 -60.376357595565423 0 0 0 0 -7.9559428784508412 1.8753841418511001 0 1.8753841418511001 -77.749917154415925 0 0 0 0 -5.4757077152705591 2.5573364497780631 0 2.5573364497780631 -78.54042244980883 0 0 0 0 -43.582913923751754 -4.3530802692689576 0 -4.3530802692689576 -74.687601668523712 0 0 0 0 -14.802575338374712 14.212834473346447 0 14.212834473346447 -90.278293798735831 0 0 0 0 -17.319086593462078 11.02675723644802 0 11.02675723644802 -133.94237937313119 0 0 0 0 -1.0761172072591993 -0.34511351410668212 0 -0.34511351410668212 -0.30800991998312632 0 0 0 0 11.502770821276869 -15.883062957213951 0 -15.883062957213951 -254.43857974394723 0 0 0 0 1.9725288774317118 8.7022859233279632 0 8.7022859233279632 -118.02381734605444 0 0 0 0 1.3776480404881526 0.75222160755811274 0 0.75222160755811274 -170.89671491203262 0 0 0 0 -6.8333776205533621 -23.551318362119673 0 -23.551318362119673 -122.23291122760816 0 0 0 0 -32.494278022140072 -32.419378187539223 0 -32.419378187539223 -114.5099227562132 0 0 0 0 0.63042365361284758 5.7007965800003149 0 5.7007965800003149 -95.84113383751901 0 0 0 0 0.025844918851824199 -1.5124046717119199 0 -1.5124046717119199 -109.28055894022873 0 0 0 0 1.9871682603148995 -10.118783529526809 0 -10.118783529526809 -103.75012671382683 0 0 0 0 -0.0090731527034875834 -2.7087191787022675 0 -2.7087191787022675 -89.550322123701335 0 0 0 0 -0.14327495987312278 -8.1066661422141806 0 -8.1066661422141806 -90.641872507003427 0 0 0 0 -2.4119533139226808 -10.011102468227818 0 -10.011102468227818 -90.738724939748863 0 0 0 0 -4.1617100083040448 -9.8890177340056198 0 -9.8890177340056198 -72.754012579232949 0 0 0 0 -20.665775888636219 -12.351868142839066 0 -12.351868142839066 -80.968407781238056 0 0 0 0 -15.397443570072864 -9.7657916835651122 0 -9.7657916835651122 -66.595432574662482 0 0 0 0 -11.237618883907313 -8.9546370413463592 0 -8.9546370413463592 -81.543985582359142 0 0 0 0 -23.757073379192271 -3.1041380426631804 0 -3.1041380426631804 -60.157010225695558 0 0 0 0 -7.8077535307646713 3.1566478076956628 0 3.1566478076956628 -58.91663646932102 0 0 0 0 -3.1552796272326908 -5.5503460554818957 0 -5.5503460554818957 -66.663218493312129 0 0 0 0 -14.076914180296853 0.23797246316917153 0 0.23797246316917153 -46.514954094900531 0 0 0 0 -9.8860880848684367 -1.5171686705552929 0 -1.5171686705552929 -31.485510927888754 0 0 0 0 -4.4156143056175523 2.8643222574037281 0 2.8643222574037281 -46.943295994076834 0 0 0 0 -6.3360911166794978 7.0116396512621577 0 7.0116396512621577 -42.918780205798612 0 0 0 0 -11.0218052502485 2.836693755696615 0 2.836693755696615 -31.184893113158978 0 0 0 0 2.9481862580860474 -5.7590716601789609 0 -5.7590716601789609 -47.744138784687948 0 0 0 0 -10.804099406599654 -4.3805389782437487 0 -4.3805389782437487 -47.857043076109221 0 0 0 0 0.0071457311770070416 -0.35090869045325235 0 -0.35090869045325235 -68.887389326624316 0 0 0 0 -0.011229037076194617 3.3741805530298734 0 3.3741805530298734 -32.79310595345305 0 0 0 0 -3.5379484252595672 1.8504254407973804 0 1.8504254407973804 -15.964653169394296 0 0 0 0 0.19724301637917796 -6.0224713310401512 0 -6.0224713310401512 -21.732775404258064 0 0 0 0 -2.3418236185381005 0.82994625684568746 0 0.82994625684568746 -30.908838114950527 0 0 0 0 -0.60187139832828862 -4.1168278753084451 0 -4.1168278753084451 -30.857991087188111 0 0 0 0 -5.5763604887802565 5.202213710770593 0 5.202213710770593 -16.466068359981364 0 0 0 0 6.2170463735567481 4.1611197955617172 0 4.1611197955617172 -16.690603788869339 0 0 0 0 -8.5716530042312229 7.8472484335588888 0 7.8472484335588888 -13.807936217106544 0 0 0 0 -2.3255931352877042 5.3712894705849976 0 5.3712894705849976 -13.506578681923202 0 0 0 0 -2.355429300018903 10.779653534376228 0 10.779653534376228 -27.167321227378125 0 0 0 0 -10.013124065989246 3.5052263882798798 0 3.5052263882798798 -31.150407079299839 0 0 0 0 -4.0025493220964137 12.600080576214623 0 12.600080576214623 -23.355437753145452 0 0 0 0 -9.958206033244096 6.910072400088211 0 6.910072400088211 -26.283116714187599 0 0 0 0 -6.4065949965077493 7.0075624173168762 0 7.0075624173168762 -15.01972293554536 0 0 0 0 -4.2236126034012216 13.062979872504457 0 13.062979872504457 -10.590891460586136 0 0 0 0 -5.0343564358947788 15.238832966992049 0 15.238832966992049 -16.864977093806374 0 0 0 0 -9.5979090465842773 16.68026086584905 0 16.68026086584905 -16.605651228444003 0 0 0 0 -11.063656607462008 10.911689406439109 0 10.911689406439109 -24.47424129365254 0 0 0 0 -5.2402772737023326 14.832253758665956 0 14.832253758665956 -23.497911356966142 0 0 0 0 -4.7020514230476351 13.744831150380378 0 13.744831150380378 -28.592308280061843 0 0 0 0 -9.4853894098857978 10.085336869923594 0 10.085336869923594 -20.538860235626998 0 0 0 0 -10.763107402711526 7.008554263453334 0 7.008554263453334 -33.054305320027197 0 0 0 0 -7.5333058066760259 11.567407708516839 0 11.567407708516839 -36.075541652742686 0 0 0 0 -9.4340282497205976 9.8845951182274803 0 9.8845951182274803 -38.405612390171882 0 0 0 0 -9.110946717391073 4.7000089136081442 0 4.7000089136081442 -41.918658339982358 0 0 0 0 -7.7081718158840005 9.5034121934704672 0 9.5034121934704672 -50.905659122543511 0 0 0 0 -10.822150963119178 3.0699961858579172 0 3.0699961858579172 -50.403293571447648 0 0 0 0 -14.277814718495947 1.6178171671399468 0 1.6178171671399468 -45.043348968682039 0 0 0 0 -8.5941718899689192 9.5295862214961744 0 9.5295862214961744 -53.544555821027643 0 0 0 0 -10.996235119195319 4.4698417256231551 0 4.4698417256231551 -40.45338231619462 0 0 0 0 -5.8631027582400463 11.431039305038894 0 11.431039305038894 -35.944417318629348 0 0 0 0 -7.3492989372335558 11.156056453402016 0 11.156056453402016 -43.346913797591696 0 0 0 0 0.56871512438840455 1.5413464208222649 0 1.5413464208222649 -13.148995664002541 0 0 0 0 0.29082418887125527 -0.12489258026096195 0 -0.12489258026096195 -13.64999286112652 0 0 0 0 2.6275488094491775 3.1678208364552489 0 3.1678208364552489 -11.605160511920669 0 0 0 0 0.86250212599031784 1.0399778488720131 0 1.0399778488720131 -13.399056099145128 0 0 0 0 1.2607415852269241 0.71549075715438448 0 0.71549075715438448 -13.152777197358773 0 0 0 0 1.8353878558659744 0.66201031084074202 0 0.66201031084074202 -23.060074652129515 0 0 0 0 -0.32957912905339981 5.6882499445600843 0 5.6882499445600843 -12.816664898059571 0 0 0 0 0.72810831190611225 0.93352620453697455 0 0.93352620453697455 -12.29888910106456 0 0 0 0 -0.65478733795208655 0.53940639695451864 0 0.53940639695451864 -10.161051028478596 0 0 0 0 0.54686316502066745 -0.94235160333596468 0 -0.94235160333596468 -11.332973775161918 0 0 0 0 0.43322966119677631 -1.2228111271738271 0 -1.2228111271738271 -8.9532262447592075 0 0 0 0 1.8162863110153467 -1.5952542223958517 0 -1.5952542223958517 -13.650657359549768 0 0 0 0 14.579121964062551 6.2626498764662983 0 6.2626498764662983 -12.594176414146204 0 0 0 0 1.6708139052891511 -0.6011588755673074 0 -0.6011588755673074 -11.640054185028475 0 0 0 0 3.3286843932154309 1.7513875669478276 0 1.7513875669478276 -10.099541606646136 0 0 0 0 14.71477351917936 6.3886184575056859 0 6.3886184575056859 -16.339341530018828 0 0 0 0 14.199595001265799 12.496653626708053 0 12.496653626708053 -18.788952097280344 0 0 0 0 14.116043502876096 12.249168147379351 0 12.249168147379351 -4.7702730002451972 0 0 0 0 2.6505787849043569 2.3831135989320176 0 2.3831135989320176 -10.871397737797 0 0 0 0 14.693696670959639 4.1953650849727637 0 4.1953650849727637 -15.442926851378047 0 0 0 0 -4.1069237218877461 14.87612800398756 0 14.87612800398756 -13.110704375207206 0 0 0 0 0.29326027129193477 7.6574484691019506 0 7.6574484691019506 -4.6201575660215894 0 0 0 0 -12.64052380768365 17.958332154280924 0 17.958332154280924 -14.216925906792994 0 0 0 0 0.90070989069961471 1.2002419926304313 0 1.2002419926304313 1.361565294828587 0 0 0 0 -28.522183296260664 11.468463573318331 0 11.468463573318331 -7.815992256249956 0 0 0 0 -12.292445103940992 17.519113452236979 0 17.519113452236979 -20.797129428055996 0 0 0 0 -29.19541623373425 21.763562782646204 0 21.763562782646204 -4.5043347936358487 0 0 0 0 -35.75375913508185 14.504642636113658 0 14.504642636113658 -7.8068726897672605 0 0 0 0 -12.632800435343484 7.2356345898338077 0 7.2356345898338077 -4.1259944472194547 0 0 0 0 -28.393622082745338 18.494796718612463 0 18.494796718612463 -0.78721314879567217 0 0 0 0 1.5979707362243567 2.0253231554533144 0 2.0253231554533144 2.7950997129682325 0 0 0 0 -19.120081248020028 26.618088829624412 0 26.618088829624412 -16.816130436652202 0 0 0 0 -26.383458547248793 21.635012294594958 0 21.635012294594958 -18.790888458831432 0 0 0 0 -28.903216776187776 20.313991451247603 0 20.313991451247603 -19.386553114408798 0 0 0 0 6.0533197835478632 15.860116099977631 0 15.860116099977631 -5.5349224846505365 0 0 0 0 -6.5963428699608357 -4.3325562823083601 0 -4.3325562823083601 -2.29128868787393 0 0 0 0 2.8445223496223684 3.8828609027544658 0 3.8828609027544658 2.4644118483984698 0 0 0 0 1.7379370317256644 -6.5328514636701129 0 -6.5328514636701129 -46.178444381652753 0 0 0 0 1.364143206722507 -1.528891016583259 0 -1.528891016583259 -7.284204713558875 0 0 0 0 -16.173933560148498 40.559499994025828 0 40.559499994025828 -53.130906074988161 0 0 0 0 -42.046140135262817 22.233260696491925 0 22.233260696491925 -7.4366077266174671 0 0 0 0 0.35521499931295875 0.28271456970959363 0 0.28271456970959363 -0.5938246459591312 0 0 0 0 -16.245700233030675 18.032998264880462 0 18.032998264880462 -57.565665455491398 0 0 0 0 -17.095760777838052 14.499456799418795 0 14.499456799418795 -72.13950181286782 0 0 0 0 -23.946245982668756 28.389534351630118 0 28.389534351630118 -39.5670432662846 0 0 0 0 -27.428022961948443 42.736726860523277 0 42.736726860523277 -51.020422908069122 0 0 0 0 -26.597915956703901 23.643218419759705 0 23.643218419759705 -17.996726384977137 0 0 0 0 -22.157535439392632 16.136549793054655 0 16.136549793054655 -47.531448783051701 0 0 0 0 -13.390678259392473 12.516047617007189 0 12.516047617007189 -68.125628296761533 0 0 0 0 3.5250077849221384 12.623373774252741 0 12.623373774252741 -68.782963074665304 0 0 0 0 -35.336177151324932 29.031310283852008 0 29.031310283852008 -54.750351033416337 0 0 0 0 -9.5318978183001946 36.365164380775241 0 36.365164380775241 -59.740557073566151 0 0 0 0 3.3437672530775444 35.580348340353794 0 35.580348340353794 -64.659480472184441 0 0 0 0 -13.702747932605462 43.276072371566897 0 43.276072371566897 -57.774905410195061 0 0 0 0 -14.095761527631254 48.519374656594209 0 48.519374656594209 -61.303471916654416 0 0 0 0 -28.090448281718864 41.571661519938516 0 41.571661519938516 -74.753199355242941 0 0 0 0 1.9908291898687622 -1.1607507598977982 0 -1.1607507598977982 -5.4503646418001068 0 0 0 0 -39.065123194702664 57.644088213394298 0 57.644088213394298 -55.428861195554418 0 0 0 0 -56.444058554217406 9.0380156824001006 0 9.0380156824001006 -9.432981892809039 0 0 0 0 -20.854167450317163 52.376462397545765 0 52.376462397545765 -52.524955604248134 0 0 0 0 -8.7106257792208908 18.388283020124618 0 18.388283020124618 -30.452956338270667 0 0 0 0 -8.15573938107309 32.945223744297436 0 32.945223744297436 -46.91859643085661 0 0 0 0 -25.422930647176599 38.020713650611015 0 38.020713650611015 -28.636340635415763 0 0 0 0 1.0518519033694855 -1.6912234372563439 0 -1.6912234372563439 -5.5551964219532302 0 0 0 0 4.7193363057596684 -1.6700779805194088 0 -1.6700779805194088 -9.5458133841029849 0 0 0 0 1.0456659493815437 1.7709390238273954 0 1.7709390238273954 -12.168919564286625 0 0 0 0 1.666359118132732 1.0036447079546633 0 1.0036447079546633 -13.843297289274574 0 0 0 0 7.4351736578831549 -7.5947131591167363 0 -7.5947131591167363 -3.8141751490311435 0 0 0 0 -3.4153144825842219 15.031855087534495 0 15.031855087534495 -26.596884967797905 0 0 0 0 -0.047689257475905578 -0.0033858735410383645 0 -0.0033858735410383645 -0.0093188412174463053 0 0 0 0 4.8644635446515849 -9.1156056284985425 0 -9.1156056284985425 8.6295778676540067 0 0 0 0 5.8799647685565333 -1.4138309635268342 0 -1.4138309635268342 -4.3452839069686888 0 0 0 0 5.0718453364843299 0.86099690733635725 0 0.86099690733635725 -6.5921059594525104 0 0 0 0 6.066939003855353 -3.2943017348745798 0 -3.2943017348745798 -7.6174604764128162 0 0 0 0 -0.18657084744685548 -0.28909981829340659 0 -0.28909981829340659 -2.2146913827695229 0 0 0 0 12.359814671000549 -8.1495695494641041 0 -8.1495695494641041 -11.108687336859475 0 0 0 0 5.5268735289432653 -0.29754670509372616 0 -0.29754670509372616 -2.644724207196985 0 0 0 0 7.0011689746360162 7.1987437154118652 0 7.1987437154118652 -4.0129218029323965 0 0 0 0 5.2517901573294239 4.8803086071143298 0 4.8803086071143298 -6.5927733798707777 0 0 0 0 5.2031891602582618 8.2540620106392453 0 8.2540620106392453 -4.5489186335007616 0 0 0 0 0.27750015278616047 6.414738626606777 0 6.414738626606777 -2.4190849416040692 0 0 0 0 4.434600202236652 3.7773832966568079 0 3.7773832966568079 -1.465413287292904 0 0 0 0 4.6711519488880384 -5.4175462011882018 0 -5.4175462011882018 -2.4031336485741122 0 0 0 0 0.5592929162187219 -0.23316140352685188 0 -0.23316140352685188 -0.61470749070615227 0 0 0 0 4.9830094184298961 0.79904979386409991 0 0.79904979386409991 -0.90283277448369681 0 0 0 0 2.5646791393485273 -0.53311023692776871 0 -0.53311023692776871 -2.949577439652785 0 0 0 0 2.0036915633584158 1.4667287758838938 0 1.4667287758838938 -8.8821601095851292 0 0 0 0 2.282503463676032 0.76735580962704653 0 0.76735580962704653 -0.93463212214547298 0 0 0 0 2.3811222535182086 0.63594019925702305 0 0.63594019925702305 -0.65952241123669708 0 0 0 0 0.36588403400176794 -0.079200318060600239 0 -0.079200318060600239 -0.43778981549572649 0 0 0 0 2.2967939246436799 3.1564145894135436 0 3.1564145894135436 -0.40019597433297349 0 0 0 0 4.394576418911214 1.2009784223776307 0 1.2009784223776307 0.047020968908327632 0 0 0 0 -1.3548355617676862 -2.8937658617169291 0 -2.8937658617169291 -4.0889215380157111 0 0 0 0 -0.21035073889881595 -1.1989497233955291 0 -1.1989497233955291 -1.4797031197889012 0 0 0 0 -1.0562500567380084 -2.916104256847575 0 -2.916104256847575 -6.2392676412619039 0 0 0 0 14.289261790609544 8.644725464107978 0 8.644725464107978 -4.2487068246705348 0 0 0 0 0.40419964309381218 -0.26757878766946419 0 -0.26757878766946419 -0.60030303374676208 0 0 0 0 -7.3769881662074113 -6.4263798678421153 0 -6.4263798678421153 -6.6139304316269545 0 0 0 0 1.7557065254946069 0.67571079933609113 0 0.67571079933609113 -1.8589601945518766 0 0 0 0 0.94568838670647892 1.3190400881430833 0 1.3190400881430833 -1.965236166748582 0 0 0 0 1.5336123912320545 1.4166165741225996 0 1.4166165741225996 -1.3754787384314113 0 0 0 0 3.1508550801854653 -0.38229516436240374 0 -0.38229516436240374 -3.4618897306063445 0 0 0 0 2.2340731008366657 0.33458462388139587 0 0.33458462388139587 -1.7972270998562117 0 0 0 0 2.7172028318955199 -4.2538272805595625 0 -4.2538272805595625 -14.748152304557152 0 0 0 0 6.1703149299273718 -0.77225748095770541 0 -0.77225748095770541 -14.250868456086209 0 0 0 0 2.1926626663235425 -1.9605650271649893 0 -1.9605650271649893 -13.218156673270641 0 0 0 0 1.8450297215651736 0.75889589907125021 0 0.75889589907125021 -0.80574805390545201 0 0 0 0 2.7944872857999599 -4.7246483971345015 0 -4.7246483971345015 -14.014068706050239 0 0 0 0 7.0711461546403598 -6.7171332366442584 0 -6.7171332366442584 -14.152833774322062 0 0 0 0 5.0962566650201779 -3.6960632816635552 0 -3.6960632816635552 -18.729558981152877 0 0 0 0 -0.92343147344308818 -3.611816186185024 0 -3.611816186185024 -14.283289126760792 0 0 0 0 0.047789201566489581 -0.0035782707179699003 0 -0.0035782707179699003 -0.0020455603666054145 0 0 0 0 -9.7646108814362833 -2.7211290401187398 0 -2.7211290401187398 -1.2979842285603809 0 0 0 0 7.5804506994126086 -10.073480209573972 0 -10.073480209573972 -25.758366962791115 0 0 0 0 -42.894574232936293 -37.706787736724436 0 -37.706787736724436 -22.264403192077225 0 0 0 0 7.0950493831255699 10.685011265755747 0 10.685011265755747 -39.183327353663117 0 0 0 0 12.152665594227528 -0.24455679577295086 0 -0.24455679577295086 -50.846880721519483 0 0 0 0 11.605538623841767 -1.1455553062605759 0 -1.1455553062605759 -27.805825899791671 0 0 0 0 12.137015732707596 -2.4717151938034476 0 -2.4717151938034476 -31.944029360045533 0 0 0 0 6.7592752061118517 9.7991934845413198 0 9.7991934845413198 -26.520653410520026 0 0 0 0 8.0791769122104142 1.8252915961284089 0 1.8252915961284089 -16.61538914763787 0 0 0 0 8.3903411961202892 -0.91612016549424879 0 -0.91612016549424879 -20.131182599203385 0 0 0 0 9.4743883831471294 -1.2815241435255302 0 -1.2815241435255302 -22.049679909177939 0 0 0 0 9.1552708017989062 3.6342799852154712 0 3.6342799852154712 -21.248112743563524 0 0 0 0 7.8279775554097597 1.1086406783995244 0 1.1086406783995244 -17.609345812019455 0 0 0 0 6.9400776444996382 1.8241065997890473 0 1.8241065997890473 -18.155099173036433 0 0 0 0 6.7617812809436373 5.350200077313275 0 5.350200077313275 -18.375231392259593 0 0 0 0 -0.82872051802621627 4.6715161665978258 0 4.6715161665978258 -15.344747224707135 0 0 0 0 2.7575058083233444 4.1681766895276269 0 4.1681766895276269 -15.33584982353841 0 0 0 0 2.6956346394601951 2.3235519835448031 0 2.3235519835448031 -12.926698496632525 0 0 0 0 4.804266368435151 1.3476576829457372 0 1.3476576829457372 -17.515566296278848 0 0 0 0 4.5187233500807906 -7.9895000010328658 0 -7.9895000010328658 -15.62234763865348 0 0 0 0 3.462152129596916 -17.64507284931824 0 -17.64507284931824 -5.3593237242424721 0 0 0 0 0.28821052294051697 -3.1406571847555824 0 -3.1406571847555824 -37.85424576350124 0 0 0 0 5.5480630418301189 6.6111952927813036 0 6.6111952927813036 -38.986762010861071 0 0 0 0 -4.6967599136917215 -2.3111962802299786 0 -2.3111962802299786 -15.366497789857021 0 0 0 0 -5.0047170098910101 -3.6223944180455874 0 -3.6223944180455874 -36.881792579099056 0 0 0 0 -3.5369507782043001 -11.23352466358574 0 -11.23352466358574 -40.628420108419959 0 0 0 0 -11.514186721799206 -13.275284117636147 0 -13.275284117636147 -16.42139018540729 0 0 0 0 -3.5426979525229854 -3.0832952055279748 0 -3.0832952055279748 -12.411642554901846 0 0 0 0 -6.6688849781792214 -5.1528778058684566 0 -5.1528778058684566 -1.4985805275227904 0 0 0 0 0.1794535546350744 4.6616025480234384 0 4.6616025480234384 -5.0148166928011051 0 0 0 0 -8.042352414860261 -3.7729506635150756 0 -3.7729506635150756 0.59985963632243511 0 0 0 0 -1.4657669552876769 4.1039404757602824 0 4.1039404757602824 -0.42720172736881068 0 0 0 0 -9.4645729044977998 -7.4868492109835643 0 -7.4868492109835643 -8.2369132490507582 0 0 0 0 -17.727257452926779 -24.149553993989684 0 -24.149553993989684 -34.814773934720051 0 0 0 0 -8.6813437248488867 -0.62081657571229698 0 -0.62081657571229698 -21.699375913423864 0 0 0 0 -1.3825821712412107 -8.8929915663811698 0 -8.8929915663811698 -18.596733861738358 0 0 0 0 14.628363999164691 -1.7818994190463116 0 -1.7818994190463116 -4.3482969902615878 0 0 0 0 -21.538892022580058 -2.3395265213375751 0 -2.3395265213375751 -19.428834171141716 0 0 0 0 -7.1481607584149742 6.3482542474182537 0 6.3482542474182537 -4.0678289252682589 0 0 0 0 -1.6718455689833718 9.3293795640147437 0 9.3293795640147437 -10.851339948798341 0 0 0 0 -4.9183504476882263 -9.5433498077072727 0 -9.5433498077072727 -14.339494288565675 0 0 0 0 -4.5510186683909524 6.5097420325710118 0 6.5097420325710118 17.784761257034916 0 0 0 0 0.27804527007983104 0.035493819934290016 0 0.035493819934290016 -0.21135319092073601 0 0 0 0 -1.2125345040258253 17.349634259955565 0 17.349634259955565 16.837667661783144 0 0 0 0 9.5710175293334032 22.317626720079716 0 22.317626720079716 7.7788974615796178 0 0 0 0 -2.179809686608678 1.0310010098564817 0 1.0310010098564817 1.2534908776324301 0 0 0 0 6.0680189282215906 14.652469565546198 0 14.652469565546198 2.2985229128341871 0 0 0 0 0.0021030723696640052 -3.0167711234116723 0 -3.0167711234116723 -12.856569136401902 0 0 0 0 1.5362505261568913 -0.037837342308193911 0 -0.037837342308193911 -2.1337726698125152 0 0 0 0 -1.3538968463899437 -4.3686889844611869 0 -4.3686889844611869 -12.889935366296413 0 0 0 0 -3.5812357265876926 -10.644482080060698 0 -10.644482080060698 -15.355645026915226 0 0 0 0 1.4347234103656437 0.68266669778556022 0 0.68266669778556022 -1.4550243029983783 0 0 0 0 0.33469480892441572 -0.31929817868773114 0 -0.31929817868773114 -0.63539282856568313 0 0 0 0 1.8238674932555279 1.5057893985728299 0 1.5057893985728299 -1.1738500694247733 0 0 0 0 3.0671773516978647 -7.2030433908366831 0 -7.2030433908366831 -19.019279817031929 0 0 0 0 3.0396419096977638 12.912729885361159 0 12.912729885361159 -10.010614270979204 0 0 0 0 29.851283106563528 5.5158843433478069 0 5.5158843433478069 -79.067449225520249 0 0 0 0 -6.587119801411859 4.6877168594755858 0 4.6877168594755858 -17.613013109788881 0 0 0 0 -0.39422104930148461 0.27058726758808938 0 0.27058726758808938 -0.029460338016463083 0 0 0 0 -12.412248558781357 -39.631115655514805 0 -39.631115655514805 -55.157962421379125 0 0 0 0 -17.739457646257051 -11.430169233974084 0 -11.430169233974084 -18.273224050541103 0 0 0 0 3.0048378780639617 1.626397985743079 0 1.626397985743079 -5.3093630653249662 0 0 0 0 4.1309569865218236 5.5017896049503179 0 5.5017896049503179 -23.140766560713018 0 0 0 0 3.224662439089002 -12.123723603956023 0 -12.123723603956023 -34.187515788258679 0 0 0 0 1.0198033937324453 -1.4416983938108388 0 -1.4416983938108388 -3.6661808975732129 0 0 0 0 1.6858753908981043 -6.210903168902405 0 -6.210903168902405 -38.830194326703349 0 0 0 0 0.4056541719114648 -1.2554692963517482 0 -1.2554692963517482 -17.019293999190268 0 0 0 0 0.48517570347177941 0.47133189087699634 0 0.47133189087699634 0.30530384510894493 0 0 0 0 2.8308968515061679 2.1220088881600532 0 2.1220088881600532 -0.057811243359537912 0 0 0 0 -0.31861962969924207 9.4789616879788809 0 9.4789616879788809 -8.7835808867712331 0 0 0 0 2.8242872133079726 2.4926102248824318 0 2.4926102248824318 -2.4422953583719647 0 0 0 0 20.446114410226528 9.4238114957306607 0 9.4238114957306607 -1.5401096243258507 0 0 0 0 3.014881165551742 -2.4837277794449619 0 -2.4837277794449619 0.35743012407988317 0 0 0 0 0.46141766856931099 -0.00049961246349994326 0 -0.00049961246349994326 -0.48991613574253279 0 0 0 0 -1.8050594765319374 -1.309358067838275 0 -1.309358067838275 -0.62844960271104355 0 0 0 0 0.66372922067208151 -7.462492125438871 0 -7.462492125438871 -1.1194122266533668 0 0 0 0 1.252102001518034 -5.4321809616788652 0 -5.4321809616788652 -13.921587629371302 0 0 0 0 7.3523873781391558 -8.8013829586279826 0 -8.8013829586279826 -21.681769238799347 0 0 0 0 3.8553069248008116 -1.7234724062922062 0 -1.7234724062922062 -3.4176552046577271 0 0 0 0 25.107455579417774 -4.6335118637598498 0 -4.6335118637598498 -15.009470043893543 0 0 0 0 5.6782658663930761 -7.5017192336672451 0 -7.5017192336672451 -20.971611487810151 0 0 0 0 -1.1055517258322949 -4.1490317988187488 0 -4.1490317988187488 -8.2190357581219224 0 0 0 0 7.7928997478061319 17.620515575804347 0 17.620515575804347 2.0327442592915759 0 0 0 0 31.777375249470197 25.288256146599451 0 25.288256146599451 -31.130116117901252 0 0 0 0 20.169724533918213 7.3253194039662048 0 7.3253194039662048 -25.738918151128019 0 0 0 0 27.712254196466574 -4.3338575858460899 0 -4.3338575858460899 -34.456928717580013 0 0 0 0 17.675684581236965 1.5920406686091155 0 1.5920406686091155 -37.390913410275971 0 0 0 0 12.447678554260278 -7.6454155831906974 0 -7.6454155831906974 -22.830384838071041 0 0 0 0 6.9514763271524771 -18.377016472350988 0 -18.377016472350988 -40.847247034836982 0 0 0 0 7.663723610933971 -2.699065181493097 0 -2.699065181493097 -27.752260543100419 0 0 0 0 -0.51986511269680591 2.3836052558872325 0 2.3836052558872325 -18.117392954216484 0 0 0 0 6.1331757638627096 -2.423413030388474 0 -2.423413030388474 -19.666565974268678 0 0 0 0 3.7022897309190057 -4.6473641108609627 0 -4.6473641108609627 -19.360696906933299 0 0 0 0 2.3579405204120576 4.3908580508405066 0 4.3908580508405066 -13.545645229660295 0 0 0 0 1.439872656726493 0.97698731460968702 0 0.97698731460968702 -18.042029567348379 0 0 0 0 0.17203158867772572 1.0370470693064817 0 1.0370470693064817 -9.0169669406104731 0 0 0 0 0.82793337211689311 -0.14603728056182952 0 -0.14603728056182952 -6.3063986214380705 0 0 0 0 -0.15726245427115204 2.9386755937354891 0 2.9386755937354891 -8.5488507781170284 0 0 0 0 0.47236713961670618 -3.821085048166994 0 -3.821085048166994 -13.391405378152275 0 0 0 0 -0.27384313039215158 -14.155128536554912 0 -14.155128536554912 -9.4065879356312507 0 0 0 0 -1.2953929725164386 -8.2687739304391243 0 -8.2687739304391243 -17.922501430724878 0 0 0 0 0.18468064893420788 -0.47866709719095191 0 -0.47866709719095191 -3.3061932621601819 0 0 0 0 3.4816834945851269 -2.938739685004748 0 -2.938739685004748 -6.576964956606389 0 0 0 0 4.7632384030863477 -0.68709148349216775 0 -0.68709148349216775 -10.460522544244668 0 0 0 0 1.029864395318441 2.1621796734707459 0 2.1621796734707459 -9.9323280855745679 0 0 0 0 1.9182020131319462 -0.51926514047613637 0 -0.51926514047613637 -7.8406478887445701 0 0 0 0 -4.4493209894766892 10.095198549237921 0 10.095198549237921 -15.080780346295796 0 0 0 0 0.61285719102684455 0.20162909432764131 0 0.20162909432764131 -0.57692698238157869 0 0 0 0 -0.05382832701896878 0.25113691849989017 0 0.25113691849989017 -0.44995298123283334 0 0 0 0 1.8077186253336777 3.5515582994130455 0 3.5515582994130455 -14.202131239749178 0 0 0 0 2.4567098424755613 1.0275548004274242 0 1.0275548004274242 -6.8622453119696729 0 0 0 0 0.26838513704126399 5.7462361907682862 0 5.7462361907682862 -10.379440591156708 0 0 0 0 0.72395842118669407 5.9402882868089364 0 5.9402882868089364 -13.583819424465219 0 0 0 0 -0.44799141064230197 2.9753675470789709 0 2.9753675470789709 -3.0405394375488837 0 0 0 0 -1.1753146052698185 6.4789421773548383 0 6.4789421773548383 -10.509918474057486 0 0 0 0 -0.12516280684534142 5.8597333269970129 0 5.8597333269970129 -9.0806213531640694 0 0 0 0 -1.5519536753243983 4.2307859211956611 0 4.2307859211956611 -9.372541314955015 0 0 0 0 0.34609006364860306 5.4032793934684378 0 5.4032793934684378 -10.896559275168556 0 0 0 0 1.3946234615673632 2.6239467546533888 0 2.6239467546533888 -9.0350195775117754 0 0 0 0 0.81141583779879545 0.51346700083231411 0 0.51346700083231411 -2.1694388008702745 0 0 0 0 -0.74611821237850828 1.0927172204600399 0 1.0927172204600399 0.21560494299123789 0 0 0 0 -3.6463171671589407 -7.6232391531011672 0 -7.6232391531011672 -56.471372647980388 0 0 0 0 -3.5459572691872836 -10.124435610740875 0 -10.124435610740875 -11.853234766122114 0 0 0 0 25.952595091582225 29.565570407168707 0 29.565570407168707 -31.115494872839918 0 0 0 0 -1.2521355740150284 7.2206594397293884 0 7.2206594397293884 -22.367596000063713 0 0 0 0 0.43547726136939291 -0.30204770098559308 0 -0.30204770098559308 -2.8198937151393917 0 0 0 0 2.2163075589879488 5.459363732834916 0 5.459363732834916 3.9833640911605457 0 0 0 0 7.0939890023242924 7.9541275249330283 0 7.9541275249330283 2.8397450549891801 0 0 0 0 5.4377684534865693 2.713064577113073 0 2.713064577113073 -10.016092937565759 0 0 0 0 0.88506855500980919 3.2160716425341889 0 3.2160716425341889 -4.8626613941396499 0 0 0 0 3.306134669501148 1.0983127946406057 0 1.0983127946406057 -16.599654462324906 0 0 0 0 7.8643236407425547 6.3866720360201725 0 6.3866720360201725 -10.466451005294743 0 0 0 0 8.35219584601316 2.0705521683294137 0 2.0705521683294137 -11.412985551610291 0 0 0 0 9.300171383243196 3.3093118825581769 0 3.3093118825581769 -17.235268882678611 0 0 0 0 10.005268688565394 0.92253294277929854 0 0.92253294277929854 -15.609877980519741 0 0 0 0 10.546043433766727 2.8722522023153942 0 2.8722522023153942 -15.481409262588841 0 0 0 0 8.7608373589297344 0.95693513334629188 0 0.95693513334629188 -16.450029478790384 0 0 0 0 8.7420479055122087 -3.0186267010458323 0 -3.0186267010458323 -9.1793650159052049 0 0 0 0 2.2324838181102677 -0.37202554437590152 0 -0.37202554437590152 -3.5755064751506325 0 0 0 0 1.8114744274625991 3.0876609784399989 0 3.0876609784399989 -14.023542801897747 0 0 0 0 3.0381822026857606 -2.3582375503190178 0 -2.3582375503190178 -6.5805867696599307 0 0 0 0 1.6961017110420471 -1.0438967233903895 0 -1.0438967233903895 -7.1948295686488564 0 0 0 0 2.3580007581723521 -0.62285526953201042 0 -0.62285526953201042 -7.9591555485048957 0 0 0 0 2.6768736899141459 -1.0406798540980162 0 -1.0406798540980162 -8.525389494195224 0 0 0 0 24.625265793272888 3.1022034403895304 0 3.1022034403895304 -11.404164374681059 0 0 0 0 8.4466282821218215 -8.1068828173924885 0 -8.1068828173924885 -1.3317035847867373 0 0 0 0 0.21549534486875555 -0.032789954340083582 0 -0.032789954340083582 0.025539771308686787 0 0 0 0 24.143958857880534 3.7566568832667144 0 3.7566568832667144 -14.227001473734163 0 0 0 0 5.7289416122890771 9.9247614871228507 0 9.9247614871228507 7.0357363148081618 0 0 0 0 1.7392107864661739 1.0622353805811144 0 1.0622353805811144 -2.1145707631067978 0 0 0 0 3.6825647126316881 2.2615478026359597 0 2.2615478026359597 -12.106935215635531 0 0 0 0 2.2875755658016033 10.472322687600354 0 10.472322687600354 -11.462392706105675 0 0 0 0 -4.3739629734288883 5.5052129064879409 0 5.5052129064879409 -12.491921722523784 0 0 0 0 3.2146625452529634 -0.42587036804934542 0 -0.42587036804934542 -15.017751321870492 0 0 0 0 9.3346392812080694 9.3038774352608016 0 9.3038774352608016 -18.431497650441088 0 0 0 0 7.1979822232284505 -7.1321366493461937 0 -7.1321366493461937 4.388441447446894 0 0 0 0 6.1654371481268981 -3.1515895797617759 0 -3.1515895797617759 -10.863817998979357 0 0 0 0 1.2144069223263614 -3.8340536126715961 0 -3.8340536126715961 -5.2246270249273721 0 0 0 0 2.2050899238724924 -3.9425298036512686 0 -3.9425298036512686 -11.766448210287308 0 0 0 0 1.5478335520618884 -2.7659047934739647 0 -2.7659047934739647 -13.373273149766192 0 0 0 0 3.1269066835612875 -0.83841578693136398 0 -0.83841578693136398 -12.517207621913258 0 0 0 0 3.2485292174002893 -3.554319338449659 0 -3.554319338449659 -19.759946647491233 0 0 0 0 3.4000055084148011 2.0606796682701294 0 2.0606796682701294 -0.89376808689473997 0 0 0 0 8.3596083273534987 1.6694288504459109 0 1.6694288504459109 -9.0955732682839425 0 0 0 0 0.039533797074890797 -0.59390421370627422 0 -0.59390421370627422 -1.2704138004423253 0 0 0 0 8.4488883514227382 0.76232444081324502 0 0.76232444081324502 -17.321095618899562 0 0 0 0 2.8113586987189265 0.4456912851328525 0 0.4456912851328525 -5.2278002755401758 0 0 0 0 1.8408033011411362 2.6316125271396231 0 2.6316125271396231 -6.6987677867905404 0 0 0 0 4.7290971679823883 0.36966555254002742 0 0.36966555254002742 -5.3368289494792407 0 0 0 0 2.3607309518068007 1.1853084266472251 0 1.1853084266472251 -7.1379436624720256 0 0 0 0 1.7241222432290266 0.22877000332448461 0 0.22877000332448461 -4.470162485155015 0 0 0 0 0.55408310297360386 1.8750574418905455 0 1.8750574418905455 -0.46247913006847163 0 0 0 0 10.446310465427075 -0.38758277263241325 0 -0.38758277263241325 -25.312057780080067 0 0 0 0 2.9566434231960241 0.30794896527807225 0 0.30794896527807225 -0.7498863397543265 0 0 0 0 -3.4954293974663528 9.5079871158850437 0 9.5079871158850437 -8.0890253903343137 0 0 0 0 15.389569652065163 -8.2209373747739392 0 -8.2209373747739392 -16.649430481808849 0 0 0 0 -22.340703819852351 15.655849795919494 0 15.655849795919494 -0.23535710393844056 0 0 0 0 5.3668552430622185 6.1141221580592173 0 6.1141221580592173 -20.939496443410462 0 0 0 0 3.035544123821055 0.571509862625458 0 0.571509862625458 0.080389951333204368 0 0 0 0 1.0984723273394223 0.16374941437607049 0 0.16374941437607049 -6.0034204731027785 0 0 0 0 0.66377182444606386 -0.79504510970145148 0 -0.79504510970145148 -1.8834817085974969 0 0 0 0 0.38958709503094918 1.6313932410799161 0 1.6313932410799161 -0.72340428219948816 0 0 0 0 -1.1280599453642139 0.62031552119742628 0 0.62031552119742628 -3.2594531752165494 0 0 0 0 1.1649115032694555 -0.13464530184756995 0 -0.13464530184756995 -0.96538699370927361 0 0 0 0 1.5888643495481034 0.11735244520400556 0 0.11735244520400556 -3.1695761625151135 0 0 0 0 -6.0342948000081407 18.786041347236733 0 18.786041347236733 -49.460873198511763 0 0 0 0 -18.337397453163646 44.732018379239435 0 44.732018379239435 -63.572281169561393 0 0 0 0 -1.3407971021496792 7.4528890449823848 0 7.4528890449823848 -38.013310534085576 0 0 0 0 18.488729220953019 18.066448963314542 0 18.066448963314542 -85.530994981565527 0 0 0 0 -29.571981291408179 43.196658495465272 0 43.196658495465272 -61.884192030468512 0 0 0 0 -1.4460897483704684 14.542365265536318 0 14.542365265536318 -182.88809310959095 0 0 0 0 1.8190981135041309 0.57961797644199287 0 0.57961797644199287 -0.69251898726142613 0 0 0 0 -29.793095949597802 49.447952274210778 0 49.447952274210778 -84.746871870250288 0 0 0 0 2.3683898894654476 -0.059332758898563043 0 -0.059332758898563043 -0.96791976045733463 0 0 0 0 -93.509471318424403 121.9450165061553 0 121.9450165061553 -91.61625788388028 0 0 0 0 -7.5415724414644956 -38.970909711013519 0 -38.970909711013519 -343.06518362717907 0 0 0 0 -8.7436035497353259 -37.102602799293891 0 -37.102602799293891 -253.39282296607598 0 0 0 0 0.45223411429408999 -0.25149455277587407 0 -0.25149455277587407 -0.59389658612827745 0 0 0 0 0.45386219075065282 0.28632212218133191 0 0.28632212218133191 -0.57457786254648013 0 0 0 0 5.6422287810441958 -26.588833007003359 0 -26.588833007003359 -82.378426337132623 0 0 0 0 1.3585268862493598 -0.17847053756287856 0 -0.17847053756287856 -1.5875436753240244 0 0 0 0 -4.3763917670573846 -3.2903178673059301 0 -3.2903178673059301 -39.116318915917645 0 0 0 0 10.254771715107722 -19.624658800437828 0 -19.624658800437828 -158.41739844514268 0 0 0 0 -69.711937066115297 -102.67717674956566 0 -102.67717674956566 -15.220135918976666 0 0 0 0 7.9322091920388971 -15.302042356953962 0 -15.302042356953962 -82.09152673753124 0 0 0 0 2.2597709735766287 0.014805563517484188 0 0.014805563517484188 -1.2861604087029264 0 0 0 0 0.56029186312598256 0.67329978919678979 0 0.67329978919678979 -1.2061963304095116 0 0 0 0 2.3979666030437841 1.2177953263908421 0 1.2177953263908421 -4.7938421362591725 0 0 0 0 2.6722248689303854 1.7549701374932738 0 1.7549701374932738 -1.8334778908028966 0 0 0 0 -3.2298031925311079 6.0176321688122698 0 6.0176321688122698 -23.801655675089023 0 0 0 0 1.7660387286578043 17.622506812225765 0 17.622506812225765 -47.82212338782756 0 0 0 0 -16.354999384559306 22.286362674587188 0 22.286362674587188 -33.805673092869256 0 0 0 0 -16.328160159257664 15.231254795597124 0 15.231254795597124 -6.062090561038076 0 0 0 0 2.2629736610664395 22.145750494666572 0 22.145750494666572 -73.692795839751852 0 0 0 0 4.1853907020063161 14.682165485804489 0 14.682165485804489 -45.795969103892276 0 0 0 0 0.96268568303844404 12.814506978558711 0 12.814506978558711 -45.8384832164096 0 0 0 0 4.3494963258333428 18.030500092378134 0 18.030500092378134 -40.028128192298936 0 0 0 0 7.5586468767061774 14.732053935546446 0 14.732053935546446 -45.923366087608883 0 0 0 0 -10.421059521226539 12.901702580937126 0 12.901702580937126 -12.769964619743405 0 0 0 0 3.1327671993087876 7.1838131202957811 0 7.1838131202957811 -37.37003220445331 0 0 0 0 1.4587210293832023 0.49851087849988573 0 0.49851087849988573 -0.14621118171102765 0 0 0 0 -5.9053214276121935 20.246396508278849 0 20.246396508278849 -48.030944813338465 0 0 0 0 1.529440932050818 12.882173056183092 0 12.882173056183092 -51.948634720942209 0 0 0 0 -4.3543825856766034 7.9518377976319243 0 7.9518377976319243 -49.636296331522317 0 0 0 0 -3.4701266334157026 11.07716876331142 0 11.07716876331142 -40.968690017451081 0 0 0 0 -12.974253693238353 0.32706963808459477 0 0.32706963808459477 -52.812120408318151 0 0 0 0 -9.4342415102028099 7.6384087602209547 0 7.6384087602209547 -42.838768494679243 0 0 0 0 1.8455076929758434 13.404122312299478 0 13.404122312299478 -45.696136987182399 0 0 0 0 -3.7124539538709769 11.643274259311511 0 11.643274259311511 -37.341779322427101 0 0 0 0 -1.0435316028817851 11.985843723281505 0 11.985843723281505 -37.324858983095055 0 0 0 0 -11.758816004019707 16.945811793561006 0 16.945811793561006 -34.703023101219515 0 0 0 0 0.53877343853338289 17.915415456209303 0 17.915415456209303 -34.737420347177078 0 0 0 0 -2.8104640876697715 21.989846742522786 0 21.989846742522786 -37.192569431861557 0 0 0 0 8.1319451698921021 27.798939672888082 0 27.798939672888082 -39.861199789276725 0 0 0 0 -7.5027235919097848 33.197095869320037 0 33.197095869320037 -40.631828906157807 0 0 0 0 10.817532415986532 23.721342677589746 0 23.721342677589746 -50.385055332473712 0 0 0 0 23.360953322918462 50.404022845506915 0 50.404022845506915 -34.697844358586735 0 0 0 0 44.257704022727964 75.985463525859814 0 75.985463525859814 -21.330162509912043 0 0 0 0 -28.806662431100563 51.629973132099622 0 51.629973132099622 -25.751762986390531 0 0 0 0 -26.401508291254061 24.762496336320396 0 24.762496336320396 -29.13699197639653 0 0 0 0 -26.257834542829471 19.315459664150694 0 19.315459664150694 -21.693314131938678 0 0 0 0 -10.301189600797386 30.103863223086591 0 30.103863223086591 -27.515371609864815 0 0 0 0 -13.294986096550304 16.30738146900876 0 16.30738146900876 -34.678868580191192 0 0 0 0 -30.769965433243271 10.967261119008981 0 10.967261119008981 -29.493735529576952 0 0 0 0 -6.9833878926909847 12.995045120333089 0 12.995045120333089 -59.018758437496217 0 0 0 0 2.7007085330977958 -3.3658929996036022 0 -3.3658929996036022 -48.790968747721308 0 0 0 0 -82.981893824221132 -17.513917603162554 0 -17.513917603162554 -38.974310925156715 0 0 0 0 -7.9460353673674717 5.7394322933469084 0 5.7394322933469084 -126.13837394465372 0 0 0 0 0.58108431772507929 -0.27372862743038517 0 -0.27372862743038517 -0.58795486518781814 0 0 0 0 -0.23898022207748681 21.773664552718401 0 21.773664552718401 -92.629985233274056 0 0 0 0 -13.029571640626756 8.6957445934203861 0 8.6957445934203861 -60.270205973232805 0 0 0 0 -0.019362154905758766 0.33232024950415884 0 0.33232024950415884 0.050096077128122807 0 0 0 0 -51.876640863130177 60.33981599877302 0 60.33981599877302 2.5053828015334147 0 0 0 0 84.752409862519272 14.846775466891813 0 14.846775466891813 -52.45299274302397 0 0 0 0 -1.7849531409144674 2.9007391054674372 0 2.9007391054674372 -5.8880507564517757 0 0 0 0 2.6566235983795283 0.43698851249014226 0 0.43698851249014226 -0.058272075238817056 0 0 0 0 2.9256973083836328 3.2481505336945702 0 3.2481505336945702 -12.915554631456416 0 0 0 0 20.95101451839372 -26.589889555698392 0 -26.589889555698392 -13.140652143344596 0 0 0 0 -4.976940204059531 17.786698963055642 0 17.786698963055642 -47.495389998017345 0 0 0 0 -5.1393387424085688 29.236977332951028 0 29.236977332951028 -54.162964885024849 0 0 0 0 36.145297525105661 -13.816147913890745 0 -13.816147913890745 2.9767730526509695 0 0 0 0 0.52167421824176285 0.31612866433234288 0 0.31612866433234288 -0.76717045191613664 0 0 0 0 85.911429945383347 34.974930592282362 0 34.974930592282362 -52.788714473772416 0 0 0 0 28.252520582016928 24.831746582310416 0 24.831746582310416 -52.622558031162043 0 0 0 0 -0.008398917120671201 0.083479838402258366 0 0.083479838402258366 -0.46629378081142203 0 0 0 0 13.953541002250233 13.893044398801067 0 13.893044398801067 -64.153412664782991 0 0 0 0 10.9222519221683 27.993730964051792 0 27.993730964051792 -47.656474974362936 0 0 0 0 1.3479256663850236 23.323048624316016 0 23.323048624316016 -49.222167701115723 0 0 0 0 8.4788319191888348 19.479266904441829 0 19.479266904441829 -48.439109359182112 0 0 0 0 4.5802776993800896 24.628035832533442 0 24.628035832533442 -47.022114574607258 0 0 0 0 9.2544309461751073 12.160128965672811 0 12.160128965672811 -40.303453708720554 0 0 0 0 6.9402158185746465 9.2608308809062692 0 9.2608308809062692 -30.934913976820098 0 0 0 0 17.924727565903964 4.1670351481152466 0 4.1670351481152466 -47.404308842835235 0 0 0 0 6.8830560659072901 13.667450949402337 0 13.667450949402337 -33.412896751665073 0 0 0 0 13.970341479462338 4.2981339637572091 0 4.2981339637572091 -33.181538177108649 0 0 0 0 7.3540672604040642 1.5298044271686848 0 1.5298044271686848 -10.76351105919457 0 0 0 0 9.7000762708496779 -2.4632319051715967 0 -2.4632319051715967 -16.068248260986365 0 0 0 0 4.5018536974160668 9.6052213004554687 0 9.6052213004554687 -25.517484716654508 0 0 0 0 10.692471199266581 9.897555940681741 0 9.897555940681741 -34.151219674578897 0 0 0 0 7.5893273122454854 14.419127139219199 0 14.419127139219199 -33.766459947265503 0 0 0 0 4.6613952592973078 17.900486657234978 0 17.900486657234978 -37.659361887979685 0 0 0 0 -4.3821280020124505 15.290715432817706 0 15.290715432817706 -33.012979473267478 0 0 0 0 4.7108732320185496 10.151632509091481 0 10.151632509091481 -31.519564842175896 0 0 0 0 -5.6339692070746992 10.323487533532898 0 10.323487533532898 -29.770972661546693 0 0 0 0 5.3436551757702659 7.1075519118280681 0 7.1075519118280681 -29.5264414414778 0 0 0 0 -0.25691929754958664 11.357681865335053 0 11.357681865335053 -25.508671675130245 0 0 0 0 7.7597778928748085 3.1204058152352445 0 3.1204058152352445 -21.656983341278647 0 0 0 0 7.5577556254997944 -5.4516771245589553 0 -5.4516771245589553 -5.8611135042992828 0 0 0 0 2.8335298692988999 6.1552275681142419 0 6.1552275681142419 -14.452275384495806 0 0 0 0 5.0375062461009747 5.6734689440945658 0 5.6734689440945658 -20.406789271740763 0 0 0 0 0.21600547613024901 -1.9644051484735883 0 -1.9644051484735883 -1.314877684961175 0 0 0 0 8.1894687597919074 -6.0744128318719959 0 -6.0744128318719959 -3.3856018908500118 0 0 0 0 -21.605058208342257 -0.53811662049611186 0 -0.53811662049611186 3.176279132199852 0 0 0 0 0.1527234604594685 0.0042787720716841449 0 0.0042787720716841449 -0.40197729975739094 0 0 0 0 -2.4187152408242127 -1.4491223143595562 0 -1.4491223143595562 -23.21285593913035 0 0 0 0 -13.047457164916466 1.6941786223414965 0 1.6941786223414965 -23.79786203227377 0 0 0 0 8.3249649318172487 -3.9308182739505355 0 -3.9308182739505355 -2.0388639718587456 0 0 0 0 0.11451499801125742 -0.30596802660112488 0 -0.30596802660112488 -0.30239402178822061 0 0 0 0 4.2900965294957132 -8.6810740678138245 0 -8.6810740678138245 8.3031472612765356 0 0 0 0 0.89231824370153845 -0.7247472950507472 0 -0.7247472950507472 -4.8484102952816102 0 0 0 0 13.882422153952632 -9.3936265681504665 0 -9.3936265681504665 8.2481834854379485 0 0 0 0 0.12087263410742866 -0.23352822667515838 0 -0.23352822667515838 -0.68093445911949502 0 0 0 0 0.78433649140391726 -0.28268062843785202 0 -0.28268062843785202 -0.40835013395662578 0 0 0 0 4.1864463643159375 -12.001807152641959 0 -12.001807152641959 11.596359651492548 0 0 0 0 4.7000455184228969 -0.50145593905017449 0 -0.50145593905017449 2.0540045763627859 0 0 0 0 4.7419145409878638 -6.4112428367179746 0 -6.4112428367179746 2.5466436940655512 0 0 0 0 -0.60693075109851735 -0.80927053506791768 0 -0.80927053506791768 -0.9301602430233622 0 0 0 0 1.794926577792495 -4.2524473200774082 0 -4.2524473200774082 3.0426515032258976 0 0 0 0 3.8055073257078504 -0.89680947385068066 0 -0.89680947385068066 -4.1870239404615859 0 0 0 0 -0.93253919434296506 -3.2289833589384216 0 -3.2289833589384216 0.7448726905777221 0 0 0 0 -2.1728205997365038 1.2246098079367584 0 1.2246098079367584 -1.9672985139586672 0 0 0 0 10.31621169333841 0.28272483710838969 0 0.28272483710838969 -1.0635393285447208 0 0 0 0 14.355253693439503 -11.157313964088644 0 -11.157313964088644 -5.3745868898913614 0 0 0 0 18.772745134770787 -12.826955858803558 0 -12.826955858803558 -19.756336065476717 0 0 0 0 3.2032756594382761 2.6368120355514293 0 2.6368120355514293 -12.074353313331812 0 0 0 0 23.057908723932087 -16.23100248387891 0 -16.23100248387891 -14.107538991786896 0 0 0 0 8.7293149431282018 -30.171585689505719 0 -30.171585689505719 29.396803639393511 0 0 0 0 0.2903919665984056 -0.17029932722018515 0 -0.17029932722018515 -0.13250716387309502 0 0 0 0 0.090916424758610503 -1.2330526095488494 0 -1.2330526095488494 1.9400283879858762 0 0 0 0 2.4686778911933098 -1.5034629432200575 0 -1.5034629432200575 0.14537608389191448 0 0 0 0 -28.121398159665659 2.5260879694692449 0 2.5260879694692449 10.144344370458384 0 0 0 0 4.2954827569146232 -7.1647854519987959 0 -7.1647854519987959 -6.8566150101742096 0 0 0 0 -2.7402505670754351 -32.683006783807059 0 -32.683006783807059 -43.923237740883451 0 0 0 0 -32.673067481852854 -63.220118866297526 0 -63.220118866297526 -58.817259667533108 0 0 0 0 -47.11809317969437 -24.218590755725927 0 -24.218590755725927 -10.270982092522445 0 0 0 0 3.2993197787700979 10.17680380960519 0 10.17680380960519 -68.442179877031776 0 0 0 0 0.41988222275370024 -0.77334415357373931 0 -0.77334415357373931 -0.26541479818442326 0 0 0 0 4.4007113557699427 -5.6485903013799543 0 -5.6485903013799543 -1.3209251038447292 0 0 0 0 0.19943494690679819 -1.4737625895577464 0 -1.4737625895577464 -0.80131169956336024 0 0 0 0 4.2314057419763742 -1.714564254922152 0 -1.714564254922152 -3.049481368873785 0 0 0 0 4.5042193350452679 -1.9965438262412931 0 -1.9965438262412931 0.31320524974788455 0 0 0 0 4.7353377710908262 -4.6814321904889766 0 -4.6814321904889766 -0.79123839985004452 0 0 0 0 4.7306039576118337 -5.9820606788116493 0 -5.9820606788116493 -1.8704226040176763 0 0 0 0 -10.474487586611076 6.4275674371665446 0 6.4275674371665446 9.133508905656754 0 0 0 0 13.131101984935981 3.4091897185344351 0 3.4091897185344351 -18.813434549216254 0 0 0 0 -2.4937054093371103 14.690583606066184 0 14.690583606066184 -102.20620712120399 0 0 0 0 5.3937329700870311 -1.7526789565418621 0 -1.7526789565418621 -0.5078407919834671 0 0 0 0 -0.3263407255222508 -1.2842987873106946 0 -1.2842987873106946 -1.4403923182594092 0 0 0 0 16.222287809130535 -4.9404855401844543 0 -4.9404855401844543 -3.4684544188075961 0 0 0 0 5.0415855520416528 -1.4643390495373296 0 -1.4643390495373296 -4.5026949328830597 0 0 0 0 9.5555738893158377 -2.5455496627091634 0 -2.5455496627091634 -6.6886534162235876 0 0 0 0 4.0815674873668399 -2.2960949203878727 0 -2.2960949203878727 -2.4721052188397152 0 0 0 0 8.9016134981686719 -4.6941363250234645 0 -4.6941363250234645 -1.6296833688575134 0 0 0 0 -29.611149646550871 25.264782374045353 0 25.264782374045353 -59.984273194504567 0 0 0 0 -35.209233265419755 -64.965973223272158 0 -64.965973223272158 12.591124374919673 0 0 0 0 -21.560267654559311 -3.9842794143023639 0 -3.9842794143023639 -10.118772055008321 0 0 0 0 -10.776715987929947 -7.2539605914780623 0 -7.2539605914780623 -38.155921343416139 0 0 0 0 -17.371717415940935 10.188060767748652 0 10.188060767748652 -78.173624126449795 0 0 0 0 0.6424108469731209 -0.082945304812938048 0 -0.082945304812938048 -100.41439024388455 0 0 0 0 -0.86419554677198107 3.560926203111535 0 3.560926203111535 -78.214004558065426 0 0 0 0 -45.137378329513467 48.183673041150541 0 48.183673041150541 -142.29020853334237 0 0 0 0 -34.605866876320761 -38.930739062210705 0 -38.930739062210705 -162.70381361474938 0 0 0 0 -6.557850265523939 -13.265133631439539 0 -13.265133631439539 -74.314859481448366 0 0 0 0 -123.73389731880911 73.466396934932163 0 73.466396934932163 -178.53814407569553 0 0 0 0 -80.117069854746262 -11.244394653142763 0 -11.244394653142763 -72.474976237457668 0 0 0 0 -62.992739167960167 -37.714398560201062 0 -37.714398560201062 -118.17596263273117 0 0 0 0 -4.4091115152904763 16.99351557128648 0 16.99351557128648 -72.476934619195163 0 0 0 0 4.0088895308387009 -9.7748776691068997 0 -9.7748776691068997 -14.517812613978094 0 0 0 0 11.03362849321168 -41.362434844524159 0 -41.362434844524159 -75.926733600716034 0 0 0 0 -1.6447406632448747 -0.98321666667743557 0 -0.98321666667743557 -96.494850623324965 0 0 0 0 17.743333015442431 -27.266284710088257 0 -27.266284710088257 -24.066709169326714 0 0 0 0 13.38127056036538 7.1159696071703138 0 7.1159696071703138 -41.673577633709101 0 0 0 0 3.6959726891224136 -24.254320371392168 0 -24.254320371392168 -7.2652743138551159 0 0 0 0 1.7367170192965204 -31.508808103824322 0 -31.508808103824322 32.922736909501964 0 0 0 0 13.693480228080546 -9.8099476216993935 0 -9.8099476216993935 5.6744834563514814 0 0 0 0 -37.615124164202598 -4.4863920048460386 0 -4.4863920048460386 125.15115417112065 0 0 0 0 7.7459134555164155 -30.385407303884676 0 -30.385407303884676 -3.3668482045927703 0 0 0 0 0.32207978924087799 -0.37535827963109369 0 -0.37535827963109369 0.12920407911307308 0 0 0 0 -4.7636245904304815 -55.159088538847755 0 -55.159088538847755 -112.93072760370615 0 0 0 0 -15.853021433586434 -41.216498254316548 0 -41.216498254316548 -57.777388328425332 0 0 0 0 3.8641424050151159 -13.902267945418316 0 -13.902267945418316 45.694255502081432 0 0 0 0 1.1955552510093332 -0.96194853530180957 0 -0.96194853530180957 0.36524163482587202 0 0 0 0 -17.5180948056136 -42.004723467517579 0 -42.004723467517579 -42.535615583214621 0 0 0 0 -10.152948902948879 -37.49213775196904 0 -37.49213775196904 -60.779360694405568 0 0 0 0 -11.153413765478376 -25.160153250938947 0 -25.160153250938947 -33.369763754799351 0 0 0 0 5.8422597111195955 -36.678470901400033 0 -36.678470901400033 -58.379515372087553 0 0 0 0 -19.058403113657675 -57.603681136535215 0 -57.603681136535215 -42.981025264583877 0 0 0 0 -12.504507074420872 -41.681786825873132 0 -41.681786825873132 -5.8856751998554273 0 0 0 0 -10.646028022889595 -33.423123028680493 0 -33.423123028680493 -37.788591193411776 0 0 0 0 -7.693168106569459 -20.873618089771071 0 -20.873618089771071 -41.017580048070158 0 0 0 0 4.2463114702114808 -36.538928673887312 0 -36.538928673887312 -37.402581122670199 0 0 0 0 4.5272373290625367 -22.896230637676609 0 -22.896230637676609 -40.807823699549772 0 0 0 0 5.3694665206404188 -27.352012364752824 0 -27.352012364752824 -26.578475432595951 0 0 0 0 15.300058448815321 -25.132420249552524 0 -25.132420249552524 -34.239545386951249 0 0 0 0 9.0492792908838737 -2.9608648693456416 0 -2.9608648693456416 4.1234643736142971 0 0 0 0 -1.7309774363479278 -25.648185396113604 0 -25.648185396113604 -21.194776689510945 0 0 0 0 0.15631685886614499 0.024209341359814118 0 0.024209341359814118 -0.55060647559400877 0 0 0 0 76.194834316327217 28.010277128895723 0 28.010277128895723 18.738237438631586 0 0 0 0 89.897647868021906 49.492359227591123 0 49.492359227591123 -43.785093587774099 0 0 0 0 77.61036542022282 -2.7643726604096628 0 -2.7643726604096628 -24.176178547790187 0 0 0 0 0.22106932235872023 0.17489895096892916 0 0.17489895096892916 -1.7497462340143599 0 0 0 0 -8.7058770609154408 -9.939475319540179 0 -9.939475319540179 -46.998197059569293 0 0 0 0 -0.7087743252266705 -22.786547712205902 0 -22.786547712205902 -42.3594651478179 0 0 0 0 -8.3734401989242464 -26.539239143840092 0 -26.539239143840092 -20.229460045247833 0 0 0 0 29.155798617810319 -1.2774748172596446 0 -1.2774748172596446 -4.912622352966082 0 0 0 0 5.0426918796296718 -19.812991440384394 0 -19.812991440384394 -10.801551891461258 0 0 0 0 18.248957716801954 -32.283509443328512 0 -32.283509443328512 -18.368379417167489 0 0 0 0 -8.2556292051675122 -25.289849725082547 0 -25.289849725082547 -13.828930895981102 0 0 0 0 42.670329487293145 -40.895511411585176 0 -40.895511411585176 -4.1787080290996528 0 0 0 0 -0.18605608297610843 -13.85136362348203 0 -13.85136362348203 -6.7626165224819488 0 0 0 0 -3.9308834880571268 -24.922932431439676 0 -24.922932431439676 -37.752190462193539 0 0 0 0 -33.706638491042696 -24.61622061806338 0 -24.61622061806338 -14.697078432828675 0 0 0 0 -27.746199146743564 7.1629704620436314 0 7.1629704620436314 -28.309919261895629 0 0 0 0 6.6192800464636434 12.305473327669915 0 12.305473327669915 -95.790524117657696 0 0 0 0 8.4887948609793966 52.05932402255803 0 52.05932402255803 -78.991558753285972 0 0 0 0 61.569834400492198 84.199237362693111 0 84.199237362693111 -78.919733345727764 0 0 0 0 0.1248544023630947 0.080020425253799488 0 0.080020425253799488 -1.095344281492995 0 0 0 0 6.4236504513245052 20.376649894363482 0 20.376649894363482 31.225465166057802 0 0 0 0 53.868063486384756 57.168935069067174 0 57.168935069067174 -165.39887425907182 0 0 0 0 15.614307218120299 46.674064909722347 0 46.674064909722347 -213.62952087753365 0 0 0 0 -4.5858626994978646 105.92081353162976 0 105.92081353162976 -198.37404740867078 0 0 0 0 -0.60712116136414807 52.865110561006531 0 52.865110561006531 -159.05065259734783 0 0 0 0 10.060633423920422 -22.149251208872101 0 -22.149251208872101 -48.294985371751523 0 0 0 0 -5.6896762564924757 -15.707111297978372 0 -15.707111297978372 -33.657617630414279 0 0 0 0 -6.450680680038154 -9.6221673761983197 0 -9.6221673761983197 -50.617193374857379 0 0 0 0 7.5754124748867753 -51.891627914696073 0 -51.891627914696073 -17.918295011105329 0 0 0 0 -7.5870826291601361 1.4689601476175085 0 1.4689601476175085 33.248671119254141 0 0 0 0 16.557522160482506 -32.661047978745955 0 -32.661047978745955 -114.89130991649199 0 0 0 0 13.503941128433411 -63.110208622042137 0 -63.110208622042137 -111.1977697781349 0 0 0 0 36.69149986043567 -12.629388738781927 0 -12.629388738781927 -176.99509017369564 0 0 0 0 35.865639017510205 -16.02599790789418 0 -16.02599790789418 -106.7005903629406 0 0 0 0 8.7318578416522996 2.2526606559204083 0 2.2526606559204083 -104.07605221763242 0 0 0 0 25.631504617387478 -8.7695390553471952 0 -8.7695390553471952 -111.53742868177869 0 0 0 0 26.361544123184331 -13.690854951145411 0 -13.690854951145411 -113.75040833689627 0 0 0 0 4.3177896075793001 -6.049588582753131 0 -6.049588582753131 -89.099984518943529 0 0 0 0 26.333012331311238 -11.741099656887855 0 -11.741099656887855 -105.99610582229798 0 0 0 0 18.685407581629448 5.821158514436604 0 5.821158514436604 -111.81935992593571 0 0 0 0 18.527493337241708 1.5689736125314084 0 1.5689736125314084 -92.083368719634109 0 0 0 0 1.7632273549039041 -17.338226213867529 0 -17.338226213867529 -30.029489360756997 0 0 0 0 -0.81418501719912229 7.2172041536878169 0 7.2172041536878169 -10.249447787625513 0 0 0 0 -5.5382090175651797 -8.3905196071368664 0 -8.3905196071368664 -9.4097279485554282 0 0 0 0 -3.8652959976880368 43.861860819127969 0 43.861860819127969 -116.57281162496838 0 0 0 0 -0.92104587003376537 25.102772542951243 0 25.102772542951243 -33.619102664506499 0 0 0 0 -39.335030400033972 -9.4517803906861673 0 -9.4517803906861673 -60.442327605333048 0 0 0 0 -1.0092955646344601 -1.6236455565911001 0 -1.6236455565911001 -1.9326460012068978 0 0 0 0 27.392566032992306 -0.29033947082918132 0 -0.29033947082918132 16.005085459170914 0 0 0 0 28.6877230983564 -25.890208761802114 0 -25.890208761802114 2.3662916481416687 0 0 0 0 13.154332608192249 -6.247113717074626 0 -6.247113717074626 -0.88618952327311717 0 0 0 0 24.343363015794381 -6.6547605794248739 0 -6.6547605794248739 -15.244236214338798 0 0 0 0 19.310844695435854 4.9795283965108865 0 4.9795283965108865 -15.300576362440552 0 0 0 0 15.222770848998437 4.7160649313516387 0 4.7160649313516387 -17.094677062420487 0 0 0 0 17.456972322171964 1.1506393151148586 0 1.1506393151148586 -19.89555192910484 0 0 0 0 15.434788209706198 3.7009049886110006 0 3.7009049886110006 -15.079053643100906 0 0 0 0 12.744642282770201 1.5074497361201793 0 1.5074497361201793 -14.479284746039411 0 0 0 0 17.621819995364319 -1.1835749493637309 0 -1.1835749493637309 -13.6278120508141 0 0 0 0 14.170287552699392 3.1931628506786183 0 3.1931628506786183 -13.518990574617419 0 0 0 0 3.0035457329546489 -4.7290371674471317 0 -4.7290371674471317 -6.8148379488666251 0 0 0 0 11.349450832275863 3.0299804221733666 0 3.0299804221733666 -10.784823006692022 0 0 0 0 11.890841366155541 4.235169146073531 0 4.235169146073531 -10.587621075896095 0 0 0 0 6.8920860936482313 2.1674151698184687 0 2.1674151698184687 -9.5523792431149559 0 0 0 0 3.0218421883203028 1.1380534423092428 0 1.1380534423092428 -3.1414373289627866 0 0 0 0 1.9953798278833403 2.3755728733722208 0 2.3755728733722208 -6.7630152810577329 0 0 0 0 2.2696027686571778 1.681490756066423 0 1.681490756066423 -5.5204567660045516 0 0 0 0 1.8634612511998512 -1.5510750589592135 0 -1.5510750589592135 -14.55756388978989 0 0 0 0 1.2892860395005812 0.52992313881759401 0 0.52992313881759401 -6.5746018082172668 0 0 0 0 7.5688908304705649 -0.98996314811074626 0 -0.98996314811074626 -15.404747030377621 0 0 0 0 0.75829583955168334 -0.25470771604429387 0 -0.25470771604429387 -2.6946582107728503 0 0 0 0 1.2134262565541956 0.16777805819537051 0 0.16777805819537051 -2.202275076735102 0 0 0 0 -1.1016226942189977 -1.9498219823182055 0 -1.9498219823182055 -3.0077498214361338 0 0 0 0 9.8072884768797621 -5.4207751209278285 0 -5.4207751209278285 -6.7493681185933383 0 0 0 0 11.598076684343425 -2.6972673055081486 0 -2.6972673055081486 -8.8732044612197569 0 0 0 0 10.766723369293004 -2.5290142361536709 0 -2.5290142361536709 -8.8113426203808558 0 0 0 0 -2.8167173178534028 4.2810522060531184 0 4.2810522060531184 -63.964756216048499 0 0 0 0 -1.9716749537809619 19.598995892634036 0 19.598995892634036 -150.15550422673914 0 0 0 0 -0.18709558504554025 4.9522037292545065 0 4.9522037292545065 -66.92862841765691 0 0 0 0 -24.760940303597586 34.924502947621377 0 34.924502947621377 -30.114476189089146 0 0 0 0 5.8673451729513673 8.2343579794405741 0 8.2343579794405741 -33.04837645706084 0 0 0 0 6.742155647693572 11.714378618675937 0 11.714378618675937 -21.116705493047903 0 0 0 0 10.609804657221488 -3.9765267875304744 0 -3.9765267875304744 -23.436464214793261 0 0 0 0 7.6346253248713225 3.2236889543881944 0 3.2236889543881944 -40.184899298227265 0 0 0 0 -2.8739119332959149 6.0638945257653631 0 6.0638945257653631 -27.970937783090676 0 0 0 0 -10.158276840262374 -23.845256354014509 0 -23.845256354014509 -32.398088664976058 0 0 0 0 13.563982621635546 -22.245879488626997 0 -22.245879488626997 -14.992733775333686 0 0 0 0 9.9882026632210277 -8.0661967353317436 0 -8.0661967353317436 -27.125265355387455 0 0 0 0 -8.8848056189189037 -21.507781856318388 0 -21.507781856318388 -46.129453364999108 0 0 0 0 -12.648607551140117 -30.304705537547306 0 -30.304705537547306 -51.908223472531972 0 0 0 0 -9.9768633235388506 -35.224332201664765 0 -35.224332201664765 -60.429087217135361 0 0 0 0 -10.232886473493096 -35.770834192296661 0 -35.770834192296661 -52.0507872534954 0 0 0 0 -15.634927310497858 -32.000826836818305 0 -32.000826836818305 -37.628300024438431 0 0 0 0 -16.106057434585011 -36.845271184383364 0 -36.845271184383364 -51.215606984137594 0 0 0 0 -11.55914946099881 -22.97612046134509 0 -22.97612046134509 -69.004344256837612 0 0 0 0 -25.755193309291826 -16.464094877891512 0 -16.464094877891512 -44.625805259505796 0 0 0 0 -9.9727463354175256 -28.53250312541013 0 -28.53250312541013 -49.932632618941625 0 0 0 0 0.56341772131023049 1.3279019147698818 0 1.3279019147698818 -93.502176271604185 0 0 0 0 -22.968686959008494 20.818446685840172 0 20.818446685840172 -98.6287561853851 0 0 0 0 -10.546657539549642 2.1682726077660845 0 2.1682726077660845 -71.570445166622164 0 0 0 0 -0.42177768578478764 -0.59534705688193679 0 -0.59534705688193679 -0.87248182395192586 0 0 0 0 7.0117632822714171 -68.185627781429503 0 -68.185627781429503 22.521926849275872 0 0 0 0 9.1072357202996557 -67.769929611721182 0 -67.769929611721182 -31.70026521398384 0 0 0 0 9.7992745433962654 -36.563992954374953 0 -36.563992954374953 -117.93292132615352 0 0 0 0 -35.106741414295229 14.888746230579727 0 14.888746230579727 -78.930054339263734 0 0 0 0 -2.6027426542418866 8.7649769260061703 0 8.7649769260061703 -110.2438571268649 0 0 0 0 -26.285992261240921 -28.306824604298527 0 -28.306824604298527 -136.97792601296351 0 0 0 0 -55.549329921822597 -15.998584781873205 0 -15.998584781873205 -53.26066145898676 0 0 0 0 -28.591339237529141 -4.8697258860752299 0 -4.8697258860752299 -49.055759603154002 0 0 0 0 -0.44710255975154245 0.12376323498157182 0 0.12376323498157182 -0.081201289653833442 0 0 0 0 -3.8411260172664754 9.3459661272902395 0 9.3459661272902395 -31.181499977388739 0 0 0 0 -30.789105535850105 -23.277688650697201 0 -23.277688650697201 -17.787556854374088 0 0 0 0 -26.244239734546227 9.417631435691419 0 9.417631435691419 6.9478680558747783 0 0 0 0 -0.47412457335776015 0.50106483077011532 0 0.50106483077011532 -0.5496506818253728 0 0 0 0 3.9947183753015452 -9.732969022436464 0 -9.732969022436464 -117.4336695534239 0 0 0 0 5.6894028635458085 -17.104352492478938 0 -17.104352492478938 -86.612334929217695 0 0 0 0 -16.173280263812273 -16.616755935561741 0 -16.616755935561741 -42.266771858969605 0 0 0 0 -1.2655550376809566 1.3875506000346629 0 1.3875506000346629 -1.3061925347775052 0 0 0 0 6.5921834718628816 7.0356290279278255 0 7.0356290279278255 1.0372274171104436 0 0 0 0 8.7414966813911974 4.927789751729506 0 4.927789751729506 -1.7087504811261169 0 0 0 0 0.34979581881054855 7.085012630055644 0 7.085012630055644 0.22592686307507392 0 0 0 0 -2.1232258231289052 2.5886469387605757 0 2.5886469387605757 7.1770490713795994 0 0 0 0 6.5591809329887383 1.9106988392577477 0 1.9106988392577477 1.9036535978957545 0 0 0 0 -9.5619308116292814 6.646084119203806 0 6.646084119203806 6.2565199940218008 0 0 0 0 9.0767471638337156 9.7696846220906082 0 9.7696846220906082 -0.56364975709288956 0 0 0 0 12.396401187927722 6.5995290131390902 0 6.5995290131390902 -8.2167033033529151 0 0 0 0 1.3495094443997053 5.0533296538498869 0 5.0533296538498869 2.0827059529141287 0 0 0 0 7.687337342120971 2.7037437569007583 0 2.7037437569007583 -5.4718221829803193 0 0 0 0 6.9051714740807029 4.9491916044653408 0 4.9491916044653408 -6.0578252409623019 0 0 0 0 6.4152607070732302 4.4227128739867112 0 4.4227128739867112 -1.2463323856718489 0 0 0 0 6.0151513056915746 3.3574499013866443 0 3.3574499013866443 -3.5856055036756516 0 0 0 0 5.6382566408145331 2.878884052113273 0 2.878884052113273 -5.0300031613665519 0 0 0 0 8.0426907996555883 6.2069981912744652 0 6.2069981912744652 -18.095455796387796 0 0 0 0 9.5542767669623458 4.9362722206738852 0 4.9362722206738852 -2.5117662663851661 0 0 0 0 9.7447853243370446 6.3532768535901596 0 6.3532768535901596 -6.7701715511134353 0 0 0 0 9.9983159277866207 2.7876301351126358 0 2.7876301351126358 -13.889101194988143 0 0 0 0 0.52256362672425105 0.21410674978862509 0 0.21410674978862509 -1.5765828484365887 0 0 0 0 5.8996011883068604 -3.4264005061177158 0 -3.4264005061177158 -22.096237629997177 0 0 0 0 47.109133902731401 35.699902780983386 0 35.699902780983386 0.82277126202906103 0 0 0 0 1.9897636618633094 2.9122674871895118 0 2.9122674871895118 -10.12775865197052 0 0 0 0 9.0547460260499975 3.6313002912703496 0 3.6313002912703496 -4.187164614240146 0 0 0 0 112.15162040691564 35.988288702516705 0 35.988288702516705 -7.9846827310086894 0 0 0 0 0.087949318094451945 0.081589288433729035 0 0.081589288433729035 -7.1615308129127753 0 0 0 0 10.759080110640923 4.290383691742818 0 4.290383691742818 -5.2633966483808763 0 0 0 0 1.858703968977671 3.5711318230816866 0 3.5711318230816866 -1.3402511952770979 0 0 0 0 9.5514891018799517 5.1499978405419711 0 5.1499978405419711 0.4555765411196262 0 0 0 0 14.546002885733742 -2.8807659401769001 0 -2.8807659401769001 -5.0367449213721329 0 0 0 0 40.987967652945827 11.614679617793854 0 11.614679617793854 19.610764054912437 0 0 0 0 22.922867331885755 12.932769016979819 0 12.932769016979819 -24.476547042576954 0 0 0 0 11.947945783868818 14.305482281178456 0 14.305482281178456 -14.808831953410845 0 0 0 0 11.618447244303979 12.040458246104777 0 12.040458246104777 -24.23705690551742 0 0 0 0 -8.1652153078557603 11.221091027861121 0 11.221091027861121 -7.2217621186906058 0 0 0 0 2.9412937816393878 21.753988688336904 0 21.753988688336904 -20.146417775881218 0 0 0 0 3.8018290420325229 6.8484544764653492 0 6.8484544764653492 -3.3193507862615661 0 0 0 0 4.1088470303905069 9.1524440100070024 0 9.1524440100070024 -5.1692388616156677 0 0 0 0 5.0520352395146801 7.5998185128123623 0 7.5998185128123623 -9.1322527211815441 0 0 0 0 10.352849308014129 9.2027644322286619 0 9.2027644322286619 -17.758280309392831 0 0 0 0 10.049905381526287 9.2783927736828673 0 9.2783927736828673 -15.644246705233854 0 0 0 0 0.53887950249912819 -5.9600575742917954 0 -5.9600575742917954 -26.929398270791353 0 0 0 0 0.40112982343255799 -0.16771237669205519 0 -0.16771237669205519 -1.2977385881785626 0 0 0 0 -0.13376413313079638 -0.96210818522740738 0 -0.96210818522740738 -3.9887745723308399 0 0 0 0 3.0251171143349893 9.5572156045368502 0 9.5572156045368502 -0.75644558288263397 0 0 0 0 7.5736339738881266 3.9737656230974405 0 3.9737656230974405 -7.7084670821404506 0 0 0 0 1.3191413748835998 -6.1703219451528639 0 -6.1703219451528639 -27.20868685539881 0 0 0 0 5.9812219436125904 0.37837232415982536 0 0.37837232415982536 -14.399092735603798 0 0 0 0 0.52618651592344734 1.4748365931475895 0 1.4748365931475895 -1.4006138911313606 0 0 0 0 2.7826630925244444 4.3093746852473487 0 4.3093746852473487 0.096914605278925592 0 0 0 0 0.30876465748128368 0.87453030163374024 0 0.87453030163374024 -4.0006461491129812 0 0 0 0 -20.783998963274797 -9.953974690979976 0 -9.953974690979976 -10.575615037229682 0 0 0 0 0.15411676283619952 0.90683798752183087 0 0.90683798752183087 -1.2490467845498472 0 0 0 0 -3.1363813241689513 -23.061952523837817 0 -23.061952523837817 -30.053108897054699 0 0 0 0 -16.009998883003021 -26.723111588598385 0 -26.723111588598385 -18.257669473354326 0 0 0 0 9.9017638600431042 -32.072701948102349 0 -32.072701948102349 -23.866925510767942 0 0 0 0 4.3623996537190237 -6.7840575043741183 0 -6.7840575043741183 -32.459288833857499 0 0 0 0 1.7952753351767115 -15.746346410664955 0 -15.746346410664955 -27.757943654833753 0 0 0 0 0.010750143200900508 0.00725540727403029 0 0.00725540727403029 -0.16781684463503055 0 0 0 0 0.52791877838823442 0.54959725618281752 0 0.54959725618281752 -1.1080085149621919 0 0 0 0 -0.28818823867510446 -1.3903321515902007 0 -1.3903321515902007 -4.7749520493116506 0 0 0 0 0.24373047514908197 0.11545141034520245 0 0.11545141034520245 -1.1226233934129901 0 0 0 0 69.573480207816203 30.123160747549719 0 30.123160747549719 -53.736173036618311 0 0 0 0 53.293175097186236 26.794681674999538 0 26.794681674999538 23.541475769923636 0 0 0 0 0.1261264707458567 -0.0078030220856630805 0 -0.0078030220856630805 -0.72006750787334184 0 0 0 0 -1.180189762816326 -35.413798331463795 0 -35.413798331463795 -43.423938523877041 0 0 0 0 14.78768857205398 -5.4852060058656207 0 -5.4852060058656207 -59.233849191185527 0 0 0 0 1.7688175285070429 8.2988057099905745 0 8.2988057099905745 -12.65406336678916 0 0 0 0 18.571688633169288 -10.049227368544962 0 -10.049227368544962 -22.528768543795195 0 0 0 0 -6.858130562401243 5.4251222822854288 0 5.4251222822854288 -31.105796585495227 0 0 0 0 6.0501848517492078 -23.422677498338544 0 -23.422677498338544 -10.914808354408706 0 0 0 0 1.505438351876478 -33.808604390379514 0 -33.808604390379514 -21.573776662547061 0 0 0 0 45.962440998709098 48.745736922743163 0 48.745736922743163 24.934182674547628 0 0 0 0 26.882594672096275 -18.036957100503969 0 -18.036957100503969 -27.553541873694485 0 0 0 0 78.641200530702918 34.129167173967289 0 34.129167173967289 -18.761470469025198 0 0 0 0 38.916314981868595 -27.766780105697762 0 -27.766780105697762 -40.654213082249044 0 0 0 0 28.707780501944882 6.4616655782388079 0 6.4616655782388079 -4.4500268878418865 0 0 0 0 22.370602787983216 -17.090604825967603 0 -17.090604825967603 -26.95376013897112 0 0 0 0 0.098688474268670001 -0.0080826286771831235 0 -0.0080826286771831235 -0.46733534922030984 0 0 0 0 0.47940828500161059 0.27016095675931595 0 0.27016095675931595 -0.81078384363449274 0 0 0 0 11.177506311527168 -1.9781894574898615 0 -1.9781894574898615 -3.7940538746315724 0 0 0 0 11.668463692442629 0.67242634158174042 0 0.67242634158174042 5.5975635693193908 0 0 0 0 -39.441735808223712 -18.446541057955983 0 -18.446541057955983 -38.906293710340833 0 0 0 0 0.14581593439470453 -13.176879552089304 0 -13.176879552089304 -55.361344850384739 0 0 0 0 1.6555469366704969 -13.756795226998406 0 -13.756795226998406 -55.570707051527279 0 0 0 0 -12.189186779499096 -12.874894738813964 0 -12.874894738813964 -54.972280092475557 0 0 0 0 10.729056251567272 -20.898731583498375 0 -20.898731583498375 -53.515122688015254 0 0 0 0 -6.5043530451080187 6.186479546130613 0 6.186479546130613 -38.743835245472837 0 0 0 0 0.81567406099299689 -1.0834566550791109 0 -1.0834566550791109 -2.6718472414883756 0 0 0 0 -1.1003689721592309 -6.7374611982759234 0 -6.7374611982759234 6.5523066108999046 0 0 0 0 -1.1712842818517402 -4.6579455056398729 0 -4.6579455056398729 1.8167123965486098 0 0 0 0 -17.62717919866509 -36.010855268756131 0 -36.010855268756131 -28.09121841502656 0 0 0 0 1.9586552087941982 -4.6173231677512376 0 -4.6173231677512376 -54.230858657108911 0 0 0 0 41.683068657426702 -41.214860236639652 0 -41.214860236639652 -43.443495744676511 0 0 0 0 1.9200359590839398 1.3447727332210722 0 1.3447727332210722 -2.531175605420632 0 0 0 0 -12.79763314084812 -26.017283956334722 0 -26.017283956334722 -45.429258465141174 0 0 0 0 -12.273689423980841 -28.698176673164653 0 -28.698176673164653 -35.038037244106818 0 0 0 0 -42.566237520990398 -28.206674672095687 0 -28.206674672095687 -28.740194508711284 0 0 0 0 -38.637596351814864 -30.582631795969064 0 -30.582631795969064 -28.379813097712031 0 0 0 0 0.30480663238420291 0.11281617643966335 0 0.11281617643966335 -0.34712565436804965 0 0 0 0 -9.4458848097755777 -58.645420993791504 0 -58.645420993791504 -100.39460290026 0 0 0 0 91.154769681020525 10.827711975910461 0 10.827711975910461 -116.54053515647502 0 0 0 0 63.270571803253233 -38.477796299752754 0 -38.477796299752754 -6.7424300078891974 0 0 0 0 82.895016503788497 -8.0619889661756474 0 -8.0619889661756474 -84.939150028141739 0 0 0 0 23.690321338108788 -5.4630550436959311 0 -5.4630550436959311 -34.084071321422016 0 0 0 0 -2.4189904077455253 -10.841170211258941 0 -10.841170211258941 -34.637892643615487 0 0 0 0 -4.2378159347592259 -10.089799955067065 0 -10.089799955067065 -33.249632503875546 0 0 0 0 5.7515764936007576 5.5453220056254882 0 5.5453220056254882 -6.2145998089624177 0 0 0 0 3.744453978884315 6.1423963453503383 0 6.1423963453503383 -8.053507289005541 0 0 0 0 -1.9458047164657728 -19.798391321246527 0 -19.798391321246527 -52.932558762116969 0 0 0 0 -2.4676006248912472 -9.727178674026618 0 -9.727178674026618 -42.171624721146145 0 0 0 0 -7.3326862818117888 -17.135709567383856 0 -17.135709567383856 -43.087462834933831 0 0 0 0 16.670444646355463 -2.9773531713358352 0 -2.9773531713358352 -23.615429777770146 0 0 0 0 9.4466872888274338 -4.7015601645784955 0 -4.7015601645784955 -23.747091710201403 0 0 0 0 18.241555649351994 5.0673678639257105 0 5.0673678639257105 -22.936988423065486 0 0 0 0 11.500432123423252 9.4927898848884524 0 9.4927898848884524 -17.687589759786761 0 0 0 0 4.6425151381153 3.2018128398224803 0 3.2018128398224803 -21.203310852504273 0 0 0 0 16.553782408795193 1.5071306321866835 0 1.5071306321866835 -26.971056976752834 0 0 0 0 -0.010060823601936164 -5.227642214303641 0 -5.227642214303641 -15.937651868932347 0 0 0 0 6.1087574450084503 -19.448317709397998 0 -19.448317709397998 -4.9529874481131628 0 0 0 0 -26.633250722199364 29.870351295030559 0 29.870351295030559 -45.293663968412147 0 0 0 0 -14.672841572880543 -9.6331739631082201 0 -9.6331739631082201 -0.28482279503487007 0 0 0 0 -0.57162210860878693 -5.5158283053231401 0 -5.5158283053231401 -15.459796948660559 0 0 0 0 57.730919359681593 -23.090966554716715 0 -23.090966554716715 -16.679454849441299 0 0 0 0 12.731977918014763 -28.757136126190289 0 -28.757136126190289 -35.732980860402677 0 0 0 0 78.196072815931529 -11.617557681947801 0 -11.617557681947801 -30.43288900420157 0 0 0 0 15.810920077354012 24.4567722294546 0 24.4567722294546 34.559966868642732 0 0 0 0 6.2536802695069582 -14.964215387834884 0 -14.964215387834884 6.1815178272699995 0 0 0 0 11.136313117716099 20.17002398186105 0 20.17002398186105 -42.318218242035982 0 0 0 0 16.570824705889208 -12.251543548221889 0 -12.251543548221889 -15.384471775747897 0 0 0 0 1.7633339828007593 -5.3132037747627692 0 -5.3132037747627692 -10.24464654626172 0 0 0 0 -9.2707520074151688 20.919542407183599 0 20.919542407183599 -51.823467750346026 0 0 0 0 9.0280723088378636 8.8207374722160239 0 8.8207374722160239 -71.436143766939495 0 0 0 0 4.3102514760882968 32.981728879241018 0 32.981728879241018 -83.596787173672055 0 0 0 0 19.486253102120827 9.5978337099240889 0 9.5978337099240889 -58.769239080408624 0 0 0 0 3.4295838897581863 38.41907781798546 0 38.41907781798546 -120.68614078133578 0 0 0 0 15.58828502882136 23.278667975600456 0 23.278667975600456 -106.62444410484659 0 0 0 0 -29.283753238585973 20.395434643270846 0 20.395434643270846 -117.55700150488974 0 0 0 0 4.0561815211674457 13.661591733577552 0 13.661591733577552 -122.39164270221499 0 0 0 0 -5.3912147949229166 32.73175184387037 0 32.73175184387037 -93.632863544435168 0 0 0 0 2.3308394709922595 11.484573532617219 0 11.484573532617219 -115.04548500221608 0 0 0 0 -9.9807360315847404 40.376701363854863 0 40.376701363854863 -151.02287496331519 0 0 0 0 11.417814532788043 15.844049562267173 0 15.844049562267173 -189.41410678874308 0 0 0 0 -2.8678483234365073 0.99899158446048197 0 0.99899158446048197 -0.50858090039266424 0 0 0 0 -1.9620756496753984 14.457553254865161 0 14.457553254865161 -135.12309042299785 0 0 0 0 -106.59419067012414 69.327150243704637 0 69.327150243704637 -28.877416945752884 0 0 0 0 -43.996187231490694 122.89821481417903 0 122.89821481417903 -116.33589360995074 0 0 0 0 19.497614297680457 81.057710473749012 0 81.057710473749012 -359.70797841059175 0 0 0 0 -4.8522355880716077 -11.841107683333576 0 -11.841107683333576 -192.68565249681069 0 0 0 0 -0.91664944088102907 0.14145716698515898 0 0.14145716698515898 -0.26473755265333665 0 0 0 0 3.9837102138079672 8.9008862626575365 0 8.9008862626575365 -130.09513521842564 0 0 0 0 -0.10743322890950502 -4.7656960836049045 0 -4.7656960836049045 -14.196146719079159 0 0 0 0 107.80618610098782 -72.038556643612196 0 -72.038556643612196 -21.048570225809272 0 0 0 0 81.336976464538566 -69.173175646764093 0 -69.173175646764093 -11.640343822392254 0 0 0 0 76.151004425903011 9.4291020370594083 0 9.4291020370594083 -114.65886190823494 0 0 0 0 48.742206367915969 -44.590037296103787 0 -44.590037296103787 -8.1440027247251692 0 0 0 0 100.22536936016434 -40.899046906718212 0 -40.899046906718212 -16.395227944463841 0 0 0 0 73.031817445666547 -80.993780339928094 0 -80.993780339928094 58.057128899849886 0 0 0 0 -0.90161784044812521 -31.533435280454569 0 -31.533435280454569 23.841058518472892 0 0 0 0 103.47957448749412 24.908403292273533 0 24.908403292273533 54.360636679683921 0 0 0 0 37.415002757575621 -17.009310349490477 0 -17.009310349490477 -89.544695153616885 0 0 0 0 0.22055716724696239 0.86127033479255033 0 0.86127033479255033 -2.2171564213535624 0 0 0 0 95.607140204664574 47.746468385136268 0 47.746468385136268 -31.249275607548725 0 0 0 0 -4.9230532577157646 168.75203832682939 0 168.75203832682939 -30.637934565465684 0 0 0 0 52.145994523252284 41.79488127904051 0 41.79488127904051 -20.519627311941179 0 0 0 0 85.220562021849673 -73.681958805232398 0 -73.681958805232398 -78.509005558442496 0 0 0 0 5.0877832098308318 -10.797901067310704 0 -10.797901067310704 -105.21574184792621 0 0 0 0 -54.530572307793591 120.26246766313056 0 120.26246766313056 -185.39889101578842 0 0 0 0 -113.20628369515543 119.8985809780371 0 119.8985809780371 -128.42567487407996 0 0 0 0 0.62286861951889305 -0.21583444835718879 0 -0.21583444835718879 -1.6477135107177769 0 0 0 0 -1.0166347641543325 83.826777206119914 0 83.826777206119914 -134.15154958460926 0 0 0 0 -143.96847457700949 64.491351825059155 0 64.491351825059155 -25.71953042712903 0 0 0 0 0.93767471615211462 -0.39958738203506439 0 -0.39958738203506439 -0.57644164385986585 0 0 0 0 79.448758399945291 -12.390614475802806 0 -12.390614475802806 17.083188384485908 0 0 0 0 107.76129607627581 -93.028623577713972 0 -93.028623577713972 -72.902558186437091 0 0 0 0 164.08058532720315 39.089631882411162 0 39.089631882411162 -60.135161379468741 0 0 0 0 1.4505954728478769 2.5767269811512081 0 2.5767269811512081 -2.7362265261748586 0 0 0 0 -24.843048219410775 22.075509310471716 0 22.075509310471716 -11.8367233127708 0 0 0 0 -24.166416385677962 22.758353192228299 0 22.758353192228299 -11.171315862459778 0 0 0 0 1.1682342428429457 -1.3087970003462246 0 -1.3087970003462246 -3.0896053551200438 0 0 0 0 -7.281479622801271 48.924354522400108 0 48.924354522400108 -50.44936269352138 0 0 0 0 15.582522577719828 20.016403943373007 0 20.016403943373007 -24.518571977853071 0 0 0 0 16.60048977052611 16.865509626141829 0 16.865509626141829 -23.144857909763573 0 0 0 0 36.260054067005512 12.169022194728313 0 12.169022194728313 -33.880878570433765 0 0 0 0 51.182031551824394 12.135976275145509 0 12.135976275145509 -48.11786341521838 0 0 0 0 45.268390522004893 15.117679770822292 0 15.117679770822292 -60.062307331184911 0 0 0 0 0.75284573491364881 3.6742120725821223 0 3.6742120725821223 -56.825890366814519 0 0 0 0 -4.9615708439464044 -9.3071350612511878 0 -9.3071350612511878 -76.560005906454535 0 0 0 0 1.2792517170144038 -10.776804858503056 0 -10.776804858503056 -69.80793368434388 0 0 0 0 0.19440520971681963 1.1200105256384632 0 1.1200105256384632 -32.625285989601252 0 0 0 0 10.97387336154452 -3.7022381096685422 0 -3.7022381096685422 -54.0678233968938 0 0 0 0 3.2079226309076603 -6.6931369845915469 0 -6.6931369845915469 -54.280321895233556 0 0 0 0 -15.191343190666885 -3.49792826801513 0 -3.49792826801513 -53.654209887108209 0 0 0 0 -7.9234839124167138 10.620679738398394 0 10.620679738398394 -40.198796087761366 0 0 0 0 -2.4582793496950899 3.9221039868034495 0 3.9221039868034495 -81.772570848741452 0 0 0 0 -14.92338389462634 7.2740178597305203 0 7.2740178597305203 -82.340008912449775 0 0 0 0 -21.756061369084819 -11.944370047188386 0 -11.944370047188386 -104.85943197240704 0 0 0 0 -18.541794635592339 -5.5624048807844702 0 -5.5624048807844702 -77.340787674553212 0 0 0 0 6.0276117735868411 -2.6881135482722129 0 -2.6881135482722129 -80.987624071327446 0 0 0 0 1.6306037597673821 -2.306818659462806 0 -2.306818659462806 -113.53619143157812 0 0 0 0 1.8326472870655834 -14.339531984134737 0 -14.339531984134737 -104.32105367514669 0 0 0 0 -3.8660742982436886 -3.2914166923483208 0 -3.2914166923483208 -113.65981512074541 0 0 0 0 0.23113701044633217 -11.95693734058932 0 -11.95693734058932 -120.96944848049498 0 0 0 0 -3.7971486958817877 -14.238120155533124 0 -14.238120155533124 -154.56265718116811 0 0 0 0 -18.389932953132529 15.153633873236686 0 15.153633873236686 -148.35658140992018 0 0 0 0 5.8337035439828924 18.100034827873969 0 18.100034827873969 -129.23727187590339 0 0 0 0 6.7244761615273774 17.507802554932596 0 17.507802554932596 -174.17855841557321 0 0 0 0 -19.974976048223084 53.739045560506383 0 53.739045560506383 -124.74130906115261 0 0 0 0 -15.191642960329773 30.663674567736962 0 30.663674567736962 -96.242460999465038 0 0 0 0 -0.20457600898967332 -0.37854017662550277 0 -0.37854017662550277 -0.60778171358803235 0 0 0 0 -22.224786119526478 87.275729203681749 0 87.275729203681749 -251.15388171708582 0 0 0 0 -1.438250518657469 -7.6574090988269745 0 -7.6574090988269745 -243.6284886544214 0 0 0 0 -4.6618773357381542 -38.270246911188224 0 -38.270246911188224 10.068404633652335 0 0 0 0 -42.410139005211363 -37.193342013586516 0 -37.193342013586516 -169.39652624508835 0 0 0 0 -32.641338064252864 7.5403470760188611 0 7.5403470760188611 -117.76177697951425 0 0 0 0 -45.220026881809758 -3.5602219669216026 0 -3.5602219669216026 -106.32338550705481 0 0 0 0 0.20123221981646822 -62.444762178675575 0 -62.444762178675575 -116.09382687402467 0 0 0 0 -24.068323270744941 -17.276931698349927 0 -17.276931698349927 -143.72793735894811 0 0 0 0 -35.89198945853434 -5.7918683344706778 0 -5.7918683344706778 -77.304751857597694 0 0 0 0 -13.524823209700628 17.483526282668208 0 17.483526282668208 -94.84418344359301 0 0 0 0 -24.890726140776565 26.213568073489114 0 26.213568073489114 -68.967641691278914 0 0 0 0 -21.491908834546848 4.4039347910038487 0 4.4039347910038487 -80.537976029107085 0 0 0 0 -25.875054040260146 22.161728197354137 0 22.161728197354137 -105.23499113627622 0 0 0 0 -14.311083611261207 22.503039662995377 0 22.503039662995377 -64.614713035710338 0 0 0 0 -19.108591041688328 19.126971088432583 0 19.126971088432583 -61.376894254469335 0 0 0 0 -6.5298719990681207 24.016848928034506 0 24.016848928034506 -59.53885526443446 0 0 0 0 -11.351768503829589 28.037512819263156 0 28.037512819263156 -64.880478727553282 0 0 0 0 -9.6046217980485267 31.512233274821256 0 31.512233274821256 -59.350437402831176 0 0 0 0 -18.589153703820898 14.384076266155716 0 14.384076266155716 -69.08657311063115 0 0 0 0 -12.939746938463628 30.278418500738098 0 30.278418500738098 -68.021069712709505 0 0 0 0 -11.238957059603536 -18.841054972478105 0 -18.841054972478105 -117.3068647824648 0 0 0 0 -10.873192044901252 -24.031605794324918 0 -24.031605794324918 -43.785870918767614 0 0 0 0 -17.695907338884325 19.257111671918551 0 19.257111671918551 -42.930388324696651 0 0 0 0 -1.8106273165341804 -14.670153075910548 0 -14.670153075910548 -60.198446652615075 0 0 0 0 3.9258923009361979 0.84276340920905568 0 0.84276340920905568 -19.172781450353796 0 0 0 0 10.888845896318571 -26.157652303265422 0 -26.157652303265422 -38.771637121630192 0 0 0 0 40.494879162156849 -14.736159691386547 0 -14.736159691386547 -20.88238849400841 0 0 0 0 51.224643695489931 13.952947597078492 0 13.952947597078492 -17.22083840104051 0 0 0 0 12.148535468295016 -8.2925894218380449 0 -8.2925894218380449 -12.582248665463339 0 0 0 0 10.245746452676656 -11.563900364646315 0 -11.563900364646315 4.7361303752277308 0 0 0 0 46.966479873815388 45.34520025727079 0 45.34520025727079 -21.588609670518736 0 0 0 0 0.10915678897898129 0.038360116508982856 0 0.038360116508982856 -0.62298427405870171 0 0 0 0 -9.269459243987086 -66.516969047594444 0 -66.516969047594444 -42.837464775457192 0 0 0 0 40.645659351706854 -44.736482654130668 0 -44.736482654130668 -92.573102791617202 0 0 0 0 9.583778384500107 2.7507626094673014 0 2.7507626094673014 -57.391841140273755 0 0 0 0 -14.241233401486852 6.1421728026107303 0 6.1421728026107303 -55.67679125405175 0 0 0 0 -12.300638962531139 24.458692957017774 0 24.458692957017774 -72.012910308474375 0 0 0 0 20.787149761954623 -16.454606129698846 0 -16.454606129698846 -23.389815615653788 0 0 0 0 -12.348962912092588 28.093961308968574 0 28.093961308968574 -35.048604395889015 0 0 0 0 20.797731273372847 30.073645701251735 0 30.073645701251735 -46.569685780990767 0 0 0 0 -35.408726589350408 21.517499194597349 0 21.517499194597349 -42.48368864448048 0 0 0 0 -11.416998300996283 27.66743268187156 0 27.66743268187156 -70.423437570772876 0 0 0 0 -33.436821282384017 22.986378934481763 0 22.986378934481763 -71.233962277028695 0 0 0 0 6.4174306028103274 31.530950372949519 0 31.530950372949519 -88.475852699505367 0 0 0 0 26.657390426511711 31.789786013313574 0 31.789786013313574 -90.071985565558862 0 0 0 0 5.5794236469873795 23.147957623537195 0 23.147957623537195 -136.3830635679069 0 0 0 0 -6.6495104807714824 23.668597070902706 0 23.668597070902706 -85.977155932066125 0 0 0 0 -6.4055678689526871 27.832925374509614 0 27.832925374509614 -81.856318033806019 0 0 0 0 -2.0249073145182024 24.77427404170021 0 24.77427404170021 -85.87593136482792 0 0 0 0 -8.4401102418373739 -4.6834563805077778 0 -4.6834563805077778 -23.417944941977112 0 0 0 0 -16.023783486864772 -4.3523774857958415 0 -4.3523774857958415 -19.744675295367415 0 0 0 0 -15.494641956903024 25.516906653096157 0 25.516906653096157 -82.443188628566986 0 0 0 0 -30.36496527936805 44.382046295032069 0 44.382046295032069 -27.810665690143651 0 0 0 0 -14.473490146627228 69.510379328535237 0 69.510379328535237 -125.64105817737254 0 0 0 0 -13.361387490553682 47.375945454990529 0 47.375945454990529 -201.74297063104041 0 0 0 0 -20.83749318171192 12.028431472304874 0 12.028431472304874 33.760943391132059 0 0 0 0 -0.57521701637397826 0.2609908008366606 0 0.2609908008366606 -0.16648440446680413 0 0 0 0 7.0528561623542601 -4.4095373202671908 0 -4.4095373202671908 -7.3481482235411022 0 0 0 0 -2.6794857984613145 -0.16046115415520035 0 -0.16046115415520035 -9.0834031059830522 0 0 0 0 0.1554913192848062 -0.76050345153998933 0 -0.76050345153998933 -23.132700768001087 0 0 0 0 6.0995462773463487 11.053062498859617 0 11.053062498859617 -20.061971251627483 0 0 0 0 -5.7155868419831677 6.2712166258224897 0 6.2712166258224897 -10.666217916974119 0 0 0 0 13.874796618695939 10.50595731024805 0 10.50595731024805 -9.7808949482277967 0 0 0 0 5.6024881130431936 14.266812312929233 0 14.266812312929233 2.8816532045730128 0 0 0 0 -0.90705934327354498 39.580120013191731 0 39.580120013191731 -127.6176380073266 0 0 0 0 -20.921436425130764 -1.9252362023994465 0 -1.9252362023994465 -49.916682489939376 0 0 0 0 -1.0808567238562716e-05 0.096642835689923601 0 0.096642835689923601 -0.11070643613675935 0 0 0 0 -21.595875425929037 47.147782418151337 0 47.147782418151337 -100.51431300409877 0 0 0 0 -9.9985469008262271 23.92386059631599 0 23.92386059631599 -64.375638016532434 0 0 0 0 -12.813219616487785 20.284129792233443 0 20.284129792233443 -46.843176084249535 0 0 0 0 0.25758549821771215 0.17068840447392475 0 0.17068840447392475 -0.11002637659310788 0 0 0 0 -4.2401886512567444 0.3325256796715621 0 0.3325256796715621 -41.613374027147984 0 0 0 0 -11.702802781030357 -48.342503948437752 0 -48.342503948437752 40.829882885002007 0 0 0 0 0.26261708220235702 -0.34887891571355567 0 -0.34887891571355567 -0.5408609146701977 0 0 0 0 18.725652774183914 1.012342659116257 0 1.012342659116257 -67.351936636431418 0 0 0 0 -7.2150918806580648 5.726572928531823 0 5.726572928531823 15.197767736497781 0 0 0 0 -1.8043607822591725 0.95778799839810347 0 0.95778799839810347 -0.26286756465665473 0 0 0 0 20.567038517496712 -25.467422960497061 0 -25.467422960497061 -162.65854088606375 0 0 0 0 3.6334960553793394 -0.0062465180753861205 0 -0.0062465180753861205 -17.043015295815167 0 0 0 0 -7.1895507103030241 -8.4359067996929298 0 -8.4359067996929298 1.672512501330857 0 0 0 0 0.20182191235453528 -0.37436931100588211 0 -0.37436931100588211 -1.2503873224030659 0 0 0 0 -8.2523870762885281 28.687117002034938 0 28.687117002034938 -149.836935032356 0 0 0 0 -8.5523218927751259 32.375650361104817 0 32.375650361104817 -150.82392009564956 0 0 0 0 -3.4990488618849311 10.600799026665044 0 10.600799026665044 -7.9875837385079649 0 0 0 0 -31.393043209621965 57.255717720506254 0 57.255717720506254 -144.70305258840381 0 0 0 0 -2.9001310729045104 1.4855830419013039 0 1.4855830419013039 -0.61919729972920101 0 0 0 0 7.4823002437817649 101.13153531683838 0 101.13153531683838 -277.74729412041415 0 0 0 0 21.475933100310698 -37.806352421342751 0 -37.806352421342751 -246.93773936914477 0 0 0 0 -58.557952959612066 103.0482469980434 0 103.0482469980434 -191.88541762981504 0 0 0 0 -64.423941730941806 33.921810067895422 0 33.921810067895422 -164.3813405070041 0 0 0 0 23.900787930745508 8.4704060532551466 0 8.4704060532551466 -179.18786096391705 0 0 0 0 12.837413242220919 75.365540397674522 0 75.365540397674522 -202.33640645149626 0 0 0 0 -10.893952228709125 32.672482888040577 0 32.672482888040577 -141.87230712015298 0 0 0 0 -15.515624681856252 29.475711764946027 0 29.475711764946027 -155.47924301951548 0 0 0 0 -13.145216825120343 34.94166930216943 0 34.94166930216943 -143.08301416654103 0 0 0 0 -2.3939646308678837 0.54564984260817084 0 0.54564984260817084 -0.71445673052159497 0 0 0 0 -34.694244736560904 72.428392829375298 0 72.428392829375298 -105.44580741622212 0 0 0 0 -0.635727872512303 -0.36408523911565993 0 -0.36408523911565993 -1.1119518326841824 0 0 0 0 -28.827516693037069 -5.3630623059043501 0 -5.3630623059043501 -95.737268235825468 0 0 0 0 3.8045072912441356 3.0692099445404892 0 3.0692099445404892 -7.3562291944308527 0 0 0 0 -9.3643273931738804 89.927681120592297 0 89.927681120592297 -205.11752742885801 0 0 0 0 -15.536656348609768 22.984732482183972 0 22.984732482183972 -190.20913688507881 0 0 0 0 0.84199175724875541 -1.2453611466782721 0 -1.2453611466782721 -1.3634133693581898 0 0 0 0 -14.231830905560855 -50.478090750042611 0 -50.478090750042611 21.756373260890541 0 0 0 0 51.423325808158324 16.956869398709387 0 16.956869398709387 -57.127881157594857 0 0 0 0 -13.897296577920713 9.7439415151252433 0 9.7439415151252433 -15.371595156042531 0 0 0 0 0.52057204797233547 -0.008549599801316532 0 -0.008549599801316532 -0.069219289065887368 0 0 0 0 9.6070311902285539 -1.5422965950679099 0 -1.5422965950679099 -36.357757339461386 0 0 0 0 0.26722879656600851 -0.15675935075307024 0 -0.15675935075307024 -0.011047831669812935 0 0 0 0 -5.3904809609326207 -10.167379177139992 0 -10.167379177139992 -9.6431452555207215 0 0 0 0 11.589748805174509 3.7893102985008227 0 3.7893102985008227 9.1855754604021058 0 0 0 0 -4.6311616771031368 2.4632438955395628 0 2.4632438955395628 1.083458700003348 0 0 0 0 5.8473354693353485 2.1533636665581071 0 2.1533636665581071 -32.467488669592058 0 0 0 0 2.3445881442457903 0.57275119257064944 0 0.57275119257064944 -20.538221955845984 0 0 0 0 -0.36184644038719682 -27.996324829015975 0 -27.996324829015975 -152.41064847213329 0 0 0 0 4.5572597104823842 -6.8198904571345338 0 -6.8198904571345338 -131.41471859707508 0 0 0 0 -15.491969801183615 3.475664196613252 0 3.475664196613252 -103.44535415463679 0 0 0 0 -30.840528529194586 -11.854318687685009 0 -11.854318687685009 -81.849919787736326 0 0 0 0 -27.831402553135405 -17.459661784896298 0 -17.459661784896298 -85.42546668801333 0 0 0 0 -43.910744260948121 11.637899995567551 0 11.637899995567551 -87.962646532186227 0 0 0 0 -29.97934785746223 -14.900394846619747 0 -14.900394846619747 -72.812140031136551 0 0 0 0 -30.223482616082407 17.74990054027603 0 17.74990054027603 -85.926778579522306 0 0 0 0 -65.86511309698453 69.587467082032902 0 69.587467082032902 -139.80855303497628 0 0 0 0 -18.20930944989513 10.288078815106019 0 10.288078815106019 -107.64186084270023 0 0 0 0 -27.800971527309031 25.479277080747124 0 25.479277080747124 -130.79694593242675 0 0 0 0 -8.1343568024350361 24.270216164474732 0 24.270216164474732 -141.15968947355259 0 0 0 0 -9.5060637957340077 27.836285025330199 0 27.836285025330199 -150.35012559866118 0 0 0 0 -17.797602902554786 -12.40112436130039 0 -12.40112436130039 -107.39244216876978 0 0 0 0 -12.167909287254247 -26.099442224559198 0 -26.099442224559198 -75.749535686079071 0 0 0 0 11.677509768288019 -16.763173030376493 0 -16.763173030376493 -135.51245157492031 0 0 0 0 3.8773100598554606 -11.14960097878793 0 -11.14960097878793 -132.31208060611243 0 0 0 0 1.7051324245900332 9.8634157648652945 0 9.8634157648652945 -144.3992500641798 0 0 0 0 0.022842910379928583 17.792970347624646 0 17.792970347624646 -172.48845561385315 0 0 0 0 -10.976848984083233 31.267462746649471 0 31.267462746649471 -152.21088514289295 0 0 0 0 6.4600492513120713 52.620170912529829 0 52.620170912529829 -275.62675685411159 0 0 0 0 -17.297104328012118 54.722499984733304 0 54.722499984733304 -192.30671405662179 0 0 0 0 3.8692262742554249 -35.681476243996258 0 -35.681476243996258 -145.37030382414741 0 0 0 0 13.803436958219891 1.2271226395278063 0 1.2271226395278063 -219.96807902725777 0 0 0 0 -8.039414855346422 -6.8330771653022566 0 -6.8330771653022566 -89.66740411621322 0 0 0 0 20.134626276462598 -32.076151652847784 0 -32.076151652847784 -73.941805844602641 0 0 0 0 15.928284588731829 20.337870724383691 0 20.337870724383691 -42.548293700530849 0 0 0 0 -12.761900689372112 14.318400566034597 0 14.318400566034597 -68.377692730068588 0 0 0 0 23.188353341146581 2.9733389287071077 0 2.9733389287071077 -228.13606229019501 0 0 0 0 -27.268042955361636 -1.6216544493699985 0 -1.6216544493699985 45.77018298470739 0 0 0 0 -0.30575804550541064 0.44861262949865655 0 0.44861262949865655 -0.3989907355151594 0 0 0 0 -0.022011471853110309 0.8853534430028791 0 0.8853534430028791 -0.25319681281443973 0 0 0 0 -40.271574638423004 65.262663397631059 0 65.262663397631059 -74.646734423439284 0 0 0 0 -44.24306572775771 -40.868208225574108 0 -40.868208225574108 -142.26784410417713 0 0 0 0 -65.94817630695286 108.32135972838023 0 108.32135972838023 -179.59622502565389 0 0 0 0 27.747171160742539 -53.537848344194344 0 -53.537848344194344 -65.435243413192438 0 0 0 0 -2.2333027659218416 -60.142387748771398 0 -60.142387748771398 -37.422461219138313 0 0 0 0 -48.140079379736591 16.47428131558172 0 16.47428131558172 90.444078939219708 0 0 0 0 -1.4988811869910599 -1.9117178122591554 0 -1.9117178122591554 -181.15381902849003 0 0 0 0 -16.440142013268485 -63.489978613423773 0 -63.489978613423773 -93.799042821643525 0 0 0 0 -13.421514662339453 6.7124791696979287 0 6.7124791696979287 -157.48927051252758 0 0 0 0 -68.432299659879277 -8.6000802664375442 0 -8.6000802664375442 -161.35215862561745 0 0 0 0 -22.257619458987847 8.0055756661222404 0 8.0055756661222404 -251.13969675122644 0 0 0 0 -15.400903980381543 -43.792851084171161 0 -43.792851084171161 -243.09783882938245 0 0 0 0 -0.18649795185091012 -0.44343894746428347 0 -0.44343894746428347 -0.69086338381966073 0 0 0 0 -52.558147211858341 104.10195981182551 0 104.10195981182551 -208.898665066994 0 0 0 0 -41.282935657005623 29.939674406570703 0 29.939674406570703 -237.53245977557026 0 0 0 0 -66.627789624117611 -35.771322185546524 0 -35.771322185546524 -290.25463560999924 0 0 0 0 -103.08560928600599 49.494888121100757 0 49.494888121100757 -282.29213862658071 0 0 0 0 4.3953328027301382 52.699111130321398 0 52.699111130321398 -627.8406915178748 0 0 0 0 -1.3571228491095937 78.549371428621953 0 78.549371428621953 -690.69497583519114 0 0 0 0 -62.378000608017942 94.628547258565959 0 94.628547258565959 -433.77710534482139 0 0 0 0 -0.12762777151614035 -0.077103662926383265 0 -0.077103662926383265 -0.15784305391138309 0 0 0 0 -2.7690492005097456 1.08918483481248 0 1.08918483481248 -0.62952629057232024 0 0 0 0 -2.463479221943885 -4.196293837576377 0 -4.196293837576377 -21.066182982547616 0 0 0 0 102.85212745537865 50.112908966819305 0 50.112908966819305 -315.73176671854253 0 0 0 0 -14.454833414078848 -56.094417768812036 0 -56.094417768812036 -263.92141653718681 0 0 0 0 -3.9753213302981436 -5.9034543305415355 0 -5.9034543305415355 -18.104555924361193 0 0 0 0 -0.34671340786822569 0.089388628560980621 0 0.089388628560980621 -0.13171086292752321 0 0 0 0 -94.338379081868197 -66.994998016234604 0 -66.994998016234604 -470.12030534649966 0 0 0 0 10.453570344454931 -0.09175288183541852 0 -0.09175288183541852 -294.04988458624211 0 0 0 0 -99.670210989038054 26.720630663575491 0 26.720630663575491 -288.25573647105921 0 0 0 0 47.065801437890798 64.361774526614681 0 64.361774526614681 -326.04008400217208 0 0 0 0 0.79598944054839649 59.330227364918755 0 59.330227364918755 -313.92076146528598 0 0 0 0 -13.873902646488716 15.157715611480853 0 15.157715611480853 -158.34669072550787 0 0 0 0 34.672669138746315 14.551434042023629 0 14.551434042023629 -158.42327083086275 0 0 0 0 94.333248766936606 23.605597424950247 0 23.605597424950247 -296.41457936515872 0 0 0 0 -41.481014518036538 66.941035016640853 0 66.941035016640853 -242.35995372008074 0 0 0 0 -27.628223000601885 -8.0277955137735262 0 -8.0277955137735262 -246.8267248787497 0 0 0 0 -58.848012665249826 -162.57552269771486 0 -162.57552269771486 -252.73318751745774 0 0 0 0 -15.464433555798905 -86.798955029796616 0 -86.798955029796616 -135.46532258971274 0 0 0 0 96.320873359468777 -6.8097758324804545 0 -6.8097758324804545 -347.55691514781574 0 0 0 0 208.24350912022226 42.732680592310771 0 42.732680592310771 -339.02779285700763 0 0 0 0 -8.8251765943939517 -1.7782681559701814 0 -1.7782681559701814 -20.398959989646755 0 0 0 0 256.04297640048395 -134.64253972318716 0 -134.64253972318716 -564.90474668629031 0 0 0 0 -4.513773384369129 1.3487495726068133 0 1.3487495726068133 -0.50014210264956116 0 0 0 0 69.936902587805605 46.971925105689934 0 46.971925105689934 -333.34713407730987 0 0 0 0 -375.38791437070665 -94.539676453622633 0 -94.539676453622633 -135.3534838623732 0 0 0 0 -33.512869541373306 37.046011628357519 0 37.046011628357519 -46.60914805597713 0 0 0 0 -82.339546126850678 124.6823339080529 0 124.6823339080529 -194.60227179583785 0 0 0 0 0.91459354738390342 0.21375652121661126 0 0.21375652121661126 -4.361188656453578 0 0 0 0 170.2372141572236 66.987860699716748 0 66.987860699716748 -44.682315921549616 0 0 0 0 28.151326271904011 90.630552890204626 0 90.630552890204626 102.20514483675515 0 0 0 0 1.9901471447505314 0.22063578483299207 0 0.22063578483299207 -2.5874332887128055 0 0 0 0 -26.041591870637717 0.44364420311467256 0 0.44364420311467256 25.602704390799772 0 0 0 0 2.9581863503059038 0.1580719255117824 0 0.1580719255117824 -2.223911507481283 0 0 0 0 -32.239993134482006 46.54442165229716 0 46.54442165229716 47.358223895623269 0 0 0 0 -17.607219862296006 -11.036562861115272 0 -11.036562861115272 -2.8571315671356388 0 0 0 0 49.187809589421249 -21.088941212008194 0 -21.088941212008194 -29.793309904880516 0 0 0 0 1.1777155546242355 1.3767376024229094 0 1.3767376024229094 -9.5548537424128082 0 0 0 0 79.851713792097144 139.13244614984774 0 139.13244614984774 -99.947436329407992 0 0 0 0 0.09834146830385454 0.72626573383934867 0 0.72626573383934867 -7.2098304477136832 0 0 0 0 136.30566527095735 -102.88272428927371 0 -102.88272428927371 -124.50384598303981 0 0 0 0 198.73434188586467 -46.940145570835739 0 -46.940145570835739 -80.767393139413798 0 0 0 0 -55.879013179608535 35.000537293272373 0 35.000537293272373 -15.90704390513838 0 0 0 0 28.7969645024783 44.480105966443531 0 44.480105966443531 -63.753150497442221 0 0 0 0 -171.64938214369178 127.93426466513262 0 127.93426466513262 -45.759123783577706 0 0 0 0 76.237714196237732 -51.348725993597327 0 -51.348725993597327 7.9875680063141772 0 0 0 0 14.163576546226581 -86.08058083203494 0 -86.08058083203494 -8.4544882025652441 0 0 0 0 -0.05990788129666072 0.3792951283199455 0 0.3792951283199455 -2.6893574154130064 0 0 0 0 178.45450053542007 41.731921867243727 0 41.731921867243727 -239.07549568953937 0 0 0 0 14.403806213299784 -81.322570774773183 0 -81.322570774773183 -499.23846266608552 0 0 0 0 9.8608844200217618 218.75481766433541 0 218.75481766433541 -111.18726352273211 0 0 0 0 -0.92057154121924689 0.64085957934424087 0 0.64085957934424087 -0.44599534283743925 0 0 0 0 14.414700879265128 -81.257088755857154 0 -81.257088755857154 -500.22387396920385 0 0 0 0 -249.62516467214087 37.390460308693832 0 37.390460308693832 292.07447738550491 0 0 0 0 -293.45845725040783 196.41647280781501 0 196.41647280781501 -238.93572034415683 0 0 0 0 -65.780799793500719 111.62447428755831 0 111.62447428755831 -216.82014047730365 0 0 0 0 -86.74902446137898 184.08246922621993 0 184.08246922621993 -176.99844938272236 0 0 0 0 -42.025196929650136 281.38813743822857 0 281.38813743822857 -498.4988459799215 0 0 0 0 89.783686871309783 189.85233213300376 0 189.85233213300376 -500.3225989636594 0 0 0 0 26.626560550527138 185.04193248253796 0 185.04193248253796 -363.28620455307919 0 0 0 0 29.829056596943417 130.47139515275012 0 130.47139515275012 -223.51232484288357 0 0 0 0 39.994619310931853 175.82137961890612 0 175.82137961890612 -363.07327652015346 0 0 0 0 58.202583501124586 104.57241050740254 0 104.57241050740254 -232.68010304286508 0 0 0 0 -7.929333633843072 32.875202492927201 0 32.875202492927201 -37.232174002460852 0 0 0 0 60.670197997980353 -8.3633895064358512 0 -8.3633895064358512 -359.94762767400425 0 0 0 0 -0.45837664200467082 0.45041874001532278 0 0.45041874001532278 -0.2962196310392029 0 0 0 0 -59.529542918573888 142.30092777859178 0 142.30092777859178 115.56545197315791 0 0 0 0 -0.94906593350878143 1.559142409499076 0 1.559142409499076 -0.76059782303115897 0 0 0 0 29.349412691276044 -5.6194345927419818 0 -5.6194345927419818 -217.90085340874612 0 0 0 0 5.6720575388489181 87.734502508891183 0 87.734502508891183 -65.412788379996073 0 0 0 0 -0.94595253794503276 1.5574525680052105 0 1.5574525680052105 -0.91583722441270732 0 0 0 0 -33.613420969552294 30.775061404838652 0 30.775061404838652 -111.02094426165877 0 0 0 0 13.454780262864855 54.52447392813815 0 54.52447392813815 -320.97658994845551 0 0 0 0 39.037474176124348 30.315997960620962 0 30.315997960620962 -307.61017792566417 0 0 0 0 76.148202799406448 130.77612993326989 0 130.77612993326989 -402.57433055361525 0 0 0 0 83.893966535487664 153.27914386857719 0 153.27914386857719 -399.66288452971776 0 0 0 0 80.22833783482902 125.38090392731579 0 125.38090392731579 -499.88119102956807 0 0 0 0 42.140188079436626 108.56175514939696 0 108.56175514939696 -299.41199301384677 0 0 0 0 43.969391509608329 86.486751114428102 0 86.486751114428102 -445.61157225268835 0 0 0 0 36.104357641797527 122.11792048478037 0 122.11792048478037 -430.9575199484766 0 0 0 0 16.664921675291438 83.255147043064767 0 83.255147043064767 -499.92312027237767 0 0 0 0 3.1844194216005817 80.542519002912741 0 80.542519002912741 -462.33529626213272 0 0 0 0 -24.479044096734427 75.617425964316737 0 75.617425964316737 -459.09128980647347 0 0 0 0 -0.40147865751758333 0.5957040019025559 0 0.5957040019025559 -0.62229492386403695 0 0 0 0 7.9297834082154921 41.040571161547632 0 41.040571161547632 -564.60279770383113 0 0 0 0 3.528797126364438 29.776339776837631 0 29.776339776837631 -352.19894708201355 0 0 0 0 9.0597368642628311 -8.1460554675750245 0 -8.1460554675750245 -131.02478426452035 0 0 0 0 -17.635193215302724 27.876272209754646 0 27.876272209754646 -117.33174996082562 0 0 0 0 -18.070259998433158 -2.5690102669123007 0 -2.5690102669123007 -44.65078743801223 0 0 0 0 -60.870795348145293 51.616631887689891 0 51.616631887689891 -397.43645616740287 0 0 0 0 -155.20322725172173 185.78069973442325 0 185.78069973442325 -245.99763351444744 0 0 0 0 -9.553970901071807 46.711102188876339 0 46.711102188876339 -234.72844798518372 0 0 0 0 -62.842473341032928 73.98206767413285 0 73.98206767413285 -226.40898559491234 0 0 0 0 7.0418096440085947 8.5011643350591459 0 8.5011643350591459 -304.63204376082467 0 0 0 0 7.1127494756958578 -29.327203810051802 0 -29.327203810051802 -160.42883772544883 0 0 0 0 -77.282007465781817 16.061776015818509 0 16.061776015818509 -256.11570863262705 0 0 0 0 -4.0865039361688105 64.360855938457917 0 64.360855938457917 -632.57693642809113 0 0 0 0 -138.20987375526443 -51.294561082963583 0 -51.294561082963583 -217.18798435980034 0 0 0 0 -131.61705316043685 120.44521304719019 0 120.44521304719019 -157.70952639424377 0 0 0 0 54.544227316808019 59.355959392345085 0 59.355959392345085 -396.22500074477512 0 0 0 0 91.2261192652104 -104.36793108636516 0 -104.36793108636516 -324.77484098215291 0 0 0 0 91.329852745990507 -172.36465322500561 0 -172.36465322500561 -110.29104654057755 0 0 0 0 86.434600539967107 -190.58283809757654 0 -190.58283809757654 63.159763197666962 0 0 0 0 -0.21700903438381935 -1.2690702757985783 0 -1.2690702757985783 -4.2686145866344205 0 0 0 0 -268.89934864828365 324.84157653114266 0 324.84157653114266 -398.04983388972869 0 0 0 0 86.333627409719156 -49.787257150504274 0 -49.787257150504274 -54.985660306684395 0 0 0 0 189.3677500098911 115.13367381249191 0 115.13367381249191 15.780197632397176 0 0 0 0 36.454269579107859 -14.401845546802861 0 -14.401845546802861 -49.984087279343612 0 0 0 0 46.873412138033359 -18.870281353147078 0 -18.870281353147078 -58.58851922757367 0 0 0 0 31.744153014701851 -19.791667741194487 0 -19.791667741194487 -55.696145121456993 0 0 0 0 0.22184027099104497 0.33750033961977977 0 0.33750033961977977 -1.0587037763974063 0 0 0 0 179.63392264963522 15.157794298190765 0 15.157794298190765 53.047691821449689 0 0 0 0 30.735171966670009 -38.605249149571364 0 -38.605249149571364 -55.553571281023324 0 0 0 0 174.80883158908136 -65.299749958399843 0 -65.299749958399843 59.102812374968892 0 0 0 0 0.040568038806110707 -3.3899693079271529 0 -3.3899693079271529 -10.717819890247375 0 0 0 0 221.28887138809296 -92.243368416288831 0 -92.243368416288831 -83.713038486626829 0 0 0 0 -111.65529175576899 119.37957949393603 0 119.37957949393603 -111.2328611124376 0 0 0 0 -221.56501600542265 147.32683357023507 0 147.32683357023507 -149.85347301553702 0 0 0 0 -155.58562177499016 99.781444978237687 0 99.781444978237687 -119.35810542793615 0 0 0 0 -86.690004960999204 117.82733841696972 0 117.82733841696972 -179.16234814834024 0 0 0 0 -43.568382667178867 102.65220093985658 0 102.65220093985658 -138.12643688164235 0 0 0 0 -83.845262322012161 130.25164090835347 0 130.25164090835347 -156.93284534253053 0 0 0 0 -62.149225596809629 103.04589828654252 0 103.04589828654252 -73.629582978430562 0 0 0 0 -113.51843067727799 126.24561439942698 0 126.24561439942698 -78.144088197175734 0 0 0 0 -41.129097087381638 130.24813447219947 0 130.24813447219947 -83.750020720797693 0 0 0 0 -26.110339351130506 86.913667688273563 0 86.913667688273563 15.402879691014164 0 0 0 0 40.094046551921309 66.17521650314211 0 66.17521650314211 -85.589377126605086 0 0 0 0 25.582595746326433 65.82180687154414 0 65.82180687154414 -80.710990009734815 0 0 0 0 -39.746366027956356 84.379098465562947 0 84.379098465562947 -76.003142317765253 0 0 0 0 20.425673210087098 84.984751958615334 0 84.984751958615334 -151.79787960441627 0 0 0 0 83.916426632591879 12.9541333200998 0 12.9541333200998 -252.91623480120415 0 0 0 0 30.21007790615279 16.414752022752509 0 16.414752022752509 -127.66643679204867 0 0 0 0 51.416112386587486 56.220743257511913 0 56.220743257511913 -216.54794581302531 0 0 0 0 26.797909566002801 48.787445242513968 0 48.787445242513968 -267.00288378747518 0 0 0 0 0.25412344975336321 -0.0090602601295337593 0 -0.0090602601295337593 0.1462749318791996 0 0 0 0 73.578276767340824 13.563551764556451 0 13.563551764556451 -309.47626268663635 0 0 0 0 -1.8882838389218364 108.22635447569201 0 108.22635447569201 221.80904603203271 0 0 0 0 62.137353981965987 74.376218351305397 0 74.376218351305397 5.6668410998645413 0 0 0 0 99.716717859773496 74.817048769508915 0 74.817048769508915 -99.937612081082534 0 0 0 0 24.476960935491434 31.042092247332675 0 31.042092247332675 -50.027483991643749 0 0 0 0 42.96569039603969 -23.482798761878939 0 -23.482798761878939 -89.919401204179394 0 0 0 0 44.737106789391788 -5.6044313016600427 0 -5.6044313016600427 -136.65521235994447 0 0 0 0 -102.99066246723115 47.662549912998202 0 47.662549912998202 15.669899979010893 0 0 0 0 50.213323882358623 -24.910258534349396 0 -24.910258534349396 -189.90517250876155 0 0 0 0 15.986406471015243 26.355900824528135 0 26.355900824528135 -122.05036723467538 0 0 0 0 -0.57737387575411958 63.562226684917391 0 63.562226684917391 -205.36503303011295 0 0 0 0 37.761232642281584 37.274882486453293 0 37.274882486453293 -134.16943064256884 0 0 0 0 34.363741537412807 -20.676596874070583 0 -20.676596874070583 -131.2626556376016 0 0 0 0 17.817395678913805 -20.648597219301024 0 -20.648597219301024 -112.59130402005212 0 0 0 0 17.713019979609271 -22.82539389929434 0 -22.82539389929434 -156.72597798671495 0 0 0 0 -13.80643839351184 -19.461826197593965 0 -19.461826197593965 -43.284649527068268 0 0 0 0 11.488749085696142 3.9912659938301829 0 3.9912659938301829 -67.879515150625593 0 0 0 0 9.2593627430671859 -8.2772718977721524 0 -8.2772718977721524 -103.24194637546429 0 0 0 0 -23.077929809041507 4.7606291671654617 0 4.7606291671654617 -31.299826869513709 0 0 0 0 -22.504643400663667 -1.5374221469473923 0 -1.5374221469473923 -30.027492390436919 0 0 0 0 -12.794774945872177 -29.94606916394423 0 -29.94606916394423 -54.272909321314273 0 0 0 0 4.6655617946653365 -13.468461473930802 0 -13.468461473930802 -25.393458165450284 0 0 0 0 -16.826735606487091 -29.839777514811885 0 -29.839777514811885 -30.500704313646793 0 0 0 0 -13.065478405148852 70.915622499482424 0 70.915622499482424 -122.11261202948299 0 0 0 0 0.072741537999141737 0.023225940431340353 0 0.023225940431340353 -2.9454669922123653 0 0 0 0 36.997505224706828 -87.492215935561489 0 -87.492215935561489 -15.801859013973171 0 0 0 0 15.624930520730118 29.732573703021899 0 29.732573703021899 -133.50580481191463 0 0 0 0 5.0202934580371945 34.205176004512111 0 34.205176004512111 -47.811576751239045 0 0 0 0 -8.8378561003646254 9.4414769177363844 0 9.4414769177363844 -11.574713744716519 0 0 0 0 -8.6353237195222619 17.557760146244618 0 17.557760146244618 -59.180688244484372 0 0 0 0 21.830205319915393 -12.090565408475413 0 -12.090565408475413 -14.046056733485557 0 0 0 0 0.09947495549593928 0.23816638594876449 0 0.23816638594876449 -7.5453955679568114 0 0 0 0 175.6754072234508 15.527642091449934 0 15.527642091449934 -115.16075204315257 0 0 0 0 -4.2634736158452711 4.6674187220976364 0 4.6674187220976364 -39.347005357099079 0 0 0 0 10.098688019026554 -18.988521506097641 0 -18.988521506097641 -15.938716956192764 0 0 0 0 -3.8168193596200126 -8.8804032081130799 0 -8.8804032081130799 19.508187118323349 0 0 0 0 -2.0263149639491873 -0.82495489478066419 0 -0.82495489478066419 -1.1309408825920819 0 0 0 0 -44.169864385428916 -193.98561354648461 0 -193.98561354648461 -499.4724399162767 0 0 0 0 -18.106698043415971 -98.769377369945687 0 -98.769377369945687 -457.7784642175551 0 0 0 0 39.81489354021636 117.09968085608261 0 117.09968085608261 201.2352585366416 0 0 0 0 -17.599279829162452 83.40769502186231 0 83.40769502186231 -435.77031871180156 0 0 0 0 -1.6814604178553301 1.9582896686347571 0 1.9582896686347571 -2.3009246315344241 0 0 0 0 -1.4596932044176556 0.40030070951967101 0 0.40030070951967101 -0.40383816943280948 0 0 0 0 -0.40694065789345846 -0.41960934975279507 0 -0.41960934975279507 -0.0084743003741633571 0 0 0 0 -23.222922049578301 -17.518180592698059 0 -17.518180592698059 -1.3809491642618923 0 0 0 0 6.3377480965750692 -12.151728529458524 0 -12.151728529458524 -33.520232158995668 0 0 0 0 -24.839429843991439 32.947222223030934 0 32.947222223030934 8.068128412860915 0 0 0 0 -9.9515865913938342 -35.047233348026339 0 -35.047233348026339 -14.005499338101458 0 0 0 0 -14.268967155061537 -82.295104240774606 0 -82.295104240774606 -446.27434564623309 0 0 0 0 18.929594040982408 -35.641006100317099 0 -35.641006100317099 -422.2771474580976 0 0 0 0 -4.2127919346926266 0.90018152170703747 0 0.90018152170703747 -0.38287478750953574 0 0 0 0 52.717282612594822 -52.736773470488629 0 -52.736773470488629 -500.20832953013132 0 0 0 0 69.218028955576685 -21.785560571669407 0 -21.785560571669407 -473.21256185038362 0 0 0 0 64.598258926731219 -26.205242091871128 0 -26.205242091871128 -316.76411495222044 0 0 0 0 -1.6159523240877984 0.44125591436963163 0 0.44125591436963163 -2.4964967695522962 0 0 0 0 -93.914208617016712 185.57282738756146 0 185.57282738756146 -322.66903892907681 0 0 0 0 36.551702728672034 97.851105173534734 0 97.851105173534734 -499.08668305228264 0 0 0 0 0.51387947183178539 1.026025112545824 0 1.026025112545824 -13.23021675336463 0 0 0 0 -1.6256096146623236 0.79428469096990284 0 0.79428469096990284 0.91222931864876955 0 0 0 0 -8.8929339770971669 6.1025558513164739 0 6.1025558513164739 -2.9588518478883534 0 0 0 0 -91.197469418689309 108.19786248713683 0 108.19786248713683 -170.91717144713471 0 0 0 0 -6.4579132975309221 7.4252648325214068 0 7.4252648325214068 14.27573676965352 0 0 0 0 -1.2871350821061558 0.071569027062572843 0 0.071569027062572843 -0.43170919452111733 0 0 0 0 -5.5203853458684957 1.8240996878257234 0 1.8240996878257234 -1.226903646167179 0 0 0 0 1.3503162981423884 21.002421798869364 0 21.002421798869364 -7.691800847524064 0 0 0 0 0.59237896716922478 10.285664284884433 0 10.285664284884433 -15.960442784374663 0 0 0 0 -0.33384941567047122 17.075389628883158 0 17.075389628883158 -1.4753728626533302 0 0 0 0 -25.382546071504294 -0.044630063410750154 0 -0.044630063410750154 -6.176629304669973 0 0 0 0 -1.0925067322531885 0.29693648784606097 0 0.29693648784606097 -0.20643804135332999 0 0 0 0 32.125339039749065 -31.436366005349953 0 -31.436366005349953 8.9677743195861694 0 0 0 0 6.9279760613337658 1.6973935402731968 0 1.6973935402731968 -4.6910769940450336 0 0 0 0 0.1645235146993953 -0.05325661697997397 0 -0.05325661697997397 -0.60968566580211281 0 0 0 0 89.741176249084447 24.252895492486005 0 24.252895492486005 -305.82220422368528 0 0 0 0 -67.635544201368248 -101.09569578803928 0 -101.09569578803928 -127.62385751612874 0 0 0 0 -34.257684996481203 -69.628896211403571 0 -69.628896211403571 -92.844708229817797 0 0 0 0 -43.916350970933991 -19.240007829713022 0 -19.240007829713022 -12.297205829045652 0 0 0 0 -27.650267387595022 34.100428495500864 0 34.100428495500864 -87.934431287342022 0 0 0 0 -108.05877438608013 72.385623061157389 0 72.385623061157389 0.42247902323288145 0 0 0 0 -83.5519379996731 -1.8620476992573458 0 -1.8620476992573458 30.204723219338121 0 0 0 0 -21.114100018179215 -43.805815359198505 0 -43.805815359198505 33.540755665887446 0 0 0 0 -5.85052051385901 -24.96791381826597 0 -24.96791381826597 34.663848864090653 0 0 0 0 -23.345100964564153 24.934060380405526 0 24.934060380405526 9.8459704115261388 0 0 0 0 -86.158353820979769 56.841590798412433 0 56.841590798412433 6.2305058633514818 0 0 0 0 -14.669422050587855 2.3740915548341945 0 2.3740915548341945 35.962322127761581 0 0 0 0 -26.787747153430928 13.904075114774969 0 13.904075114774969 41.548131569608813 0 0 0 0 -100.22759154956138 -119.796980707618 0 -119.796980707618 -208.60467674452809 0 0 0 0 -8.011985905262339 5.4046593387665993 0 5.4046593387665993 -0.33421330439221986 0 0 0 0 7.1210685015647996 34.567246262042318 0 34.567246262042318 -5.9278758650561372 0 0 0 0 -3.3065290383774366 1.5483012901672217 0 1.5483012901672217 -0.85130185777294232 0 0 0 0 -1.0011966246529482 -8.0091439861485014 0 -8.0091439861485014 25.427774566426706 0 0 0 0 -0.53172261168670776 -1.4237547795499843 0 -1.4237547795499843 2.1924381742854431 0 0 0 0 -35.173595661058926 -7.5588945941929637 0 -7.5588945941929637 59.423779818805087 0 0 0 0 -4.7419963437765897 3.1426492215902901 0 3.1426492215902901 0.13759442549984485 0 0 0 0 25.691457765112542 -156.49066835882095 0 -156.49066835882095 -499.10793065767689 0 0 0 0 -162.9200410844191 -201.9373308523339 0 -201.9373308523339 -243.33586810116788 0 0 0 0 43.678339690193731 -49.873592561430996 0 -49.873592561430996 -319.0888460237494 0 0 0 0 49.939282969094457 -26.00926242241426 0 -26.00926242241426 -500.09456002693776 0 0 0 0 9.9687241164234557 25.598211241657111 0 25.598211241657111 -499.87235289287531 0 0 0 0 25.799788610401276 -10.706077378331361 0 -10.706077378331361 -417.76496543771304 0 0 0 0 -7.0895167674920554 6.0348554494894833 0 6.0348554494894833 0.3393720229364886 0 0 0 0 -8.6094614618264131 23.742476930376142 0 23.742476930376142 -3.8419737111734094 0 0 0 0 17.061235768746894 64.021261519360337 0 64.021261519360337 -500.12197369851458 0 0 0 0 13.709297523103064 48.144095279205601 0 48.144095279205601 -443.13567991473326 0 0 0 0 -4.5842466671160764 10.472849212590518 0 10.472849212590518 -27.431115810319199 0 0 0 0 -5.7282603105052701 7.3263791701598944 0 7.3263791701598944 0.33016294712019578 0 0 0 0 -2.6898013405041183 13.845687738097467 0 13.845687738097467 -33.614676958862447 0 0 0 0 -10.27179651427673 14.365669391430174 0 14.365669391430174 -15.435994109415333 0 0 0 0 -20.539531012337648 31.510954142619767 0 31.510954142619767 -53.4262172129296 0 0 0 0 -1.566761898384911 -7.1969701668560475 0 -7.1969701668560475 -14.100834838169249 0 0 0 0 -0.95459010387617127 42.264710569715362 0 42.264710569715362 -88.150451741696259 0 0 0 0 -0.39423160527926981 -0.31551334506289086 0 -0.31551334506289086 0.27280867173593393 0 0 0 0 -1.1274688209668113 -6.594530969301502 0 -6.594530969301502 -54.650541558152781 0 0 0 0 1.4735863766688739 -0.03370671880423437 0 -0.03370671880423437 0.014098450991601563 0 0 0 0 -33.169994305884984 13.807100917545881 0 13.807100917545881 -13.215198727960342 0 0 0 0 17.317479972360843 5.390209594525686 0 5.390209594525686 -70.414618350495402 0 0 0 0 14.772755357989354 -1.5755533195449516 0 -1.5755533195449516 -81.556082145430537 0 0 0 0 4.3546504416644893 -17.315401587797282 0 -17.315401587797282 -33.939315873171836 0 0 0 0 9.703400545565728 41.549182212763753 0 41.549182212763753 -30.046789658572152 0 0 0 0 -7.3369531420880776 36.493147318542754 0 36.493147318542754 -31.542825519142752 0 0 0 0 -3.7151256607141931 7.4614753627026857 0 7.4614753627026857 -35.396412362721094 0 0 0 0 9.2471483785679993 37.821206040663355 0 37.821206040663355 -59.155754658870819 0 0 0 0 11.925056436736668 10.904248102434849 0 10.904248102434849 9.3982255150908713 0 0 0 0 0.56376824120242652 0.2641264891410815 0 0.2641264891410815 -0.27359965555676968 0 0 0 0 18.246964171034335 7.6599849368393507 0 7.6599849368393507 -101.1619445462502 0 0 0 0 56.247761163655241 23.054110529894842 0 23.054110529894842 -202.3321258148444 0 0 0 0 -33.342588689078639 53.042377987431564 0 53.042377987431564 -26.638255482108434 0 0 0 0 66.166073571625475 -0.9561517589900177 0 -0.9561517589900177 -173.88520147458689 0 0 0 0 75.336698349603012 -69.819009875675874 0 -69.819009875675874 -268.4683992455474 0 0 0 0 71.818047674823731 -121.83571309678985 0 -121.83571309678985 -168.47539964559724 0 0 0 0 75.193845733312173 -70.381186220056804 0 -70.381186220056804 -189.99005271658211 0 0 0 0 49.357411677972323 -83.609629167560115 0 -83.609629167560115 -196.48777919367444 0 0 0 0 53.945527392564117 28.670917677208024 0 28.670917677208024 -93.778969265722026 0 0 0 0 47.342737031026672 -59.781070959381395 0 -59.781070959381395 -192.72884687501585 0 0 0 0 19.184909121230703 -14.044656105504373 0 -14.044656105504373 -109.35165365218336 0 0 0 0 -16.231040217078316 -9.8033567518773452 0 -9.8033567518773452 -12.72411421105005 0 0 0 0 24.708659179950246 -43.675873188237802 0 -43.675873188237802 -93.151296722768961 0 0 0 0 18.032054599828598 -27.782486404442807 0 -27.782486404442807 -59.356190952878023 0 0 0 0 -85.708436660382858 -57.655600905457504 0 -57.655600905457504 -45.611095998538133 0 0 0 0 -23.525506205363499 15.010671256327441 0 15.010671256327441 -4.111676748066202 0 0 0 0 3.5002473863897388 -0.46904437433203938 0 -0.46904437433203938 -2.9020273423529175 0 0 0 0 -181.81523750081863 -160.22676219425716 0 -160.22676219425716 -73.221619838019478 0 0 0 0 -17.014576795280988 6.9734354883273681 0 6.9734354883273681 -50.63610122039745 0 0 0 0 -9.7550367140593721 -134.72071978328395 0 -134.72071978328395 -393.75777157691743 0 0 0 0 14.091874257359905 -73.908238905415487 0 -73.908238905415487 -162.42409751838932 0 0 0 0 -24.944124817224292 -101.47977589592836 0 -101.47977589592836 -161.99520312480993 0 0 0 0 49.54037844767074 -79.223297570127073 0 -79.223297570127073 -274.60750400902225 0 0 0 0 42.176584146722917 -42.876437854436517 0 -42.876437854436517 -216.65089346527054 0 0 0 0 24.027882439484529 -15.773370902609258 0 -15.773370902609258 -253.40865064379039 0 0 0 0 -111.27122396769664 62.853977715199335 0 62.853977715199335 -416.50765032521855 0 0 0 0 13.940800460536877 -45.084081989641675 0 -45.084081989641675 -337.3547827095847 0 0 0 0 -406.36839307370326 -53.149044569118189 0 -53.149044569118189 -320.8087016507377 0 0 0 0 -89.400859941279919 103.29047253301056 0 103.29047253301056 -127.16522348885519 0 0 0 0 -69.583419692593395 17.466175605648353 0 17.466175605648353 -355.83815668055172 0 0 0 0 -71.290182770374258 123.69059952284186 0 123.69059952284186 -269.46259492826891 0 0 0 0 -2.9882558198925153 49.05568305435088 0 49.05568305435088 -197.82184810610192 0 0 0 0 -32.996544311727803 33.473309965138981 0 33.473309965138981 -126.04098292297317 0 0 0 0 21.134722712849339 10.903026118753793 0 10.903026118753793 -89.03496154988261 0 0 0 0 22.087404441462922 -0.073165267711488013 0 -0.073165267711488013 -136.31138018425486 0 0 0 0 56.65700925287274 -43.603599749485284 0 -43.603599749485284 -147.68715763315504 0 0 0 0 57.167177141321872 -40.283339516090564 0 -40.283339516090564 -134.44261302792847 0 0 0 0 48.469739184071386 -50.615279023722451 0 -50.615279023722451 -121.89986126802182 0 0 0 0 47.513642634037751 -55.170498919767738 0 -55.170498919767738 -137.72216348336133 0 0 0 0 50.89284804104318 -39.133587399849375 0 -39.133587399849375 -223.59082698228355 0 0 0 0 171.6729229004593 7.1629577936074043 0 7.1629577936074043 -18.415926878483319 0 0 0 0 141.12378503547006 -57.295293113991931 0 -57.295293113991931 -149.07119291283641 0 0 0 0 -1.5897625719785555 4.6943454694570015 0 4.6943454694570015 -10.407705209056047 0 0 0 0 3.233874270114824 25.153922072263413 0 25.153922072263413 10.491923521577974 0 0 0 0 -6.1273652686379059 12.091996344799782 0 12.091996344799782 19.514259728478009 0 0 0 0 -1.2072229008954318 0.55120318484700825 0 0.55120318484700825 0.11957689649577796 0 0 0 0 -55.471564934403659 156.75499736043844 0 156.75499736043844 -184.36034771325467 0 0 0 0 -13.482937885242336 -24.625594137556647 0 -24.625594137556647 -370.96216790291038 0 0 0 0 8.0433927791718816 -16.150458384950412 0 -16.150458384950412 -433.80404871295724 0 0 0 0 51.095131038419026 -105.1172273502325 0 -105.1172273502325 67.285936765145891 0 0 0 0 -0.44149874979567327 -0.19673904471598247 0 -0.19673904471598247 -2.0279330153660489 0 0 0 0 1.8989267825129446 -128.07692469823104 0 -128.07692469823104 -297.41477434320279 0 0 0 0 -0.075414745866750788 -0.10152448194262176 0 -0.10152448194262176 -1.7366762561421756 0 0 0 0 -110.71252962213259 -200.23182273024634 0 -200.23182273024634 -171.86386591400458 0 0 0 0 -96.99714455231242 -211.95190097569582 0 -211.95190097569582 -281.18301630355273 0 0 0 0 -367.86291588022965 -125.50767552574916 0 -125.50767552574916 -359.77735136827346 0 0 0 0 -148.57904525117419 -44.59351219607845 0 -44.59351219607845 -388.14582855946367 0 0 0 0 -64.296634378321016 -172.61393484421461 0 -172.61393484421461 -280.26060584024788 0 0 0 0 -130.01723665121062 96.432878921585143 0 96.432878921585143 -201.74168600994204 0 0 0 0 -146.59476331609312 22.85071528578078 0 22.85071528578078 -521.99275436464961 0 0 0 0 8.4762945841041528 -170.47283954105802 0 -170.47283954105802 -32.586322843026835 0 0 0 0 -11.513165099192349 69.314169342963282 0 69.314169342963282 21.435900915910281 0 0 0 0 -16.034276716615381 38.342314827394866 0 38.342314827394866 -190.71745547189033 0 0 0 0 -257.3183482162982 214.65767722741788 0 214.65767722741788 -51.445158105273237 0 0 0 0 -228.47782423620311 154.72108687703357 0 154.72108687703357 -2.4383601668172901 0 0 0 0 -0.44093989871897388 -0.6141521864962316 0 -0.6141521864962316 -2.3823657267000726 0 0 0 0 -314.24993622679585 269.85667075538407 0 269.85667075538407 -245.69270234334755 0 0 0 0 -231.06783719912542 141.36893659500583 0 141.36893659500583 -68.871441392250858 0 0 0 0 15.908770684254279 -17.9064719162659 0 -17.9064719162659 -32.386920495639515 0 0 0 0 -0.27714103489454034 -1.1610850214839774 0 -1.1610850214839774 -6.7088618685463599 0 0 0 0 -70.191474605083386 82.728575323590675 0 82.728575323590675 -99.506840223212137 0 0 0 0 -159.91224529588942 218.35905657534568 0 218.35905657534568 250.6795728885977 0 0 0 0 -110.73137731798249 -370.17200618184984 0 -370.17200618184984 32.595891806393865 0 0 0 0 -131.09936647811242 186.06284178412784 0 186.06284178412784 -264.02956462541636 0 0 0 0 -2.5910105689519121 1.1046684827418773 0 1.1046684827418773 -2.8263624050314387 0 0 0 0 -235.60211265370936 35.816031893336685 0 35.816031893336685 326.85453481508557 0 0 0 0 -609.53349434348377 468.36326194418484 0 468.36326194418484 123.04695502016912 0 0 0 0 -11.106591203493085 -60.820046818073934 0 -60.820046818073934 -111.18602324803942 0 0 0 0 31.835738230243209 8.7488499554715418 0 8.7488499554715418 -111.26326760526399 0 0 0 0 2.3133597014825398 -11.849294066439597 0 -11.849294066439597 -88.896625925502121 0 0 0 0 3.0986804443589904 14.769500785750779 0 14.769500785750779 -7.3390670928256441 0 0 0 0 -21.112931035173752 3.2278728389555909 0 3.2278728389555909 35.814506774078836 0 0 0 0 37.301959233012823 23.100653587480309 0 23.100653587480309 -25.807001913818567 0 0 0 0 -1.7202987301835082 4.6973375230684313 0 4.6973375230684313 -10.037834932467083 0 0 0 0 318.47933974376986 180.29574607750666 0 180.29574607750666 -121.98912713658092 0 0 0 0 33.969996052643857 57.485952064329467 0 57.485952064329467 -6.6317671223698653 0 0 0 0 -7.0921046783799895 27.482387913078355 0 27.482387913078355 -15.640179919013008 0 0 0 0 7.6494161940564993 8.6868171568880825 0 8.6868171568880825 7.1768229643043924 0 0 0 0 14.58964997319814 5.5192533324254782 0 5.5192533324254782 -61.483000419428208 0 0 0 0 17.127418761835557 27.387770546402407 0 27.387770546402407 -73.510937242894215 0 0 0 0 -1.5294867110686567 27.453340511871716 0 27.453340511871716 -51.640140966613217 0 0 0 0 5.8384801195415212 69.764380414430889 0 69.764380414430889 -111.33693713240882 0 0 0 0 11.872333788851284 41.623056728897609 0 41.623056728897609 -107.66304795772794 0 0 0 0 16.282977936295723 59.048564479307515 0 59.048564479307515 -100.95504122022021 0 0 0 0 30.46813013562393 76.328262778227554 0 76.328262778227554 -141.99466728422522 0 0 0 0 54.640809014550726 59.698501411409779 0 59.698501411409779 -143.20632418978255 0 0 0 0 32.103673964939148 11.775388631713213 0 11.775388631713213 -149.65304055424986 0 0 0 0 59.469730990070694 60.55959088614145 0 60.55959088614145 -265.4434944859222 0 0 0 0 57.309899885411873 -33.470954152989805 0 -33.470954152989805 -358.57051289702758 0 0 0 0 60.114417386055344 -7.7289673135092016 0 -7.7289673135092016 -162.02924521851583 0 0 0 0 64.025808289031133 126.77373190610172 0 126.77373190610172 -304.03152694618802 0 0 0 0 57.293785886959128 129.82350172707095 0 129.82350172707095 -162.69560247857407 0 0 0 0 31.502715943579652 111.62961710122272 0 111.62961710122272 -153.78130715374573 0 0 0 0 22.911584383870924 109.39212225819779 0 109.39212225819779 -98.468238059426767 0 0 0 0 20.458885386701184 136.45890680674637 0 136.45890680674637 -131.12232660672271 0 0 0 0 21.622012362642153 129.49377271382855 0 129.49377271382855 -92.306061574838168 0 0 0 0 20.418494166709621 93.606466654541236 0 93.606466654541236 -63.232945294883393 0 0 0 0 -0.1027992433873326 44.52421342390096 0 44.52421342390096 102.06952957448266 0 0 0 0 -7.0570754511444935 102.12802110332427 0 102.12802110332427 -28.412505477859668 0 0 0 0 21.715143884955289 108.47878057888741 0 108.47878057888741 -99.046145572173373 0 0 0 0 -6.3113385395059636 71.254471011726764 0 71.254471011726764 -49.377228294817087 0 0 0 0 -19.988131988907494 67.99474137088464 0 67.99474137088464 -111.45692947281213 0 0 0 0 -10.118516626786397 52.903263309682188 0 52.903263309682188 -122.3762562514878 0 0 0 0 6.4369425899826602 92.310038240844278 0 92.310038240844278 -102.634852852226 0 0 0 0 14.994943339756212 93.569267046133518 0 93.569267046133518 -127.73971150596117 0 0 0 0 90.826734045988644 -105.47425491699551 0 -105.47425491699551 -687.31313550180312 0 0 0 0 2.4775989410071055 1.5420919952601579 0 1.5420919952601579 -16.768491885272887 0 0 0 0 17.597568534288598 -14.708563887200114 0 -14.708563887200114 -30.572511655296694 0 0 0 0 2.0179365396550111 -1.2558452531950479 0 -1.2558452531950479 -0.077284945212682032 0 0 0 0 -1.696112953215098 2.6332457898138308 0 2.6332457898138308 -3.9928487496559004 0 0 0 0 -22.098362200737711 -150.49395153760793 0 -150.49395153760793 -414.46360308504063 0 0 0 0 -131.33864091566176 568.91648452800837 0 568.91648452800837 -26.62059067617065 0 0 0 0 -147.87305983023521 10.736377696588534 0 10.736377696588534 299.21403049096443 0 0 0 0 135.31503355620711 235.07700205900665 0 235.07700205900665 -710.12813286933033 0 0 0 0 78.099577051951229 183.17793688618463 0 183.17793688618463 -152.58615625920538 0 0 0 0 101.3569352396585 -95.424299931399673 0 -95.424299931399673 70.787278321888607 0 0 0 0 -108.58052704048298 41.842071891810519 0 41.842071891810519 422.31330363629695 0 0 0 0 -68.716873528230806 152.1327397682735 0 152.1327397682735 -32.511319712735713 0 0 0 0 -15.324788715673094 -0.26953135953522178 0 -0.26953135953522178 -19.96617598726607 0 0 0 0 -15.137700455276899 2.8907715189361625 0 2.8907715189361625 -9.9938681574403745 0 0 0 0 0.25536855868676867 6.1840051199399113 0 6.1840051199399113 -50.199608400508168 0 0 0 0 7.1767751194597622 20.710641169916926 0 20.710641169916926 -23.348300133759494 0 0 0 0 -4.3315907173995924 8.2639366761408315 0 8.2639366761408315 0.31956900672810967 0 0 0 0 1.565146652804458 6.5159032977924198 0 6.5159032977924198 -31.027476277894721 0 0 0 0 -1.413341650147486 0.6811514762640245 0 0.6811514762640245 -3.8319952856588859 0 0 0 0 5.7617724353285666 21.239552386634386 0 21.239552386634386 -45.193604073890469 0 0 0 0 87.174756551338405 -40.585054238350608 0 -40.585054238350608 -0.99830373950317153 0 0 0 0 11.439898768477917 10.783116193460955 0 10.783116193460955 -38.489625977619198 0 0 0 0 1.8139090837068701 -0.4786247138191877 0 -0.4786247138191877 -20.67764727068597 0 0 0 0 -23.044108275808412 4.8996703258826528 0 4.8996703258826528 -8.3766830715176184 0 0 0 0 79.921650695805127 -38.912209414993413 0 -38.912209414993413 40.36836946204312 0 0 0 0 0.82223503443906054 12.24777525666741 0 12.24777525666741 -13.3437478074311 0 0 0 0 101.18737133753046 -58.40520894135625 0 -58.40520894135625 21.394325059813127 0 0 0 0 0.22379310590251356 1.1865145127218657 0 1.1865145127218657 -5.3579817336798357 0 0 0 0 -3.0751140985964689 5.3303282552329012 0 5.3303282552329012 -9.8839805591146668 0 0 0 0 -0.29585478109129326 3.9565560911937609 0 3.9565560911937609 -10.717477350467192 0 0 0 0 -1.7332373218544952 4.7851109446531206 0 4.7851109446531206 -7.2518352890732301 0 0 0 0 -0.2643303121771009 3.9004747417812737 0 3.9004747417812737 -12.191913636754217 0 0 0 0 -73.897800813928839 248.85984604796113 0 248.85984604796113 -499.21752462271547 0 0 0 0 -28.747957056334759 78.067510510088141 0 78.067510510088141 -279.03457916089621 0 0 0 0 -1.3540612798757514 1.0891225937312803 0 1.0891225937312803 -1.2830821333202858 0 0 0 0 -14.614750201501908 91.961391565109579 0 91.961391565109579 -333.35808782093318 0 0 0 0 -31.331723778970126 47.495622176350707 0 47.495622176350707 -101.7252282482782 0 0 0 0 -0.086202734041544105 -5.2311248259562717 0 -5.2311248259562717 -218.97859369396519 0 0 0 0 29.207818956177221 75.936511828796029 0 75.936511828796029 -61.950601865007229 0 0 0 0 39.19515426552104 19.361453670557239 0 19.361453670557239 5.8698251018352039 0 0 0 0 53.016481374110796 14.872275903640002 0 14.872275903640002 -24.949143516338154 0 0 0 0 133.5564582283555 -16.098416970367907 0 -16.098416970367907 -34.76027242062014 0 0 0 0 43.734886698862525 37.682266067240789 0 37.682266067240789 14.195885393691697 0 0 0 0 -1.6328829768683759 -8.6403794554103115 0 -8.6403794554103115 -31.634558687229969 0 0 0 0 -4.1662552559830566 4.7615087572557968 0 4.7615087572557968 -497.42527965761292 0 0 0 0 -11.835462120353041 -147.13445841819885 0 -147.13445841819885 -56.513209503917096 0 0 0 0 74.584577141104759 -58.184729788521508 0 -58.184729788521508 29.260595040113003 0 0 0 0 -0.82822690416346179 0.05121628167935377 0 0.05121628167935377 -2.4222034529265049 0 0 0 0 66.707918394696833 -68.724068350377138 0 -68.724068350377138 -498.91753578041732 0 0 0 0 -9.6417470997024974 -172.86876187203501 0 -172.86876187203501 -192.07815638541888 0 0 0 0 33.808551783261287 -2.434262594689244 0 -2.434262594689244 -260.26989779041651 0 0 0 0 -38.164168459135865 14.903712987689516 0 14.903712987689516 -162.26335951950387 0 0 0 0 -8.9244457731947513 39.572545032367543 0 39.572545032367543 -266.35799743389282 0 0 0 0 -10.22836104384924 39.299530576923587 0 39.299530576923587 -174.73994738214969 0 0 0 0 -46.291462094556266 114.17041972193874 0 114.17041972193874 -303.64787873895762 0 0 0 0 16.197986326732977 130.42947813448882 0 130.42947813448882 -500.18440628003191 0 0 0 0 28.111021181268743 17.157403723931679 0 17.157403723931679 -296.07267679270444 0 0 0 0 -29.03328321468441 140.71248384897331 0 140.71248384897331 -246.14458961334367 0 0 0 0 -84.160113576980805 338.5840177980258 0 338.5840177980258 -499.16436326681696 0 0 0 0 -72.759189221630734 214.22562334274744 0 214.22562334274744 -363.60706726617855 0 0 0 0 -49.5100986277792 55.458304266526739 0 55.458304266526739 -101.32971099840324 0 0 0 0 -234.6966409572031 162.73183291265218 0 162.73183291265218 -77.413317397527862 0 0 0 0 -132.47816996476124 119.72695665168794 0 119.72695665168794 -118.85461931624104 0 0 0 0 -0.066221655973516647 0.047929620330393163 0 0.047929620330393163 -2.9491985795134141 0 0 0 0 -99.185594632969597 119.50977244930118 0 119.50977244930118 -234.93187665645189 0 0 0 0 -74.118418511491697 74.075312365407171 0 74.075312365407171 -153.33452824641699 0 0 0 0 -61.775287703633225 56.263816605242937 0 56.263816605242937 -145.13358208335808 0 0 0 0 -112.54330059802022 66.694247707036538 0 66.694247707036538 -18.634024144755131 0 0 0 0 -92.392904893983541 95.111753390533067 0 95.111753390533067 -83.419797570944866 0 0 0 0 -0.29289423462222908 0.11755496417805311 0 0.11755496417805311 -1.3049355896659183 0 0 0 0 -32.103671234353726 -15.271519313742374 0 -15.271519313742374 -10.432992867725346 0 0 0 0 -39.942214651960398 7.675652921295864 0 7.675652921295864 35.307421200739554 0 0 0 0 -0.37684349045715715 -0.13439562558148044 0 -0.13439562558148044 -0.74611577491269876 0 0 0 0 91.530764712328164 -27.522159652681921 0 -27.522159652681921 -13.068950001625581 0 0 0 0 0.073750950848134433 -0.0056561840883682102 0 -0.0056561840883682102 -0.46274430543405742 0 0 0 0 -57.647912280944183 -7.5706369239901505 0 -7.5706369239901505 -10.706399117018691 0 0 0 0 -102.03961024034257 21.10180756961563 0 21.10180756961563 15.864819398972031 0 0 0 0 -65.293631132226267 38.245621217646885 0 38.245621217646885 -60.123662547059212 0 0 0 0 -75.850758157398786 45.496914568146167 0 45.496914568146167 -42.950738481194662 0 0 0 0 -25.410688869581552 59.783104318554706 0 59.783104318554706 -102.39335044371273 0 0 0 0 -4.1332176724129184 35.21221975198705 0 35.21221975198705 -70.456137881782297 0 0 0 0 -30.868429893503983 57.350157424657482 0 57.350157424657482 -78.113167852340098 0 0 0 0 -47.026582300389201 54.478369027073086 0 54.478369027073086 -102.77712060656495 0 0 0 0 -21.007259723613032 77.569290782983217 0 77.569290782983217 -132.59386914530342 0 0 0 0 -54.927173960242428 92.744802612675358 0 92.744802612675358 -175.57421188559155 0 0 0 0 -157.79052500593752 -17.74520658160327 0 -17.74520658160327 45.547006306565891 0 0 0 0 -9.4331934419853631 4.5223141055420255 0 4.5223141055420255 -0.37328825464249449 0 0 0 0 -18.510564033179939 -28.77327832179617 0 -28.77327832179617 -196.38790399754635 0 0 0 0 67.449387763794078 -69.850042989160556 0 -69.850042989160556 -500.02001851421119 0 0 0 0 -1.7508499237445534 -127.7746539023351 0 -127.7746539023351 -300.5742506472393 0 0 0 0 -15.978997677861599 -53.76848831952816 0 -53.76848831952816 -284.59269873121502 0 0 0 0 -3.7783058238084077 2.9571494139205488 0 2.9571494139205488 -2.338827014559488 0 0 0 0 -3.658515818334763 0.68877309642857654 0 0.68877309642857654 -2.5130591835509222 0 0 0 0 -2.8293414470969083 1.3781330983965745 0 1.3781330983965745 -3.5292366553308057 0 0 0 0 -1.5076843608772568 1.3220929613776242 0 1.3220929613776242 -2.4270207380016746 0 0 0 0 -51.333250173856662 -231.98998413366598 0 -231.98998413366598 -499.28148557787881 0 0 0 0 -2.4571751977819076 1.0832891570958054 0 1.0832891570958054 -3.7487368848378537 0 0 0 0 -275.1686084538162 -222.77220603821388 0 -222.77220603821388 -184.65695781497925 0 0 0 0 -136.26791813180211 145.09978069353292 0 145.09978069353292 -156.94509778773704 0 0 0 0 -601.58005042945229 313.34907729886527 0 313.34907729886527 -13.384872136519334 0 0 0 0 -2.2280795985375903 0.67179925974892285 0 0.67179925974892285 -3.4292863112723353 0 0 0 0 -1.2546922463334109 0.59357143921444866 0 0.59357143921444866 -0.84359816592749937 0 0 0 0 -1.0933860040063241 0.46173395115829408 0 0.46173395115829408 -498.27661422954407 0 0 0 0 -1.0280054878947511 0.094960391924894694 0 0.094960391924894694 -0.78472633310792794 0 0 0 0 -0.23583971693326095 0.1833415922714785 0 0.1833415922714785 -2.5354746295427866 0 0 0 0 -2.2358070202608928 1.3767995429950588 0 1.3767995429950588 -3.6767607848432817 0 0 0 0 -2.4833709665670085 1.0875150350352669 0 1.0875150350352669 -3.9550254611940545 0 0 0 0 60.814251126815407 -8.7778555318932376 0 -8.7778555318932376 -26.948410229408637 0 0 0 0 -2.2969190121146412 0.31230670032887975 0 0.31230670032887975 -0.32760966688217052 0 0 0 0 0.24403868896886993 0.39030560854930307 0 0.39030560854930307 0.40258399085863417 0 0 0 0 -16.119478183390697 1.2940350076710274 0 1.2940350076710274 5.8249782933298775 0 0 0 0 -15.940328396810401 -20.998193229341268 0 -20.998193229341268 -8.525867932786241 0 0 0 0 -2.6771800281219384 -3.6997198744161324 0 -3.6997198744161324 -2.4017953645025614 0 0 0 0 -14.215072120977538 -9.1438402250516901 0 -9.1438402250516901 24.380957565742392 0 0 0 0 -13.765057753681049 -19.329418792793604 0 -19.329418792793604 23.24956403211138 0 0 0 0 -3.5826384123038548 0.70611820086404897 0 0.70611820086404897 -0.65452104957788459 0 0 0 0 -26.37283496997884 -15.54435731709691 0 -15.54435731709691 35.67145732165136 0 0 0 0 -7.8402028869123228 49.414981747006181 0 49.414981747006181 64.036834198905126 0 0 0 0 -36.360099953325516 -20.413470514181881 0 -20.413470514181881 28.358958535277395 0 0 0 0 -14.342118401655625 -14.690814706610126 0 -14.690814706610126 28.999734965624157 0 0 0 0 -78.349352190975878 -36.610850963411849 0 -36.610850963411849 14.115886759913337 0 0 0 0 -33.179842336088313 -20.981704113714841 0 -20.981704113714841 19.284146815196436 0 0 0 0 -119.32349162598848 -14.611166001455786 0 -14.611166001455786 57.773322563802139 0 0 0 0 -113.26678378896622 -1.7128082381609602 0 -1.7128082381609602 48.709570989933582 0 0 0 0 -74.772731364396805 -10.506731312517104 0 -10.506731312517104 45.668674207921867 0 0 0 0 -97.107535548327178 -26.251214680846715 0 -26.251214680846715 49.938059464901926 0 0 0 0 16.990706563993172 12.337927749521896 0 12.337927749521896 -7.221281555664973 0 0 0 0 12.758170426797506 8.7176333054125053 0 8.7176333054125053 9.4642813490690969 0 0 0 0 -129.97284153135661 13.527772515531979 0 13.527772515531979 136.41727513753722 0 0 0 0 -0.20805163769523416 0.67265356513475094 0 0.67265356513475094 -1.2746410342294681 0 0 0 0 -86.136653695754376 20.709119722310788 0 20.709119722310788 54.194170314342955 0 0 0 0 -2.2651681782026252 -0.74891256408544216 0 -0.74891256408544216 2.5615588492218198 0 0 0 0 -111.78332545172907 195.08688873145002 0 195.08688873145002 22.121518445474976 0 0 0 0 21.159701679721366 -4.1217318564267771 0 -4.1217318564267771 28.727413601338412 0 0 0 0 34.866247302947158 -16.806215082740891 0 -16.806215082740891 39.038926199048547 0 0 0 0 -108.30700071968386 58.931751710068738 0 58.931751710068738 102.54119344807077 0 0 0 0 -68.374230164444043 72.842016206089966 0 72.842016206089966 71.359936813307286 0 0 0 0 -31.454251034676076 9.3567192519767559 0 9.3567192519767559 -0.24442475326850399 0 0 0 0 -34.438719075933022 11.174242272159745 0 11.174242272159745 -149.8953119438338 0 0 0 0 -0.24787981353618671 0.94410803368953289 0 0.94410803368953289 -3.2245038343672725 0 0 0 0 -159.85253067076155 -121.88522755330905 0 -121.88522755330905 61.25680103647619 0 0 0 0 -88.707481466338322 51.553262394486524 0 51.553262394486524 56.385235410637051 0 0 0 0 -1.2596031602549509 -0.89983644633380422 0 -0.89983644633380422 -0.43427495757206014 0 0 0 0 -11.465433665899809 -22.484723162860632 0 -22.484723162860632 -35.022800290108307 0 0 0 0 -30.758803077324501 -53.713133304474468 0 -53.713133304474468 -73.950630058983506 0 0 0 0 -128.07813660285865 31.483828900123399 0 31.483828900123399 76.596051482043094 0 0 0 0 8.0203792303834689 -37.263874885432756 0 -37.263874885432756 -98.998743348166954 0 0 0 0 -5.9305063328369556 -0.71520526725328182 0 -0.71520526725328182 0.86637331914380411 0 0 0 0 -7.1710961858166229 -2.1059970646720103 0 -2.1059970646720103 2.3996723130433111 0 0 0 0 -0.98283297299636585 0.7914700374212007 0 0.7914700374212007 1.5879118458736592 0 0 0 0 -32.561331781260947 -58.609426598170558 0 -58.609426598170558 50.540282290240157 0 0 0 0 -3.1586917637407019 -1.8477228015553857 0 -1.8477228015553857 -1.0551028193674452 0 0 0 0 72.889914246087983 -20.954242378303888 0 -20.954242378303888 -55.597003498880895 0 0 0 0 -17.604357498637114 30.428280712319633 0 30.428280712319633 -23.91990733398552 0 0 0 0 77.813471983505224 75.390492167628622 0 75.390492167628622 -354.34396558623234 0 0 0 0 17.208399120510421 -16.514731488581901 0 -16.514731488581901 -286.47820715054149 0 0 0 0 73.590623260991833 89.569078550354789 0 89.569078550354789 -328.27114626863886 0 0 0 0 -57.497821305462594 -4.472169595771561 0 -4.472169595771561 -91.590449543892191 0 0 0 0 -22.931944398914993 -39.936521860525659 0 -39.936521860525659 -459.93939911867983 0 0 0 0 52.486942147131685 132.02038486664151 0 132.02038486664151 -368.2496925599005 0 0 0 0 -0.29456683801430472 0.87277129800780373 0 0.87277129800780373 -3.1271586449954922 0 0 0 0 -371.97434577376134 -231.21120414694406 0 -231.21120414694406 -230.14619327527453 0 0 0 0 33.038642606206736 125.94481287247561 0 125.94481287247561 -46.233368083880578 0 0 0 0 -12.394238066289972 -81.798645355086023 0 -81.798645355086023 -655.31638543301278 0 0 0 0 -0.19745538376532945 0.26806039598630793 0 0.26806039598630793 -1.9489202831391896 0 0 0 0 -166.25445379327721 -124.14904647955473 0 -124.14904647955473 19.723204648601268 0 0 0 0 -29.512485659170295 33.275019534522016 0 33.275019534522016 9.4268037310484942 0 0 0 0 -14.887405579107259 -8.3948932336782036 0 -8.3948932336782036 47.315330657752156 0 0 0 0 -17.683968280545372 26.242644582376215 0 26.242644582376215 5.3378344879224642 0 0 0 0 -6.5615703289316487 12.155746131597979 0 12.155746131597979 -11.179141956572494 0 0 0 0 -15.86565666958731 40.645788064658063 0 40.645788064658063 -38.337909605206733 0 0 0 0 -16.532200391135078 44.39494190119899 0 44.39494190119899 -50.621209259667012 0 0 0 0 -35.101435081802208 31.148824048631923 0 31.148824048631923 -45.066991999711149 0 0 0 0 -27.957101215250685 11.976583777756559 0 11.976583777756559 -11.373392509675796 0 0 0 0 -61.107830696499008 -2.9123813281564708 0 -2.9123813281564708 -16.953504511016035 0 0 0 0 48.012961759607265 -30.368220022183323 0 -30.368220022183323 -8.0221130865982104 0 0 0 0 -11.304994806129116 -0.48647321939893118 0 -0.48647321939893118 9.046575993403394 0 0 0 0 -3.5219839664477739 1.8691792510497267 0 1.8691792510497267 1.4254013374504093 0 0 0 0 -21.757194618408505 -43.889081238335166 0 -43.889081238335166 45.81469930745584 0 0 0 0 -0.57482961159115575 10.521806909743873 0 10.521806909743873 -14.030632176290908 0 0 0 0 -16.15577518848454 16.888813976118513 0 16.888813976118513 -30.904199975512142 0 0 0 0 -0.79204692270222243 -0.052411285252647044 0 -0.052411285252647044 -4.7323155131959957 0 0 0 0 -2.6190046053325204 0.076517169277622088 0 0.076517169277622088 -18.00264540374269 0 0 0 0 0.071587122186537733 0.03035698103646034 0 0.03035698103646034 -1.9887555524190716 0 0 0 0 5.5368208970096475 152.48444013803896 0 152.48444013803896 -255.16762877042356 0 0 0 0 -40.093209896833855 -110.51407122919784 0 -110.51407122919784 -144.77990711907432 0 0 0 0 27.203357313918559 51.357544555404274 0 51.357544555404274 -327.11278371467472 0 0 0 0 22.404719103364869 30.120650214027364 0 30.120650214027364 -154.4590583306495 0 0 0 0 -11.294190469103413 -27.132246178011272 0 -27.132246178011272 -96.047064263499578 0 0 0 0 -3.9716877143980986 2.1808259751406847 0 2.1808259751406847 2.0999420659820722 0 0 0 0 -3.2404002277670578 2.9717952862806984 0 2.9717952862806984 0.61868255587045695 0 0 0 0 -25.81023105949339 18.390479604740904 0 18.390479604740904 -93.129679706992476 0 0 0 0 28.938207669886424 32.728909658984236 0 32.728909658984236 -203.23787637561077 0 0 0 0 18.072526467236926 21.212248767059613 0 21.212248767059613 -187.89194143939358 0 0 0 0 24.067985175643116 -6.7825616370902253 0 -6.7825616370902253 -288.74791624044514 0 0 0 0 19.616883535710258 -2.7434001264165317 0 -2.7434001264165317 -195.67598085255287 0 0 0 0 -12.950003229950767 -7.9157670967826306 0 -7.9157670967826306 -154.27882525245479 0 0 0 0 -14.035019349457798 -14.542006119189281 0 -14.542006119189281 -194.6351639502675 0 0 0 0 -6.8559087221451591 11.506677506777294 0 11.506677506777294 -100.52202579968647 0 0 0 0 -16.421442147747655 -12.114903332479557 0 -12.114903332479557 -155.6195413371878 0 0 0 0 -30.048902255383211 5.9456147275396631 0 5.9456147275396631 -98.140934380252475 0 0 0 0 -6.5530757057869096 28.611407473661586 0 28.611407473661586 -86.860497074633031 0 0 0 0 0.28971103623280214 8.399925584075163 0 8.399925584075163 -167.53208281881098 0 0 0 0 22.966764288859622 16.446808719359865 0 16.446808719359865 -180.56102707205105 0 0 0 0 25.986313751156786 9.5097354179193019 0 9.5097354179193019 -172.52497730550999 0 0 0 0 34.394125665894194 15.419178411022074 0 15.419178411022074 -183.78893001371569 0 0 0 0 -99.6053253457344 72.353850815465705 0 72.353850815465705 -139.11506742261474 0 0 0 0 -14.990503321265805 21.642477251089645 0 21.642477251089645 -118.48067956693828 0 0 0 0 -41.868864107070294 37.861030795065403 0 37.861030795065403 -35.811993204000828 0 0 0 0 -29.087292185063347 24.146855491328907 0 24.146855491328907 -59.503810384421627 0 0 0 0 -6.8517083035360429 43.099384592186311 0 43.099384592186311 -155.29210749335473 0 0 0 0 -3.437215568516649 -12.217500345273407 0 -12.217500345273407 -29.549303392557391 0 0 0 0 -16.924431769202329 23.514269234631968 0 23.514269234631968 -60.821110013952108 0 0 0 0 -0.91689448988677213 -10.128924128349325 0 -10.128924128349325 -14.975760754154521 0 0 0 0 -20.775054023970029 -12.214805643472136 0 -12.214805643472136 -10.896130385993047 0 0 0 0 -23.943837502267343 -11.816781903903916 0 -11.816781903903916 17.318261208436923 0 0 0 0 -7.8627653357491454 -17.653074702888766 0 -17.653074702888766 33.816599157624417 0 0 0 0 1.6723725398580882 -14.05380409374844 0 -14.05380409374844 16.640635606379362 0 0 0 0 -19.466730106582077 2.4219502549004517 0 2.4219502549004517 0.26952056824677584 0 0 0 0 11.052124337416217 -23.334813087918292 0 -23.334813087918292 24.043816040929745 0 0 0 0 5.7559165944958295 13.50029272568106 0 13.50029272568106 32.091198516841935 0 0 0 0 2.6949916562521139 -9.2629627663343967 0 -9.2629627663343967 2.2963366744334053 0 0 0 0 -16.389834362289093 -16.647816317960377 0 -16.647816317960377 43.020452125614554 0 0 0 0 -14.816571599602412 -9.1665601836627957 0 -9.1665601836627957 0.68489780017631574 0 0 0 0 -10.333609462557433 -3.0013565009598153 0 -3.0013565009598153 4.2188424917911647 0 0 0 0 13.738467838798897 -6.3639073252111729 0 -6.3639073252111729 -5.8282499715838014 0 0 0 0 -13.294310587638847 24.213189659526648 0 24.213189659526648 -24.576804587185251 0 0 0 0 -35.821403202331624 6.0961526407357525 0 6.0961526407357525 -38.498375223905782 0 0 0 0 -29.88085433236779 17.098270152651239 0 17.098270152651239 -54.402837620091759 0 0 0 0 -5.7271957863990792 11.029919989326515 0 11.029919989326515 -100.76103440871137 0 0 0 0 -2.3123841141328967 11.269469319245175 0 11.269469319245175 -51.166700573427136 0 0 0 0 -15.124675707461165 1.5900195305216869 0 1.5900195305216869 -56.919327418673021 0 0 0 0 16.750042579739159 8.2159987092120161 0 8.2159987092120161 3.2951188323218048 0 0 0 0 9.2217718284337025 -14.170449334337263 0 -14.170449334337263 9.3117056079566076 0 0 0 0 -2.0589113973433086 -26.704483841757565 0 -26.704483841757565 5.2977951798188769 0 0 0 0 1.1600508489877939 -19.996682887625184 0 -19.996682887625184 -143.57519974752677 0 0 0 0 -31.206068030496454 3.9446957009311063 0 3.9446957009311063 9.6415095771990309 0 0 0 0 -14.948207879492202 2.8709586866127665 0 2.8709586866127665 6.9045049849505631 0 0 0 0 -0.44898401677573929 21.098138615557104 0 21.098138615557104 -11.639954901822605 0 0 0 0 0.045326230389303834 -0.59287167047452183 0 -0.59287167047452183 -4.1461897488327661 0 0 0 0 -8.1798742606385986 -31.831583062851109 0 -31.831583062851109 -16.433985521644445 0 0 0 0 0.13677265671575434 0.059516264958427101 0 0.059516264958427101 -2.0259733793920072 0 0 0 0 7.4607446567939633 136.66488683613468 0 136.66488683613468 -261.00262457923282 0 0 0 0 -40.993830640849524 -29.709925247016315 0 -29.709925247016315 -269.50224102404468 0 0 0 0 -34.14367080342754 71.789871214761547 0 71.789871214761547 -38.958016430393052 0 0 0 0 -13.829299584873297 -49.071096879454103 0 -49.071096879454103 -32.306039847155247 0 0 0 0 79.424266971203906 -14.341709693260441 0 -14.341709693260441 -33.943993013697593 0 0 0 0 -16.791896430773022 -32.630231377795624 0 -32.630231377795624 15.974176095925202 0 0 0 0 -0.11297818408520577 -1.0157550170117187 0 -1.0157550170117187 -4.5444848848111441 0 0 0 0 30.647931683314937 -27.769208019340311 0 -27.769208019340311 9.5393639481148043 0 0 0 0 2.0680430476934362 0.35990762606002136 0 0.35990762606002136 -4.1047592020021284 0 0 0 0 16.709337442787387 3.3633291648803265 0 3.3633291648803265 -4.8651503665328164 0 0 0 0 -0.26022226754594158 1.1464783333212836 0 1.1464783333212836 -3.4799305532387734 0 0 0 0 0.6453252970061385 -0.51800857657190136 0 -0.51800857657190136 5.1529736789884737 0 0 0 0 -0.057834347858715773 1.8871796800648895 0 1.8871796800648895 -0.84913819428493298 0 0 0 0 2.9905152424628341 0.99030658426795526 0 0.99030658426795526 -7.9836380795202331 0 0 0 0 -0.56112061412841285 -0.38892809313813359 0 -0.38892809313813359 -1.9111824304811762 0 0 0 0 -0.79789990452036363 0.6138948319749602 0 0.6138948319749602 0.53696967665200646 0 0 0 0 7.7501741788826166 4.9592914819268685 0 4.9592914819268685 1.0847807196146277 0 0 0 0 -14.840174126813508 11.242830757298805 0 11.242830757298805 -15.955992277866471 0 0 0 0 -39.735221549468406 35.852128933129279 0 35.852128933129279 -46.941795175128391 0 0 0 0 -16.358014831818082 20.83339603110386 0 20.83339603110386 -41.548839679632692 0 0 0 0 -14.050665985656451 32.747616284624485 0 32.747616284624485 -72.3016536295072 0 0 0 0 -18.691573753960256 27.224604695185917 0 27.224604695185917 -68.065901870183097 0 0 0 0 -40.796379001894934 19.942895283064701 0 19.942895283064701 -51.740808164237933 0 0 0 0 -119.64588710628868 28.771203766969847 0 28.771203766969847 -48.781617316920347 0 0 0 0 -44.706962854435005 25.853107020061543 0 25.853107020061543 -38.98324389793288 0 0 0 0 -15.614131823289426 29.807011835423964 0 29.807011835423964 -49.993248281426986 0 0 0 0 -21.835979168416088 25.99807094037601 0 25.99807094037601 -43.321308119222067 0 0 0 0 -15.04734630819803 24.198310088000881 0 24.198310088000881 -32.325452122883689 0 0 0 0 -32.919526866675369 3.1711864871595026 0 3.1711864871595026 -76.050775474801412 0 0 0 0 -75.969492268556678 -39.770281219036406 0 -39.770281219036406 -92.727815364819548 0 0 0 0 10.275790968629735 3.414253100919268 0 3.414253100919268 -70.251142655099102 0 0 0 0 23.882290034824109 20.949606835017676 0 20.949606835017676 -100.93342428835786 0 0 0 0 -52.128109207467787 70.519898305627066 0 70.519898305627066 -87.383293442967442 0 0 0 0 0.64894223322608013 59.235152341972025 0 59.235152341972025 -111.87915678802801 0 0 0 0 -0.19978947815118886 -0.10587899892188846 0 -0.10587899892188846 -0.3988267009982045 0 0 0 0 -0.8519235503517848 11.263320325578889 0 11.263320325578889 -74.925419952503603 0 0 0 0 -14.286843615515409 -14.638524065907404 0 -14.638524065907404 -85.583737884523998 0 0 0 0 9.2321140501640002 -11.099577624068843 0 -11.099577624068843 -87.990184238063193 0 0 0 0 -3.0810939317539123 -12.217518309147465 0 -12.217518309147465 -67.726378346907268 0 0 0 0 -0.17582566179427239 -0.052928672222887219 0 -0.052928672222887219 -0.036163004566890644 0 0 0 0 -5.5779620604453157 2.3520674981947423 0 2.3520674981947423 -81.80122664704254 0 0 0 0 5.6454223800155887 -12.247721695793757 0 -12.247721695793757 -99.893675231422094 0 0 0 0 0.35638618585540804 0.73271073456530744 0 0.73271073456530744 -0.31127831197630934 0 0 0 0 -1.321749358295385 -1.5957739049420256 0 -1.5957739049420256 -1.1713420216228219 0 0 0 0 -0.12419458949261752 -3.694528626927422 0 -3.694528626927422 -4.7687862027554715 0 0 0 0 -20.869730479704231 36.927749572900211 0 36.927749572900211 -2.102389940026228 0 0 0 0 2.2537781210157846 -4.1511844686490349 0 -4.1511844686490349 -15.017493396129169 0 0 0 0 -3.4739033752493924 -1.182171536058263 0 -1.182171536058263 -1.0837523995435276 0 0 0 0 0.37489709497918788 0.54517983512679513 0 0.54517983512679513 -0.25850260304261535 0 0 0 0 1.5994165130011879 2.3243526089170814 0 2.3243526089170814 -9.5845758563693835 0 0 0 0 2.3316272651193231 -9.1624464798402272 0 -9.1624464798402272 -107.45449800015729 0 0 0 0 -0.033228791926028123 -0.12604464947311778 0 -0.12604464947311778 -0.8620201926410036 0 0 0 0 -1.618458238904168 -9.5333847876016762 0 -9.5333847876016762 -106.65666743887098 0 0 0 0 0.65370023462548943 -1.6522263939031347 0 -1.6522263939031347 -6.5342807126903608 0 0 0 0 0.22435203753628841 0.29558381187892835 0 0.29558381187892835 -0.24633218185986178 0 0 0 0 -4.040735246576503 1.8138708231908183 0 1.8138708231908183 -157.87962788926347 0 0 0 0 -2.1423198525700116 0.71785620523553995 0 0.71785620523553995 -6.9338120880773317 0 0 0 0 -3.1075242911979331 -8.07068772053114 0 -8.07068772053114 -6.7176344217283486 0 0 0 0 4.6165477492968421 -0.56639153851206459 0 -0.56639153851206459 -6.803518745276051 0 0 0 0 48.398884741964139 5.125705716239068 0 5.125705716239068 -196.94676281963177 0 0 0 0 -47.992458049820698 92.378346708158006 0 92.378346708158006 -146.48255838600426 0 0 0 0 0.87591058683301526 -8.7439517874773003 0 -8.7439517874773003 1.1919204816441962 0 0 0 0 -164.29459606632281 -8.469795577205673 0 -8.469795577205673 3.9878412338659928 0 0 0 0 -59.433763737863046 -53.090662243842985 0 -53.090662243842985 10.863714814928585 0 0 0 0 -2.0297706337291572 -2.0658445191195898 0 -2.0658445191195898 -1.3397057927122555 0 0 0 0 27.310578428156532 60.089890727641148 0 60.089890727641148 -61.115351284294547 0 0 0 0 -3.611507632473149 64.463423191806214 0 64.463423191806214 -12.576588845808374 0 0 0 0 -6.6981389410721022 43.133017613712468 0 43.133017613712468 -52.815926649241874 0 0 0 0 0.14326276499193114 53.983282609255411 0 53.983282609255411 -54.862368648801521 0 0 0 0 -1.5315183703432922 29.084972045230643 0 29.084972045230643 -78.269416393829829 0 0 0 0 12.942251749634124 -31.676061767510532 0 -31.676061767510532 -227.41497967590141 0 0 0 0 11.106746944027236 -7.4883596273426747 0 -7.4883596273426747 -90.788638621520931 0 0 0 0 8.0057285938496534 -6.6990920729984964 0 -6.6990920729984964 -86.458055631449497 0 0 0 0 4.7059947799407382 33.061942508198058 0 33.061942508198058 -95.860685444672924 0 0 0 0 7.9591390661726109 -1.8796417186772487 0 -1.8796417186772487 -75.799053339988177 0 0 0 0 9.8011677928097924 -9.0063584585581111 0 -9.0063584585581111 -48.327341757478735 0 0 0 0 5.7228094920119474 12.553497896106705 0 12.553497896106705 -62.518172667771978 0 0 0 0 -14.246076724797604 29.953822117344316 0 29.953822117344316 -46.818771193316365 0 0 0 0 6.2405595716518292 23.693786754327903 0 23.693786754327903 -45.191198273305417 0 0 0 0 -13.724936598075146 41.510071618598431 0 41.510071618598431 -26.234625529506047 0 0 0 0 -17.207837553381069 34.45912223041762 0 34.45912223041762 -40.237763086622181 0 0 0 0 -23.1429853079444 34.72894263109788 0 34.72894263109788 -34.524808850854015 0 0 0 0 -28.781740867746976 19.110732326822188 0 19.110732326822188 -37.769765085747622 0 0 0 0 8.5703092519004258 31.25959847954195 0 31.25959847954195 -32.946092335974186 0 0 0 0 -37.684231417128103 -38.570511877812862 0 -38.570511877812862 -64.461796734879897 0 0 0 0 -20.599567038973646 -1.5004353386473213 0 -1.5004353386473213 -74.426240865187268 0 0 0 0 -18.753987431849737 -28.242162913879319 0 -28.242162913879319 -142.1325197850048 0 0 0 0 -43.919265722339389 31.969838458001654 0 31.969838458001654 39.511631123911499 0 0 0 0 12.561475807056922 74.414839323165097 0 74.414839323165097 -156.75527602605737 0 0 0 0 -2.1657977512509206 -4.3975362874146811 0 -4.3975362874146811 -140.75584021556074 0 0 0 0 -1.3702746456701682 -1.1979535874794423 0 -1.1979535874794423 -0.1626745267825136 0 0 0 0 -27.250890158896254 -16.850673825803149 0 -16.850673825803149 80.233643180514704 0 0 0 0 2.039685512597373 -34.301301943614703 0 -34.301301943614703 40.996119315769363 0 0 0 0 -14.96160238315133 9.6884914810395699 0 9.6884914810395699 58.23400299736948 0 0 0 0 -7.1869325074540029 -7.291687716776778 0 -7.291687716776778 -187.20618045814069 0 0 0 0 0.039322472508874995 -0.02605042353690068 0 -0.02605042353690068 -0.13014530521631423 0 0 0 0 -0.26342494237405845 19.567430449776111 0 19.567430449776111 6.6343200945758127 0 0 0 0 -1.438097514092922 -1.9058683481907153 0 -1.9058683481907153 -0.64866510796441657 0 0 0 0 6.7085139498876742 -21.24632763886666 0 -21.24632763886666 -174.45912920912514 0 0 0 0 -5.6022505439877932 -21.453001566396438 0 -21.453001566396438 36.294765556564954 0 0 0 0 8.6618415654074852 -1.1203577524847219 0 -1.1203577524847219 -18.789074522042199 0 0 0 0 5.2220777291972809 -0.7808351847762296 0 -0.7808351847762296 -12.767143504429214 0 0 0 0 15.687524430024041 -3.8138531807756522 0 -3.8138531807756522 -12.452888871752297 0 0 0 0 12.219282623410436 -1.7262998323029421 0 -1.7262998323029421 -47.358284199014953 0 0 0 0 7.6369917582418338 5.0282618496882847 0 5.0282618496882847 -14.972437896356723 0 0 0 0 11.581633976356443 3.830636397782996 0 3.830636397782996 -14.711620641682458 0 0 0 0 5.6340720613989106 2.8552118699454301 0 2.8552118699454301 -4.6022831624381695 0 0 0 0 20.008190654070404 -12.990485286694147 0 -12.990485286694147 -12.180513991481106 0 0 0 0 11.041551114652975 2.3355425387704827 0 2.3355425387704827 -16.672709076585448 0 0 0 0 9.400572069549753 -19.392230700926536 0 -19.392230700926536 12.76526085011999 0 0 0 0 3.840434945849438 -3.2456438083741546 0 -3.2456438083741546 3.3669462449575747 0 0 0 0 -1.4240621329258785 -1.7982421203764898 0 -1.7982421203764898 -1.335709016092395 0 0 0 0 34.384168205545734 -3.9065331338249507 0 -3.9065331338249507 -110.13327049385913 0 0 0 0 -0.35560426298257131 -0.74370953234412585 0 -0.74370953234412585 -0.70137780820365936 0 0 0 0 -42.727066589978449 -35.47358681295772 0 -35.47358681295772 31.116079130344097 0 0 0 0 -47.802693614629334 -58.558877417645277 0 -58.558877417645277 -41.154274784407683 0 0 0 0 -28.563579091324755 -17.558613888513406 0 -17.558613888513406 -16.61779275369917 0 0 0 0 -28.421471734546998 -17.311453823106266 0 -17.311453823106266 -37.580413616437056 0 0 0 0 -48.377691716819044 -34.453334390596517 0 -34.453334390596517 -26.913692389629873 0 0 0 0 -47.365954075917671 -40.360456968583151 0 -40.360456968583151 -18.492312260884557 0 0 0 0 -28.370558320751343 -22.693120717803581 0 -22.693120717803581 -45.673505203724275 0 0 0 0 -30.977020272202708 -8.5660916440265655 0 -8.5660916440265655 11.220180753220289 0 0 0 0 -7.6694381557865654 -8.9008488817640625 0 -8.9008488817640625 5.8534418481938246 0 0 0 0 18.415434027214587 33.622860733737809 0 33.622860733737809 36.315042166849437 0 0 0 0 -10.063696332842369 -14.939839363657752 0 -14.939839363657752 -23.411792302004628 0 0 0 0 -21.86743450502837 -6.1737373369123461 0 -6.1737373369123461 22.07257855153162 0 0 0 0 10.101282248901043 5.9671330539889524 0 5.9671330539889524 -10.780098406257173 0 0 0 0 -23.286185142231034 -22.447040944862469 0 -22.447040944862469 -56.349487120378797 0 0 0 0 -39.52220010753166 -7.3278872855656045 0 -7.3278872855656045 -11.635027698520821 0 0 0 0 -39.266209611889053 -42.056585607055311 0 -42.056585607055311 -40.516044807185821 0 0 0 0 -47.2638940368156 -24.193478168478876 0 -24.193478168478876 -22.212879119911562 0 0 0 0 -55.241844472189769 -55.5218422018674 0 -55.5218422018674 -89.005751103922165 0 0 0 0 -32.068432714869232 -10.025194751085888 0 -10.025194751085888 -113.16311313395582 0 0 0 0 -39.856891629861707 24.468006961996309 0 24.468006961996309 -111.62125530121185 0 0 0 0 -43.024922758062559 -23.39298695113802 0 -23.39298695113802 -53.696284260293311 0 0 0 0 -70.484168626277324 -16.889274227063865 0 -16.889274227063865 -56.956398106972337 0 0 0 0 -0.59336520726868169 -0.41928590215275496 0 -0.41928590215275496 -0.1302176803640816 0 0 0 0 -31.682323180642015 -60.491512254147466 0 -60.491512254147466 -106.19398385136134 0 0 0 0 -59.42694538160822 -26.774242446994982 0 -26.774242446994982 -59.173883955539409 0 0 0 0 -73.333444631873817 31.738044403083986 0 31.738044403083986 -31.195620792028894 0 0 0 0 -5.0634123038865937 48.89547420373615 0 48.89547420373615 -122.57986143465652 0 0 0 0 -8.9412677930129121 25.412568589224303 0 25.412568589224303 -2.7822285525414707 0 0 0 0 -7.300894091254122 38.511063859079542 0 38.511063859079542 -32.49403039014387 0 0 0 0 -13.435158176187088 9.4461931311204452 0 9.4461931311204452 -44.897196510575654 0 0 0 0 -39.077496123349192 16.664207649615911 0 16.664207649615911 3.0380370241697561 0 0 0 0 -14.206162775086796 27.033783581488908 0 27.033783581488908 41.183917661073956 0 0 0 0 6.0101755294479062 18.097161761973059 0 18.097161761973059 0.84534619998222382 0 0 0 0 26.867841342413158 18.746011820672067 0 18.746011820672067 42.827958060440146 0 0 0 0 -10.930537061007499 50.227153733481757 0 50.227153733481757 29.238578552718966 0 0 0 0 9.9203251415817704 52.825502282794965 0 52.825502282794965 57.754453657883474 0 0 0 0 -1.4332493529711883 30.72348321123749 0 30.72348321123749 45.008433634584236 0 0 0 0 -4.1030719939719233 51.331601869806164 0 51.331601869806164 51.842442799992959 0 0 0 0 8.9497404379785621 38.479881890607302 0 38.479881890607302 18.238758820497804 0 0 0 0 2.4154491032368242 43.780667795852935 0 43.780667795852935 42.454576872212058 0 0 0 0 15.374122527997315 35.175072922716708 0 35.175072922716708 43.330442904542764 0 0 0 0 20.653411805417818 46.695894262637154 0 46.695894262637154 41.676337167696516 0 0 0 0 13.951376676582186 41.032965550348521 0 41.032965550348521 38.509055473396515 0 0 0 0 17.879833456743654 48.959503784007424 0 48.959503784007424 17.001268240444677 0 0 0 0 9.0470438346264928 42.15449640135094 0 42.15449640135094 13.98438093487424 0 0 0 0 19.823169529584789 48.738534791722756 0 48.738534791722756 -4.021092779820961 0 0 0 0 13.046776630611703 42.72990648149193 0 42.72990648149193 -32.560802274733824 0 0 0 0 -9.8371427918102512 51.209681811761953 0 51.209681811761953 13.603209597445362 0 0 0 0 27.185193751344741 24.996431763463278 0 24.996431763463278 4.5363785137626707 0 0 0 0 8.0254932242697645 9.1083250457560965 0 9.1083250457560965 -7.5916984160902192 0 0 0 0 32.258613679184691 29.509039851667605 0 29.509039851667605 6.3122830162547974 0 0 0 0 28.318742125762583 38.022607530728806 0 38.022607530728806 16.86281923577998 0 0 0 0 15.461504629634874 34.322040157548713 0 34.322040157548713 45.862850533161065 0 0 0 0 15.765969043294263 30.524074845504188 0 30.524074845504188 13.955683031968078 0 0 0 0 18.243406180188231 44.572898911346144 0 44.572898911346144 19.051891043497871 0 0 0 0 22.623093583981017 45.974776280568953 0 45.974776280568953 8.6408732594918405 0 0 0 0 20.833956678069399 41.323141270959219 0 41.323141270959219 18.076887114166752 0 0 0 0 38.407079098105896 42.374546698784016 0 42.374546698784016 -2.6804488092575269 0 0 0 0 40.520548162144223 35.87142158812938 0 35.87142158812938 3.3589479174460237 0 0 0 0 28.826975032279961 27.241837894770867 0 27.241837894770867 10.895541607108555 0 0 0 0 58.55217272372397 57.839644899986567 0 57.839644899986567 0.98843935867992627 0 0 0 0 25.357408628081885 38.158704428921745 0 38.158704428921745 -17.672919861634483 0 0 0 0 -1.7991045997075616 3.2843719962774856 0 3.2843719962774856 -14.418219717109821 0 0 0 0 38.10451729053807 30.30915819879425 0 30.30915819879425 -34.579660576460071 0 0 0 0 0.79056053024169159 25.885372682875399 0 25.885372682875399 -32.252319455248418 0 0 0 0 10.789169548198288 23.784409944578101 0 23.784409944578101 -12.382463483410568 0 0 0 0 16.012557482903105 30.95502543776864 0 30.95502543776864 -54.385534601528093 0 0 0 0 16.781902040871273 0.77648475496562241 0 0.77648475496562241 -47.632116185904238 0 0 0 0 9.5670658305607503 -12.281473321779771 0 -12.281473321779771 -70.448236730067663 0 0 0 0 -12.006191296944621 -15.183035739736274 0 -15.183035739736274 -23.372413370076799 0 0 0 0 -11.171367643829413 -20.615728030013457 0 -20.615728030013457 -47.092942075712472 0 0 0 0 2.1217023630964604 -8.5103587744765861 0 -8.5103587744765861 -46.610020203956992 0 0 0 0 -1.4097028471924204 -8.8272348206924391 0 -8.8272348206924391 -35.075312223900028 0 0 0 0 -16.706528543484183 6.0472572855606472 0 6.0472572855606472 -40.437472605242363 0 0 0 0 4.0342280939753437 28.773243240290071 0 28.773243240290071 -17.581765605712008 0 0 0 0 -11.489513905800095 -7.3096504751919014 0 -7.3096504751919014 -9.0811038730276437 0 0 0 0 -50.097026921491761 20.020701152459196 0 20.020701152459196 -27.842716913222716 0 0 0 0 8.2374844956268589 -15.602014724119726 0 -15.602014724119726 -78.325962935261487 0 0 0 0 50.3520196037964 78.1572491772653 0 78.1572491772653 -31.903586112061134 0 0 0 0 8.8633269909180399 30.205682832361845 0 30.205682832361845 -86.600850706520845 0 0 0 0 0.24379608414195042 0.41022409837314511 0 0.41022409837314511 -1.4450229779906967 0 0 0 0 70.907207914016453 -110.41323164789485 0 -110.41323164789485 -105.70410481507326 0 0 0 0 86.737434972525534 7.1905957340414091 0 7.1905957340414091 -177.45570502468399 0 0 0 0 53.67668398488513 7.3865631679559556 0 7.3865631679559556 50.191140167139537 0 0 0 0 50.460104135413985 106.92614984625396 0 106.92614984625396 19.437714834753706 0 0 0 0 -11.218255388757598 45.763128152033374 0 45.763128152033374 -38.362932913778423 0 0 0 0 4.0721123880096002 22.138148327809176 0 22.138148327809176 -2.6673949533749237 0 0 0 0 -3.2099796491363577 14.031883120055255 0 14.031883120055255 -35.874048138013336 0 0 0 0 28.174088323177784 28.456629301583234 0 28.456629301583234 -99.727311496462278 0 0 0 0 34.880547388275886 51.742453852360541 0 51.742453852360541 -43.083891122676846 0 0 0 0 38.405711216546706 -7.7486974023998414 0 -7.7486974023998414 -23.325379469052905 0 0 0 0 -36.70263210255473 7.226107378175584 0 7.226107378175584 -1.8311319438273586 0 0 0 0 -42.909309650377509 28.285370242693318 0 28.285370242693318 -13.58304985315354 0 0 0 0 -29.230864356031475 11.873617808217659 0 11.873617808217659 -9.1688869912645714 0 0 0 0 -25.650092240636923 43.039456484133154 0 43.039456484133154 -126.77956822354723 0 0 0 0 -27.704092872607816 55.806075710985226 0 55.806075710985226 -91.975461214181621 0 0 0 0 -75.043462781726916 -14.459600914990531 0 -14.459600914990531 28.050102515531307 0 0 0 0 -86.857762573091975 62.442123604409119 0 62.442123604409119 -34.14946035278615 0 0 0 0 12.503812102609913 2.2910743066208852 0 2.2910743066208852 -19.566767634380597 0 0 0 0 36.487178730604739 -35.868942266780991 0 -35.868942266780991 -48.978133046337689 0 0 0 0 0.035823896443310188 0.11233184754670478 0 0.11233184754670478 -3.4410538562435837 0 0 0 0 -43.816822463305016 43.177376671699989 0 43.177376671699989 -12.592555785269155 0 0 0 0 -47.218538198265605 18.455680994598424 0 18.455680994598424 -82.359726804506806 0 0 0 0 -98.639631199662062 -108.89443196495995 0 -108.89443196495995 -62.973385069415059 0 0 0 0 -41.321517735913972 -135.4569477202553 0 -135.4569477202553 -337.51041976229249 0 0 0 0 -64.406825221865688 -9.6845368291512841 0 -9.6845368291512841 -196.57659762410862 0 0 0 0 -67.220599332697475 -35.562208072170506 0 -35.562208072170506 -202.36506294601077 0 0 0 0 -68.819086260722315 30.485537982869801 0 30.485537982869801 -298.55247339379167 0 0 0 0 -67.15917211841429 -50.642638031424099 0 -50.642638031424099 -182.25488586755154 0 0 0 0 -79.608343010163935 -24.389212679385793 0 -24.389212679385793 -90.24923173005493 0 0 0 0 -59.108402929034128 -34.785559079640592 0 -34.785559079640592 -149.54789338536398 0 0 0 0 -64.84968541557825 2.0401320894403874 0 2.0401320894403874 -130.02627386789766 0 0 0 0 -83.473808948885562 4.8206416153486771 0 4.8206416153486771 -39.405176626403318 0 0 0 0 -64.786111338165284 -65.275373561275387 0 -65.275373561275387 -123.64449124378319 0 0 0 0 -76.353306748732848 27.341091018845432 0 27.341091018845432 -9.5716221152542289 0 0 0 0 -70.009510015348951 -8.0724403718908206 0 -8.0724403718908206 -28.602453147223144 0 0 0 0 -81.44208315950209 21.568517105331708 0 21.568517105331708 -14.687374253612347 0 0 0 0 -61.513374996567109 -10.946513729966057 0 -10.946513729966057 -74.841516000427873 0 0 0 0 -62.677733385814918 15.289501801974779 0 15.289501801974779 -44.242484072339721 0 0 0 0 -68.962523140822441 12.409993055218507 0 12.409993055218507 -41.877446637127036 0 0 0 0 -59.794058046201144 29.941503535973979 0 29.941503535973979 -11.778279267177993 0 0 0 0 -68.693691252836743 2.0379569826223047 0 2.0379569826223047 3.5269584530645943 0 0 0 0 -66.37405893139092 10.514610324135209 0 10.514610324135209 -22.711974295672746 0 0 0 0 -52.282064801701608 59.959413345584075 0 59.959413345584075 -16.679767503679187 0 0 0 0 -43.637119654378694 -1.6209584737505622 0 -1.6209584737505622 -5.0139426521663069 0 0 0 0 -0.050002841011692223 0.091352273060731681 0 0.091352273060731681 -1.1508731297893779 0 0 0 0 -3.4659612434870724 -7.3101232854658775 0 -7.3101232854658775 -24.547231301366764 0 0 0 0 0.034493058212170857 0.20026696413704093 0 0.20026696413704093 -2.882478426089023 0 0 0 0 55.051591285442896 26.710295522998329 0 26.710295522998329 -34.512939653315243 0 0 0 0 2.1294855274926272 -1.8684809083720211 0 -1.8684809083720211 -26.159421836578986 0 0 0 0 3.4456649394722065 0.81827154805978353 0 0.81827154805978353 -23.596308638016126 0 0 0 0 0.0079747330353766386 -5.0920771615783451 0 -5.0920771615783451 -30.530084559893112 0 0 0 0 -0.80619953716324488 -8.7382923491959446 0 -8.7382923491959446 -34.47227403350098 0 0 0 0 -4.7304869747890095 -20.431534880958679 0 -20.431534880958679 -63.476801346108005 0 0 0 0 -5.2720184414999274 8.9581378283869526 0 8.9581378283869526 -6.0477452416980668 0 0 0 0 -6.3810872698457501 25.236552556355491 0 25.236552556355491 -57.291925156303478 0 0 0 0 -3.5427194074022736 -0.6585371280561958 0 -0.6585371280561958 -44.355520142311434 0 0 0 0 -1.0726789697196324 9.8954812974188826 0 9.8954812974188826 -28.847270079530063 0 0 0 0 5.0363463505060295 -2.4629720469929453 0 -2.4629720469929453 -42.970318072781993 0 0 0 0 -1.6468615008670948 1.1978615267407804 0 1.1978615267407804 -10.548255655357934 0 0 0 0 -0.56542886056030361 3.0033091685602926 0 3.0033091685602926 -8.9880133783917699 0 0 0 0 -0.16427127074687636 -0.5508135962820031 0 -0.5508135962820031 -0.37418220452267548 0 0 0 0 -1.0398400943892625 -2.7692313664001631 0 -2.7692313664001631 -7.7788806230769296 0 0 0 0 4.3100876721353742 2.2406291212564611 0 2.2406291212564611 4.1253711423050845 0 0 0 0 -0.098748058446818943 -2.8547111469226749 0 -2.8547111469226749 -1.5663733811933236 0 0 0 0 -45.792751151356327 34.97002708423588 0 34.97002708423588 -87.731324209331433 0 0 0 0 0.038454790743929934 -0.057700696046079969 0 -0.057700696046079969 -0.99991618015342976 0 0 0 0 -1.8165828657373027 -1.2227990276405762 0 -1.2227990276405762 0.46273864618115113 0 0 0 0 -0.0059425572886282526 0.011466146132008248 0 0.011466146132008248 0.00018271124948476825 0 0 0 0 -1.1805360890515006 -0.65840168608883687 0 -0.65840168608883687 1.4997784469196631 0 0 0 0 0.48659101757417877 2.7714210601602645 0 2.7714210601602645 -6.4004969237721525 0 0 0 0 1.1145366864578037 4.6167961322444171 0 4.6167961322444171 -20.643987178084899 0 0 0 0 -0.36237964648988674 -0.96279046273957647 0 -0.96279046273957647 -9.7411794690051465 0 0 0 0 0.3801484525270391 2.212946527175518 0 2.212946527175518 -8.0107912309795211 0 0 0 0 -0.0011765412534924828 -2.813893140770233 0 -2.813893140770233 -18.34782113296842 0 0 0 0 1.4971049645601249 -1.7467692658974556 0 -1.7467692658974556 -8.9101428228818804 0 0 0 0 -0.61137148168960365 -1.6427072297019549 0 -1.6427072297019549 -3.8420325420793233 0 0 0 0 -0.0011980455043310678 -1.5716759361557706 0 -1.5716759361557706 -6.7919362692173308 0 0 0 0 1.2010474717528439 -1.7562189264717745 0 -1.7562189264717745 -12.179929120006818 0 0 0 0 -0.32361243821593177 0.33889173634634062 0 0.33889173634634062 -3.3381475504756963 0 0 0 0 0.38282629119475753 -0.908808724299071 0 -0.908808724299071 -3.4867129938240495 0 0 0 0 1.3223809529684538 -3.7742614813005275 0 -3.7742614813005275 -4.0816886077507206 0 0 0 0 -43.785611529728754 139.09861111312784 0 139.09861111312784 -176.90696036492955 0 0 0 0 1.1692211492590801 -0.48350058599274348 0 -0.48350058599274348 -3.2554598912211077 0 0 0 0 0.0016716289972827636 -1.5144695173912623 0 -1.5144695173912623 -0.92229701494215988 0 0 0 0 -175.3818548987945 267.16744793719499 0 267.16744793719499 -454.00437911866538 0 0 0 0 0.14470543185484835 -0.056254964219281334 0 -0.056254964219281334 -1.6074854494480206 0 0 0 0 -129.84103283832744 130.9044302894863 0 130.9044302894863 -177.19464041448481 0 0 0 0 -84.422005368499597 180.86042398295922 0 180.86042398295922 -124.20830863455558 0 0 0 0 0.17518045336715454 -0.17540332723747198 0 -0.17540332723747198 -1.5672367423947051 0 0 0 0 3.9737385516263686 -112.8070068588811 0 -112.8070068588811 -216.60973943627141 0 0 0 0 -28.612349640323671 -14.93738361235819 0 -14.93738361235819 -498.75688624216855 0 0 0 0 -0.75235323026291456 14.453748105171144 0 14.453748105171144 -467.84674230793718 0 0 0 0 135.96784657728969 17.318949334181752 0 17.318949334181752 -500.32462844622114 0 0 0 0 84.172044480129813 48.025433484838231 0 48.025433484838231 -165.78424279567116 0 0 0 0 30.01886499329207 186.75781863912471 0 186.75781863912471 -499.101127376997 0 0 0 0 0.20308667634858268 -0.25626151414261855 0 -0.25626151414261855 -1.4528787756862585 0 0 0 0 75.626044616577417 -90.95021007507421 0 -90.95021007507421 -123.16189993700732 0 0 0 0 -52.596866683083206 183.72320915395267 0 183.72320915395267 -220.57410623713895 0 0 0 0 -44.828035545949888 147.4179677935972 0 147.4179677935972 -242.4706805638798 0 0 0 0 0.21047006346920899 -1.9815667876562451 0 -1.9815667876562451 -4.0887119636127736 0 0 0 0 0.98049642993814423 -2.2777413753665314 0 -2.2777413753665314 -6.6079062847920795 0 0 0 0 -13.65660768787609 50.860549341583464 0 50.860549341583464 -119.75452117003988 0 0 0 0 -57.003575805895139 6.9039138308526162 0 6.9039138308526162 -141.23901961220326 0 0 0 0 -43.24760261923214 83.549059152100654 0 83.549059152100654 -110.37726197864868 0 0 0 0 47.37864588617964 61.697255821976796 0 61.697255821976796 -119.90950022197831 0 0 0 0 51.880897831642301 76.466310100888222 0 76.466310100888222 -95.918785626921817 0 0 0 0 208.61066430265288 111.31424979269377 0 111.31424979269377 -146.99917776834081 0 0 0 0 127.89497461932618 121.16126534930936 0 121.16126534930936 -71.73259226211303 0 0 0 0 0.26474242194867181 -0.029433845842899764 0 -0.029433845842899764 -1.966819592454776 0 0 0 0 -24.819171751658359 -147.28653104221121 0 -147.28653104221121 -243.85042326957409 0 0 0 0 160.68655621285305 49.350226888387624 0 49.350226888387624 -193.08095059642073 0 0 0 0 65.387951669742108 -11.426548254239606 0 -11.426548254239606 -3.9320345896512663 0 0 0 0 147.94687801839279 -62.056557959022484 0 -62.056557959022484 -158.19169398442318 0 0 0 0 64.926285168231686 2.784260805611666 0 2.784260805611666 -190.93564609633631 0 0 0 0 58.163288583613422 -26.998888732129103 0 -26.998888732129103 -151.98114854852429 0 0 0 0 89.896779364953815 -61.392341881780482 0 -61.392341881780482 -152.95939960314536 0 0 0 0 -10.911221381433936 -281.96325199133207 0 -281.96325199133207 -498.78652413170465 0 0 0 0 92.095893909581761 -90.43769380131971 0 -90.43769380131971 -248.77487719390592 0 0 0 0 43.537057516481205 -24.568759677004891 0 -24.568759677004891 -498.22857574929708 0 0 0 0 0.17495602214985104 -0.071710316566413468 0 -0.071710316566413468 -2.1131864657029809 0 0 0 0 82.844287090443942 157.23247699897342 0 157.23247699897342 -89.492759090750042 0 0 0 0 -20.192676719675866 -124.07618258176171 0 -124.07618258176171 -100.64746132542089 0 0 0 0 -101.96246408988733 -121.57457987846396 0 -121.57457987846396 -70.661944155470337 0 0 0 0 -85.664791695263034 -57.779134964619061 0 -57.779134964619061 -79.41408654056977 0 0 0 0 141.46584850304299 -10.255964586952132 0 -10.255964586952132 -74.415924926741354 0 0 0 0 0.43880061257011393 0.035209555223357114 0 0.035209555223357114 -4.0050627214925569 0 0 0 0 -42.108164604270229 -93.452462229406592 0 -93.452462229406592 -40.144666059185511 0 0 0 0 -16.720205927006987 -107.99677326388064 0 -107.99677326388064 -96.800110385744119 0 0 0 0 -47.039369458025391 -75.240134206376752 0 -75.240134206376752 -99.659477998535294 0 0 0 0 -0.39151250196809817 3.8749437438980525 0 3.8749437438980525 -7.8010667472303155 0 0 0 0 -14.785210788294705 -57.143298071177014 0 -57.143298071177014 -97.832780225631041 0 0 0 0 2.053965267404493 1.8796175948853033 0 1.8796175948853033 -9.8361052860946074 0 0 0 0 5.4339695822568927 6.7660835065464653 0 6.7660835065464653 -36.851207867636731 0 0 0 0 -0.51846143927043298 0.094245707007756252 0 0.094245707007756252 -1.1340595394916431 0 0 0 0 4.1252312628709245 -54.076628035320766 0 -54.076628035320766 1.491289081855939 0 0 0 0 -3.0465247842127496 -4.6970258893766186 0 -4.6970258893766186 -39.403812627631851 0 0 0 0 -8.3736427102160178 -3.0954913846871932 0 -3.0954913846871932 -25.106099448448731 0 0 0 0 1.5338007995296703 -5.2128382349704303 0 -5.2128382349704303 -12.094955865478298 0 0 0 0 -1.4487000715503888 0.54408644454962918 0 0.54408644454962918 1.6578218460078737 0 0 0 0 -9.9757403136583207 11.934574988284112 0 11.934574988284112 -6.5641303061729559 0 0 0 0 -14.232232228513229 -54.085888812464077 0 -54.085888812464077 -179.8210741092953 0 0 0 0 -10.75650675300102 6.9463720527528494 0 6.9463720527528494 -47.501444726116461 0 0 0 0 -2.1981891069951063 5.4933767421528152 0 5.4933767421528152 -3.2955124081487748 0 0 0 0 -5.416423892336951 -14.600151955909496 0 -14.600151955909496 -140.17031973351368 0 0 0 0 37.490407487426864 116.5942205856154 0 116.5942205856154 -294.59681988035209 0 0 0 0 -0.94103514688175982 -2.9384686903806845 0 -2.9384686903806845 -2.9388755485669114 0 0 0 0 -44.231212619317461 -126.21955910587553 0 -126.21955910587553 -263.23181749941796 0 0 0 0 -3.0761961742684889 -6.0112427559179196 0 -6.0112427559179196 -129.48243610991995 0 0 0 0 -0.49406850944654557 0.79189102857045413 0 0.79189102857045413 -0.35635090507971157 0 0 0 0 70.330038410958764 11.196755351002139 0 11.196755351002139 -146.19934855894053 0 0 0 0 -2.6374909043428829 42.678666760648412 0 42.678666760648412 -125.7911065959961 0 0 0 0 3.4805520652205288 2.5807680013203935 0 2.5807680013203935 7.0771387203021732 0 0 0 0 -14.803344382730515 13.35601045929252 0 13.35601045929252 3.9796740887586566 0 0 0 0 -17.78066002388546 -0.4451633768130705 0 -0.4451633768130705 30.4681466043603 0 0 0 0 10.272839085676472 3.885769936054146 0 3.885769936054146 5.3478598712536041 0 0 0 0 -22.069159200430363 -20.306210717964859 0 -20.306210717964859 -9.9199612586453441 0 0 0 0 -48.80888507808784 24.457921038138011 0 24.457921038138011 -38.6941183525214 0 0 0 0 5.5581729619893423 -18.617128897783005 0 -18.617128897783005 -152.85565503504222 0 0 0 0 -6.1935867116010428 21.598944726588343 0 21.598944726588343 -81.17787950517959 0 0 0 0 -0.0056403105340846194 -0.10486241310049138 0 -0.10486241310049138 -0.43054693363681196 0 0 0 0 2.0085103271957934 -24.905192147425623 0 -24.905192147425623 -27.108264468956804 0 0 0 0 -14.928087174539655 -28.764540291842422 0 -28.764540291842422 -140.95722618250875 0 0 0 0 1.5076636330084812 3.2430414246478563 0 3.2430414246478563 -4.4522352593699956 0 0 0 0 -13.223726154400318 -15.566049442364601 0 -15.566049442364601 -46.244518400643074 0 0 0 0 -3.1732234072926353 -0.29726514681067329 0 -0.29726514681067329 -103.46362389921342 0 0 0 0 -37.238102821707031 -74.635369781713962 0 -74.635369781713962 -63.702097556308217 0 0 0 0 -20.9164338586707 -47.406554774242977 0 -47.406554774242977 -140.83623424807533 0 0 0 0 0.92127620797920606 0.35529166739667062 0 0.35529166739667062 -1.7510473402841953 0 0 0 0 -23.781681360425765 8.5206096120700749 0 8.5206096120700749 1.8706906560237258 0 0 0 0 -0.18212525547869662 0.76806401104810718 0 0.76806401104810718 0.7987521277483971 0 0 0 0 -2.8520618277904646 -27.753110600810032 0 -27.753110600810032 -147.3663664583637 0 0 0 0 -11.155042104542389 32.51002407226224 0 32.51002407226224 -32.318223187323383 0 0 0 0 4.5914152811238296 9.1506513800395624 0 9.1506513800395624 -25.329080947138891 0 0 0 0 30.423722057154169 -16.546782450661397 0 -16.546782450661397 -21.264524498972605 0 0 0 0 2.3401278578754208 -4.8596121725244998 0 -4.8596121725244998 -11.562569091400292 0 0 0 0 27.836981758528736 5.8700420112036227 0 5.8700420112036227 -65.67915193519184 0 0 0 0 -36.090867727447971 -35.811399051644457 0 -35.811399051644457 6.477431021119628 0 0 0 0 -6.7361336914992762 -2.4378993909276687 0 -2.4378993909276687 -19.898719251431885 0 0 0 0 0.081319052163280503 -2.0253746734424567 0 -2.0253746734424567 -20.074758987670066 0 0 0 0 -7.6811410503561319 2.6640272254253432 0 2.6640272254253432 -21.815415106756518 0 0 0 0 8.0640022266985625 0.62767397635070665 0 0.62767397635070665 -24.882771159114327 0 0 0 0 4.7104081586111306 -9.0565519283682079 0 -9.0565519283682079 -21.219405948462963 0 0 0 0 3.1203550921434977 -3.798019641940428 0 -3.798019641940428 -11.155009827114554 0 0 0 0 4.3883359160250848 -9.0764886962178934 0 -9.0764886962178934 -10.624649633545459 0 0 0 0 -5.3261680418235642 -1.2962499391151141 0 -1.2962499391151141 -8.6699895585452396 0 0 0 0 -1.3722059269846341 1.3308354692298963 0 1.3308354692298963 -13.496127936313314 0 0 0 0 -5.3087493588757297 2.2319320275091741 0 2.2319320275091741 -13.613068981562719 0 0 0 0 1.0897058664942711 -1.5986832083791782 0 -1.5986832083791782 -1.4097555529884609 0 0 0 0 -19.364196087721666 1.7421410845827268 0 1.7421410845827268 25.264650077813712 0 0 0 0 1.0012013769759278 5.7313651396952991 0 5.7313651396952991 -14.691188091037475 0 0 0 0 -0.72893326941922931 1.3253272675042718 0 1.3253272675042718 -1.2305647533646997 0 0 0 0 -2.4655571995339187 -0.054683888743511488 0 -0.054683888743511488 -16.315135542052076 0 0 0 0 -8.2129340027373701 29.671606797141521 0 29.671606797141521 -21.261823290822576 0 0 0 0 -0.97087353410327704 5.1984495159337847 0 5.1984495159337847 -17.385023323461184 0 0 0 0 -2.2281438960625337 -2.1976750707585779 0 -2.1976750707585779 -22.789163795108834 0 0 0 0 -0.83823892559041724 0.22836130399400645 0 0.22836130399400645 -36.795189106129328 0 0 0 0 -26.379567431371242 3.3905274230364739 0 3.3905274230364739 -36.888274895371978 0 0 0 0 -16.301351666223724 -3.8067904720526258 0 -3.8067904720526258 -10.864479511932586 0 0 0 0 -14.334043181383265 -7.5417597640666827 0 -7.5417597640666827 -16.206688866644981 0 0 0 0 -25.144214108273559 7.6702784947456166 0 7.6702784947456166 -30.98147002839687 0 0 0 0 17.856924626303453 3.0942221770746983 0 3.0942221770746983 -25.384599105983398 0 0 0 0 -3.7267069358593972 -13.182266171829724 0 -13.182266171829724 -33.926567037048699 0 0 0 0 -7.9692461000958872 -0.29376237148471773 0 -0.29376237148471773 -12.651257500023348 0 0 0 0 -8.1314041308362448 -0.10988780246952956 0 -0.10988780246952956 -10.996914320279757 0 0 0 0 -12.240719602214313 0.35870372793397109 0 0.35870372793397109 -10.638810518070386 0 0 0 0 -5.388019160448664 0.58808532705097605 0 0.58808532705097605 -12.417650309109376 0 0 0 0 -11.637769972135175 -0.40306347606383497 0 -0.40306347606383497 -8.6916098419433183 0 0 0 0 -11.831591356929408 0.71183452588957152 0 0.71183452588957152 -8.0802945865070797 0 0 0 0 -11.453014323932621 -3.7427069696404942 0 -3.7427069696404942 -14.906041058741721 0 0 0 0 -13.70821824297991 -0.0243464176364796 0 -0.0243464176364796 -8.6618435630589374 0 0 0 0 -12.610525615026972 0.59516908446130401 0 0.59516908446130401 -6.4045435114294378 0 0 0 0 -3.2957150226472436 2.8231859626148434 0 2.8231859626148434 -10.518460663008227 0 0 0 0 -3.1422486547193103 -2.2132239109441798 0 -2.2132239109441798 -7.5526888244130532 0 0 0 0 -0.25841935594763754 2.0893810003653925 0 2.0893810003653925 -11.213822774926484 0 0 0 0 4.3102063376331898 0.85495963673383812 0 0.85495963673383812 -50.187337923070118 0 0 0 0 0.31532214115878787 6.7431883434942392 0 6.7431883434942392 -41.957085246764109 0 0 0 0 -0.12425754932080957 -0.052664277612722188 0 -0.052664277612722188 0.12521058546772146 0 0 0 0 -9.5453496071031907 2.0631849071605757 0 2.0631849071605757 -9.719576447203508 0 0 0 0 -2.0299075258828907 -5.5524736134202612 0 -5.5524736134202612 -20.016312516526341 0 0 0 0 0.42151766083506459 0.83494307436239978 0 0.83494307436239978 -8.9506743331367034 0 0 0 0 13.523329549528739 2.052255391298786 0 2.052255391298786 -9.1262217931923146 0 0 0 0 -0.24050007794868022 2.7711774103988915 0 2.7711774103988915 -7.4730554486764262 0 0 0 0 -7.9647876882711728 -1.3164551713318815 0 -1.3164551713318815 -6.167991251901185 0 0 0 0 -9.9521087022222972 8.8280364526593189 0 8.8280364526593189 10.146627233349136 0 0 0 0 -5.4928049994389454 -7.6840113551440936 0 -7.6840113551440936 5.637472697892008 0 0 0 0 -10.524986165698301 4.1223261291399922 0 4.1223261291399922 -10.690495294657012 0 0 0 0 -124.87411543652145 -99.707755415308384 0 -99.707755415308384 -124.2228054808038 0 0 0 0 -124.72251917969329 -99.146690271145417 0 -99.146690271145417 -177.96769880267129 0 0 0 0 -0.57449543893755228 2.4118286512829812 0 2.4118286512829812 -5.8525221072305307 0 0 0 0 74.379550467761078 40.879005643646451 0 40.879005643646451 -41.854198464792717 0 0 0 0 72.314378144719853 -101.20444303066597 0 -101.20444303066597 -179.68356247121847 0 0 0 0 -124.44280717656692 -156.04084590386515 0 -156.04084590386515 -218.34932945696346 0 0 0 0 -171.81179159401691 -276.22750040925098 0 -276.22750040925098 -499.0327378902748 0 0 0 0 -10.873086947662355 -129.68220668268714 0 -129.68220668268714 -500.589050831382 0 0 0 0 33.939821711742049 -14.67320870233857 0 -14.67320870233857 -281.2073850006982 0 0 0 0 91.188508777369009 164.12082200604027 0 164.12082200604027 -499.21796581780018 0 0 0 0 -135.65323933845542 110.67881515785848 0 110.67881515785848 5.553439001312654 0 0 0 0 -0.66825095230965814 0.91930217190529362 0 0.91930217190529362 -2.604900743941009 0 0 0 0 -130.2864430725302 224.76516228539822 0 224.76516228539822 -254.42812273156233 0 0 0 0 -1.1822291594607279 -0.26081758687296919 0 -0.26081758687296919 0.20669831209347844 0 0 0 0 -130.2733571576772 -0.86528136055540017 0 -0.86528136055540017 28.37405917817614 0 0 0 0 -20.431652756735843 29.390510562074269 0 29.390510562074269 -50.416372170998784 0 0 0 0 -75.169575293836587 -67.108197366214881 0 -67.108197366214881 95.420283602234122 0 0 0 0 -70.960995019642951 7.7988314847198126 0 7.7988314847198126 -4.7805833241945948 0 0 0 0 59.540531912510431 -18.752590288998363 0 -18.752590288998363 -112.30128182856788 0 0 0 0 54.760348947422486 115.65298939091831 0 115.65298939091831 -304.81503388213787 0 0 0 0 -5.1489769497048314 3.1607011408596009 0 3.1607011408596009 -21.625303566117509 0 0 0 0 -12.940433663171689 11.337001241258804 0 11.337001241258804 -17.926457573189509 0 0 0 0 -7.1991599182425148 7.8280201068841961 0 7.8280201068841961 -31.732572392036673 0 0 0 0 -13.542649806000895 6.1127625277040352 0 6.1127625277040352 -9.0227543505989161 0 0 0 0 -26.166071975081991 18.605677800819649 0 18.605677800819649 -20.231142649019603 0 0 0 0 -26.910353309520133 2.115671382200162 0 2.115671382200162 -0.71076467707098345 0 0 0 0 -16.109469719268986 0.8984991601028014 0 0.8984991601028014 -4.2737302190598712 0 0 0 0 -15.334278561257094 5.7077302407361685 0 5.7077302407361685 -9.0563121967497864 0 0 0 0 -13.819748759615891 2.3393082624420458 0 2.3393082624420458 -7.3795057034403726 0 0 0 0 -12.553031946699889 3.1197375833871774 0 3.1197375833871774 -6.9127940778835182 0 0 0 0 -11.602180626604422 -2.1004279483968276 0 -2.1004279483968276 -3.6790860168657673 0 0 0 0 -5.9973964029609306 5.4412319987859519 0 5.4412319987859519 -13.097439126758218 0 0 0 0 -7.9884087230483374 3.1936750805780321 0 3.1936750805780321 -9.3355319006295758 0 0 0 0 -12.845207810205054 5.0921382144938434 0 5.0921382144938434 -10.070542407596804 0 0 0 0 -6.3720432867902872 7.0875807315801467 0 7.0875807315801467 -13.397068453154134 0 0 0 0 -1.8136014114761929 5.7015706700912698 0 5.7015706700912698 -15.90234570389746 0 0 0 0 2.3922421601954511 5.9597300454233846 0 5.9597300454233846 -14.601957850127292 0 0 0 0 18.487427174500226 22.728407758820822 0 22.728407758820822 -12.581046894034898 0 0 0 0 7.5646132661154297 18.753629235610333 0 18.753629235610333 -8.6897648196772934 0 0 0 0 -2.9845690274003118 27.358338962675589 0 27.358338962675589 -7.6995618068376643 0 0 0 0 -4.892524323771795 12.650873917516719 0 12.650873917516719 -12.599282428067909 0 0 0 0 -6.4721934361009517 13.442492555549279 0 13.442492555549279 -7.0230577366918396 0 0 0 0 0.89450929676820579 4.8137512638522821 0 4.8137512638522821 -18.842995941677145 0 0 0 0 -3.0416119011582063 6.2076197756541047 0 6.2076197756541047 -14.606561818755818 0 0 0 0 -2.1722934095642046 -116.61665998764806 0 -116.61665998764806 -380.26879931523399 0 0 0 0 -3.5494510651717235 6.0304859873172063 0 6.0304859873172063 -18.233525449330955 0 0 0 0 -50.664406364467759 -2.7962262306318735 0 -2.7962262306318735 -41.301809369805142 0 0 0 0 -2.530259413165993 0.85335961964623941 0 0.85335961964623941 -2.2704300335518433 0 0 0 0 -130.07275607160099 216.72647742936488 0 216.72647742936488 -303.37912062118266 0 0 0 0 -95.266344504120568 50.792099923331989 0 50.792099923331989 -62.176062691560219 0 0 0 0 -2.3542722994120973 1.4376729204303893 0 1.4376729204303893 -1.1162902115132169 0 0 0 0 -9.5599798270483607 5.6192826358704275 0 5.6192826358704275 -1.5545454063725475 0 0 0 0 -160.79239944084975 72.204808019929715 0 72.204808019929715 -500.10477133009226 0 0 0 0 37.772182382684875 23.312198600189731 0 23.312198600189731 -563.35034884238303 0 0 0 0 62.454177135285278 70.111621514904982 0 70.111621514904982 -326.63921602817936 0 0 0 0 62.654273872849224 132.21467444386144 0 132.21467444386144 -517.92916887450065 0 0 0 0 74.563669311103325 -15.760826719380475 0 -15.760826719380475 -380.5082888172692 0 0 0 0 84.383925523636947 46.772758041988709 0 46.772758041988709 -499.89044078059669 0 0 0 0 24.551234636889163 73.044276700467151 0 73.044276700467151 -405.4057121599817 0 0 0 0 39.027113447879941 68.614344388575773 0 68.614344388575773 -404.14315278633057 0 0 0 0 19.089229904831193 52.23723916546146 0 52.23723916546146 -249.22050938566281 0 0 0 0 -9.9536275525710423 4.823340261414466 0 4.823340261414466 0.66863096512032172 0 0 0 0 34.197977097095517 12.530977234108832 0 12.530977234108832 -373.18558213120377 0 0 0 0 12.244135678782186 31.758104531475965 0 31.758104531475965 22.855414798348988 0 0 0 0 51.31355748683427 7.8204132969449347 0 7.8204132969449347 13.855919839826129 0 0 0 0 12.031985309879929 32.632787892671786 0 32.632787892671786 7.2458276828169801 0 0 0 0 14.968929983429007 17.312923266295911 0 17.312923266295911 4.7913592996847001 0 0 0 0 23.37281009582199 22.87485474508415 0 22.87485474508415 8.362034595795194 0 0 0 0 -11.801215352901636 15.405548258822819 0 15.405548258822819 7.0289180775234854 0 0 0 0 -7.990717930097162 23.126585942804468 0 23.126585942804468 20.634163352010546 0 0 0 0 -4.0373631273505453 28.095449239302525 0 28.095449239302525 1.5116363748829826 0 0 0 0 -1.328366458524215 28.628742521854292 0 28.628742521854292 1.3115216345322551 0 0 0 0 -0.63646264556632559 25.993018029545624 0 25.993018029545624 3.9300125227291574 0 0 0 0 -0.074675009307611617 26.491992987421781 0 26.491992987421781 -2.6951688576918968 0 0 0 0 -6.585765093513146 29.408858739141579 0 29.408858739141579 -3.7455207672951474 0 0 0 0 4.3069140856024433 18.429288833237706 0 18.429288833237706 -0.96582098635371949 0 0 0 0 7.9164967652977793 21.999829024509381 0 21.999829024509381 2.548407773942472 0 0 0 0 2.4051772698994682 29.989912503645428 0 29.989912503645428 0.38775809187700361 0 0 0 0 4.1077051813008438 6.8913679904990204 0 6.8913679904990204 -8.8439533991713688 0 0 0 0 -4.4327455335569539 21.331925828030762 0 21.331925828030762 -1.9268982782582498 0 0 0 0 -17.538189499524833 3.5014302403455986 0 3.5014302403455986 -6.8761683321254168 0 0 0 0 -18.0165516288871 23.05933005776069 0 23.05933005776069 -3.5641100813204503 0 0 0 0 -0.21364200535799682 22.038540905795799 0 22.038540905795799 -5.8522739143272702 0 0 0 0 -10.038348757091171 27.683501142209934 0 27.683501142209934 -2.2981543950409105 0 0 0 0 -30.438373666069538 13.424099703973752 0 13.424099703973752 11.63215283761474 0 0 0 0 -47.566751456102565 32.187555247770661 0 32.187555247770661 -2.5369902609536439 0 0 0 0 -10.59108481890371 59.80186132598601 0 59.80186132598601 -32.498629957444564 0 0 0 0 25.478834520450164 31.426752526513837 0 31.426752526513837 -19.050191863865621 0 0 0 0 -1.0624138174680411 37.895502729740883 0 37.895502729740883 -17.519069803080129 0 0 0 0 -9.2167691931199442 28.011947831106681 0 28.011947831106681 -4.4694022354442495 0 0 0 0 10.903647941238546 24.359024493332527 0 24.359024493332527 -11.706391694657668 0 0 0 0 11.797399251371189 26.392883716947381 0 26.392883716947381 -8.0311083172832696 0 0 0 0 -2.1555844041754986 6.2361741723909105 0 6.2361741723909105 -16.388562493153227 0 0 0 0 33.821368059389897 21.876386904376147 0 21.876386904376147 -17.289039794008204 0 0 0 0 23.654235294433875 14.377861477121542 0 14.377861477121542 -15.465201090490496 0 0 0 0 20.252173441586365 22.416781172596529 0 22.416781172596529 -34.446080479709963 0 0 0 0 36.654409468640551 -2.3835557426731384 0 -2.3835557426731384 -60.012312588282839 0 0 0 0 54.885641643329564 18.574140984610949 0 18.574140984610949 -36.254839528141702 0 0 0 0 17.02836025477427 6.4777919028451834 0 6.4777919028451834 -16.682278139978976 0 0 0 0 38.144499297632933 9.0972050978306243 0 9.0972050978306243 -36.35404098908748 0 0 0 0 14.726555035472757 -1.4080308363693348 0 -1.4080308363693348 -22.087057495160479 0 0 0 0 -14.793330719540336 -47.212632012101608 0 -47.212632012101608 -63.737252911468659 0 0 0 0 166.70792016097857 99.316765232670377 0 99.316765232670377 -42.855642350427843 0 0 0 0 0.82299420780375243 -0.50913583347087465 0 -0.50913583347087465 0.58464760887813583 0 0 0 0 72.81263792206073 -74.990984616920286 0 -74.990984616920286 -209.13642872751007 0 0 0 0 -77.75584563381517 24.225579695283159 0 24.225579695283159 -9.579009516464339 0 0 0 0 -0.15685427107337091 -36.465946984894799 0 -36.465946984894799 -210.9662115918527 0 0 0 0 -89.572128669570702 102.34266801729109 0 102.34266801729109 -334.24025678962357 0 0 0 0 -72.629202444954899 -180.71004658705169 0 -180.71004658705169 -497.85790550350339 0 0 0 0 -116.10584774324434 4.1283794384498833 0 4.1283794384498833 10.635356400720184 0 0 0 0 -196.65530348144546 82.958006893934737 0 82.958006893934737 -65.257378242466984 0 0 0 0 57.031491624787577 57.653199748972156 0 57.653199748972156 -34.384777435090143 0 0 0 0 -49.311824322521716 120.39769437030475 0 120.39769437030475 -34.748632609736887 0 0 0 0 -59.045932815079141 -109.67179621705236 0 -109.67179621705236 -111.5211043302279 0 0 0 0 -156.13639479851167 -168.26625051032272 0 -168.26625051032272 -103.26139753364987 0 0 0 0 36.780589344847158 -103.58980987067753 0 -103.58980987067753 -114.93175188595796 0 0 0 0 17.567425313241984 -143.83603796623447 0 -143.83603796623447 -131.56301238394781 0 0 0 0 -0.46507074700965223 2.6798859196686191 0 2.6798859196686191 -8.390592925719119 0 0 0 0 84.894446955812782 5.4139470615448317 0 5.4139470615448317 -7.9283453314849339 0 0 0 0 -157.43060857211802 -186.44553251326306 0 -186.44553251326306 -117.37502540474907 0 0 0 0 -360.44397011642906 -316.78113946148869 0 -316.78113946148869 -258.33778414243261 0 0 0 0 -177.83023039667933 -160.9741902205833 0 -160.9741902205833 -127.58724850345789 0 0 0 0 -97.957637984561416 -216.76872324134752 0 -216.76872324134752 -214.18843467389524 0 0 0 0 12.044173792449328 -133.15863139511839 0 -133.15863139511839 -161.18017557949588 0 0 0 0 3.6386567896521456 -84.718666724406944 0 -84.718666724406944 -91.31876249812376 0 0 0 0 32.156866111612544 -89.469750640145776 0 -89.469750640145776 -98.48845790139967 0 0 0 0 83.513986161904086 -39.881498294789935 0 -39.881498294789935 -72.402319855234964 0 0 0 0 -63.835660263861882 -88.797348999153655 0 -88.797348999153655 -33.336383421262326 0 0 0 0 14.181828900310393 -14.454114939624787 0 -14.454114939624787 -30.61561879567148 0 0 0 0 54.529822391776747 23.734184150630995 0 23.734184150630995 -9.8060040553618819 0 0 0 0 3.6121649893589938 -2.9901612748128144 0 -2.9901612748128144 -1.5364637387930351 0 0 0 0 1.0598109929644011 -4.0863049624686028 0 -4.0863049624686028 -11.232204950063533 0 0 0 0 0.25270832379556984 -3.4467656414981764 0 -3.4467656414981764 -8.1189736839644731 0 0 0 0 6.9686363299406366 -20.49913701208061 0 -20.49913701208061 14.083880439782661 0 0 0 0 10.523684429598688 -16.968314692599051 0 -16.968314692599051 -11.7067472052141 0 0 0 0 -1198.5806083226089 318.88982789430611 0 318.88982789430611 156.57904079523155 0 0 0 0 2.3997161933314368 -0.63187615326700453 0 -0.63187615326700453 -4.0234204292522104 0 0 0 0 1.6673019411543111 -0.80478456449923819 0 -0.80478456449923819 -3.5059471092615748 0 0 0 0 6.022843087901947 -146.30166319300497 0 -146.30166319300497 -62.821526755997183 0 0 0 0 359.92122539469347 -96.193776676072957 0 -96.193776676072957 -740.61226683476525 0 0 0 0 186.27807197846141 -284.09196583246012 0 -284.09196583246012 -112.35111982964781 0 0 0 0 38.347512445785014 -92.347531801578953 0 -92.347531801578953 -346.82666555615924 0 0 0 0 -28.389065628846424 59.719879956652449 0 59.719879956652449 -169.7413386107437 0 0 0 0 -56.627607897595908 -489.2553449387085 0 -489.2553449387085 -819.57330251841267 0 0 0 0 -24.910525506860267 -17.38596287958535 0 -17.38596287958535 -10.88720739271244 0 0 0 0 -83.138079144596531 205.84473590947027 0 205.84473590947027 -362.59135179362283 0 0 0 0 -1.0765844366631325 -3.3071807892494913 0 -3.3071807892494913 -5.869250987652606 0 0 0 0 -71.316220651727406 138.01920191435556 0 138.01920191435556 -160.43114619856715 0 0 0 0 -50.243657107350828 -566.36007253252865 0 -566.36007253252865 7.3959164653365406 0 0 0 0 -43.189916278233341 155.11876393508737 0 155.11876393508737 -602.37074513826701 0 0 0 0 -0.71273786077171186 -3.382235673369304 0 -3.382235673369304 -4.0994660498212454 0 0 0 0 -854.36795579296358 -360.74292742692796 0 -360.74292742692796 630.45309592697231 0 0 0 0 28.799467536256998 -255.21824092370662 0 -255.21824092370662 -1006.3024215073365 0 0 0 0 -394.50981646437776 -717.14513351254209 0 -717.14513351254209 -575.46752120112978 0 0 0 0 53.905127396291505 -121.34959626767841 0 -121.34959626767841 -415.51302536103321 0 0 0 0 -126.82772173598732 -349.00545614825205 0 -349.00545614825205 -431.18568698648846 0 0 0 0 -28.505966041918327 -169.72139875429093 0 -169.72139875429093 -147.89519903780456 0 0 0 0 -146.1154766374346 -170.66534609805717 0 -170.66534609805717 -136.32521548683508 0 0 0 0 -173.05990550418483 -52.7369022552557 0 -52.7369022552557 137.28116404562752 0 0 0 0 -155.71184250610213 315.54010891639155 0 315.54010891639155 553.79035289834792 0 0 0 0 -308.43683551765116 -186.08036888607967 0 -186.08036888607967 10.964499044555851 0 0 0 0 -205.49535986753881 -285.23331962261454 0 -285.23331962261454 66.110580219901749 0 0 0 0 -406.22391777499274 68.903722027238473 0 68.903722027238473 363.98931135323801 0 0 0 0 74.011227608379158 175.05488047909057 0 175.05488047909057 126.38483149081367 0 0 0 0 -85.086814713425838 82.016027108636536 0 82.016027108636536 83.371226388193463 0 0 0 0 100.42508926083974 132.79226477946577 0 132.79226477946577 69.182842007699946 0 0 0 0 -48.214520791812902 64.006741054763552 0 64.006741054763552 50.145336319063063 0 0 0 0 -67.759785933656303 20.498151261640487 0 20.498151261640487 48.375873570759722 0 0 0 0 -37.943327861953549 52.800612062499567 0 52.800612062499567 31.11006857351822 0 0 0 0 -98.872832191326779 19.941928350956005 0 19.941928350956005 56.683659691942012 0 0 0 0 -100.4512452770955 -31.854149109002037 0 -31.854149109002037 -23.759872345624899 0 0 0 0 -48.077647546318985 23.72176288053015 0 23.72176288053015 6.6402133403498738 0 0 0 0 -59.640854798229611 -57.604543314380862 0 -57.604543314380862 -7.5680978546570259 0 0 0 0 -0.12583328614995937 -0.59843710002282791 0 -0.59843710002282791 -14.794318611011551 0 0 0 0 -0.92383649352195807 5.0750270870872143 0 5.0750270870872143 -18.062394561343609 0 0 0 0 -0.42713750927441652 6.2285414821144514 0 6.2285414821144514 -9.6670333798585375 0 0 0 0 351.06806829530251 96.65726208938122 0 96.65726208938122 -28.143445458419592 0 0 0 0 153.03463278926574 357.93402086145034 0 357.93402086145034 241.63750866096234 0 0 0 0 38.426567603739898 31.598228827801208 0 31.598228827801208 -27.086533131680653 0 0 0 0 37.49185293388382 23.855269515839154 0 23.855269515839154 -34.905114179737211 0 0 0 0 -1.5232398506392597 4.9586660100445039 0 4.9586660100445039 -11.820663808038777 0 0 0 0 -14.954381854893654 -33.0676906773665 0 -33.0676906773665 -164.13643642449279 0 0 0 0 34.277076562117827 21.685250047835325 0 21.685250047835325 -0.0049530594651514548 0 0 0 0 10.892191803975493 2.9599783857045168 0 2.9599783857045168 1.5411871456501558 0 0 0 0 9.4601907838293755 8.0203861087223345 0 8.0203861087223345 -1.626767849402313 0 0 0 0 -2.2082752986070773 17.100364917970296 0 17.100364917970296 -0.015621231876467245 0 0 0 0 -28.90524417378856 17.280898191414394 0 17.280898191414394 -58.255686168644161 0 0 0 0 -0.097229128286734579 -0.15094528447304656 0 -0.15094528447304656 -0.065463703738531109 0 0 0 0 8.3723886272600794 10.165437630821316 0 10.165437630821316 -57.731660328728935 0 0 0 0 -3.5928325609281728 35.866817077189296 0 35.866817077189296 -49.789516765288226 0 0 0 0 -8.671251224704065 24.073703011240241 0 24.073703011240241 -63.044774164702176 0 0 0 0 -50.669664674045634 19.10370763890478 0 19.10370763890478 -62.142715062180457 0 0 0 0 17.21377425758692 16.085356487239096 0 16.085356487239096 -34.166321071298384 0 0 0 0 46.608287964760166 2.0575129684023068 0 2.0575129684023068 -46.409447589042401 0 0 0 0 34.492473510914806 25.138610133913744 0 25.138610133913744 -44.825209868380171 0 0 0 0 30.473346743996899 5.5584762449836376 0 5.5584762449836376 -26.522430525997606 0 0 0 0 60.591550515059225 10.611865746859735 0 10.611865746859735 -55.569951155881199 0 0 0 0 28.957512231772967 14.060571772237488 0 14.060571772237488 -69.719799993476045 0 0 0 0 29.136689829436364 10.98525290145767 0 10.98525290145767 -45.540479144901383 0 0 0 0 26.604837660772318 -5.8013607403765945 0 -5.8013607403765945 -59.780425210174087 0 0 0 0 53.588300575212088 15.430553034771265 0 15.430553034771265 -50.657745052687119 0 0 0 0 -67.320969098734849 36.942744036278896 0 36.942744036278896 -79.432617027626293 0 0 0 0 -39.829294342414869 20.843746843303961 0 20.843746843303961 -76.987440710616966 0 0 0 0 -20.255950870845481 -9.4112376389891779 0 -9.4112376389891779 -96.738117721608319 0 0 0 0 -40.006985288486248 17.332089936125158 0 17.332089936125158 -135.15890319918435 0 0 0 0 -72.630461215801915 -32.273240297372922 0 -32.273240297372922 -109.97712794257745 0 0 0 0 -11.462013987193131 16.692255218780929 0 16.692255218780929 -86.377918090201092 0 0 0 0 -8.4592719984721043 25.099750099674452 0 25.099750099674452 -68.174589315914091 0 0 0 0 10.862653500498709 10.129859455451651 0 10.129859455451651 -55.180860008987111 0 0 0 0 10.789923637728862 7.9613787521236645 0 7.9613787521236645 -83.794845030256965 0 0 0 0 -18.423563316649961 0.093659776357071678 0 0.093659776357071678 -57.467171007838033 0 0 0 0 8.6349980985733055 8.0554700272030004 0 8.0554700272030004 -56.719497877694948 0 0 0 0 -49.562896226720113 5.9271446306581765 0 5.9271446306581765 -56.471425904463104 0 0 0 0 -38.834682366583365 -5.1937827249369093 0 -5.1937827249369093 -49.965537505658403 0 0 0 0 24.625117144997603 -14.173012118022143 0 -14.173012118022143 -34.035628005561591 0 0 0 0 18.162426367825447 -0.066517960930923437 0 -0.066517960930923437 -38.582219585133089 0 0 0 0 -25.829941403724661 19.889133424641386 0 19.889133424641386 -37.801505032588693 0 0 0 0 -10.103763342391176 13.378659311904244 0 13.378659311904244 -45.682869681768807 0 0 0 0 -3.0409560250413961 12.349344884048662 0 12.349344884048662 -35.368736208204382 0 0 0 0 1.2863609604764861 11.130312415509593 0 11.130312415509593 -40.820961170916917 0 0 0 0 -7.0327506004400107 -11.086421247455135 0 -11.086421247455135 -40.690490856503402 0 0 0 0 1.3094842169260752 -1.1952731031480717 0 -1.1952731031480717 -33.689909816846637 0 0 0 0 45.332302706111932 -27.286720913412523 0 -27.286720913412523 -21.390012974356523 0 0 0 0 76.633822876750628 -26.309642739297772 0 -26.309642739297772 -44.051009462398497 0 0 0 0 56.258589307131388 -9.8069238939431216 0 -9.8069238939431216 -41.817511408144583 0 0 0 0 62.952187351784005 0.27205353192744042 0 0.27205353192744042 -38.2719159773103 0 0 0 0 45.756651933736066 -1.3356997958202328 0 -1.3356997958202328 -22.562584055922798 0 0 0 0 24.979697436522656 -2.8675108172595856 0 -2.8675108172595856 -42.698672188668127 0 0 0 0 21.192766571314678 -18.107604880115673 0 -18.107604880115673 -34.666420701996515 0 0 0 0 12.425496493092169 -2.5792423196908771 0 -2.5792423196908771 -34.044084710558536 0 0 0 0 30.871968672577168 -15.389952627733805 0 -15.389952627733805 -31.387500971467716 0 0 0 0 0.30821491969845738 11.321342156889841 0 11.321342156889841 -34.719979941996826 0 0 0 0 1.4224406413321731 -16.593237813205633 0 -16.593237813205633 -43.01736680932845 0 0 0 0 62.412401708189009 131.50734020470372 0 131.50734020470372 245.67233647950889 0 0 0 0 -1.1121906878433627 -0.99207276516241727 0 -0.99207276516241727 -0.51606736793994656 0 0 0 0 100.4289138858303 -83.8037003053646 0 -83.8037003053646 -102.24571034184009 0 0 0 0 3.6317310433079086 15.046537690239347 0 15.046537690239347 3.3363369401049567 0 0 0 0 -1.6806857168302458 -2.0960567027898129 0 -2.0960567027898129 -4.2243907719885208 0 0 0 0 -5.1930059596438731 8.0572017229443418 0 8.0572017229443418 -15.251093644248613 0 0 0 0 -5.5960548859502524 -7.1355834455575859 0 -7.1355834455575859 -18.284734813521027 0 0 0 0 -0.29860039989915221 0.65020943735000714 0 0.65020943735000714 -2.3887163662234627 0 0 0 0 6.5123788674100069 22.474534745412711 0 22.474534745412711 11.211122127235285 0 0 0 0 1.602755732833073 0.43407078095147611 0 0.43407078095147611 -1.7523583569612171 0 0 0 0 10.817938952770959 8.0100526767479323 0 8.0100526767479323 0.87734980645655014 0 0 0 0 17.241994509833148 -22.367877636751928 0 -22.367877636751928 -7.9296524011540441 0 0 0 0 63.545691645978309 -0.064913896761936485 0 -0.064913896761936485 -45.108839822036316 0 0 0 0 4.0422160544404138 -1.8597692372462191 0 -1.8597692372462191 -11.544007525205739 0 0 0 0 1.2148031942843938 2.222170002876255 0 2.222170002876255 -27.370637349371115 0 0 0 0 172.64306229575504 95.775849942370769 0 95.775849942370769 -2.0742970638711995 0 0 0 0 -55.069769562711826 17.737994981296652 0 17.737994981296652 31.005987874645143 0 0 0 0 37.808546448687594 -103.73122118037918 0 -103.73122118037918 -44.305305182169832 0 0 0 0 40.885974527101098 12.132414367608817 0 12.132414367608817 -18.585694979076834 0 0 0 0 6.119063710522596 2.7161005020052471 0 2.7161005020052471 -1.4607134943489655 0 0 0 0 -8.4320098423784202 55.288241386318987 0 55.288241386318987 12.692036474716588 0 0 0 0 -0.7263492196873953 0.85162995258038521 0 0.85162995258038521 -0.69026569086391376 0 0 0 0 112.62891584150202 77.685549308147529 0 77.685549308147529 16.358824126466061 0 0 0 0 -51.25462145270626 52.46153388714265 0 52.46153388714265 22.826412510586124 0 0 0 0 -77.699365386007685 25.313553991627487 0 25.313553991627487 20.111698678847461 0 0 0 0 13.171779031241613 46.721907355360599 0 46.721907355360599 -27.357832591449551 0 0 0 0 30.371557654755748 -12.477457138111276 0 -12.477457138111276 5.4706855240729055 0 0 0 0 66.950193293510608 55.31412332486434 0 55.31412332486434 49.66635304878946 0 0 0 0 5.3182064872830779 -11.891519276028703 0 -11.891519276028703 13.315888779114175 0 0 0 0 0.68070767706879143 -0.48752630749205039 0 -0.48752630749205039 -1.1740636795883503 0 0 0 0 0.0731583394893911 -0.32126280607498359 0 -0.32126280607498359 -2.3446537544320938 0 0 0 0 0.47171595913323472 0.22418573544746323 0 0.22418573544746323 -2.2760588907531201 0 0 0 0 -1.2304236816492722 -2.0625296929029524 0 -2.0625296929029524 0.53352582679286975 0 0 0 0 -54.207299102397883 49.998210976962582 0 49.998210976962582 -88.499115719780093 0 0 0 0 -59.171323311759778 -36.106640581852844 0 -36.106640581852844 1.6230322890223761 0 0 0 0 2.868507490670396 -1.5000457264427496 0 -1.5000457264427496 -8.3570573805900494 0 0 0 0 -0.10774257012552124 0.38763291484664641 0 0.38763291484664641 -2.0609963323488358 0 0 0 0 -0.3645573661023036 -1.5222577011491012 0 -1.5222577011491012 -0.96300929804056068 0 0 0 0 1.4660477317713685 -1.9815523530360224 0 -1.9815523530360224 -2.8211233334623103 0 0 0 0 0.31299531221611687 -3.2911187759855238 0 -3.2911187759855238 -3.9482982011049899 0 0 0 0 0.1736832670782178 -2.942749508543784 0 -2.942749508543784 0.16063265033335483 0 0 0 0 3.4891433159468761 -11.085978595260713 0 -11.085978595260713 -13.073426214106803 0 0 0 0 12.219850598295352 0.21042800735540368 0 0.21042800735540368 -5.9378009446581927 0 0 0 0 -11.023027034985603 -6.4136299375250019 0 -6.4136299375250019 -0.85816827679445851 0 0 0 0 -2.8600674815675262 6.5885834716928002 0 6.5885834716928002 -15.109936158878554 0 0 0 0 -6.1385919521313781 34.132626696597072 0 34.132626696597072 -106.30128719262029 0 0 0 0 -10.421932459327621 10.097942712828171 0 10.097942712828171 -14.751737377509926 0 0 0 0 -17.951603136375525 26.340773246828576 0 26.340773246828576 -6.8955723117608159 0 0 0 0 0.010002451072002927 0.27710049639481049 0 0.27710049639481049 -0.95314242772121816 0 0 0 0 0.098211898635714556 0.19200108495222068 0 0.19200108495222068 -0.72308469503134631 0 0 0 0 33.017732331012354 41.059241274591841 0 41.059241274591841 -10.091659006024429 0 0 0 0 5.7922231566591043 -50.905349085015111 0 -50.905349085015111 -150.05009598117067 0 0 0 0 32.511634209754419 29.021674435988643 0 29.021674435988643 -85.113877040109401 0 0 0 0 6.1776656049358394 -21.074456886205553 0 -21.074456886205553 -99.775609446423914 0 0 0 0 18.910720657166905 -2.3816459914269217 0 -2.3816459914269217 -3.6624187906381849 0 0 0 0 -0.032759155531413287 0.58530789217920187 0 0.58530789217920187 -1.2810249688295627 0 0 0 0 8.297331127212658 -11.813634572175033 0 -11.813634572175033 -1.2653254945555545 0 0 0 0 9.0865025711187855 -10.442177355439526 0 -10.442177355439526 -12.938293994800915 0 0 0 0 -1.0475098235881006 -17.48537293771551 0 -17.48537293771551 -3.6655048931061174 0 0 0 0 5.1870549089827875 -11.9715704665864 0 -11.9715704665864 1.2108196216759097 0 0 0 0 -3.8072849405991747 -3.5074384689587532 0 -3.5074384689587532 -3.1187960832139652 0 0 0 0 78.877721855502926 -39.843367451625454 0 -39.843367451625454 -243.6488122963674 0 0 0 0 -73.388575133118138 -81.671987381986128 0 -81.671987381986128 -94.687060104863122 0 0 0 0 -24.17586310741757 6.1511477548447147 0 6.1511477548447147 -280.75022837223378 0 0 0 0 -2.4658093401429317 -2.0398070418714127 0 -2.0398070418714127 0.46242807195566193 0 0 0 0 -0.21437269158337902 0.68513850137661692 0 0.68513850137661692 -0.80504453043821123 0 0 0 0 9.9674063460283548 -192.69841705203203 0 -192.69841705203203 -426.14199282883601 0 0 0 0 -40.803793678361785 49.067345597083659 0 49.067345597083659 42.636258846408964 0 0 0 0 -20.975976089613255 -4.1682624474556178 0 -4.1682624474556178 -3.0810685226497299 0 0 0 0 2.2384260853468163 -28.385067837771658 0 -28.385067837771658 -20.587541609291293 0 0 0 0 0.20599791107067134 -0.13294692030466315 0 -0.13294692030466315 -0.72287521636268082 0 0 0 0 27.788103090739185 -4.3850134120921211 0 -4.3850134120921211 -16.080002219116068 0 0 0 0 -5.3364227875185009 -26.946523175363836 0 -26.946523175363836 -375.83363159481632 0 0 0 0 13.357734099624736 10.829930237699045 0 10.829930237699045 -3.9721754448655702 0 0 0 0 -0.84721125453893464 1.8715453233815111 0 1.8715453233815111 -2.884023604899145 0 0 0 0 -31.426963182981012 -120.96070102651447 0 -120.96070102651447 -360.46923961068751 0 0 0 0 -74.909088516164104 -131.61332439874241 0 -131.61332439874241 -232.74900237485417 0 0 0 0 -44.480599774918034 -138.5571664023264 0 -138.5571664023264 -313.82522397649518 0 0 0 0 -67.457706288630789 -100.96543937520073 0 -100.96543937520073 -283.94445661213467 0 0 0 0 -8.7351407921696591 -119.99271472153487 0 -119.99271472153487 -138.9068814616503 0 0 0 0 -81.368112120671668 -20.375099613700513 0 -20.375099613700513 -220.1320212743949 0 0 0 0 18.396196594230787 -20.457790505593948 0 -20.457790505593948 -131.4015101621917 0 0 0 0 -1.0736794573595554 -0.34154725679726461 0 -0.34154725679726461 1.0970449842618599 0 0 0 0 -72.53952907148323 -112.36844773493794 0 -112.36844773493794 -147.28129276655091 0 0 0 0 -51.158581832864712 -11.23212494645918 0 -11.23212494645918 -64.402694961037923 0 0 0 0 4.2750211204288462 -19.277644180727293 0 -19.277644180727293 -65.714728846731305 0 0 0 0 -16.73694564692579 -79.112725659788339 0 -79.112725659788339 -76.715967085807279 0 0 0 0 -7.9251453442129787 -81.819420625743078 0 -81.819420625743078 -203.09086086265597 0 0 0 0 -3.9764515151737214 -116.86783362804817 0 -116.86783362804817 -215.59790010530878 0 0 0 0 -24.077942164831924 -185.75608043219984 0 -185.75608043219984 -286.63110318989857 0 0 0 0 1.086456522347703 -104.28763893137329 0 -104.28763893137329 -188.71610486768259 0 0 0 0 49.83733357977701 -113.19438103528046 0 -113.19438103528046 -337.92656252275037 0 0 0 0 47.743573293093775 -104.55743432774409 0 -104.55743432774409 -325.64996549318857 0 0 0 0 -4.3639903307678765 -4.0952013797032123 0 -4.0952013797032123 -11.818155145369019 0 0 0 0 -1.0345424319315053 0.57462023650719019 0 0.57462023650719019 -2.0735521442830436 0 0 0 0 38.186350172465154 -129.87478124275776 0 -129.87478124275776 -361.74217420142486 0 0 0 0 0.19552497267847002 2.1970119109037114 0 2.1970119109037114 -9.5739688183839462 0 0 0 0 -0.58676023150323098 0.087169833685695863 0 0.087169833685695863 -0.21270888713672775 0 0 0 0 -63.699134314714449 -209.53977549531919 0 -209.53977549531919 -419.64038362012161 0 0 0 0 17.957314141717688 -82.677675084883958 0 -82.677675084883958 -293.6670265174489 0 0 0 0 0.76515318649213571 3.2390809787413719 0 3.2390809787413719 -6.2471008883700527 0 0 0 0 2.2161254940078265 2.9410097112950098 0 2.9410097112950098 -9.6534836054415791 0 0 0 0 2.4257027918961498 -1.3587616056823748 0 -1.3587616056823748 -6.3519942663518627 0 0 0 0 1.2556038167073709 -15.998065949007184 0 -15.998065949007184 -13.680298851105363 0 0 0 0 -4.6649459188669198 20.901223694374494 0 20.901223694374494 -5.139091302145971 0 0 0 0 1.7786555775256618 0.47358094904119596 0 0.47358094904119596 -7.6114327749484367 0 0 0 0 0.49762580795160005 -3.2839637989072799 0 -3.2839637989072799 -12.242610422323196 0 0 0 0 1.8498881396091522 0.89724473602961119 0 0.89724473602961119 -17.169515490117995 0 0 0 0 10.97242756261079 -16.411138109664535 0 -16.411138109664535 -30.61996965815888 0 0 0 0 1.0571003484538348 -0.17759398634103185 0 -0.17759398634103185 -3.1476961564344315 0 0 0 0 7.7834053650675088 39.989026596652593 0 39.989026596652593 -19.488976264429766 0 0 0 0 0.84339197005994038 -0.13096745209713845 0 -0.13096745209713845 -15.057824438893476 0 0 0 0 0.02197542590714141 2.4640122742262598 0 2.4640122742262598 -5.2964632891203465 0 0 0 0 3.5110499554213561 2.6837266362035734 0 2.6837266362035734 -17.458224742898892 0 0 0 0 3.7902219809138558 4.7575201226030686 0 4.7575201226030686 -12.490840120606663 0 0 0 0 -0.10374003987226121 2.0208826226387089 0 2.0208826226387089 -1.5809395153262429 0 0 0 0 -4.1744204153537652 -3.3669752581573391 0 -3.3669752581573391 -3.8801836804068444 0 0 0 0 -4.2905460836034504 -7.1353384567009499 0 -7.1353384567009499 -13.091796591164893 0 0 0 0 4.1988224076808933 -3.6500149574912939 0 -3.6500149574912939 -12.717514352595572 0 0 0 0 1.787632788464748 -0.46008838734451274 0 -0.46008838734451274 2.5091791940667463 0 0 0 0 0.033194568675491531 1.8903146473000945 0 1.8903146473000945 3.2640529129252442 0 0 0 0 1.767976968742289 -0.75524917038819694 0 -0.75524917038819694 -1.7713779453442839 0 0 0 0 -0.8050474924745572 6.5454524672923071 0 6.5454524672923071 -7.714765570617601 0 0 0 0 -1.0225789457822003 7.7741988069802801 0 7.7741988069802801 -7.0519416010392888 0 0 0 0 4.4789682975576284 12.939263250428667 0 12.939263250428667 -8.2034977175062522 0 0 0 0 0.88618235443564874 3.1716552471970054 0 3.1716552471970054 4.0450375737790658 0 0 0 0 1.5409515322062362 3.2449882865057589 0 3.2449882865057589 7.2308495018060057 0 0 0 0 -0.93021120094076082 12.571980023437732 0 12.571980023437732 14.884360812811792 0 0 0 0 -3.8090452560483641 3.3428080580538335 0 3.3428080580538335 10.728203125476284 0 0 0 0 -2.9623141335237051 7.9268090055875291 0 7.9268090055875291 -2.2253745738889847 0 0 0 0 -7.2542823105973184 0.83584080806940619 0 0.83584080806940619 7.9612183378242207 0 0 0 0 0.25204746013367441 0.01577750498834618 0 0.01577750498834618 -0.16903920558542396 0 0 0 0 -8.7031512417813701 3.952804303827179 0 3.952804303827179 3.7703768615756417 0 0 0 0 -7.5845801882921364 9.8842143358333487 0 9.8842143358333487 -39.149657029405716 0 0 0 0 -21.782250540943664 1.6609029079372704 0 1.6609029079372704 -2.9376442756166625 0 0 0 0 -58.24473048295647 -17.148421636842613 0 -17.148421636842613 -43.393168964899019 0 0 0 0 -33.2121068398842 11.561926131614655 0 11.561926131614655 -71.82647494894627 0 0 0 0 -11.970682354509165 -64.901284736533853 0 -64.901284736533853 -165.95062457800577 0 0 0 0 -4.8292810949421892 -7.4938366290716658 0 -7.4938366290716658 -97.723334663650348 0 0 0 0 -9.637813507028234 -46.078043100587365 0 -46.078043100587365 -92.607727084068756 0 0 0 0 0.65295809108092506 -0.12060608557750285 0 -0.12060608557750285 0.3419101447271089 0 0 0 0 0.86440268175061874 -8.6831721385460696 0 -8.6831721385460696 -52.930520368365251 0 0 0 0 -9.3642496054702633 18.680632865476582 0 18.680632865476582 -31.323894328470487 0 0 0 0 28.365277202495918 40.684390769849415 0 40.684390769849415 -64.829409970856204 0 0 0 0 36.628811106305648 -8.913858794456246 0 -8.913858794456246 -225.59015222703601 0 0 0 0 -6.5628005828390883 -75.707885814428664 0 -75.707885814428664 -204.90636433239206 0 0 0 0 6.1416251515557292 -80.009524282206257 0 -80.009524282206257 -226.8454808081342 0 0 0 0 33.287624910984881 -31.452553769078804 0 -31.452553769078804 2.1358553449981628 0 0 0 0 -22.221344418143083 -9.8683429211550902 0 -9.8683429211550902 41.939930989636196 0 0 0 0 -1.8411270388744008 -1.616664372103596 0 -1.616664372103596 0.23945442099932635 0 0 0 0 -3.2855094801774669 -6.6935618916895692 0 -6.6935618916895692 18.918229468448772 0 0 0 0 -13.55533427475903 -0.1084972871528862 0 -0.1084972871528862 -11.812710752410567 0 0 0 0 4.4689385107398394 -23.560589563386657 0 -23.560589563386657 -28.492914950196791 0 0 0 0 -21.765100285717608 -23.396341883770219 0 -23.396341883770219 -65.852395355911085 0 0 0 0 -3.0615117420858979 -0.60911698404197523 0 -0.60911698404197523 -98.648068757453075 0 0 0 0 -5.0486742501626338 1.4188990016227763 0 1.4188990016227763 -53.55673834103618 0 0 0 0 30.369972543042266 -14.398472110510738 0 -14.398472110510738 -162.36134108990154 0 0 0 0 -0.55681948114084889 -24.663132650330226 0 -24.663132650330226 -28.908321964692732 0 0 0 0 -84.687423684592659 5.0950224022744806 0 5.0950224022744806 -37.424488472496705 0 0 0 0 -24.365430032198489 -19.292114819800645 0 -19.292114819800645 -68.851436770226428 0 0 0 0 -71.795544026201014 -1.3210664219022874 0 -1.3210664219022874 -42.352709842916937 0 0 0 0 -81.985753077802201 -4.2143141552478482 0 -4.2143141552478482 -42.347139596593493 0 0 0 0 -12.852157993626449 -5.8077183924087876 0 -5.8077183924087876 -60.794579917621718 0 0 0 0 8.4043721356900676 -19.799566921637052 0 -19.799566921637052 -59.233262147953269 0 0 0 0 -69.552929251174191 26.742237712263886 0 26.742237712263886 -31.035235663874118 0 0 0 0 -10.663711752309055 24.381787161623379 0 24.381787161623379 -46.350261233568745 0 0 0 0 -76.532795710695922 9.1597417354357731 0 9.1597417354357731 -35.514926774081687 0 0 0 0 -101.27536808413089 -0.75284232540434459 0 -0.75284232540434459 -26.204620537200753 0 0 0 0 3.408447294067571 -128.76864625778126 0 -128.76864625778126 -376.65259403375353 0 0 0 0 -14.983511820757144 -117.66481231948092 0 -117.66481231948092 -43.098108307422649 0 0 0 0 -0.58111555593872266 -0.51884759972260852 0 -0.51884759972260852 -0.083222697407707713 0 0 0 0 -51.675177526041566 -2.528818968374253 0 -2.528818968374253 120.84886332391852 0 0 0 0 -44.469564759251597 -31.24214271462688 0 -31.24214271462688 -186.30048418198385 0 0 0 0 -126.04685772243357 -140.79519829523088 0 -140.79519829523088 -106.36053387409083 0 0 0 0 -36.951542113964024 -62.273563810852465 0 -62.273563810852465 -154.20399693881518 0 0 0 0 -42.203425960355958 -18.358137840934432 0 -18.358137840934432 1.9327259323927137 0 0 0 0 -21.69693161772642 -59.303710272748503 0 -59.303710272748503 -71.77198790660259 0 0 0 0 -63.821643339951152 -98.673469452998688 0 -98.673469452998688 -20.215687365984195 0 0 0 0 88.878354452893745 24.968102295812059 0 24.968102295812059 -15.487111594171438 0 0 0 0 -10.966211346314935 -18.176849584061529 0 -18.176849584061529 85.553620493730705 0 0 0 0 -15.6131258385306 150.30991572924853 0 150.30991572924853 -280.63830956809943 0 0 0 0 -8.6604712565013138 90.175300023280784 0 90.175300023280784 -151.41980088301352 0 0 0 0 -0.69478525740076424 -1.1765950808001779 0 -1.1765950808001779 -1.9293861963643195 0 0 0 0 -2.9033915199065632 -150.92114946144466 0 -150.92114946144466 -18.711586504224215 0 0 0 0 4.784365175796097 -157.7363008136017 0 -157.7363008136017 -138.70485008037213 0 0 0 0 -70.043224700693031 -72.986647590672874 0 -72.986647590672874 -120.88616009873658 0 0 0 0 -5.5538593339170177 -77.328326913761884 0 -77.328326913761884 -306.50741197542084 0 0 0 0 1.1528296789504111 -141.27713876742564 0 -141.27713876742564 -210.60833188393553 0 0 0 0 -171.22385120571315 -83.153217197280668 0 -83.153217197280668 -111.92296555686153 0 0 0 0 -164.98514929716333 76.656647008671825 0 76.656647008671825 -118.88223723815918 0 0 0 0 18.954160345248056 -5.299145377077366 0 -5.299145377077366 -309.60982339519387 0 0 0 0 -11.264073642153633 1.4121612367976013 0 1.4121612367976013 -36.521725510117903 0 0 0 0 70.966925300178815 -107.41049365174763 0 -107.41049365174763 -67.264701434076414 0 0 0 0 12.432647789312966 29.647067527342188 0 29.647067527342188 -51.230408638334666 0 0 0 0 -117.72020528734444 -0.64266037336528825 0 -0.64266037336528825 50.448176265316761 0 0 0 0 -0.0074996162562327891 -16.796367549218303 0 -16.796367549218303 -16.220895808799469 0 0 0 0 -0.60784089912972228 -1.3998763823350497 0 -1.3998763823350497 -2.2672576052333042 0 0 0 0 14.374922384052873 -26.914259774961465 0 -26.914259774961465 -10.784748776960214 0 0 0 0 6.1120844411875295 -1.7558869030672213 0 -1.7558869030672213 7.6362267415897804 0 0 0 0 28.578968875209505 107.1749982639501 0 107.1749982639501 -216.30218202441756 0 0 0 0 30.269254416174206 60.449188669732365 0 60.449188669732365 -251.88225963120203 0 0 0 0 0.017611567648882876 -12.985118966120353 0 -12.985118966120353 14.053524590611687 0 0 0 0 -0.11354632076180469 -0.5037058767145286 0 -0.5037058767145286 -1.4093833078738172 0 0 0 0 25.255771090683311 99.550111272466893 0 99.550111272466893 -149.03087593064447 0 0 0 0 -16.142433187993532 -42.603515259597771 0 -42.603515259597771 -85.523670102113556 0 0 0 0 0.078177735397285952 -0.028356225003609126 0 -0.028356225003609126 -0.25763301551312878 0 0 0 0 28.877382247200671 43.365539120946778 0 43.365539120946778 -96.067321000729862 0 0 0 0 68.41761532018495 -85.309353861292038 0 -85.309353861292038 -204.16231467823764 0 0 0 0 -0.3051606965796862 -69.136518289560627 0 -69.136518289560627 -111.85048707379246 0 0 0 0 69.17710017431132 -36.809046433352705 0 -36.809046433352705 -158.90993726764191 0 0 0 0 28.944212030710027 4.0487924351928086 0 4.0487924351928086 36.888864835746062 0 0 0 0 0.16867747163830737 -46.734295410991763 0 -46.734295410991763 54.693027267555408 0 0 0 0 -1.6815789195902138 -3.9865264517229129 0 -3.9865264517229129 -5.8099811055654129 0 0 0 0 -9.0409679785183243 -25.201912126108255 0 -25.201912126108255 11.71963079572015 0 0 0 0 3.1429567811143073 -1.9322233854227306 0 -1.9322233854227306 3.226482707366813 0 0 0 0 0.029826172995685962 -0.15083910045697557 0 -0.15083910045697557 0.0018207676676809115 0 0 0 0 1.2675705524552692 -3.7341917469502732 0 -3.7341917469502732 -30.742760467217522 0 0 0 0 1.0476757445599014 0.71028669912805498 0 0.71028669912805498 -2.1000873838429612 0 0 0 0 18.98788273416119 -1.4601550445322573 0 -1.4601550445322573 -8.8741078196026137 0 0 0 0 6.7749137811740638 1.74299822210196 0 1.74299822210196 -8.5346161460455505 0 0 0 0 2.9635338625470142 1.9553183829836627 0 1.9553183829836627 -4.8546935783889538 0 0 0 0 -1.6420475293699361 -3.0447924084957592 0 -3.0447924084957592 -4.5438839405365918 0 0 0 0 28.16765688715887 -13.276247350130348 0 -13.276247350130348 0.62367017112410394 0 0 0 0 34.500878347837897 -20.795695556675128 0 -20.795695556675128 2.2256983336442318 0 0 0 0 69.724893900189727 -29.2641575958678 0 -29.2641575958678 -8.497802156573016 0 0 0 0 3.9983525839556933 16.089441765698211 0 16.089441765698211 1.9612215115994331 0 0 0 0 27.448602839529713 14.908650972065516 0 14.908650972065516 -9.8423264488355926 0 0 0 0 62.688419884636346 -7.948437253478005 0 -7.948437253478005 -17.925306373261265 0 0 0 0 32.559559147554268 6.336209579720844 0 6.336209579720844 -19.835710419287352 0 0 0 0 1.7934568516916443 27.940322156467118 0 27.940322156467118 -45.949111473664743 0 0 0 0 15.741443650653139 2.2482100213942431 0 2.2482100213942431 -16.792676994587964 0 0 0 0 -34.04852842385742 -3.2566647297571762 0 -3.2566647297571762 -22.020022965059979 0 0 0 0 -7.3880248627989431 15.296181695980522 0 15.296181695980522 -3.7331761369441665 0 0 0 0 -9.9323686699243012 23.280778128631482 0 23.280778128631482 -23.619391029747931 0 0 0 0 26.446943460909893 8.5162568784617179 0 8.5162568784617179 -13.910427344154414 0 0 0 0 14.39761452136463 10.003314283713735 0 10.003314283713735 -12.331613645655125 0 0 0 0 15.139427020376388 26.907921714746408 0 26.907921714746408 -27.689540807313278 0 0 0 0 2.3752150391852664 2.7014869321556532 0 2.7014869321556532 -4.9511773691384349 0 0 0 0 5.7648024118208241 21.502097228364164 0 21.502097228364164 7.1441963966199182 0 0 0 0 9.5928311383894425 19.450113081370546 0 19.450113081370546 -6.2046013155829769 0 0 0 0 -1.4810332651390272 -11.603124469461591 0 -11.603124469461591 -36.722287063541444 0 0 0 0 0.35445369498781787 -6.6361323990488472 0 -6.6361323990488472 -26.456594238223261 0 0 0 0 0.71699060530368985 -6.3565938304345764 0 -6.3565938304345764 -29.706501710910743 0 0 0 0 -0.00015798058974577357 -5.6465767069916168 0 -5.6465767069916168 -26.912964375867887 0 0 0 0 0.52004366841749849 -3.1124255051363434 0 -3.1124255051363434 -25.202955337193998 0 0 0 0 -6.3833300983098002 0.94112953433977964 0 0.94112953433977964 -32.771840757345672 0 0 0 0 -0.0076516000089944958 -2.8870482238799013 0 -2.8870482238799013 -36.098346143468916 0 0 0 0 -7.7158870132322779 -2.6738503839715122 0 -2.6738503839715122 -31.603110773813569 0 0 0 0 -4.9071918901142642 3.5909426999471634 0 3.5909426999471634 -31.025413133178517 0 0 0 0 -5.0902333224365233 2.7429566484288443 0 2.7429566484288443 -28.95673838827679 0 0 0 0 -1.1593462980511049 4.2777335551136275 0 4.2777335551136275 -31.387024288544126 0 0 0 0 -1.4882899827145799 4.9984095696681834 0 4.9984095696681834 -30.085194596695146 0 0 0 0 0.63517461271381848 3.8753426001539992 0 3.8753426001539992 -29.494584235259936 0 0 0 0 -1.3244218879997511 6.5030438210478678 0 6.5030438210478678 -33.987999673134254 0 0 0 0 1.0492571471637646 5.2325026693242762 0 5.2325026693242762 -32.667131328262258 0 0 0 0 0.86392045271898965 4.1268426084379826 0 4.1268426084379826 -32.452732443047353 0 0 0 0 -7.1233147552889085 4.8416073455591686 0 4.8416073455591686 -30.968629031737692 0 0 0 0 1.3548551716491914 2.6352255154470186 0 2.6352255154470186 -33.79209920842311 0 0 0 0 -0.28962894385855176 -0.11599821104559283 0 -0.11599821104559283 -0.09967895419044126 0 0 0 0 -17.061565751819764 5.9650286977980613 0 5.9650286977980613 -17.854272259197387 0 0 0 0 -32.662324451665697 -16.606881412566963 0 -16.606881412566963 -39.259259973827284 0 0 0 0 -14.971805123029775 0.76885354159458075 0 0.76885354159458075 -28.172583641873644 0 0 0 0 -15.033364051211308 -16.872713813442822 0 -16.872713813442822 -48.589097162424878 0 0 0 0 -0.024851360477281103 -11.938700266086926 0 -11.938700266086926 -56.293051884901615 0 0 0 0 -11.092968910948663 -30.139932540574591 0 -30.139932540574591 -82.685939334067371 0 0 0 0 -15.534183916973099 -24.852029458921606 0 -24.852029458921606 -82.101598844003206 0 0 0 0 0.016492450239771184 -25.427334706051624 0 -25.427334706051624 -95.156879874313745 0 0 0 0 -24.905691520109379 -32.445761399108051 0 -32.445761399108051 -87.135288108234818 0 0 0 0 -9.1357921556486925 -32.291397352027161 0 -32.291397352027161 -99.395606104591934 0 0 0 0 0.010220846952867388 -20.864201241373848 0 -20.864201241373848 -73.089680826689801 0 0 0 0 18.341789539203042 -16.432419037727414 0 -16.432419037727414 -97.676561763622203 0 0 0 0 -7.2861219749562025 -9.3330047532745084 0 -9.3330047532745084 -5.7133037317821618 0 0 0 0 6.9275701309099222 4.617127503352549 0 4.617127503352549 -56.523025193619105 0 0 0 0 17.753767972688664 25.744374954497289 0 25.744374954497289 -118.53148845217675 0 0 0 0 0.43093694879638633 -52.02861793123293 0 -52.02861793123293 -144.73196318649389 0 0 0 0 -87.782579651824136 -83.544288910000887 0 -83.544288910000887 27.631194748690177 0 0 0 0 -0.52968062518006964 -0.75851784766672203 0 -0.75851784766672203 -1.0578928358409314 0 0 0 0 -76.676765511552375 -19.175520688489883 0 -19.175520688489883 -58.687652573669766 0 0 0 0 -51.808344748450892 -71.3550633754503 0 -71.3550633754503 -100.81868015686814 0 0 0 0 -24.101936650302079 -43.290160561468838 0 -43.290160561468838 -75.55277062579853 0 0 0 0 -23.255846944958414 -42.579430908961172 0 -42.579430908961172 -76.963192675719256 0 0 0 0 -1.8638132729528714 12.16125266474171 0 12.16125266474171 -51.878764369937926 0 0 0 0 -19.294050738255585 11.025489816177014 0 11.025489816177014 -99.553982320519935 0 0 0 0 3.2478912422355606 11.024397927287282 0 11.024397927287282 -50.258267111495115 0 0 0 0 -18.106113465743924 1.898827406583905 0 1.898827406583905 -46.057524628287865 0 0 0 0 -48.289972102646885 -69.468922702297277 0 -69.468922702297277 -130.2469513033484 0 0 0 0 -11.491009805456837 -37.117845531484591 0 -37.117845531484591 -64.257863235543482 0 0 0 0 -17.141358064781237 -26.639414908109302 0 -26.639414908109302 -71.95525756418283 0 0 0 0 -0.23223633184747888 -0.302776195178172 0 -0.302776195178172 -0.37287474002289045 0 0 0 0 8.2617868348135914 20.282353321839764 0 20.282353321839764 -164.92119325627937 0 0 0 0 11.383655926483002 -38.729135262330601 0 -38.729135262330601 -93.97707752390977 0 0 0 0 17.567387830105901 7.0940844111846673 0 7.0940844111846673 -23.78546953897785 0 0 0 0 12.538695942725157 -53.785896695329171 0 -53.785896695329171 3.4584877307679562 0 0 0 0 20.853266831610682 4.4119658080644513 0 4.4119658080644513 -42.212680782742609 0 0 0 0 8.8516623348864911 -2.4239147487905939 0 -2.4239147487905939 -33.081137257824594 0 0 0 0 7.9323165145224905 3.5625245060291491 0 3.5625245060291491 -69.263073415812414 0 0 0 0 5.2361193428971262 2.6362100981395997 0 2.6362100981395997 -31.819707318776636 0 0 0 0 9.739482274435197 9.8411679159933101 0 9.8411679159933101 -37.424451734907052 0 0 0 0 29.657799199593878 9.7325187111614468 0 9.7325187111614468 -28.0914312764653 0 0 0 0 23.745823416360622 -0.30675161497674708 0 -0.30675161497674708 -30.482139872127846 0 0 0 0 35.561795457230097 6.1802522678685818 0 6.1802522678685818 -44.60003975309337 0 0 0 0 -3.8442642237071283 -0.57332438673347497 0 -0.57332438673347497 -10.020573604140736 0 0 0 0 20.272231410438359 26.079695846313371 0 26.079695846313371 -33.588330054677499 0 0 0 0 -0.22641314637437199 -0.017456804280300275 0 -0.017456804280300275 -0.041269401909357128 0 0 0 0 1.2569562204392071 6.9212760510599765 0 6.9212760510599765 -36.121726380323707 0 0 0 0 -8.6401962483231785 16.302836401031527 0 16.302836401031527 -33.013594042206023 0 0 0 0 -4.1680216487896713 11.085707196523856 0 11.085707196523856 -17.838314591950621 0 0 0 0 -6.9745470345794729 16.920577649570987 0 16.920577649570987 -22.361245168531696 0 0 0 0 -6.6770580054509097 19.93046160695576 0 19.93046160695576 -33.736834258137606 0 0 0 0 -16.433129802392799 -2.5233804856729876 0 -2.5233804856729876 -13.092754315895945 0 0 0 0 -0.50815412127235604 -0.15382216723613951 0 -0.15382216723613951 -0.096402888756177418 0 0 0 0 0.19727142983265367 4.5820058703047835 0 4.5820058703047835 -30.369595208070677 0 0 0 0 -0.15624260504044152 1.4868962415444003 0 1.4868962415444003 -27.395556246096021 0 0 0 0 0.18733039389395501 7.7793482780589329 0 7.7793482780589329 -33.104673752406597 0 0 0 0 -0.59079609829392687 5.7235760020146245 0 5.7235760020146245 -31.571715092777595 0 0 0 0 2.7759145103408756 6.1075005364627941 0 6.1075005364627941 -32.549012687593859 0 0 0 0 2.0379793451205614 5.148441303904292 0 5.148441303904292 -31.731466359883825 0 0 0 0 1.3430395502080898 5.5017910548885993 0 5.5017910548885993 -30.229568212339473 0 0 0 0 1.287509450218387 4.5117117425170363 0 4.5117117425170363 -30.787278065574355 0 0 0 0 3.6215589526080976 5.1220640926630949 0 5.1220640926630949 -30.383614909505468 0 0 0 0 1.5081898218568384 5.6641519785762284 0 5.6641519785762284 -30.505606044644082 0 0 0 0 1.5890508343240555 7.4430659503250354 0 7.4430659503250354 -31.46984583662379 0 0 0 0 5.5787882108774625 6.604563141532708 0 6.604563141532708 -31.293834637877808 0 0 0 0 5.4154681494796222 6.7549953301049754 0 6.7549953301049754 -31.259089934519579 0 0 0 0 7.5533881259038935 6.8748351818539959 0 6.8748351818539959 -33.757908787138149 0 0 0 0 7.5873937512595973 6.5640781196098033 0 6.5640781196098033 -32.308375913755299 0 0 0 0 8.7022744704059107 7.4744949974519841 0 7.4744949974519841 -33.990685307846434 0 0 0 0 11.044120799717312 12.494317687368039 0 12.494317687368039 -33.70587840375083 0 0 0 0 11.858083905692354 5.0710337346536107 0 5.0710337346536107 -44.298501266584935 0 0 0 0 8.6597060554251186 6.4313619031745475 0 6.4313619031745475 -36.560435219063947 0 0 0 0 13.528050698316619 8.3160357730762371 0 8.3160357730762371 -38.068055876301514 0 0 0 0 5.5381230219220825 10.626023017599437 0 10.626023017599437 -34.339579415482149 0 0 0 0 1.2589456626819526 3.6941473335718911 0 3.6941473335718911 -31.440069233362919 0 0 0 0 5.3615140443069862 2.7664621568510483 0 2.7664621568510483 -34.430238827457288 0 0 0 0 7.5835182795387936 4.1735157751418228 0 4.1735157751418228 -33.878768092235077 0 0 0 0 7.6242876038406564 3.5090590219224396 0 3.5090590219224396 -37.779691716883463 0 0 0 0 8.6290547825031041 6.3740526828539714 0 6.3740526828539714 -34.877223782001238 0 0 0 0 7.3363250477447011 6.9197512033576913 0 6.9197512033576913 -32.630364188407839 0 0 0 0 7.9034252568831107 5.6368448169760086 0 5.6368448169760086 -34.249517533831749 0 0 0 0 7.4816710301350611 6.7447231297082908 0 6.7447231297082908 -32.512244814949554 0 0 0 0 5.1808979662180263 5.0182712877740414 0 5.0182712877740414 -34.17417712923816 0 0 0 0 5.1649766558201868 6.5950992295739539 0 6.5950992295739539 -29.591299345644074 0 0 0 0 3.3663456417040152 8.3581240842759144 0 8.3581240842759144 -30.880826791564687 0 0 0 0 6.7139774023683572 9.0349630865930521 0 9.0349630865930521 -31.291731170667845 0 0 0 0 1.1397505176790332 11.494350364187994 0 11.494350364187994 -29.074274001266531 0 0 0 0 3.2082674650735612 8.5810407249737182 0 8.5810407249737182 -26.898649606853724 0 0 0 0 9.2700452382867979 6.3171246335632532 0 6.3171246335632532 -27.161853324005278 0 0 0 0 4.2001799332484211 7.2561468923267967 0 7.2561468923267967 -26.743583584765474 0 0 0 0 7.6421694416888499 8.2281573832060531 0 8.2281573832060531 -27.077207534544868 0 0 0 0 4.4537012614496234 5.2807530669306288 0 5.2807530669306288 -25.249153164993004 0 0 0 0 1.7793800877611829 6.9158664826909444 0 6.9158664826909444 -27.579645154950413 0 0 0 0 4.2632689389948837 7.0260244212777252 0 7.0260244212777252 -29.01724113621367 0 0 0 0 3.0649553656275117 0.06108612666503177 0 0.06108612666503177 -38.894987416124422 0 0 0 0 3.0339016762053461 4.0696169139228004 0 4.0696169139228004 -31.354725422277625 0 0 0 0 -0.041380993680490974 -0.54596870587556623 0 -0.54596870587556623 -28.575104770062353 0 0 0 0 3.5469954928685183 2.5994956421645838 0 2.5994956421645838 -24.199461369280471 0 0 0 0 6.6322165559343489 8.1083044813785818 0 8.1083044813785818 -21.800570457242429 0 0 0 0 3.8841518745650774 6.177437044432736 0 6.177437044432736 -26.479436669760616 0 0 0 0 0.34700964417015712 0.96928430248590303 0 0.96928430248590303 -24.649553606455356 0 0 0 0 -14.892774158175371 0.75233394254428276 0 0.75233394254428276 13.617344339181727 0 0 0 0 59.745912096549688 -38.931957692538163 0 -38.931957692538163 -62.114701404048901 0 0 0 0 1.0366390429808763 -0.028035661502240572 0 -0.028035661502240572 -0.089506914786706915 0 0 0 0 -3.0803689062577178 26.491523822853651 0 26.491523822853651 -37.839620845630634 0 0 0 0 -6.6660529822549961 38.042078850897269 0 38.042078850897269 15.497525944490917 0 0 0 0 3.3502888244664746 -0.66155098514445854 0 -0.66155098514445854 -29.330608792442945 0 0 0 0 -3.037688168260388 6.598130928206956 0 6.598130928206956 -3.652868707653397 0 0 0 0 0.95491776299729925 0.1069554353392661 0 0.1069554353392661 -0.11442243222453818 0 0 0 0 -4.3628071309345984 -0.90855689436557441 0 -0.90855689436557441 -34.245127836964457 0 0 0 0 0.35013867417516875 0.094951313863933962 0 0.094951313863933962 -0.067077904563683788 0 0 0 0 13.04181264569695 -6.2889916377462214 0 -6.2889916377462214 -50.239504635766934 0 0 0 0 11.459378988838296 11.784897736077255 0 11.784897736077255 -10.229161308715447 0 0 0 0 21.467420293088225 24.558541168165902 0 24.558541168165902 -0.40398339930834481 0 0 0 0 1.9301541273769089 8.1623971991766666 0 8.1623971991766666 -28.468527941845309 0 0 0 0 17.388316479713481 1.6573548936371481 0 1.6573548936371481 -32.835771085432498 0 0 0 0 -0.43997425160595949 -0.61121485417568522 0 -0.61121485417568522 -0.61829649682974974 0 0 0 0 23.787239560349349 -2.7119365721919166 0 -2.7119365721919166 -31.909351176841028 0 0 0 0 12.475128702872155 -35.463199018053274 0 -35.463199018053274 -6.4034157845326263 0 0 0 0 33.366574289558514 12.010313388530676 0 12.010313388530676 -57.201512789146364 0 0 0 0 43.825188470408037 -12.502033405451357 0 -12.502033405451357 -77.076258445205895 0 0 0 0 21.147319955873655 11.388931548858636 0 11.388931548858636 -83.456517412825633 0 0 0 0 34.495548783804026 5.4494734319528106 0 5.4494734319528106 -118.85752213967498 0 0 0 0 37.247092776130501 10.015919938185107 0 10.015919938185107 -159.60637253802906 0 0 0 0 -0.93775286744295272 40.20290553788891 0 40.20290553788891 -66.528474407052272 0 0 0 0 -0.49215420507096042 -30.798161055540277 0 -30.798161055540277 -142.58205846633791 0 0 0 0 -4.4472837477681537 29.370744859453907 0 29.370744859453907 -124.06785704369941 0 0 0 0 10.111448985245033 -31.006806758266976 0 -31.006806758266976 -114.71791575689713 0 0 0 0 32.040770241511041 13.392154531581582 0 13.392154531581582 -143.2760619356086 0 0 0 0 -15.436537607153468 8.9467597067814495 0 8.9467597067814495 -4.6965489248268568 0 0 0 0 -29.555256412332199 -25.610572798260364 0 -25.610572798260364 -42.80880640128089 0 0 0 0 -2.4958796049370449 12.28145092424802 0 12.28145092424802 -68.787369639805092 0 0 0 0 17.299064605865283 -11.209004155291041 0 -11.209004155291041 -57.208811035963663 0 0 0 0 -8.0983579060317652 -9.1044923799499884 0 -9.1044923799499884 -20.563254199623771 0 0 0 0 10.947702079180544 -9.2405531938566128 0 -9.2405531938566128 -31.324718585787195 0 0 0 0 -0.34952955509384886 -0.23660759987645719 0 -0.23660759987645719 -0.15147471703776105 0 0 0 0 20.059888036509165 -58.072766595869325 0 -58.072766595869325 16.835926192562511 0 0 0 0 4.0488086151761067 18.276444997116982 0 18.276444997116982 -78.027140539530592 0 0 0 0 1.5271984981167179 -20.107855798127275 0 -20.107855798127275 -46.896386563998931 0 0 0 0 9.3900422791016354 -56.854775215675545 0 -56.854775215675545 54.890245120030158 0 0 0 0 0.82936611566607388 -0.16502903801259805 0 -0.16502903801259805 0.16513834144987172 0 0 0 0 8.2191397160909219 24.45301536660827 0 24.45301536660827 26.854393256080584 0 0 0 0 41.198591695267623 33.069694161844382 0 33.069694161844382 -29.832866866788208 0 0 0 0 12.651781706682982 4.5908735046596121 0 4.5908735046596121 -11.998980985177695 0 0 0 0 1.7358089620367991 -31.176218840973888 0 -31.176218840973888 -25.569465765001041 0 0 0 0 2.8261736241730291 0.033793143113129531 0 0.033793143113129531 -3.6983924004668953 0 0 0 0 6.632318975370481 9.6678851501428653 0 9.6678851501428653 -12.924648817006528 0 0 0 0 -0.11905171515627444 4.7736006618224565 0 4.7736006618224565 -13.059622766752 0 0 0 0 -0.77947886832458124 4.0930436845891336 0 4.0930436845891336 -2.1904217452658443 0 0 0 0 1.361657940960515 1.0008903769848825 0 1.0008903769848825 -7.813960442299873 0 0 0 0 -0.78082169866638651 4.1577233717998752 0 4.1577233717998752 -9.449174000930725 0 0 0 0 -1.2007041056520587 4.634577483354553 0 4.634577483354553 -5.9136159485248374 0 0 0 0 17.451014886571329 43.581785973170554 0 43.581785973170554 -30.302847527092126 0 0 0 0 -48.776278554264422 27.529000851360706 0 27.529000851360706 -1.6856193141939002 0 0 0 0 10.095713018418337 1.9219485644498491 0 1.9219485644498491 -2.7610441420547431 0 0 0 0 13.916655633485107 -22.894877930734765 0 -22.894877930734765 -22.993057808454068 0 0 0 0 -48.502939489734047 31.79342792501393 0 31.79342792501393 -39.77939437518944 0 0 0 0 -0.64788578525187912 0.13980148408941062 0 0.13980148408941062 -0.2846461863024814 0 0 0 0 11.611504511562895 14.275984317636954 0 14.275984317636954 -10.269051329247304 0 0 0 0 24.680647097073688 9.6514457780158409 0 9.6514457780158409 -12.969996034912128 0 0 0 0 -0.44491253779066042 0.73463450288991083 0 0.73463450288991083 -0.49529977320399254 0 0 0 0 17.248171285316857 -3.422118314947511 0 -3.422118314947511 -6.9136408272788685 0 0 0 0 -29.982450827110597 3.8482747865400597 0 3.8482747865400597 -33.26733609375151 0 0 0 0 3.0135554006817529 -24.597980372670463 0 -24.597980372670463 -59.19718204919991 0 0 0 0 -30.023414993357164 11.96970614080783 0 11.96970614080783 -71.523796081803084 0 0 0 0 -6.6784278839260196 43.002268546717687 0 43.002268546717687 -156.88707040751615 0 0 0 0 -4.5308437507095505 48.971201428086715 0 48.971201428086715 -189.67840011091175 0 0 0 0 7.7264942732068391 -48.853111350868517 0 -48.853111350868517 -127.95101995162622 0 0 0 0 8.9005914648511748 -40.954806212994413 0 -40.954806212994413 -225.43262370685261 0 0 0 0 9.5481809706520835 1.1899560326110077 0 1.1899560326110077 -133.17791124746691 0 0 0 0 -1.8805180413767175 -3.1175260139834791 0 -3.1175260139834791 -132.48479554289952 0 0 0 0 31.422001739970256 -24.849449214017113 0 -24.849449214017113 -38.097097265082994 0 0 0 0 21.088757526438712 -16.184614168606686 0 -16.184614168606686 -34.803885563673703 0 0 0 0 16.980515772991566 -24.172277152582069 0 -24.172277152582069 -45.000028549054605 0 0 0 0 17.170234783461638 -7.9154542484876913 0 -7.9154542484876913 -52.803947119660734 0 0 0 0 36.627416954134787 -13.707897931253683 0 -13.707897931253683 -42.639942010684081 0 0 0 0 30.666045637163847 -97.606380084114335 0 -97.606380084114335 -440.30554311982996 0 0 0 0 39.203220326617156 -23.795810289809992 0 -23.795810289809992 -21.732115340195307 0 0 0 0 59.7945471048115 -24.265986996041363 0 -24.265986996041363 -42.39311700108135 0 0 0 0 1.072577947311131 -1.7190301157806616 0 -1.7190301157806616 -38.807503835166344 0 0 0 0 -17.896442187731964 -115.15287970116879 0 -115.15287970116879 -8.8786802722697757 0 0 0 0 -8.7669006321666529 52.33004468136096 0 52.33004468136096 75.12222846807208 0 0 0 0 49.270429352726751 -9.711371012703637 0 -9.711371012703637 -40.819584771179507 0 0 0 0 17.256054399321329 -17.561039777169867 0 -17.561039777169867 -31.705260413469972 0 0 0 0 29.472038059213446 -10.074176484332611 0 -10.074176484332611 -30.258235900703198 0 0 0 0 20.433316455626937 -24.590076364180618 0 -24.590076364180618 -36.68655299573993 0 0 0 0 9.5136809439172794 -20.238714603787344 0 -20.238714603787344 -31.451735769816196 0 0 0 0 15.380659029756316 -12.436331470602568 0 -12.436331470602568 -39.483320113711898 0 0 0 0 16.624898191798707 -22.364389860171343 0 -22.364389860171343 -34.64647069674902 0 0 0 0 22.674450368395355 -17.675036898155895 0 -17.675036898155895 -38.332769097622759 0 0 0 0 6.1181179681052527 -16.827931569834959 0 -16.827931569834959 -31.496618568682152 0 0 0 0 -0.35364570727961109 -12.501640921338094 0 -12.501640921338094 -32.465522480753407 0 0 0 0 61.399999634795904 34.865831576412802 0 34.865831576412802 -41.046777531115367 0 0 0 0 1.4351739383931119 -1.4937427697201642 0 -1.4937427697201642 -41.254467078778902 0 0 0 0 -2.9344120246636294 4.9343939410409803 0 4.9343939410409803 -39.302842235370917 0 0 0 0 -0.52689883202856436 3.9715769620524952 0 3.9715769620524952 -18.149865732378657 0 0 0 0 -1.5670591810913859 9.4815023748470004 0 9.4815023748470004 -14.4723973994715 0 0 0 0 0.59098496449777294 1.0762456823228064 0 1.0762456823228064 -12.213125843845631 0 0 0 0 -0.38523312837151025 3.1834900320318411 0 3.1834900320318411 -23.64445168687871 0 0 0 0 -0.58388906517211581 2.8145155954862275 0 2.8145155954862275 -19.238180231143815 0 0 0 0 0.16447027670619718 4.0905068366421347 0 4.0905068366421347 -23.004757541260005 0 0 0 0 1.3013981815501268 -3.4882961519502533 0 -3.4882961519502533 -6.4341618125439357 0 0 0 0 -2.1009661629799439 4.2508040224325896 0 4.2508040224325896 -22.49799979972795 0 0 0 0 -0.17409736148701027 2.0675800852214721 0 2.0675800852214721 -15.565172504485634 0 0 0 0 4.0863160973816548 6.1361220853860914 0 6.1361220853860914 -29.358068677878236 0 0 0 0 -0.66952082523511613 1.0781239365876054 0 1.0781239365876054 -4.094934438706435 0 0 0 0 1.1003690325925923 0.39218293677608163 0 0.39218293677608163 -18.884393608637339 0 0 0 0 0.63620897929422426 -2.3235043956765367 0 -2.3235043956765367 -18.542760571687381 0 0 0 0 -0.046954136057820506 1.8339893221500461 0 1.8339893221500461 -21.00397742268251 0 0 0 0 -3.2766296702621958 2.0751544588608795 0 2.0751544588608795 -19.354264361292735 0 0 0 0 -1.3175167193062407 4.3038815887384771 0 4.3038815887384771 -16.820813046856301 0 0 0 0 2.7932863192498485 -0.51665764011939608 0 -0.51665764011939608 -15.734277532255735 0 0 0 0 30.049102830376 15.681919246504549 0 15.681919246504549 32.574240197136533 0 0 0 0 5.3965106676334358 -39.706547731974297 0 -39.706547731974297 -12.231478570702166 0 0 0 0 -9.1348710854570072 -29.690264538621705 0 -29.690264538621705 0.048697529804485384 0 0 0 0 0.42569569753628933 -0.061820260686136663 0 -0.061820260686136663 -0.0020714210922037068 0 0 0 0 14.287344314146821 19.844694568382693 0 19.844694568382693 5.0234728061241185 0 0 0 0 -12.402710168345834 -21.536794931436816 0 -21.536794931436816 -10.771015925860411 0 0 0 0 4.4259409026087155 1.3567456003156622 0 1.3567456003156622 -22.457806559439632 0 0 0 0 4.9048093481285733 4.0833369012698313 0 4.0833369012698313 -14.89609127242511 0 0 0 0 12.648801875218737 11.766191003089261 0 11.766191003089261 -19.512983021412765 0 0 0 0 50.182721148563303 7.6944378765447254 0 7.6944378765447254 -31.875887722526386 0 0 0 0 10.067670260172065 -6.9667172249428404 0 -6.9667172249428404 -29.42082509776526 0 0 0 0 19.441788457093622 2.6810233223341129 0 2.6810233223341129 -25.681348357265961 0 0 0 0 6.4641562640278494 2.86734402937509 0 2.86734402937509 -25.349832014834192 0 0 0 0 9.0517893019271298 6.8926740451233854 0 6.8926740451233854 -25.081394199944043 0 0 0 0 9.274536559986359 9.4304492431056133 0 9.4304492431056133 -27.915657104127604 0 0 0 0 7.6412853250084147 8.1425726014006088 0 8.1425726014006088 -24.521148349838768 0 0 0 0 9.3711804198141522 8.0646365246930145 0 8.0646365246930145 -28.758763651827394 0 0 0 0 4.1515926654388409 11.346351264804071 0 11.346351264804071 -30.516907817351239 0 0 0 0 -1.7923442532394915 3.5058685844414867 0 3.5058685844414867 -25.560564915838768 0 0 0 0 4.3555138607811728 4.1384340836457341 0 4.1384340836457341 -25.606008978746104 0 0 0 0 0.69619477684699405 6.3469099679150531 0 6.3469099679150531 -23.777188421909159 0 0 0 0 0.82026649424966536 -1.7977825737696094 0 -1.7977825737696094 -15.782151204455658 0 0 0 0 2.2710940449351256 -2.9447880154352788 0 -2.9447880154352788 -17.751434248745682 0 0 0 0 1.8223092548640127 0.062950189995450323 0 0.062950189995450323 -17.94110253960703 0 0 0 0 2.4212263494148898 -1.4445292973857011 0 -1.4445292973857011 -17.711718162132165 0 0 0 0 9.9255966887521936 -2.608407104578589 0 -2.608407104578589 -24.689571622672702 0 0 0 0 -1.8513759922176405 2.4790022127306202 0 2.4790022127306202 -16.235244364470418 0 0 0 0 1.0701914826509635 0.89284522017432089 0 0.89284522017432089 -18.715007686905562 0 0 0 0 7.2847025649977155 -6.3704468471219116 0 -6.3704468471219116 -20.00940424372493 0 0 0 0 2.3252479000577577 -1.228990384719614 0 -1.228990384719614 -16.420379700161263 0 0 0 0 -13.732905512218736 36.689920672022708 0 36.689920672022708 63.082721042932917 0 0 0 0 -0.76826378485417024 0.13734439515020824 0 0.13734439515020824 -0.103457158205984 0 0 0 0 11.387451547553098 -8.94931131037265 0 -8.94931131037265 32.792871972844296 0 0 0 0 10.711993255960309 14.887901054380563 0 14.887901054380563 1.3053301565578295 0 0 0 0 -2.8484953099364247 23.764788158210649 0 23.764788158210649 33.664789906018996 0 0 0 0 -7.8000318403281597 3.4399298016360262 0 3.4399298016360262 53.608591958938632 0 0 0 0 64.205739516607309 12.034881517094618 0 12.034881517094618 -123.6284936449174 0 0 0 0 -2.2366216019264016 14.599481874964113 0 14.599481874964113 3.4664264869570616 0 0 0 0 4.3223121405768445 24.89729231811998 0 24.89729231811998 -15.314177289019426 0 0 0 0 -7.1706503057097279 5.2892992841429987 0 5.2892992841429987 -14.952119534020312 0 0 0 0 7.2494233191422097 25.522218648649641 0 25.522218648649641 -6.2001942828246683 0 0 0 0 4.8473920844000986 46.351200928020262 0 46.351200928020262 26.839892562865316 0 0 0 0 -79.255714157526995 80.228197078008179 0 80.228197078008179 -46.090169060618791 0 0 0 0 2.4213494512767966 -0.62977359045657977 0 -0.62977359045657977 -15.714897936715715 0 0 0 0 4.6026693316172782 1.0684662100716196 0 1.0684662100716196 -28.350381765390921 0 0 0 0 1.3491681785943577 1.3306779255411207 0 1.3306779255411207 -5.5457856319264938 0 0 0 0 1.0531479694610564 5.3963832340225295 0 5.3963832340225295 -32.511998908617592 0 0 0 0 -38.17873873615261 19.812990969838665 0 19.812990969838665 -63.586430670988193 0 0 0 0 40.063283396797488 -41.76582980069179 0 -41.76582980069179 -173.63426983570298 0 0 0 0 8.8905096049292354 18.995633625189384 0 18.995633625189384 -63.75869962271463 0 0 0 0 0.65588768174177403 -0.10717078186456774 0 -0.10717078186456774 0.16574080988192197 0 0 0 0 -8.8017903649882783 -17.522205815530469 0 -17.522205815530469 -37.484448231241913 0 0 0 0 4.2989987700577217 4.8842072921697763 0 4.8842072921697763 -37.176090465974994 0 0 0 0 0.15368551442159162 0.030687626588591144 0 0.030687626588591144 -0.048012877547142452 0 0 0 0 -6.3464459520782839 -4.1835454246674999 0 -4.1835454246674999 -17.541711393296282 0 0 0 0 -18.58811352279082 -19.728516696337465 0 -19.728516696337465 -63.528946824095456 0 0 0 0 1.9966478009687307 8.0206905350764828 0 8.0206905350764828 -64.123717354839755 0 0 0 0 -2.1404832630346142 1.0062190893616147 0 1.0062190893616147 -0.44208464973019979 0 0 0 0 -8.9931335483033763 19.015624454996214 0 19.015624454996214 28.83269778846352 0 0 0 0 17.693089910690702 -15.208913821180431 0 -15.208913821180431 -113.5816183703746 0 0 0 0 26.66127190484741 15.104863555960947 0 15.104863555960947 1.0609905353703653 0 0 0 0 15.65735927347356 21.153438548776649 0 21.153438548776649 -47.626637272256175 0 0 0 0 14.296675939446686 -9.5119112442334881 0 -9.5119112442334881 23.408344872026646 0 0 0 0 2.9712297280742952 -2.3117195147585576 0 -2.3117195147585576 -1.1173089292625455 0 0 0 0 2.7094382677037174 16.244181985613977 0 16.244181985613977 1.0820083101134514 0 0 0 0 -14.537902507444187 -11.351760535097128 0 -11.351760535097128 9.0296998071780763 0 0 0 0 10.402586482866809 -1.5878773776967137 0 -1.5878773776967137 -34.843182729631735 0 0 0 0 0.99023035270380433 18.194638116302031 0 18.194638116302031 -13.539846743578892 0 0 0 0 3.6465363351496425 -1.4853392072562031 0 -1.4853392072562031 -1.5986567530695766 0 0 0 0 0.38212446017720192 -0.24512459699019118 0 -0.24512459699019118 -0.1356398693801566 0 0 0 0 3.6330156761241597 -4.4165928462753072 0 -4.4165928462753072 25.446380000354111 0 0 0 0 -0.5342625629223221 -12.81089267040079 0 -12.81089267040079 23.068437335408817 0 0 0 0 3.2573459664339879 -20.381338032371787 0 -20.381338032371787 5.8035032511961617 0 0 0 0 17.293476311304971 -19.317624631274157 0 -19.317624631274157 -21.145315787558502 0 0 0 0 0.17538260012995011 -31.195478502473634 0 -31.195478502473634 -62.112303842423898 0 0 0 0 7.8124361547521559 -7.0653523163753107 0 -7.0653523163753107 -21.17106296455313 0 0 0 0 9.8458275346677695 -15.948864903795538 0 -15.948864903795538 -27.478669740259647 0 0 0 0 14.903961180581973 -3.7274348567152629 0 -3.7274348567152629 -41.175489049081079 0 0 0 0 5.4576296240223883 -1.7611816420908326 0 -1.7611816420908326 -26.87445224676776 0 0 0 0 5.0731690316688969 -3.0587293975386274 0 -3.0587293975386274 -10.042771579775945 0 0 0 0 13.723381865286001 -0.36568182618793799 0 -0.36568182618793799 -26.891973051949975 0 0 0 0 0.18845540762134183 -0.19943264217642565 0 -0.19943264217642565 -0.11945499923103498 0 0 0 0 11.766149387409257 2.7383998458935821 0 2.7383998458935821 -24.30340962038099 0 0 0 0 -67.090798034811996 14.612820251000812 0 14.612820251000812 37.97628068029735 0 0 0 0 10.759900006568898 1.6611003032467124 0 1.6611003032467124 -28.297476276129601 0 0 0 0 12.220342568006686 0.10821554268477485 0 0.10821554268477485 -27.159467497272999 0 0 0 0 -8.6848797074481467 19.778321616597168 0 19.778321616597168 -21.771092137900268 0 0 0 0 -8.6996253099831939 -5.5891962400969364 0 -5.5891962400969364 -31.72212060432139 0 0 0 0 4.7898465340701932 11.866330784601814 0 11.866330784601814 -17.360372397335595 0 0 0 0 -1.4890671231023305 3.4687396802728472 0 3.4687396802728472 -2.1227948204723361 0 0 0 0 21.646434090597836 19.236384751029618 0 19.236384751029618 -22.213542464185593 0 0 0 0 3.7780228514961323 5.7895820618196012 0 5.7895820618196012 -52.542598598138284 0 0 0 0 6.7307374573462226 0.10575641663876922 0 0.10575641663876922 -35.974996609922528 0 0 0 0 0.80275551370647236 4.0196956753334234 0 4.0196956753334234 -19.016552430536194 0 0 0 0 -0.20060408355277559 -0.00056389566088910215 0 -0.00056389566088910215 -35.883162853715476 0 0 0 0 5.0260430996847845 -5.0711739774378657 0 -5.0711739774378657 -46.080346255577751 0 0 0 0 -11.402756356496866 -5.6841061743107275 0 -5.6841061743107275 -38.393976184077474 0 0 0 0 0.16302768066694284 -1.3323640556111513 0 -1.3323640556111513 -36.98461983202651 0 0 0 0 63.044526908598073 -25.119958219431282 0 -25.119958219431282 -27.962369413209672 0 0 0 0 3.5040258003141389 3.2863379067330243 0 3.2863379067330243 -48.061940044995026 0 0 0 0 4.7885274128910851 -8.1143532690475695 0 -8.1143532690475695 -15.772007140512869 0 0 0 0 1.4986642833821413 -2.20567306589464 0 -2.20567306589464 -4.9801313666395863 0 0 0 0 -4.1080232846996978 5.6979888789555844 0 5.6979888789555844 -39.664812026476284 0 0 0 0 14.138138646055552 -5.413342083484622 0 -5.413342083484622 -19.897467155613413 0 0 0 0 2.6671903558406882 -6.4140330535528847 0 -6.4140330535528847 -16.622416272624832 0 0 0 0 1.0627156836916356 5.1587948650430917 0 5.1587948650430917 -9.2972471129960468 0 0 0 0 0.94292819664448957 5.0466365162878084 0 5.0466365162878084 -13.979037273004259 0 0 0 0 1.4063020260971371 -0.81098123365882202 0 -0.81098123365882202 -20.977629338032784 0 0 0 0 -3.1145115468701761 0.44446615966035097 0 0.44446615966035097 -8.2812288145232742 0 0 0 0 9.0732653890558197 2.5189085141464602 0 2.5189085141464602 -23.436985161422854 0 0 0 0 13.116690887442104 8.5832585881107661 0 8.5832585881107661 -21.133757311279624 0 0 0 0 1.3505348004917934 4.1697346746896589 0 4.1697346746896589 -12.181415281577422 0 0 0 0 -0.16926996138193395 0.31393702955815428 0 0.31393702955815428 -0.091427702455034066 0 0 0 0 -9.8596933409346548 -5.0489784909614173 0 -5.0489784909614173 -13.105085193707055 0 0 0 0 3.4461310520789539 10.894947831176069 0 10.894947831176069 -24.207055442935598 0 0 0 0 3.6224626352097289 -6.4431139434250326 0 -6.4431139434250326 -41.189080524824021 0 0 0 0 -1.89733082741418 -3.9800960506954652 0 -3.9800960506954652 -13.821141446043839 0 0 0 0 -5.6965449296368433 -3.5761722680399544 0 -3.5761722680399544 -13.087107667734927 0 0 0 0 -1.2425378025554892 -4.3593376697681379 0 -4.3593376697681379 -16.820669020620699 0 0 0 0 -0.90391596528772578 0.2212799308614759 0 0.2212799308614759 -1.692444283304285 0 0 0 0 1.3469769560247187 -3.3300073920986506 0 -3.3300073920986506 -17.888847883310518 0 0 0 0 -1.1868235006677708 -4.4178827793127766 0 -4.4178827793127766 -17.7120770105048 0 0 0 0 2.1448811121169911 -0.4458644085434571 0 -0.4458644085434571 -27.773305512682782 0 0 0 0 -0.95871165500170719 -2.2127377557471846 0 -2.2127377557471846 -16.924317450717353 0 0 0 0 2.9409833871162618 -0.10906416904435901 0 -0.10906416904435901 -18.621416756320514 0 0 0 0 -0.090824773180202101 -2.83049914232015 0 -2.83049914232015 -19.427131279613604 0 0 0 0 2.9395917077766303 4.5008970453756234 0 4.5008970453756234 -6.550612723401958 0 0 0 0 -3.6859089213719471 1.6234435627920902 0 1.6234435627920902 12.476966538269153 0 0 0 0 8.5299737159843971 19.614959636445747 0 19.614959636445747 -55.04803008394083 0 0 0 0 -6.797033915468262 -14.839769798983184 0 -14.839769798983184 -34.234350521021042 0 0 0 0 -5.9755832124239987 -7.9915932520752904 0 -7.9915932520752904 -20.074356038736823 0 0 0 0 -0.11255965644726418 0.77892279882031801 0 0.77892279882031801 0.70483430220702559 0 0 0 0 2.492346701492985 3.9506582094783553 0 3.9506582094783553 -9.5373311309769946 0 0 0 0 9.5726008098614344 17.771985454718561 0 17.771985454718561 -11.869006795495807 0 0 0 0 -2.7090964875444428 10.292802055030734 0 10.292802055030734 -0.10675635092502489 0 0 0 0 -0.20995647650944704 12.402161284928297 0 12.402161284928297 1.3246664399339352 0 0 0 0 4.3949917745404434 6.9801168820515613 0 6.9801168820515613 -4.082086441152569 0 0 0 0 -1.3551855007162956 3.7199707348175934 0 3.7199707348175934 -5.6892136080077762 0 0 0 0 8.9402955390545458 4.7769498179795846 0 4.7769498179795846 -16.020039629723897 0 0 0 0 8.5283783405403621 11.574465793664103 0 11.574465793664103 -29.723915194492292 0 0 0 0 9.2783852418343997 18.145413101628776 0 18.145413101628776 -67.634988178542699 0 0 0 0 -0.12632739313335334 -0.07031616666318552 0 -0.07031616666318552 -1.0874403925110698 0 0 0 0 15.431708028251009 4.155862202359458 0 4.155862202359458 -40.271283419497195 0 0 0 0 -5.0410345300816459 -22.991675980409127 0 -22.991675980409127 -38.202513145262856 0 0 0 0 15.31985403228407 11.656342190390205 0 11.656342190390205 -80.37318404245525 0 0 0 0 -0.67774428900015948 -4.0031252607232091 0 -4.0031252607232091 -6.1989403440784372 0 0 0 0 -30.741873751329877 22.569919194106205 0 22.569919194106205 -14.270047423595315 0 0 0 0 0.55916572872361869 1.2698787622595642 0 1.2698787622595642 -2.87659984213564 0 0 0 0 5.6631720736975453 3.8569428305499969 0 3.8569428305499969 -6.9213763607222063 0 0 0 0 2.8283871426112341 4.5923654162834282 0 4.5923654162834282 -5.9820375468116254 0 0 0 0 2.0579854550983754 2.4944407619805133 0 2.4944407619805133 -7.2960471998740104 0 0 0 0 4.7856480766574805 10.699919555036104 0 10.699919555036104 -6.1863612422957885 0 0 0 0 3.9873423364003222 4.2550426321452832 0 4.2550426321452832 -6.4095802067087817 0 0 0 0 -1.0940381928218699 5.5219334074895414 0 5.5219334074895414 1.4453832651161065 0 0 0 0 8.4332694561115655 0.91127637423596752 0 0.91127637423596752 -6.1702270100122405 0 0 0 0 7.0398387382527687 6.2094145789105823 0 6.2094145789105823 -6.8648911655564007 0 0 0 0 1.0458080533973373 3.8647279361721303 0 3.8647279361721303 -3.5312813147693305 0 0 0 0 1.8059952959590078 1.2190797608600406 0 1.2190797608600406 -10.388572327329712 0 0 0 0 8.7519816906404984 1.7685201687509107 0 1.7685201687509107 -14.818759711311941 0 0 0 0 12.004834580921496 2.3050295315433686 0 2.3050295315433686 -22.332928769924592 0 0 0 0 9.1669256674742812 0.21661889989400152 0 0.21661889989400152 -21.762704012868198 0 0 0 0 2.2462719676049119 -7.5593034821586116 0 -7.5593034821586116 -23.81408643881332 0 0 0 0 6.7802433818600463 2.0675583749666657 0 2.0675583749666657 -12.300702655405985 0 0 0 0 15.200195176107769 5.658012620800946 0 5.658012620800946 -32.096675281365606 0 0 0 0 11.734538796535915 0.18988996862117347 0 0.18988996862117347 -34.963146671490904 0 0 0 0 11.56363525294271 4.0740346567263259 0 4.0740346567263259 -26.739223193282669 0 0 0 0 11.122564793952549 7.2859809598148786 0 7.2859809598148786 -26.737379818912814 0 0 0 0 9.7995963550335858 9.1602289883303456 0 9.1602289883303456 -25.763795701001072 0 0 0 0 12.786189700507293 8.5545020281615507 0 8.5545020281615507 -26.304777076749815 0 0 0 0 9.7635444657656549 7.5995926932515374 0 7.5995926932515374 -25.164251729427633 0 0 0 0 8.9210279201308538 10.015145066445257 0 10.015145066445257 -23.999819941573151 0 0 0 0 7.5176600877928195 7.0989729850080039 0 7.0989729850080039 -21.007647223509593 0 0 0 0 7.6877232741290484 6.5635822552512764 0 6.5635822552512764 -25.68456327106469 0 0 0 0 11.534393437410671 12.80686313030219 0 12.80686313030219 -24.563707429893839 0 0 0 0 10.705999292996225 7.6204495079909975 0 7.6204495079909975 -18.33646036457867 0 0 0 0 19.922263571788108 -3.1922501182016276 0 -3.1922501182016276 -6.7611498909811871 0 0 0 0 9.0249992596541233 5.1692067158310238 0 5.1692067158310238 -19.414895601052194 0 0 0 0 9.1936518857638987 11.561640653008453 0 11.561640653008453 -17.081275736283715 0 0 0 0 6.5623723509901879 16.658716056501362 0 16.658716056501362 -7.9313224304241885 0 0 0 0 14.995005424249882 14.596246536795661 0 14.596246536795661 -25.246223637102958 0 0 0 0 13.138585615916391 8.5194344961648767 0 8.5194344961648767 -34.755732552410336 0 0 0 0 4.7614908954066095 10.839788013661746 0 10.839788013661746 -14.464007532664255 0 0 0 0 0.5808623005644904 23.821769758892515 0 23.821769758892515 -16.374067294967972 0 0 0 0 16.078180556039911 18.248009812416058 0 18.248009812416058 -48.513606902771244 0 0 0 0 -28.08379292070299 41.265835465310374 0 41.265835465310374 -40.563232404831069 0 0 0 0 -58.17863147692178 -13.008904789759981 0 -13.008904789759981 -3.8336282712880347 0 0 0 0 -6.4167381824538552 -7.0515159476526605 0 -7.0515159476526605 -3.21337890804989 0 0 0 0 3.7989052942230046 -8.1110344943299424 0 -8.1110344943299424 22.740383968412061 0 0 0 0 -16.707498395121604 -17.465715694932442 0 -17.465715694932442 42.408539930827828 0 0 0 0 0.72825887043795179 -0.13150549041482762 0 -0.13150549041482762 0.22261928819908583 0 0 0 0 -14.246747247239156 5.2024242441275419 0 5.2024242441275419 29.607531491543341 0 0 0 0 -20.038836396388717 -11.763865092780179 0 -11.763865092780179 22.610244860479725 0 0 0 0 11.375827114161496 -10.40778879733989 0 -10.40778879733989 19.316730075657688 0 0 0 0 0.50953178490201201 1.6111919820445948 0 1.6111919820445948 -2.5930759622451998 0 0 0 0 4.7873375974124315 -10.417330743552156 0 -10.417330743552156 25.938451854548475 0 0 0 0 0.040219654078778588 0.13626291647817013 0 0.13626291647817013 -0.19118382812053802 0 0 0 0 12.863378257750924 5.6432513646559528 0 5.6432513646559528 -2.1488929791394185 0 0 0 0 -2.5765484344185126 19.636740291496608 0 19.636740291496608 1.2814194892489468 0 0 0 0 13.868494018212971 1.0570822025219968 0 1.0570822025219968 13.137649115667955 0 0 0 0 -0.41345626087868315 0.73783253213399291 0 0.73783253213399291 -0.45069624137793696 0 0 0 0 3.2715425543812273 13.62290233258409 0 13.62290233258409 12.76182835704094 0 0 0 0 -4.8442124876340813 15.11580213524212 0 15.11580213524212 -33.28406225674189 0 0 0 0 11.918803097262405 13.283370491294249 0 13.283370491294249 62.213326253346168 0 0 0 0 0.1436796369794614 0.22234985192362089 0 0.22234985192362089 -0.21889055060392693 0 0 0 0 7.0370602975240786 -9.044535932574945 0 -9.044535932574945 26.665854812817997 0 0 0 0 4.7155322859714843 14.192711823033733 0 14.192711823033733 -44.849204473735881 0 0 0 0 -0.30710821392165144 1.6123301011502917 0 1.6123301011502917 -47.799522897625138 0 0 0 0 0.023756613777493385 2.2360846528508773 0 2.2360846528508773 -47.982437338363525 0 0 0 0 -3.1653320472466362 6.850829165921823 0 6.850829165921823 -53.518656727694179 0 0 0 0 -2.3432724050200022 9.9098500871004944 0 9.9098500871004944 -39.244646480316078 0 0 0 0 -3.5988526710771924 1.9794235681331003 0 1.9794235681331003 -1.1421956065094818 0 0 0 0 -1.3653292531538455 2.1858837686904735 0 2.1858837686904735 -49.008585332054281 0 0 0 0 4.4407716306870952 -4.3348473434380139 0 -4.3348473434380139 -70.214596257019366 0 0 0 0 -8.1110167974197225 -0.71491048532061541 0 -0.71491048532061541 -51.72459600160073 0 0 0 0 -4.5585855614452839 -6.9663665326079354 0 -6.9663665326079354 -57.550911304861074 0 0 0 0 4.3106511281814619 7.7573496288205206 0 7.7573496288205206 -51.145516131539353 0 0 0 0 3.7930186556782814 0.24205540238290268 0 0.24205540238290268 -58.196732571294888 0 0 0 0 -0.51562823681811665 15.355150362825952 0 15.355150362825952 -26.615251733257537 0 0 0 0 16.39437970956061 11.047833050413828 0 11.047833050413828 -49.843419966592478 0 0 0 0 2.6598431571177059 7.5340403714963031 0 7.5340403714963031 -22.978358435502741 0 0 0 0 3.2517984952786492 11.972389416608166 0 11.972389416608166 -31.877434310656099 0 0 0 0 4.6572553600064452 12.238522425608608 0 12.238522425608608 -40.632206342820609 0 0 0 0 5.2954550531602536 11.188772371278901 0 11.188772371278901 -31.607852171962804 0 0 0 0 5.6287401037681022 10.038250864977499 0 10.038250864977499 -32.011239551215112 0 0 0 0 11.978609892692816 8.9123650591936894 0 8.9123650591936894 -33.784125284446418 0 0 0 0 9.3601793256170538 6.3170772493158438 0 6.3170772493158438 -30.443734439391847 0 0 0 0 8.6631418427793392 7.3737962629274989 0 7.3737962629274989 -32.177811669360381 0 0 0 0 7.7145861686372967 6.1606846484232847 0 6.1606846484232847 -30.528990368246014 0 0 0 0 8.8165921045603426 5.0744685992481209 0 5.0744685992481209 -29.917484706242249 0 0 0 0 9.8673174395010506 6.2778281655373576 0 6.2778281655373576 -31.700674463393625 0 0 0 0 8.447894774428903 4.1910999389756398 0 4.1910999389756398 -24.347890742223171 0 0 0 0 8.4846566781953499 5.8983019027964474 0 5.8983019027964474 -29.111822866450893 0 0 0 0 8.9306453506947889 6.7416613634195528 0 6.7416613634195528 -23.977318297322199 0 0 0 0 11.255272837761311 1.4489312128753227 0 1.4489312128753227 -20.740029622558723 0 0 0 0 17.833567469924049 3.5162978714097335 0 3.5162978714097335 -38.514830826472462 0 0 0 0 7.226361266267844 13.09823051838157 0 13.09823051838157 -36.686018805830827 0 0 0 0 11.380900292061938 3.9682550784000341 0 3.9682550784000341 -31.152308553959301 0 0 0 0 5.9679519329138344 5.1182271465404483 0 5.1182271465404483 -26.608619020187689 0 0 0 0 3.908325065374072 5.1717167263495867 0 5.1717167263495867 -26.549312267274217 0 0 0 0 6.6050323475182608 5.2867451440033619 0 5.2867451440033619 -26.707235199392017 0 0 0 0 7.0368769920372358 6.5639730203056388 0 6.5639730203056388 -25.519987921345091 0 0 0 0 7.5555481696877109 4.9130801100291137 0 4.9130801100291137 -27.228637960510241 0 0 0 0 5.6972652989791754 5.8541059061117267 0 5.8541059061117267 -27.025440361661822 0 0 0 0 7.4143669884573598 6.046861718731634 0 6.046861718731634 -29.763165738568205 0 0 0 0 8.1465030648052164 6.129008403788248 0 6.129008403788248 -32.204462717563729 0 0 0 0 6.5932286412213159 5.9420658083263334 0 5.9420658083263334 -29.770690371104138 0 0 0 0 6.7250833879108143 6.2913452270749985 0 6.2913452270749985 -31.206837678804732 0 0 0 0 4.7850606954318167 5.6121100981818017 0 5.6121100981818017 -29.036003173909194 0 0 0 0 5.9601310583460538 5.8983315627483535 0 5.8983315627483535 -29.020260525534468 0 0 0 0 3.5588882291357748 6.7333053626052788 0 6.7333053626052788 -30.060609892636421 0 0 0 0 2.4011158697304325 5.6331205383194174 0 5.6331205383194174 -28.505450332246255 0 0 0 0 2.4250244610262328 4.3414674964789128 0 4.3414674964789128 -29.058586111121258 0 0 0 0 1.2622460666138196 5.3457315948971882 0 5.3457315948971882 -27.547700892175271 0 0 0 0 2.542876123733592 3.8445516731635507 0 3.8445516731635507 -25.831901218754865 0 0 0 0 4.2022562250102808 5.2844861621488235 0 5.2844861621488235 -28.457343530799335 0 0 0 0 3.6557690055298693 3.7554488415232754 0 3.7554488415232754 -24.107526154428342 0 0 0 0 4.2149643140923949 5.5807031494352941 0 5.5807031494352941 -25.254942159939674 0 0 0 0 2.9912505515544296 4.7523748502962917 0 4.7523748502962917 -25.557027281699447 0 0 0 0 3.3667846185760197 1.8326717656914298 0 1.8326717656914298 -21.200082437950186 0 0 0 0 5.1611440814260021 3.5275497459024336 0 3.5275497459024336 -24.073816103242279 0 0 0 0 5.2565029699495938 4.3525180063525113 0 4.3525180063525113 -23.13136787278836 0 0 0 0 5.6169084746101987 4.9320982668541546 0 4.9320982668541546 -24.095197941976949 0 0 0 0 8.4140667284013944 6.2174586771752729 0 6.2174586771752729 -24.368946556188234 0 0 0 0 7.8040885007091845 3.7174943012214499 0 3.7174943012214499 -23.426287319636685 0 0 0 0 6.0228436285089657 4.4781792404774023 0 4.4781792404774023 -24.582712428684317 0 0 0 0 6.6881085848391848 5.8432300482063511 0 5.8432300482063511 -24.393966811343489 0 0 0 0 6.9647204755465708 5.951834871565552 0 5.951834871565552 -25.259928653835232 0 0 0 0 5.5128574915618316 5.1226623058055338 0 5.1226623058055338 -25.448704855905817 0 0 0 0 7.9800585391294874 6.0302128271541733 0 6.0302128271541733 -25.52901563427622 0 0 0 0 7.8318970515951918 7.6028484802118328 0 7.6028484802118328 -23.682748295581405 0 0 0 0 6.3914285682693901 6.5875597625677074 0 6.5875597625677074 -25.608947860073386 0 0 0 0 10.113752095576871 7.5077647120797337 0 7.5077647120797337 -25.500502837421664 0 0 0 0 9.5428794400043113 5.5125783469565022 0 5.5125783469565022 -24.030038824726944 0 0 0 0 10.488883492638536 4.7293373610000344 0 4.7293373610000344 -24.335990541881984 0 0 0 0 8.049508588961853 3.078787132213165 0 3.078787132213165 -20.401382319376353 0 0 0 0 9.4764256065749066 3.0107655673045883 0 3.0107655673045883 -15.668406887791207 0 0 0 0 10.47627141624551 3.5688256023727263 0 3.5688256023727263 -20.312058208039161 0 0 0 0 10.740781981896404 3.3468719526622408 0 3.3468719526622408 -21.132109681409929 0 0 0 0 10.44396793432648 3.4450970702382619 0 3.4450970702382619 -21.079201607369669 0 0 0 0 10.494212795457607 4.8218305786440396 0 4.8218305786440396 -13.588286097547552 0 0 0 0 10.133959268905762 2.1547373489102029 0 2.1547373489102029 -15.463519880742524 0 0 0 0 11.254438803545659 6.8306181166087754 0 6.8306181166087754 -7.5039217881385412 0 0 0 0 10.121780582644051 2.2581449543880581 0 2.2581449543880581 -13.960857146703347 0 0 0 0 9.8686908232214741 -0.59080618641564797 0 -0.59080618641564797 -13.901482539452445 0 0 0 0 11.177364477891846 4.8243812817654543 0 4.8243812817654543 -10.319651830087423 0 0 0 0 10.715762700564191 6.2595278065855382 0 6.2595278065855382 -7.1889927726855376 0 0 0 0 9.0241420703373727 4.2347611919931296 0 4.2347611919931296 -15.448371120575757 0 0 0 0 6.2162485019461853 -0.2100752661997376 0 -0.2100752661997376 -16.422166285776257 0 0 0 0 3.4194654592020974 2.01370977490933 0 2.01370977490933 -14.748921381508808 0 0 0 0 6.0093803454287418 0.74707634212063567 0 0.74707634212063567 -19.292078259355549 0 0 0 0 1.8120493283787695 1.8880410203119027 0 1.8880410203119027 -17.366712575515521 0 0 0 0 8.4986689577458137 1.2887337959673459 0 1.2887337959673459 -18.098695036749632 0 0 0 0 5.6290100128244305 3.4095401758122534 0 3.4095401758122534 -19.530171271775544 0 0 0 0 5.3604212775429758 3.9033627817370871 0 3.9033627817370871 -22.198194200629587 0 0 0 0 8.7547128971270283 2.9832448329129875 0 2.9832448329129875 -21.994142808127435 0 0 0 0 2.4109662011479429 2.9876911070732604 0 2.9876911070732604 -20.673847805282094 0 0 0 0 1.1480346081054122 0.82704581909183617 0 0.82704581909183617 -18.510347485504099 0 0 0 0 -1.1983965134525454 2.9027498782147632 0 2.9027498782147632 -19.025824272772297 0 0 0 0 -1.2075671042335401 2.7930649139143497 0 2.7930649139143497 -20.050100306708202 0 0 0 0 1.8649749134917215 1.6844657376850591 0 1.6844657376850591 -18.583860859464494 0 0 0 0 -3.07928314857201 1.2856743751181057 0 1.2856743751181057 -15.402876588212166 0 0 0 0 2.3499467777597678 -0.041417886254521363 0 -0.041417886254521363 -15.33488081285941 0 0 0 0 -7.2519932658720023 4.7188898144659106 0 4.7188898144659106 -14.619128466560142 0 0 0 0 -2.6696058723173799 2.8567842848074179 0 2.8567842848074179 -16.712087480174887 0 0 0 0 -5.1071891486557535 3.6311030638751163 0 3.6311030638751163 -14.814503704745221 0 0 0 0 -6.2605337643962784 0.79461172372430156 0 0.79461172372430156 -12.153719350166284 0 0 0 0 0.33321279458334629 1.7708048310323647 0 1.7708048310323647 -13.349389690216412 0 0 0 0 -1.4709101513870961 9.2119971151041682 0 9.2119971151041682 -22.677634405646131 0 0 0 0 -0.0099628214351580712 8.0452113840738093 0 8.0452113840738093 -22.158700590875014 0 0 0 0 -6.5031988039636381 9.6880471737786138 0 9.6880471737786138 -20.216092905007827 0 0 0 0 -2.5460795393810436 6.2863860125726205 0 6.2863860125726205 -17.421778164873103 0 0 0 0 -2.6818471749910184 7.9095138431030136 0 7.9095138431030136 -20.653620256254726 0 0 0 0 -0.0012674837416613172 6.0713157744676209 0 6.0713157744676209 -19.394106368760731 0 0 0 0 -1.0666920775212569 5.0857002332199954 0 5.0857002332199954 -20.127118838987371 0 0 0 0 -0.0087586092359297207 0.0099048952986180439 0 0.0099048952986180439 -0.024458115258580548 0 0 0 0 -2.7812271474962644 2.9699176565272865 0 2.9699176565272865 -16.817627482818352 0 0 0 0 -1.3334421453315599 5.1264326416812764 0 5.1264326416812764 -18.725337114035938 0 0 0 0 -0.55589285551060819 2.4161751973783794 0 2.4161751973783794 -20.418613390465907 0 0 0 0 -0.97041968288239033 3.4512304572335779 0 3.4512304572335779 -19.997441934196104 0 0 0 0 -0.7302324040268493 2.7316149529942777 0 2.7316149529942777 -18.711808863724855 0 0 0 0 -0.0094519927153160887 0.013138177280644925 0 0.013138177280644925 -0.037119950328410312 0 0 0 0 0.25899710424114719 3.028269299472413 0 3.028269299472413 -21.959095765972961 0 0 0 0 -0.00097946916663689239 3.3700125717332412 0 3.3700125717332412 -20.592154128218681 0 0 0 0 -0.00091133687049575404 2.9888569551658293 0 2.9888569551658293 -24.190690904028088 0 0 0 0 -1.1099107506606263 2.0970941649184169 0 2.0970941649184169 -22.302390671919056 0 0 0 0 -0.25581741407826364 2.5635595398412079 0 2.5635595398412079 -23.642739354369041 0 0 0 0 -0.28845430558806129 2.5325516700950175 0 2.5325516700950175 -21.713439375056623 0 0 0 0 -0.087218476785754007 1.9471721124955366 0 1.9471721124955366 -20.07736556662266 0 0 0 0 1.7920219327075024 3.6102672230708777 0 3.6102672230708777 -23.179235416384472 0 0 0 0 1.7503043561855964 2.6633295185104089 0 2.6633295185104089 -23.450874397010921 0 0 0 0 0.16197635660587295 2.3059812698711539 0 2.3059812698711539 -24.026883773708505 0 0 0 0 -1.3339284529122395 3.5167204860008496 0 3.5167204860008496 -22.389582422993044 0 0 0 0 -0.92878854772200903 3.8951027115617762 0 3.8951027115617762 -25.936315385028138 0 0 0 0 0.2510399426113068 4.4112666309383712 0 4.4112666309383712 -25.388542737200623 0 0 0 0 1.1243365931800953 3.1878285028143694 0 3.1878285028143694 -25.990190186579639 0 0 0 0 -0.99816657635422601 5.3019624146645583 0 5.3019624146645583 -28.057947949418121 0 0 0 0 -1.2274507342480918 2.6518891269318488 0 2.6518891269318488 -26.220202220743886 0 0 0 0 -1.6652064648671869 4.116152844768294 0 4.116152844768294 -28.898507923051795 0 0 0 0 -3.5424960264362535 0.86972467397845321 0 0.86972467397845321 -26.190075115413492 0 0 0 0 -0.0026675811803319903 1.2347386708379418 0 1.2347386708379418 -30.030883364961937 0 0 0 0 -0.18992383552494374 1.8795447104339473 0 1.8795447104339473 -26.203470721797203 0 0 0 0 -2.271659810304433 2.2851010855674758 0 2.2851010855674758 -23.593250236660424 0 0 0 0 -42.700383202484545 23.715634822808397 0 23.715634822808397 26.107784308412192 0 0 0 0 -3.4790688638966696 10.857083362204349 0 10.857083362204349 -97.013664779625287 0 0 0 0 -3.7281005148706754 14.899359844121136 0 14.899359844121136 18.487925448518013 0 0 0 0 -71.347087382561426 71.560252572318632 0 71.560252572318632 -52.713771358624058 0 0 0 0 -14.283209073072101 -2.4544796015990187 0 -2.4544796015990187 -23.457961039438487 0 0 0 0 0.16441564502930106 0.92115417186820658 0 0.92115417186820658 -8.0050107223018419 0 0 0 0 63.084402051372763 21.258244668349334 0 21.258244668349334 -65.365162373960175 0 0 0 0 59.867338902279016 17.224723323735873 0 17.224723323735873 -42.274075252663465 0 0 0 0 -59.802264410288899 62.098466969910589 0 62.098466969910589 9.2257381865908883 0 0 0 0 0.61692205570351666 0.58913791893480583 0 0.58913791893480583 -0.053293174661072307 0 0 0 0 -47.584523992959021 24.041287041757187 0 24.041287041757187 42.31109538329315 0 0 0 0 149.64067266463053 -58.651454949376216 0 -58.651454949376216 -20.745044735366719 0 0 0 0 39.61559485242401 -11.444729501885149 0 -11.444729501885149 23.998950856632064 0 0 0 0 40.39955414057286 -7.4310854839975491 0 -7.4310854839975491 -12.747844215595251 0 0 0 0 37.939317912468823 -0.87892016088176206 0 -0.87892016088176206 12.567874285565949 0 0 0 0 1.2291036955559334 1.2263095445153922 0 1.2263095445153922 0.34486069425980048 0 0 0 0 98.009364748395527 -35.915403828823344 0 -35.915403828823344 4.8653979366972635 0 0 0 0 83.190177158498273 -0.27147257707656536 0 -0.27147257707656536 -2.1060794930140219 0 0 0 0 56.838223774802174 -20.360219377120643 0 -20.360219377120643 18.758017351646231 0 0 0 0 64.252005674150041 -14.132973994075996 0 -14.132973994075996 -1.2705992037413125 0 0 0 0 58.094636677085191 -13.389481741157965 0 -13.389481741157965 -4.6602195609812043 0 0 0 0 43.419858097817496 0.25804505099904418 0 0.25804505099904418 -3.3883809215899987 0 0 0 0 60.304045661798966 -8.7900622044664942 0 -8.7900622044664942 4.911034077167642 0 0 0 0 21.080530186515944 6.9990065706278983 0 6.9990065706278983 -5.7170189633702648 0 0 0 0 10.092801814443646 -7.61173227346967 0 -7.61173227346967 -1.1543217079943133 0 0 0 0 37.3069811516649 -5.1690528119751207 0 -5.1690528119751207 -9.0876353057965389 0 0 0 0 18.351231723402861 -3.3037577773550311 0 -3.3037577773550311 -5.4253882132948092 0 0 0 0 36.545013934354301 -7.0025960452633171 0 -7.0025960452633171 -4.9021756069796538 0 0 0 0 26.634298154086764 3.2863457450594069 0 3.2863457450594069 -7.2474277207392106 0 0 0 0 47.003902236434669 -3.8780784710274929 0 -3.8780784710274929 -7.4451486938040716 0 0 0 0 39.058654706677771 -10.420407214820898 0 -10.420407214820898 -6.6645407191508639 0 0 0 0 54.467820743045593 -11.493131618781945 0 -11.493131618781945 -6.5909915421461847 0 0 0 0 49.282012499326811 -5.5443518348974976 0 -5.5443518348974976 -8.0342695446233847 0 0 0 0 51.424863144811809 -8.8009747720961968 0 -8.8009747720961968 -3.6313029766038483 0 0 0 0 55.927555059411702 -14.634432760826257 0 -14.634432760826257 -3.3281505505420625 0 0 0 0 54.12964109671168 -15.143661143227746 0 -15.143661143227746 -9.2961889509151661 0 0 0 0 57.830705847256255 -8.6507976637963111 0 -8.6507976637963111 -2.770498905997556 0 0 0 0 0.94434515406565855 -1.0820092620507513 0 -1.0820092620507513 0.12579963534024152 0 0 0 0 52.656978846096024 -16.055420828993647 0 -16.055420828993647 9.3010577110017039 0 0 0 0 53.049932014772367 -12.013478613652978 0 -12.013478613652978 0.26072524356914073 0 0 0 0 57.730462507564013 -22.801735234720468 0 -22.801735234720468 -30.36003288703796 0 0 0 0 1.5793749207389056 2.5336950574236834 0 2.5336950574236834 -0.099371873553898205 0 0 0 0 64.875714946051971 -22.192276916670835 0 -22.192276916670835 0.30043121707331011 0 0 0 0 28.46735171204179 17.232617096466043 0 17.232617096466043 -26.163568844347537 0 0 0 0 0.80978258208730591 0.2864969558318009 0 0.2864969558318009 -9.873852603427645 0 0 0 0 66.177719654652151 -16.053586253872481 0 -16.053586253872481 -3.2855069165991608 0 0 0 0 -21.349921478727936 -1.3297592108222034 0 -1.3297592108222034 -4.8970562184313167 0 0 0 0 10.704452300970843 -49.131690213279398 0 -49.131690213279398 -4.5072512153265052 0 0 0 0 21.954462382388783 -3.9705417862305694 0 -3.9705417862305694 -18.789549018653815 0 0 0 0 0.69112857839805741 -1.1132113159636292 0 -1.1132113159636292 1.3118024187082646 0 0 0 0 71.922215675611184 2.4792894954912299 0 2.4792894954912299 -24.177261892200477 0 0 0 0 -0.36012692196845819 -19.324272986339111 0 -19.324272986339111 -5.7320151223809717 0 0 0 0 -0.40238284775250577 -9.0937414446852927 0 -9.0937414446852927 10.056927902340703 0 0 0 0 23.215565195104091 3.0463786381797036 0 3.0463786381797036 -13.813486487895716 0 0 0 0 -17.800960610806904 -5.9584884965745459 0 -5.9584884965745459 -22.929307177620103 0 0 0 0 17.694285621529602 -56.925598497520696 0 -56.925598497520696 8.3533066030430518 0 0 0 0 -57.35719934130509 -26.473970034286594 0 -26.473970034286594 -15.926732833366373 0 0 0 0 -89.260123361166052 -8.223076892154495 0 -8.223076892154495 -17.585402431092007 0 0 0 0 -39.90936419281698 -39.092213760246523 0 -39.092213760246523 -48.944886073586531 0 0 0 0 17.535505990721255 35.025314908339169 0 35.025314908339169 -153.71137616117085 0 0 0 0 -92.067360839326966 23.611218996717241 0 23.611218996717241 -22.040924143040684 0 0 0 0 -95.397826998492349 57.939775200165997 0 57.939775200165997 -138.25630155761064 0 0 0 0 -0.23583290385277556 0.23270609158102751 0 0.23270609158102751 0.68271412864063841 0 0 0 0 36.219318181657826 90.33130184000197 0 90.33130184000197 -32.567370539534124 0 0 0 0 0.17525627185431603 0.39512284548256371 0 0.39512284548256371 0.42507868490750411 0 0 0 0 -85.06414249044542 9.22399949083092 0 9.22399949083092 -42.273483296697123 0 0 0 0 -81.318779381362333 27.741979946198626 0 27.741979946198626 -16.933435043249631 0 0 0 0 -24.40390837313543 30.755813879451551 0 30.755813879451551 -67.569872351127742 0 0 0 0 -111.04248908484851 3.2249631215172485 0 3.2249631215172485 -11.120542988051966 0 0 0 0 -128.21196527527729 23.987708182486131 0 23.987708182486131 -30.279279289506121 0 0 0 0 -107.13667594858998 -33.098921010398499 0 -33.098921010398499 -52.071604654141993 0 0 0 0 -61.684265651389865 3.3612042893319085 0 3.3612042893319085 -289.72672019498987 0 0 0 0 -217.64326104718748 -69.827852044044448 0 -69.827852044044448 -98.588750027010065 0 0 0 0 -100.28667066266291 31.176708763183797 0 31.176708763183797 -72.915060305688712 0 0 0 0 -37.246830849904427 31.657257698389913 0 31.657257698389913 -66.484115861077953 0 0 0 0 -110.45282268133144 130.74493545578707 0 130.74493545578707 -188.76537559650205 0 0 0 0 8.5593844053346402 -50.514329609734887 0 -50.514329609734887 -92.390914255227472 0 0 0 0 11.167716342038375 -30.433622655225008 0 -30.433622655225008 -237.6997835436739 0 0 0 0 25.545321135315476 -115.26950256784676 0 -115.26950256784676 -31.566632025463605 0 0 0 0 -0.28209351438686747 -0.78755904493899109 0 -0.78755904493899109 -2.2439768248837062 0 0 0 0 -215.21119893410139 217.45066719324768 0 217.45066719324768 -233.12485096524563 0 0 0 0 73.189269183349893 -48.712729067374084 0 -48.712729067374084 -13.141463724939058 0 0 0 0 2.0976582862128907 -10.357363174777674 0 -10.357363174777674 21.909031767253737 0 0 0 0 -15.872881748418081 -41.641961364101803 0 -41.641961364101803 -29.959042309859797 0 0 0 0 -46.79942762155239 -38.895401098467346 0 -38.895401098467346 -21.096035084020514 0 0 0 0 -121.66168231454272 46.63590992030322 0 46.63590992030322 -65.948201888199947 0 0 0 0 -153.59626045734154 166.28918901590214 0 166.28918901590214 -103.11152243488891 0 0 0 0 -0.61217931518262692 -2.5802255874487523 0 -2.5802255874487523 -6.4517387091394092 0 0 0 0 -68.502483284626024 61.821251861271435 0 61.821251861271435 -107.07684691872782 0 0 0 0 -103.86288694341454 144.6492249670282 0 144.6492249670282 -110.11781786498341 0 0 0 0 -1.5989306521951274 -4.6792763949676655 0 -4.6792763949676655 -10.242833956536536 0 0 0 0 40.108364540713971 -1.0684655713335189 0 -1.0684655713335189 -35.929854202749993 0 0 0 0 20.140086003579654 11.496026480860564 0 11.496026480860564 -24.350083804422411 0 0 0 0 12.947419515120828 -0.38182947136829171 0 -0.38182947136829171 -23.284407387608553 0 0 0 0 41.967576101037231 -26.211004620638704 0 -26.211004620638704 -6.5856210907477362 0 0 0 0 8.1035246627965307 3.7417928005024805 0 3.7417928005024805 -48.409169340208791 0 0 0 0 -24.662771209522305 -22.635443382622952 0 -22.635443382622952 -11.606448867547442 0 0 0 0 28.375912343325467 -4.0709618382647932 0 -4.0709618382647932 -9.1552415031405019 0 0 0 0 23.591492832735071 -21.45554240122533 0 -21.45554240122533 -58.758330417979778 0 0 0 0 30.447383513983596 13.995794838589063 0 13.995794838589063 -47.372413885252172 0 0 0 0 -48.740447538937701 -12.737239852478979 0 -12.737239852478979 -50.416548647586296 0 0 0 0 18.943931591912133 -19.168398375266406 0 -19.168398375266406 -116.80083647620359 0 0 0 0 -42.54938847459664 36.365937025148469 0 36.365937025148469 2.0249591148131003 0 0 0 0 3.5344738799774404 56.753402615237974 0 56.753402615237974 -80.248274414744174 0 0 0 0 37.849210592178792 7.7666123692838482 0 7.7666123692838482 -12.728152078859239 0 0 0 0 21.776789821356147 42.289237092740223 0 42.289237092740223 8.3810269066007095 0 0 0 0 55.68496371157562 50.457432353011427 0 50.457432353011427 -38.390439581900409 0 0 0 0 38.480801033123925 25.85110358500549 0 25.85110358500549 -24.426370724115259 0 0 0 0 40.25001133039359 15.740980300377032 0 15.740980300377032 -56.524240894385002 0 0 0 0 7.1226950517993366 9.3029628153535935 0 9.3029628153535935 -6.7381230618354531 0 0 0 0 0.65142447038799389 0.23438204881568048 0 0.23438204881568048 0.21678312745151607 0 0 0 0 28.515548239080996 -12.031733596497986 0 -12.031733596497986 -49.582190597696354 0 0 0 0 12.255703020570763 44.884080008627663 0 44.884080008627663 49.928968168336532 0 0 0 0 8.2348325099451358 28.481838295214402 0 28.481838295214402 -17.03260915345345 0 0 0 0 -12.537539674895243 39.265531621908849 0 39.265531621908849 34.068123091848975 0 0 0 0 26.472814029951955 49.968637028068727 0 49.968637028068727 3.9887185728111945 0 0 0 0 1.4226809034036592 20.902231718895337 0 20.902231718895337 8.0137042798687617 0 0 0 0 -9.2617047365421001 26.287306362358123 0 26.287306362358123 5.3143074292947858 0 0 0 0 -12.466353224564045 25.398367205849354 0 25.398367205849354 5.87113669256496 0 0 0 0 18.988740232169221 -3.333868765771058 0 -3.333868765771058 -45.871245016661305 0 0 0 0 12.256499098123641 3.5574278826461523 0 3.5574278826461523 -33.615961459019672 0 0 0 0 24.650196711620879 10.107328387907728 0 10.107328387907728 -28.709161959104676 0 0 0 0 6.1648708631737463 16.073928665911808 0 16.073928665911808 -23.282716638572992 0 0 0 0 0.6790756484792837 -4.0558040081214131 0 -4.0558040081214131 -31.480106915043507 0 0 0 0 -0.39407667931391188 -0.70381133009323094 0 -0.70381133009323094 -41.361545350109623 0 0 0 0 -0.13514174918668687 -8.5067367309839028 0 -8.5067367309839028 -55.020856757329909 0 0 0 0 26.418552849140724 40.176985630643046 0 40.176985630643046 44.292472457566703 0 0 0 0 7.3392286915518525 27.090342893517249 0 27.090342893517249 74.696776991548489 0 0 0 0 26.51014032363636 28.285197150011467 0 28.285197150011467 54.874291002030276 0 0 0 0 10.37276777597026 37.611534880607898 0 37.611534880607898 52.93986183766674 0 0 0 0 1.1676525369202864 43.503765366668461 0 43.503765366668461 63.512892003924158 0 0 0 0 6.3605623558899911 9.9424254442067532 0 9.9424254442067532 -5.502441732727732 0 0 0 0 1.4446454820526924 38.345907765768978 0 38.345907765768978 79.17175509731868 0 0 0 0 1.7759032385525826 -0.71836142436709771 0 -0.71836142436709771 -4.3677158870420403 0 0 0 0 18.407711333919224 23.649438251034937 0 23.649438251034937 77.763913345782598 0 0 0 0 4.4194589512194398 33.858387600856112 0 33.858387600856112 55.988352187937792 0 0 0 0 -6.723212979914706 39.505681062385783 0 39.505681062385783 73.788486368489018 0 0 0 0 0.68907696669020879 16.422708568462838 0 16.422708568462838 85.513703318180177 0 0 0 0 -1.2323032209105804 26.277022556367147 0 26.277022556367147 96.340131646147881 0 0 0 0 -3.3812622311589848 28.288745128939578 0 28.288745128939578 79.33504750427899 0 0 0 0 -3.246334354159444 16.078465574424769 0 16.078465574424769 89.074079789644315 0 0 0 0 -4.2408494400069685 12.102404269550799 0 12.102404269550799 193.13917401158125 0 0 0 0 0.95965736742644259 1.1410647969575554 0 1.1410647969575554 -1.9529913429634509 0 0 0 0 25.156785602842774 58.087321442065445 0 58.087321442065445 115.72582394236605 0 0 0 0 5.5036112579358587 38.967259253157195 0 38.967259253157195 76.698886562775442 0 0 0 0 48.212191850483123 39.406164472557776 0 39.406164472557776 81.592678396003947 0 0 0 0 19.345380179712492 5.1525011172347064 0 5.1525011172347064 112.36108655554317 0 0 0 0 1.1027128357111451 36.302836654716657 0 36.302836654716657 140.16557606227272 0 0 0 0 1.7143104363408384 -1.4716845100156206 0 -1.4716845100156206 -16.840267719737767 0 0 0 0 0.28880212559507834 -1.687512287709716 0 -1.687512287709716 -3.6562484495074221 0 0 0 0 -66.080706385873555 76.992658342709774 0 76.992658342709774 -65.112103626117573 0 0 0 0 -57.459363002334953 26.621290104812118 0 26.621290104812118 -27.396063311933972 0 0 0 0 -0.20905288839681679 0.89084720423760178 0 0.89084720423760178 -1.3465132493230172 0 0 0 0 -3.2142816524415139 52.693539863036676 0 52.693539863036676 -135.83498810908281 0 0 0 0 -164.18964539724914 -112.47912964023999 0 -112.47912964023999 -210.33857405006097 0 0 0 0 -8.9985074093630146 245.94697581177803 0 245.94697581177803 -218.60812818912154 0 0 0 0 0.69530011995459517 27.450388758531972 0 27.450388758531972 -163.85386238410024 0 0 0 0 11.162422270226742 -13.716160226485869 0 -13.716160226485869 -25.485276017476281 0 0 0 0 1.6685271901551459 -1.2994747868960985 0 -1.2994747868960985 -18.153219490451932 0 0 0 0 2.8642172453166177 3.0957820627709842 0 3.0957820627709842 -5.8114217714624816 0 0 0 0 -1.8040559164765624 -6.8357152835436574 0 -6.8357152835436574 -14.75980497759692 0 0 0 0 4.6454390505352166 4.1767005583626666 0 4.1767005583626666 -6.0802741173837171 0 0 0 0 3.4914149906031646 0.11555406290093995 0 0.11555406290093995 -12.164625839307483 0 0 0 0 -51.246405734602149 79.318325539922853 0 79.318325539922853 -101.78111217884157 0 0 0 0 67.52982482079301 68.745737552378614 0 68.745737552378614 -279.0430507648357 0 0 0 0 0.10007256552242128 0.70558189049056907 0 0.70558189049056907 -3.2769661762815505 0 0 0 0 -29.284315654787747 122.1243740871148 0 122.1243740871148 -254.92322515878641 0 0 0 0 -136.68216695235913 149.13219614073876 0 149.13219614073876 -107.70707370022524 0 0 0 0 109.40097573179963 -21.402777807102616 0 -21.402777807102616 -96.202336024640999 0 0 0 0 -105.46129321171546 101.08169534733031 0 101.08169534733031 -33.830639456077733 0 0 0 0 -76.576169480299342 96.481521488572753 0 96.481521488572753 -108.19973094731893 0 0 0 0 13.871769032684369 -4.1850655147894713 0 -4.1850655147894713 20.616519626883417 0 0 0 0 47.272006244650015 28.531267493108544 0 28.531267493108544 21.927840321713575 0 0 0 0 18.227687277444602 -35.919607445086626 0 -35.919607445086626 30.270481394600637 0 0 0 0 1.9572245468013989 13.42092654036594 0 13.42092654036594 -34.316569195733507 0 0 0 0 70.083071489085512 40.577399527446779 0 40.577399527446779 -168.87738562412301 0 0 0 0 17.868438821431937 21.039291793580219 0 21.039291793580219 -66.13603539016492 0 0 0 0 55.703508324247878 26.824866136997116 0 26.824866136997116 -66.064944752382189 0 0 0 0 44.379413559763748 39.020762926615532 0 39.020762926615532 -131.26357938251283 0 0 0 0 40.403337329651663 -21.608534947646532 0 -21.608534947646532 -30.283069335865548 0 0 0 0 31.588027724091717 17.848537805858541 0 17.848537805858541 -61.761692539024807 0 0 0 0 9.208457067441941 25.81510734299826 0 25.81510734299826 -54.863327477049324 0 0 0 0 0.001303813841786905 60.865526793453142 0 60.865526793453142 -53.995107127725646 0 0 0 0 -25.032032139722787 97.14335655070721 0 97.14335655070721 -101.48856108878806 0 0 0 0 34.052951312608002 79.76099492223841 0 79.76099492223841 -277.61458606196345 0 0 0 0 -0.16291532561038924 0.30071495062573939 0 0.30071495062573939 -0.024596984452430547 0 0 0 0 -5.8154063494012007 127.5335430473296 0 127.5335430473296 -188.21995197306956 0 0 0 0 4.4138087778665067 158.05875513115052 0 158.05875513115052 -107.25370851924868 0 0 0 0 25.230095338919 124.91177027378592 0 124.91177027378592 -224.18306303151701 0 0 0 0 -37.624667054682504 38.554690550038003 0 38.554690550038003 220.26107259979824 0 0 0 0 13.23529446216628 24.228716906281029 0 24.228716906281029 102.59489001384014 0 0 0 0 -7.822527379383132 15.270014130660279 0 15.270014130660279 101.52792150354426 0 0 0 0 -7.2944592931437455 76.938141465290528 0 76.938141465290528 75.880336238598034 0 0 0 0 -14.812003888826212 40.003045435787932 0 40.003045435787932 -64.04419823537836 0 0 0 0 -18.599348082034339 11.175359942357701 0 11.175359942357701 -10.980338064126556 0 0 0 0 -18.707163236904996 -0.59031810023299769 0 -0.59031810023299769 -119.6892117823306 0 0 0 0 -31.108649915054229 36.273852860570628 0 36.273852860570628 -60.621964082199611 0 0 0 0 19.338756237680627 21.990584890758441 0 21.990584890758441 -63.604720544968359 0 0 0 0 -28.995268701036821 27.340058417760247 0 27.340058417760247 -51.083672199104058 0 0 0 0 -2.9617805001489614 2.4098837301917229 0 2.4098837301917229 -42.373873899945352 0 0 0 0 -4.9507512972941186 19.678512547260866 0 19.678512547260866 -77.938273305588524 0 0 0 0 -100.02489211553598 -8.4524954777316879 0 -8.4524954777316879 -78.835203399094013 0 0 0 0 10.111692761358427 20.004182469836863 0 20.004182469836863 -223.93133252555538 0 0 0 0 -10.41182851591293 37.499368013076833 0 37.499368013076833 -106.40720653923191 0 0 0 0 6.2413371131515305 12.897353473322312 0 12.897353473322312 -119.68340393168118 0 0 0 0 -11.836364841522482 -10.522332227112074 0 -10.522332227112074 -2.9778654397060791 0 0 0 0 -2.8346002168127598 7.103339554134152 0 7.103339554134152 -45.135173634227044 0 0 0 0 -38.123389767088383 -29.916330759353286 0 -29.916330759353286 -76.12801134822277 0 0 0 0 -20.630226384032767 -18.964289487061649 0 -18.964289487061649 -6.5312948289251835 0 0 0 0 17.806324395672618 -17.687871115074699 0 -17.687871115074699 -9.5865075638958501 0 0 0 0 -7.3050015222437423 -18.36674343531979 0 -18.36674343531979 12.723049661162236 0 0 0 0 0.64738813384519744 -3.5881717629628156 0 -3.5881717629628156 -4.5118870839366991 0 0 0 0 -0.20195573492215679 -3.6266888389038989 0 -3.6266888389038989 -2.9303432158905425 0 0 0 0 0.35312184034936944 -2.7529199692447119 0 -2.7529199692447119 -1.8645217926728654 0 0 0 0 -0.84512903361358838 -3.7302984721394372 0 -3.7302984721394372 -1.6612806469926569 0 0 0 0 -15.334582178861638 -9.0767406097212415 0 -9.0767406097212415 23.764422560333855 0 0 0 0 3.6070842790492179 -2.2743642145934189 0 -2.2743642145934189 3.9318012560838724 0 0 0 0 -5.0622829768949487 -8.8821303778170773 0 -8.8821303778170773 8.7349097557737423 0 0 0 0 0.093951520468448457 -0.87477661833540887 0 -0.87477661833540887 -1.3439535472184407 0 0 0 0 1.0738561536406905 -0.81247916746639248 0 -0.81247916746639248 -6.5111774337033239 0 0 0 0 3.6504189645670522 7.6012468454786131 0 7.6012468454786131 20.697203398641818 0 0 0 0 -10.543414798225513 -12.174869933282707 0 -12.174869933282707 19.041590740538595 0 0 0 0 -8.8139796368941461 7.8110146629114752 0 7.8110146629114752 -7.5522913642907952 0 0 0 0 30.035960686743579 -0.81099988358641895 0 -0.81099988358641895 3.6718728499081408 0 0 0 0 -3.0934570503141003 -3.2333366403335049 0 -3.2333366403335049 16.305630383781704 0 0 0 0 16.795318813174617 -9.8369653210221486 0 -9.8369653210221486 -9.9705939453363044 0 0 0 0 -3.0262869025664259 -4.0025509160529964 0 -4.0025509160529964 25.114243425887025 0 0 0 0 13.786858257958215 4.8136909704586515 0 4.8136909704586515 -32.209395412899767 0 0 0 0 -0.13632717441737441 14.596033126750854 0 14.596033126750854 -4.6357957311903419 0 0 0 0 9.3620679257819575 8.1637741043214191 0 8.1637741043214191 -22.270475044735008 0 0 0 0 -12.840605182522268 23.98654106431411 0 23.98654106431411 -36.492919323039587 0 0 0 0 -17.074147955964065 13.962076816222417 0 13.962076816222417 -20.276726820697263 0 0 0 0 -3.4214481199578586 -23.908471806188686 0 -23.908471806188686 -28.691249375677216 0 0 0 0 7.5240780934127542 -25.367766795534521 0 -25.367766795534521 -34.926864126367946 0 0 0 0 -10.577298691594478 -24.370452984300982 0 -24.370452984300982 -27.062315250626455 0 0 0 0 -3.6700345771496359 -20.428062957096813 0 -20.428062957096813 -29.023265414391062 0 0 0 0 -1.7334672734018568 -32.73702156602883 0 -32.73702156602883 -46.340450992457136 0 0 0 0 -11.252148224546545 -25.345045209289879 0 -25.345045209289879 -27.349869832731883 0 0 0 0 3.1768427296074151 -23.460230958507509 0 -23.460230958507509 -32.120269144637177 0 0 0 0 6.1687136668097082 -20.044363488833085 0 -20.044363488833085 -42.09547688044313 0 0 0 0 7.9332478355454441 -23.705767088339257 0 -23.705767088339257 -41.651937027764461 0 0 0 0 4.1961600174918203 -21.491217477785199 0 -21.491217477785199 -58.585379517737806 0 0 0 0 1.2900231245748728 -30.969850881129275 0 -30.969850881129275 -65.945888147242613 0 0 0 0 -20.482369826506329 -30.537718654849414 0 -30.537718654849414 -25.843854687213025 0 0 0 0 -23.464451091800584 -38.110745446329247 0 -38.110745446329247 -36.150493905750864 0 0 0 0 2.2643398321492896 -31.119947037868684 0 -31.119947037868684 -106.4917318456105 0 0 0 0 -46.309439512586323 -64.677494718227535 0 -64.677494718227535 -59.305990015289012 0 0 0 0 -33.501781220933481 -16.387559046892363 0 -16.387559046892363 -10.308009726626324 0 0 0 0 -23.280098379917945 -29.103218726750356 0 -29.103218726750356 -26.359397736243295 0 0 0 0 -14.398513422641372 -29.422891770160049 0 -29.422891770160049 -31.052784088322369 0 0 0 0 -20.366914869374796 -24.641232304212508 0 -24.641232304212508 -19.541020159658274 0 0 0 0 -17.45200365279743 -20.369419861734514 0 -20.369419861734514 -19.70212191025945 0 0 0 0 -15.703041203374596 -19.841724354338339 0 -19.841724354338339 -23.118251821721969 0 0 0 0 -9.5898995300722163 -4.6418962114521491 0 -4.6418962114521491 -9.8399858547454073 0 0 0 0 -20.221150683598353 -18.189971826849387 0 -18.189971826849387 -19.470738758005609 0 0 0 0 -5.9732312992673542 2.305088684430018 0 2.305088684430018 -6.5797151954880064 0 0 0 0 19.087845961410949 -9.7950065502449206 0 -9.7950065502449206 -15.207394990921102 0 0 0 0 -75.87052169624485 -78.78049680450755 0 -78.78049680450755 -60.659910688732339 0 0 0 0 -0.12398372453754458 -0.42748788112767144 0 -0.42748788112767144 -1.9116803880609468 0 0 0 0 -43.646940415368391 -20.844528881884024 0 -20.844528881884024 -2.2369372093887705 0 0 0 0 -21.754754089995458 91.994560302922054 0 91.994560302922054 -149.30572464423261 0 0 0 0 0.65856746005920286 31.145668854089571 0 31.145668854089571 -46.507761679190722 0 0 0 0 29.941420360458778 -5.2998114636652076 0 -5.2998114636652076 -54.784086591574948 0 0 0 0 -0.35859407489755935 -1.3554878658828597 0 -1.3554878658828597 -4.9144378121383436 0 0 0 0 -0.32935560805992203 -2.7814641164483387 0 -2.7814641164483387 -6.5267327910344006 0 0 0 0 10.598664336282582 1.8317780199603817 0 1.8317780199603817 -8.5170683574567647 0 0 0 0 1.64145544150775 -0.98081977405369347 0 -0.98081977405369347 -2.3485066141564528 0 0 0 0 1.2379116124357097 -1.6949063611343718 0 -1.6949063611343718 -3.1383712985926877 0 0 0 0 5.3530379482995158 2.8123975353012156 0 2.8123975353012156 -7.6082104408078521 0 0 0 0 0.6190987007550568 -2.2778940161398253 0 -2.2778940161398253 -3.9101857445702377 0 0 0 0 -4.4520122788796925 -9.1901019344824135 0 -9.1901019344824135 2.2928925977439576 0 0 0 0 0.29294350940836011 -4.0652074266656655 0 -4.0652074266656655 -2.1372600283323777 0 0 0 0 1.3373465165030272 -2.7354051402354518 0 -2.7354051402354518 -1.726884818427239 0 0 0 0 -0.41418744647171479 -8.2920169158060162 0 -8.2920169158060162 0.82057046412660384 0 0 0 0 4.0772544224612375 -1.0681507678605158 0 -1.0681507678605158 -6.1560491053278383 0 0 0 0 3.4588525150102214 -0.36369964079347028 0 -0.36369964079347028 -7.4631068449633631 0 0 0 0 -0.46169950339117349 -4.3948202345870868 0 -4.3948202345870868 -4.318615189592947 0 0 0 0 -0.1034803786693459 3.4925595152627515 0 3.4925595152627515 -10.946897673122294 0 0 0 0 -0.14894432044468431 1.3714613119416832 0 1.3714613119416832 -2.0607878507880741 0 0 0 0 0.41170801713573724 -1.5804042900526474 0 -1.5804042900526474 0.96009324227201986 0 0 0 0 -1.5400882191570417 1.5849263640620848 0 1.5849263640620848 -8.9219891949517205 0 0 0 0 -1.1703476349309767 -7.2158000354830847 0 -7.2158000354830847 -15.404756741063011 0 0 0 0 -4.2240194398164022 -2.2568974420662471 0 -2.2568974420662471 -14.042533801776699 0 0 0 0 -9.1797441203789276 -10.163842748126854 0 -10.163842748126854 -17.246283766046872 0 0 0 0 -3.2808073115029401 -7.5248910739549046 0 -7.5248910739549046 -27.787677128454561 0 0 0 0 -19.716286225868316 -18.195927976045255 0 -18.195927976045255 -23.054652002076637 0 0 0 0 -16.013784557653707 -19.38882255477813 0 -19.38882255477813 -29.683226836355061 0 0 0 0 0.16892077873776046 -0.4065666457686179 0 -0.4065666457686179 1.3306867594953491 0 0 0 0 -16.795295304068532 -18.250492699038432 0 -18.250492699038432 -6.6858306500002982 0 0 0 0 1.1545145989180519 -2.2303639211145754 0 -2.2303639211145754 -0.49274358785500993 0 0 0 0 0.045830270144506358 -0.30860278186810319 0 -0.30860278186810319 1.2849455881250833 0 0 0 0 0.94596635064838885 -0.90254753875713467 0 -0.90254753875713467 -1.5204333759966313 0 0 0 0 -0.017834894906274101 -0.35364040922869666 0 -0.35364040922869666 0.88106645456591792 0 0 0 0 -3.0456474791899382 -4.5663647098874662 0 -4.5663647098874662 -32.692901587396534 0 0 0 0 1.0249219285815343 -2.9584850891246788 0 -2.9584850891246788 6.2565795623531812 0 0 0 0 -0.65102904143714113 7.4599436419275662 0 7.4599436419275662 -12.404777201054685 0 0 0 0 0.51105313299740374 2.8439361776327132 0 2.8439361776327132 -17.258196239959943 0 0 0 0 0.9081365634838221 -5.2037471878006727 0 -5.2037471878006727 4.9782782706906801 0 0 0 0 3.2669317044346826 -3.846683750100965 0 -3.846683750100965 -9.4044902208306667 0 0 0 0 -0.84075246022439387 1.3719474417911215 0 1.3719474417911215 -7.8139300155489764 0 0 0 0 3.0402105525436127 -3.3898134116070651 0 -3.3898134116070651 -7.5311341413353148 0 0 0 0 0.15464229993631307 -0.64415970547042889 0 -0.64415970547042889 -10.14320567152663 0 0 0 0 -0.5355026400989118 -0.36713104842215216 0 -0.36713104842215216 -9.7330367664276309 0 0 0 0 0.29974439680017895 -0.20642296753248957 0 -0.20642296753248957 -12.000982611805739 0 0 0 0 -2.521269050454066 -16.286903547706629 0 -16.286903547706629 -24.364507373676133 0 0 0 0 1.4447622590075753 -4.1258451184487015 0 -4.1258451184487015 0.90385045176730539 0 0 0 0 -5.841657180853872 -16.113087563031513 0 -16.113087563031513 -15.024653326155658 0 0 0 0 -4.3916199922550732 -16.828267435011639 0 -16.828267435011639 -14.681734593957572 0 0 0 0 -2.3922964124358259 -25.973809564956809 0 -25.973809564956809 -21.201115254501246 0 0 0 0 -0.49769404899052461 -21.058534797620041 0 -21.058534797620041 -29.344597479250751 0 0 0 0 3.3769740113857551 -21.070070863698675 0 -21.070070863698675 -34.481537031074367 0 0 0 0 -10.555894201823321 -12.28293478539581 0 -12.28293478539581 -31.656994773412578 0 0 0 0 -5.2566443018581595 -21.589465756262143 0 -21.589465756262143 -27.929991033072383 0 0 0 0 3.625180229038051 -22.841551178159307 0 -22.841551178159307 -29.671729541183822 0 0 0 0 -0.78969526362197939 -22.278177109597578 0 -22.278177109597578 -26.887224756849719 0 0 0 0 -4.4824235327796487 5.3893831832865544 0 5.3893831832865544 -17.571611844107338 0 0 0 0 -0.92023659287633564 9.6216632796325143 0 9.6216632796325143 -45.116221976108136 0 0 0 0 -0.036088969672613658 -0.18974801866788393 0 -0.18974801866788393 0.23435219524888762 0 0 0 0 -3.1013803615646793 -1.9309417960269002 0 -1.9309417960269002 -9.8535558052439001 0 0 0 0 -1.5680193390471686 3.6622280551973745 0 3.6622280551973745 -14.498925458270151 0 0 0 0 -6.8846942002642209 0.31121106916748431 0 0.31121106916748431 -22.792207051656533 0 0 0 0 0.69223736977528461 1.7365502319196366 0 1.7365502319196366 -24.503211619849935 0 0 0 0 -5.090266801027667 8.0355189753834395 0 8.0355189753834395 -31.360665226296078 0 0 0 0 3.1235435081684955 -0.089178686273498897 0 -0.089178686273498897 -32.617895081715233 0 0 0 0 0.89063011577559337 -3.5754356326560242 0 -3.5754356326560242 -13.017321539271052 0 0 0 0 -2.1628440282529482 8.4950509973828048 0 8.4950509973828048 -31.29067453844209 0 0 0 0 1.5928616390438037 3.2006651779533968 0 3.2006651779533968 -7.9176883466593608 0 0 0 0 -7.9401747434097842 -8.8578310314231885 0 -8.8578310314231885 -19.838142001527558 0 0 0 0 -3.2357381209423011 -2.1606791346999898 0 -2.1606791346999898 -19.926983691480018 0 0 0 0 0.57826806304274214 0.67608572063045358 0 0.67608572063045358 -34.358561308769026 0 0 0 0 -3.2911348826760332 3.5684591646970603 0 3.5684591646970603 -17.8740807988803 0 0 0 0 -1.0805155408548899 1.8684322066214918 0 1.8684322066214918 -21.065571293070207 0 0 0 0 9.0507948461558954 8.9568971822463936 0 8.9568971822463936 -16.69469837039378 0 0 0 0 0.2256547628012413 4.090825623471801 0 4.090825623471801 -18.114308168809998 0 0 0 0 1.287720182399303 5.7696484954642866 0 5.7696484954642866 -15.811886685192079 0 0 0 0 -2.2645053149653904 2.536849228988558 0 2.536849228988558 -17.873227871175459 0 0 0 0 -2.0401457087314157 1.2172102817802966 0 1.2172102817802966 -19.436432286534455 0 0 0 0 -4.1581323728796633 4.3032131756426679 0 4.3032131756426679 -21.952321437123146 0 0 0 0 -1.5065325868945365 0.45981631849917903 0 0.45981631849917903 -22.808848142383454 0 0 0 0 -2.7675513259000581 0.76480848689595859 0 0.76480848689595859 -18.289772453739715 0 0 0 0 -1.375412404439885 2.3881486810953447 0 2.3881486810953447 -18.77000960282362 0 0 0 0 6.4742730023094737 -2.5942286507804511 0 -2.5942286507804511 -20.508435466581432 0 0 0 0 0.691840847313415 -2.3085104955064253 0 -2.3085104955064253 -16.489544259889783 0 0 0 0 -2.1554573442833771 1.8713509702088231 0 1.8713509702088231 -17.000831927840409 0 0 0 0 0.27851587014083634 4.1490455242829967 0 4.1490455242829967 -13.050346822888173 0 0 0 0 -4.23852021616824 4.7784145703605674 0 4.7784145703605674 -6.6745019001013759 0 0 0 0 0.63502078851207511 -0.049261091998644924 0 -0.049261091998644924 -2.7890461821511376 0 0 0 0 11.676605284440029 10.246003859278517 0 10.246003859278517 -2.0050057184352568 0 0 0 0 8.3552883499291966 -13.548655047736247 0 -13.548655047736247 0.3795276921887023 0 0 0 0 17.346861130129582 15.695933364061716 0 15.695933364061716 -23.806107168860763 0 0 0 0 -12.678186024915362 -10.611254687734004 0 -10.611254687734004 17.674624533128053 0 0 0 0 12.610303397650569 -9.3062190061939418 0 -9.3062190061939418 1.5017279217418036 0 0 0 0 13.556090824199828 -9.9701915877660952 0 -9.9701915877660952 -4.5365643825199413 0 0 0 0 0.44207108371639825 0.82460256325933168 0 0.82460256325933168 -4.7758005954120399 0 0 0 0 8.8920970571377893 3.6162556966322654 0 3.6162556966322654 -12.87182985840775 0 0 0 0 -11.56078366751035 -1.5994244374039681 0 -1.5994244374039681 2.6462771772787619 0 0 0 0 -0.07842088159374061 -0.30948096325129848 0 -0.30948096325129848 -0.98253730165776165 0 0 0 0 -0.12693036955714587 -0.68469941861494288 0 -0.68469941861494288 0.090407920228009253 0 0 0 0 -0.51928413204177559 -2.9545685681145493 0 -2.9545685681145493 -3.3511465069076962 0 0 0 0 2.9493163599049694 -4.1781601924620446 0 -4.1781601924620446 -7.9134784493943755 0 0 0 0 0.84686617602078762 -2.6887224866662995 0 -2.6887224866662995 -2.7328092346257451 0 0 0 0 1.4424871114674715 -0.54464450324445579 0 -0.54464450324445579 -1.9326506687152687 0 0 0 0 -1.0894298139478451 -4.1938118906116131 0 -4.1938118906116131 -5.927734937828518 0 0 0 0 5.3120614743100987 -2.3921160788048805 0 -2.3921160788048805 -7.0338787990809806 0 0 0 0 5.8764310514675344 0.15065185321560648 0 0.15065185321560648 -5.5052861383838376 0 0 0 0 -0.10345610561688545 -5.6734403531275994 0 -5.6734403531275994 -6.0722879925962161 0 0 0 0 0.21481456001894905 -1.1857623118691965 0 -1.1857623118691965 -3.0187716189237133 0 0 0 0 -0.03190942944274866 -3.1331680542307367 0 -3.1331680542307367 -5.9779044693036951 0 0 0 0 -0.71386698746186994 -3.6281930676697129 0 -3.6281930676697129 -4.2866654874237611 0 0 0 0 -0.088621130783394619 -7.1364548423216547 0 -7.1364548423216547 -13.987234605376671 0 0 0 0 0.15607849082237912 -4.2294372599203465 0 -4.2294372599203465 -5.6736632441369803 0 0 0 0 4.8955048104920706 -4.9412806924074175 0 -4.9412806924074175 -26.287476782043996 0 0 0 0 0.49521300509274724 0.90577614535707873 0 0.90577614535707873 -3.8873022847236003 0 0 0 0 -2.7357108865518285 -0.46484763797644746 0 -0.46484763797644746 -15.966880173809386 0 0 0 0 4.7469469682237104 -9.8175433093010724 0 -9.8175433093010724 -31.315154036738022 0 0 0 0 1.9168508047732757 10.118822560774106 0 10.118822560774106 -37.692582610973432 0 0 0 0 -0.059072416473554767 3.5767655214054059 0 3.5767655214054059 -10.172285337309972 0 0 0 0 -0.13858517392584346 4.2906695174861778 0 4.2906695174861778 -9.5693508353468175 0 0 0 0 0.37620115235222329 6.2633567194920943 0 6.2633567194920943 -16.480284866143109 0 0 0 0 -1.4637058690996128 5.0061663016881539 0 5.0061663016881539 -10.364822221407564 0 0 0 0 1.7623461708013792 15.635104465327743 0 15.635104465327743 -21.731303252266116 0 0 0 0 1.8446124446594281 3.6225606275560933 0 3.6225606275560933 -0.42804806208170465 0 0 0 0 -0.54803054999456435 3.6654929735278756 0 3.6654929735278756 -16.696195980865468 0 0 0 0 2.8502338287526072 19.270661045336055 0 19.270661045336055 -13.325140551809454 0 0 0 0 1.4013263612686586 6.1384942207995241 0 6.1384942207995241 -15.044010882655499 0 0 0 0 10.047495828310502 4.4159894541000995 0 4.4159894541000995 -27.250097017269582 0 0 0 0 7.5173582997258563 6.3682480496709104 0 6.3682480496709104 -17.330772798898806 0 0 0 0 -3.7676730189471073 12.341520845521586 0 12.341520845521586 -20.607011703578337 0 0 0 0 -11.239985629415514 21.447152722157853 0 21.447152722157853 -31.646711730190873 0 0 0 0 4.9480667520499537 13.106359558090162 0 13.106359558090162 -34.971472255366734 0 0 0 0 -11.291347765075443 20.916168999704496 0 20.916168999704496 -37.066425823002874 0 0 0 0 -0.50390995545847428 1.1145749537975922 0 1.1145749537975922 2.0047200814830344 0 0 0 0 -0.35101344298152526 6.3399689415833791 0 6.3399689415833791 -3.1796583887011138 0 0 0 0 -1.0977394950521102 2.6679199734629151 0 2.6679199734629151 -1.2060682189210183 0 0 0 0 2.4696207885613148 1.0035719799246863 0 1.0035719799246863 -10.964194709791855 0 0 0 0 3.0200170272381683 -0.81821556894254854 0 -0.81821556894254854 -5.7734665004441013 0 0 0 0 -1.7197365734214145 4.6447550952751726 0 4.6447550952751726 -5.7534529546928752 0 0 0 0 0.24364194825412883 1.4062431233040247 0 1.4062431233040247 -4.2026966561073085 0 0 0 0 -14.682813386253201 4.2975695245202132 0 4.2975695245202132 7.2122554610186853 0 0 0 0 -0.015761236390433975 1.5111237227987266 0 1.5111237227987266 -3.543809497703144 0 0 0 0 -8.4766860983168044 4.5237123178203547 0 4.5237123178203547 1.366449490129753 0 0 0 0 -6.5168138035476204 -8.3524522358936792 0 -8.3524522358936792 -94.878764205695006 0 0 0 0 -0.4412891442675585 0.70472512563415268 0 0.70472512563415268 0.56720570620786148 0 0 0 0 0.30411110552263398 -0.52343933007994936 0 -0.52343933007994936 -1.7940455765798617 0 0 0 0 -36.301709688622395 62.413570038807393 0 62.413570038807393 -93.118956378382791 0 0 0 0 -99.113517616129684 210.31451646198184 0 210.31451646198184 -143.43284068766479 0 0 0 0 3.4235873783418924 7.0559005629827425 0 7.0559005629827425 -72.831187508118092 0 0 0 0 -71.166081654966433 -147.41642157215631 0 -147.41642157215631 -124.67036466244645 0 0 0 0 27.498507961406176 67.41350077097627 0 67.41350077097627 -91.176104921726619 0 0 0 0 -22.917870934248867 -33.160302575665128 0 -33.160302575665128 -56.155396769231629 0 0 0 0 0.037353985242866483 0.23051212530266207 0 0.23051212530266207 -2.114652681578745 0 0 0 0 14.586633161757618 22.011770369340411 0 22.011770369340411 -167.42306851413218 0 0 0 0 0.0031793942880540271 -21.192282849843195 0 -21.192282849843195 -165.45024004399531 0 0 0 0 2.1157261495509374 -17.159694508357461 0 -17.159694508357461 -53.633723123944833 0 0 0 0 -0.23032084587885038 -10.388572073152773 0 -10.388572073152773 -49.59340931664633 0 0 0 0 -0.251104178333037 -20.650823686840027 0 -20.650823686840027 -58.238545620294644 0 0 0 0 9.1885314734195163 1.41598450607421 0 1.41598450607421 -58.284409884318848 0 0 0 0 -28.421641214955343 44.464703423324295 0 44.464703423324295 -52.739145933614964 0 0 0 0 10.760422914512219 -3.1329164109993144 0 -3.1329164109993144 -100.54711115606642 0 0 0 0 7.8270813820599869 14.477636421993566 0 14.477636421993566 -55.82487510388728 0 0 0 0 9.7799516670576736 5.7050032149542744 0 5.7050032149542744 -32.239634228272735 0 0 0 0 10.369665014641669 -2.1944074290304343 0 -2.1944074290304343 -47.528126870339293 0 0 0 0 13.117617446169447 0.056100024500153722 0 0.056100024500153722 -24.393598183432005 0 0 0 0 12.064496865878937 4.0845139804650898 0 4.0845139804650898 -37.715280331096892 0 0 0 0 3.9204835007290058 -2.3978679869790085 0 -2.3978679869790085 -24.124527437977349 0 0 0 0 -2.8214822879921257 33.11820646431994 0 33.11820646431994 -101.88631432547572 0 0 0 0 -16.33577215902551 -26.761591650109949 0 -26.761591650109949 -98.567265886966197 0 0 0 0 0.1462457615203876 -0.0001460256497578527 0 -0.0001460256497578527 0.35015349198347812 0 0 0 0 9.5773811948461116 -10.18919417226266 0 -10.18919417226266 -16.948741165420415 0 0 0 0 14.166612535125978 -0.035142599218488613 0 -0.035142599218488613 -48.58420847018715 0 0 0 0 20.360433984732481 -10.833375141344277 0 -10.833375141344277 -35.986738222251688 0 0 0 0 6.995700374559874 -7.6798459442179592 0 -7.6798459442179592 -47.42184058710609 0 0 0 0 0.060338511009831564 -3.5522416437647735 0 -3.5522416437647735 -25.837219952075827 0 0 0 0 -0.4998395814032488 -0.79182917874877257 0 -0.79182917874877257 -1.0109343014964578 0 0 0 0 0.80802599879848458 0.63536021285841571 0 0.63536021285841571 -10.364707304151125 0 0 0 0 9.7002737162522408 1.3486731884534038 0 1.3486731884534038 -27.315012695639325 0 0 0 0 -0.15659843115876448 -0.31144758678614526 0 -0.31144758678614526 -0.4626431368027113 0 0 0 0 13.393588104217542 -46.697580909824865 0 -46.697580909824865 15.480760546165584 0 0 0 0 21.800504728640135 4.7374069034283366 0 4.7374069034283366 0.52642438687325921 0 0 0 0 -0.95417168753238002 -10.263636203589613 0 -10.263636203589613 27.590419961803946 0 0 0 0 19.031859803937095 7.4249413783491036 0 7.4249413783491036 -27.707546996240808 0 0 0 0 3.4315173119118878 -2.6335999396283105 0 -2.6335999396283105 -2.099661727475004 0 0 0 0 5.0595859699910761 -11.462575481650674 0 -11.462575481650674 -13.774062785041679 0 0 0 0 -9.7137445583284716 -1.9460199553250277 0 -1.9460199553250277 10.226005045465627 0 0 0 0 25.123028124987485 -23.231235502995915 0 -23.231235502995915 4.8599195622546176 0 0 0 0 0.61965222657318009 -1.151569033976557 0 -1.151569033976557 0.08592985910662776 0 0 0 0 -0.11598133747041928 -1.1095846430413145 0 -1.1095846430413145 -1.7390122567711011 0 0 0 0 -5.9495382252189302 0.089778170406589197 0 0.089778170406589197 0.12199814234570283 0 0 0 0 0.38094641081033842 3.2790247212999475 0 3.2790247212999475 -4.0691158011495645 0 0 0 0 1.2880511320563528 1.9785066056331289 0 1.9785066056331289 -1.7653172702603115 0 0 0 0 91.382838990162782 -11.398767291739205 0 -11.398767291739205 20.915591616398956 0 0 0 0 91.382838990164601 -11.398767291737386 0 -11.398767291737386 20.915591616399695 0 0 0 0 88.960569257282714 19.25523770111522 0 19.25523770111522 -1.6967584878361777 0 0 0 0 1.3808037575704475 1.5426858957725926 0 1.5426858957725926 -1.9522587810163259 0 0 0 0 126.32253255747221 0.10618187462483775 0 0.10618187462483775 -52.515620213875081 0 0 0 0 0.38845344370305246 -0.16438298310310762 0 -0.16438298310310762 -5.5658983895959988 0 0 0 0 12.340866011192418 5.6420749668530163 0 5.6420749668530163 -10.999286243415554 0 0 0 0 -16.374625732024924 -0.14250281393765363 0 -0.14250281393765363 19.118943298826707 0 0 0 0 -13.825898449651049 -19.805491561169049 0 -19.805491561169049 -26.403734768393406 0 0 0 0 6.1882756278936313 -7.0685586607958157 0 -7.0685586607958157 -33.177149340953292 0 0 0 0 -5.0885915635226411 -13.720895041873518 0 -13.720895041873518 -28.195395221504896 0 0 0 0 -6.7258272023727841 -3.5132505463934649 0 -3.5132505463934649 -2.3016875357061508 0 0 0 0 1.5850214982002235 0.86090485648677717 0 0.86090485648677717 -16.878285795209017 0 0 0 0 0.63877868522558856 2.6022463214917479 0 2.6022463214917479 -28.493393535144605 0 0 0 0 2.5186279475208266 -0.63248491015656327 0 -0.63248491015656327 -10.477794097911101 0 0 0 0 2.5387816203863056 -1.0035299032560223 0 -1.0035299032560223 -15.482462323851012 0 0 0 0 2.5936123583501285 1.3223069118375861 0 1.3223069118375861 -32.737767256459847 0 0 0 0 0.92668528054127819 0.23782676410837666 0 0.23782676410837666 -24.677142425055536 0 0 0 0 2.355553250889443 1.2665466951746112 0 1.2665466951746112 -23.796313753377945 0 0 0 0 1.3081774761479643 0.31651218476673559 0 0.31651218476673559 -6.3787655715546592 0 0 0 0 0.6959647110691094 0.22876927013828663 0 0.22876927013828663 -18.538796786434887 0 0 0 0 0.0064890693661254772 2.0870344409045174 0 2.0870344409045174 -22.036621177458528 0 0 0 0 0.65649921565250224 1.9814147699873956 0 1.9814147699873956 -33.572826033827369 0 0 0 0 2.2157454740538096 6.1935014749757089 0 6.1935014749757089 -18.641452277016533 0 0 0 0 1.0099788618864132 -1.5425418739349919 0 -1.5425418739349919 -6.9316099701529463 0 0 0 0 -1.3632106131556156 1.4796067202501035 0 1.4796067202501035 -25.589810189730088 0 0 0 0 1.808494464667092 5.0161791706077565 0 5.0161791706077565 -22.631344304109462 0 0 0 0 1.2243057897849212 0.51650434637440412 0 0.51650434637440412 -30.817400332888838 0 0 0 0 1.142960322044928 2.2622787194004559 0 2.2622787194004559 -26.407988129979458 0 0 0 0 1.5527447032081909 -3.5678066422046868 0 -3.5678066422046868 -29.907971396222479 0 0 0 0 6.5773069290958119 0.5661041128018951 0 0.5661041128018951 -40.085983036994548 0 0 0 0 1.2644401165657655 4.5145396359359893 0 4.5145396359359893 -17.805290606855579 0 0 0 0 1.2260660966799151 0.84718009751622958 0 0.84718009751622958 -27.943334989888399 0 0 0 0 1.5219269877500299 5.7487161431583056 0 5.7487161431583056 -16.079482172201715 0 0 0 0 1.1197741205410807 0.77902258941065838 0 0.77902258941065838 -22.325324124620238 0 0 0 0 2.1139954441018745 4.0753298842325876 0 4.0753298842325876 -26.41956043709888 0 0 0 0 0.99870365475256317 0.012587982039104162 0 0.012587982039104162 -5.4052569078979094 0 0 0 0 2.8331901048445616 3.0120285568550571 0 3.0120285568550571 -29.766068587461859 0 0 0 0 22.718606787519093 64.944813320409594 0 64.944813320409594 -83.699989403914515 0 0 0 0 3.9058831602969803 13.375350163260919 0 13.375350163260919 -26.294327496482538 0 0 0 0 19.307122759945742 -7.8002710959585784 0 -7.8002710959585784 -34.856463338502181 0 0 0 0 18.697728820244265 -13.466125545088744 0 -13.466125545088744 -85.183182981426597 0 0 0 0 18.268105095327883 -36.851633014477727 0 -36.851633014477727 -35.690339014277924 0 0 0 0 -3.1771667448492735 -11.97122999753401 0 -11.97122999753401 -5.3649598829269962 0 0 0 0 -1.8200925713445031 -10.080748842075195 0 -10.080748842075195 -26.199909258233674 0 0 0 0 4.9981382028850021 -11.642605708135306 0 -11.642605708135306 -10.645967739957086 0 0 0 0 -10.093815869048285 3.8107165938520211 0 3.8107165938520211 -2.2082720596009722 0 0 0 0 -0.094908560765254002 -3.6797337126722307 0 -3.6797337126722307 -1.9595190280907204 0 0 0 0 -2.7596126982928126 5.7723752131983019 0 5.7723752131983019 -27.159980475226348 0 0 0 0 -10.779416935098652 4.4033142973206623 0 4.4033142973206623 -17.266499820379693 0 0 0 0 -6.1134152779955002 12.717091176989811 0 12.717091176989811 -33.627982628941254 0 0 0 0 -5.9400470969380876 0.35340833393979665 0 0.35340833393979665 -27.910357358303372 0 0 0 0 -4.1463830992574913 -3.8091588839124597 0 -3.8091588839124597 -18.801351661167701 0 0 0 0 3.5864328100060447 -8.2652548461755941 0 -8.2652548461755941 -29.249734207970505 0 0 0 0 -0.65365831351527959 -4.1504641378387532 0 -4.1504641378387532 -27.476964123854486 0 0 0 0 -3.6284009194518951 -3.6040431302799067 0 -3.6040431302799067 -7.7398399085795573 0 0 0 0 -2.9466150729000447 1.3651901192409923 0 1.3651901192409923 -35.210255197733659 0 0 0 0 -4.8238471931060758 -3.6472936055660057 0 -3.6472936055660057 -32.007326993863899 0 0 0 0 -4.396083226927658 -1.0282649778332598 0 -1.0282649778332598 -25.610805782895795 0 0 0 0 3.5451080699012891 4.3752074198418995 0 4.3752074198418995 -22.41047547954804 0 0 0 0 2.3881513486576287 5.534698798269412 0 5.534698798269412 -19.949457311030987 0 0 0 0 -10.117652731611088 8.3831836022832817 0 8.3831836022832817 -25.801107891789798 0 0 0 0 -5.2430573786896275 9.7787754293876503 0 9.7787754293876503 -29.591751007378935 0 0 0 0 -4.7105297389362022 8.9580395812855045 0 8.9580395812855045 -29.515533884229512 0 0 0 0 2.1647448333271289 1.6322172803139487 0 1.6322172803139487 -18.667781898702732 0 0 0 0 -4.1680671882611477 7.559533424738504 0 7.559533424738504 -28.540799621216138 0 0 0 0 3.7935439035658476 2.3402006389787857 0 2.3402006389787857 -15.319092038451345 0 0 0 0 1.7799270958475972 3.3068360101783583 0 3.3068360101783583 -18.871554092231236 0 0 0 0 1.5161691873208838 4.6230978959406457 0 4.6230978959406457 -18.348139154975343 0 0 0 0 0.72368118878350518 3.8189224443933778 0 3.8189224443933778 -14.187748936130712 0 0 0 0 4.0967006079543404 -5.7725619665027592 0 -5.7725619665027592 -20.895483038124915 0 0 0 0 0.070502256521402629 6.2231128284193709 0 6.2231128284193709 -18.392553827675567 0 0 0 0 0.73284259410741015 1.6479921232739798 0 1.6479921232739798 -13.463224795968472 0 0 0 0 2.4471015536350604 4.4601629964843053 0 4.4601629964843053 -18.760076153666979 0 0 0 0 -3.4122587485126132 8.4395492374460446 0 8.4395492374460446 -28.865859335157438 0 0 0 0 0.015788753450164172 2.2728062096581727 0 2.2728062096581727 -17.713972641355525 0 0 0 0 2.8951298994090848 3.0687625521586597 0 3.0687625521586597 -35.561939315226482 0 0 0 0 -8.802318684906993 5.5302805405515301 0 5.5302805405515301 -32.306367136843619 0 0 0 0 9.8479412486321962 2.2491640313946846 0 2.2491640313946846 -18.190598769153439 0 0 0 0 2.8863066705842106 1.5655133788617901 0 1.5655133788617901 -21.80025947247195 0 0 0 0 10.196707862220023 0.76473137197172036 0 0.76473137197172036 -15.465266396793595 0 0 0 0 -1.5417386250401517 1.8144759050670531 0 1.8144759050670531 -21.111680843709994 0 0 0 0 4.6954359218739228 2.9872555687588829 0 2.9872555687588829 -16.280347117817655 0 0 0 0 3.138775384913524 7.9227751703897988 0 7.9227751703897988 -25.524368115212656 0 0 0 0 0.58177899537612188 5.1730026789954637 0 5.1730026789954637 -14.950611715711325 0 0 0 0 0.1687987430573985 9.4041850406534397 0 9.4041850406534397 -32.759413214381496 0 0 0 0 0.8877428963938212 2.9736078631573788 0 2.9736078631573788 -14.706492033670507 0 0 0 0 3.249341051688134 3.7019109000866592 0 3.7019109000866592 -15.84376698364531 0 0 0 0 0.46095782913403127 1.7355626162661792 0 1.7355626162661792 -8.9502983502825373 0 0 0 0 5.2821274283328421 2.8755742094404013 0 2.8755742094404013 -23.210122584443525 0 0 0 0 -3.0525193805739264 6.404913500317889 0 6.404913500317889 -44.829526354693371 0 0 0 0 2.8282824488416769 1.5614783355236779 0 1.5614783355236779 -17.948447305499762 0 0 0 0 -23.516906010710272 12.953201954218457 0 12.953201954218457 -18.457576748658539 0 0 0 0 -0.91819947702147542 2.5279823168988074 0 2.5279823168988074 -7.6152062220117127 0 0 0 0 9.8305311196510274 18.05117120878549 0 18.05117120878549 -58.717761337458796 0 0 0 0 -18.079675331776457 -8.526545841838697 0 -8.526545841838697 3.5223783147484937 0 0 0 0 -8.2734964909171822 13.969825706898519 0 13.969825706898519 -32.084947507942616 0 0 0 0 1.5086781881226017 0.26961126635468258 0 0.26961126635468258 -16.840657590503305 0 0 0 0 9.5728427085541625 -7.1644832373963254 0 -7.1644832373963254 -11.785027227098908 0 0 0 0 4.1148958882063003 0.67031920153469171 0 0.67031920153469171 -17.642667351836415 0 0 0 0 6.4891545138161746 -0.15562959496787698 0 -0.15562959496787698 -20.378938350237945 0 0 0 0 -1.3799200167797689 0.82487880694402183 0 0.82487880694402183 -4.561397174269139 0 0 0 0 3.2243345176376579 8.5034500271694924 0 8.5034500271694924 -16.692993841066709 0 0 0 0 -3.7021110179978223 8.5068516937864729 0 8.5068516937864729 -24.103265135769789 0 0 0 0 0.7045465434823841 0.026291579296185752 0 0.026291579296185752 -17.681877448600755 0 0 0 0 16.006085417103236 -6.9240833647622821 0 -6.9240833647622821 -26.62697071930711 0 0 0 0 20.487487492089883 -3.1670719354258381 0 -3.1670719354258381 -31.199535235100484 0 0 0 0 -3.6670180985843217 7.9126789443713506 0 7.9126789443713506 -22.214507103817596 0 0 0 0 3.5814436574200954 4.2739312326878007 0 4.2739312326878007 -21.799867091210899 0 0 0 0 -4.5946883338505131 6.8729893439025318 0 6.8729893439025318 -22.655149877910389 0 0 0 0 -0.45903056576662493 27.871978841543751 0 27.871978841543751 -45.651282556599313 0 0 0 0 0.1134524336843441 -0.87350377475798557 0 -0.87350377475798557 -0.13383720941694754 0 0 0 0 -26.380662691914949 8.8054610297044746 0 8.8054610297044746 -12.433838819934408 0 0 0 0 -8.9604428696698051 16.68707761993528 0 16.68707761993528 -26.745376038071299 0 0 0 0 -7.7779870556825017 22.514595187084296 0 22.514595187084296 -3.1460306173921708 0 0 0 0 -35.352307590756936 58.969886703769362 0 58.969886703769362 -46.727828378760933 0 0 0 0 -26.331944704478246 39.591483150765725 0 39.591483150765725 -9.1313362822124873 0 0 0 0 33.450102660262019 18.914061778272753 0 18.914061778272753 -26.689004090717503 0 0 0 0 7.3113049624812447 48.480907236504663 0 48.480907236504663 -46.347192207492299 0 0 0 0 59.926452366454669 40.315880512131571 0 40.315880512131571 -35.419923960495908 0 0 0 0 38.568205999877136 12.252097408310874 0 12.252097408310874 -46.963004801089312 0 0 0 0 14.289344433164842 52.516306037609866 0 52.516306037609866 -108.33816020982158 0 0 0 0 53.033125724197816 -51.833255727087817 0 -51.833255727087817 -67.54999021826643 0 0 0 0 7.9696881098290078 80.854175220557408 0 80.854175220557408 -196.00156552119006 0 0 0 0 52.04238404336138 -12.781134661243414 0 -12.781134661243414 -305.57963756689787 0 0 0 0 -5.480577762006078 -48.289606726270904 0 -48.289606726270904 53.962781599388109 0 0 0 0 25.266696047062396 -210.24114177470256 0 -210.24114177470256 -254.08470738499727 0 0 0 0 7.973453029463144 -2.7680359383246014 0 -2.7680359383246014 -11.82206969614208 0 0 0 0 4.261762021645664 -4.8540522534974659 0 -4.8540522534974659 -1.3202501802111177 0 0 0 0 7.9734530294614387 -2.7680359383248287 0 -2.7680359383248287 -11.822069696141625 0 0 0 0 24.91227916067146 -22.44920360890751 0 -22.44920360890751 -30.179240186534116 0 0 0 0 35.625647465292786 -37.742519266686031 0 -37.742519266686031 -55.753677788244204 0 0 0 0 4.2680284804481143 -0.54896386487192927 0 -0.54896386487192927 -12.007421712012214 0 0 0 0 4.6112737272857771 -3.31335118865303 0 -3.31335118865303 -16.787179134039889 0 0 0 0 3.272225087702576 -2.5055662505916017 0 -2.5055662505916017 -16.797408930895397 0 0 0 0 3.6324877623555674 -0.91557813328534898 0 -0.91557813328534898 -21.73204672644226 0 0 0 0 9.9676407906672466 -4.3584698838803888 0 -4.3584698838803888 -43.816227514565981 0 0 0 0 8.0482072717263691 0.41881777198113923 0 0.41881777198113923 -28.336901388768865 0 0 0 0 3.2829914254823693 -1.6958927304218587 0 -1.6958927304218587 -6.4836210115583537 0 0 0 0 -1.763017555839042 6.114797434129855 0 6.114797434129855 -15.552909831135366 0 0 0 0 2.3953560339460864 4.9768505272577386 0 4.9768505272577386 -15.782164998127882 0 0 0 0 1.8178248001725217 0.518508057289917 0 0.518508057289917 -18.461465824478569 0 0 0 0 11.15559581133823 -7.2180144343221855 0 -7.2180144343221855 -24.281586715884828 0 0 0 0 0.83944773930812744 2.8778908431272612 0 2.8778908431272612 -18.456450081557705 0 0 0 0 -0.57638575732130448 1.5621806134495273 0 1.5621806134495273 -14.131792067952119 0 0 0 0 -3.7456306329248719 0.77662555258939392 0 0.77662555258939392 -13.630407888809714 0 0 0 0 -4.0743723461331456 4.0325965110196194 0 4.0325965110196194 -11.806720842410868 0 0 0 0 -10.215208533554346 0.71201270226902125 0 0.71201270226902125 -11.646650133265211 0 0 0 0 -2.364835710764055 4.2311033413317318 0 4.2311033413317318 -1.1701203477841773 0 0 0 0 -2.5996973906215151 3.1667094403319442 0 3.1667094403319442 -2.961863148841573 0 0 0 0 0.47477932550100377 0.79012801010276235 0 0.79012801010276235 -4.2999281387433257 0 0 0 0 0.77202441014378564 -2.2967178491617233 0 -2.2967178491617233 -3.5890798686737071 0 0 0 0 -5.0479485322766777 -9.1729370685893628 0 -9.1729370685893628 -17.719702386452809 0 0 0 0 -1.3153579766774328 -2.7923744538575193 0 -2.7923744538575193 -12.663300378720123 0 0 0 0 -4.0335487251704762 1.0303799893408723 0 1.0303799893408723 -2.6317834249211955 0 0 0 0 1.303184796464393 0.56634588448741852 0 0.56634588448741852 -14.474237823931162 0 0 0 0 -2.1491105569315323 2.5199835199657628 0 2.5199835199657628 -8.6072109927138172 0 0 0 0 0.053354972175509441 -1.571897867514636 0 -1.571897867514636 0.10751859906724803 0 0 0 0 1.1616571513777671 4.6097510878132653 0 4.6097510878132653 -19.188015316228302 0 0 0 0 6.4581580264316472 -8.8180007462806316 0 -8.8180007462806316 -3.6072512335122155 0 0 0 0 1.7830930076934237 -1.8728951999992205 0 -1.8728951999992205 -1.9525461248795182 0 0 0 0 1.2961648117328717 -0.53725170728097638 0 -0.53725170728097638 -5.8627162403080728 0 0 0 0 1.4995913649654606 -1.1260585955597722 0 -1.1260585955597722 -5.0094949394039592 0 0 0 0 -1.6661760494284863 0.82082331748915749 0 0.82082331748915749 -4.7730477850045645 0 0 0 0 -1.1386761129597289 -3.5889010552859872 0 -3.5889010552859872 -3.6053357475821031 0 0 0 0 0.74252530503122216 -2.0642564990491792 0 -2.0642564990491792 -2.3727340358327638 0 0 0 0 3.0719210630250018 -4.7083075055470545 0 -4.7083075055470545 -1.7081406401155164 0 0 0 0 1.9072706023706587 -0.63507937799158753 0 -0.63507937799158753 -1.3081003937986679 0 0 0 0 1.8339542936444104 0.28702569691017743 0 0.28702569691017743 -5.1168856208078068 0 0 0 0 2.186361045293097 -0.14267958967798222 0 -0.14267958967798222 -5.2453511055628042 0 0 0 0 0.79716721860340534 0.68266157922248727 0 0.68266157922248727 -5.0273323416586084 0 0 0 0 98.467237277794283 -35.731772933229934 0 -35.731772933229934 -5.1746018361154711 0 0 0 0 1.2122832647283315 -0.8211039113722931 0 -0.8211039113722931 -3.8214155264135581 0 0 0 0 1.7678997913302945 -1.032444022840278 0 -1.032444022840278 -3.9653821312937474 0 0 0 0 1.9519540773926565 -0.86719227949743072 0 -0.86719227949743072 -4.4318436845278484 0 0 0 0 1.4333449605038115 0.69852125224443462 0 0.69852125224443462 -5.136805677019014 0 0 0 0 0.88015314641365094 -0.19699180123974802 0 -0.19699180123974802 -3.3578650637912153 0 0 0 0 4.7560236063582124 -7.7819410234396855 0 -7.7819410234396855 1.1757980255551956 0 0 0 0 5.0184299846360059 -0.23101790082291895 0 -0.23101790082291895 -5.2521988110455089 0 0 0 0 1.1456324387168171 0.88191205615107204 0 0.88191205615107204 -4.219311741339169 0 0 0 0 -0.38827606147287952 -1.9165480620267772 0 -1.9165480620267772 -0.73890180051057541 0 0 0 0 -0.29988810965915036 -1.5114076552981714 0 -1.5114076552981714 0.10813369094830705 0 0 0 0 1.6655662052044136 1.5347797145268487 0 1.5347797145268487 -6.8304892266496608 0 0 0 0 6.7449945768249515 -1.3012559129887125 0 -1.3012559129887125 -2.5643040949493257 0 0 0 0 17.550273545256346 9.2514593494977362 0 9.2514593494977362 -6.6887588705294547 0 0 0 0 17.159490446760401 -5.7510972216020946 0 -5.7510972216020946 -14.971394219876402 0 0 0 0 12.737924748644787 0.98327627063372347 0 0.98327627063372347 -17.26078878347198 0 0 0 0 -22.296148555039053 -20.885665345039342 0 -20.885665345039342 -13.284978883006715 0 0 0 0 -14.571975468110395 -13.373182535797923 0 -13.373182535797923 -6.0246736924495963 0 0 0 0 10.969570230322461 2.9589607682137284 0 2.9589607682137284 -18.103628102319476 0 0 0 0 0.47108466216627676 -12.15879503344388 0 -12.15879503344388 -39.294190549693212 0 0 0 0 -1.9082838616718618 -3.1434476326021468 0 -3.1434476326021468 15.753164338112128 0 0 0 0 -23.34841856260482 22.787282135717078 0 22.787282135717078 -14.904262237407352 0 0 0 0 23.398619959177609 17.067512269565441 0 17.067512269565441 -10.713209281826948 0 0 0 0 26.154445684125562 11.787466206212457 0 11.787466206212457 -19.834420333154981 0 0 0 0 -6.0306323441438963 -7.5114681933905558 0 -7.5114681933905558 4.2069990096965739 0 0 0 0 5.7339216140677536 -32.56080185690746 0 -32.56080185690746 -37.259570975686074 0 0 0 0 7.1725366217716555 -42.81249909568669 0 -42.81249909568669 -150.92604685208698 0 0 0 0 -24.010084771510265 63.500359082408977 0 63.500359082408977 -106.54731120201791 0 0 0 0 -33.871003551792455 2.9024570998417403 0 2.9024570998417403 -200.47591288103649 0 0 0 0 -1.6895475125505941 1.0097389348090315 0 1.0097389348090315 -0.65302437869002716 0 0 0 0 -30.998949072746527 40.937031421909296 0 40.937031421909296 10.725220432583228 0 0 0 0 -43.300739635952766 35.170723018623562 0 35.170723018623562 -233.42155283089687 0 0 0 0 -0.36009062892891386 -0.084693479713198627 0 -0.084693479713198627 -0.79307211065817906 0 0 0 0 7.9734530294621209 -2.7680359383240898 0 -2.7680359383240898 -11.822069696145263 0 0 0 0 -42.210577376753008 25.690742676006721 0 25.690742676006721 44.142900702830048 0 0 0 0 -51.430130793820808 50.647519819259401 0 50.647519819259401 -9.4222512027399716 0 0 0 0 -26.310765810093926 -1.0744950360985968 0 -1.0744950360985968 -5.2532010900331443 0 0 0 0 -8.2327452659947085 1.9805705040480461 0 1.9805705040480461 -29.482218274308252 0 0 0 0 0.50151643877052265 -24.764023640301275 0 -24.764023640301275 8.7821960960404795 0 0 0 0 -1.2905810003662737 26.663829940099504 0 26.663829940099504 -62.757453233998604 0 0 0 0 -5.7468460440753688 25.649383444703062 0 25.649383444703062 -42.669016868127983 0 0 0 0 -9.1823786327267953 21.14943451115596 0 21.14943451115596 -43.303505551561329 0 0 0 0 -33.896275641134139 13.998124561026088 0 13.998124561026088 -32.043484036998052 0 0 0 0 -5.4471050388833646 16.755238930530822 0 16.755238930530822 -38.78204312131038 0 0 0 0 0.67981114928079478 19.730089273104568 0 19.730089273104568 -45.541413216244791 0 0 0 0 3.5869677054818112 13.82566162322928 0 13.82566162322928 -43.431480354513042 0 0 0 0 1.9587842731957608 16.679872157766113 0 16.679872157766113 -38.267207085242262 0 0 0 0 6.1108889846741477 7.0797765665956831 0 7.0797765665956831 -50.223508463961934 0 0 0 0 4.6955904952660603 13.824043352432454 0 13.824043352432454 -43.695674951198271 0 0 0 0 5.2831901767012823 15.065980117341951 0 15.065980117341951 -47.281061891624859 0 0 0 0 15.213429834773706 2.2929138228378179 0 2.2929138228378179 -81.339694869205232 0 0 0 0 11.863953392016583 -2.2905540613164703 0 -2.2905540613164703 -42.239282750879738 0 0 0 0 1.8981388989402603 -8.0603622098672076 0 -8.0603622098672076 -33.804871940018529 0 0 0 0 4.7378129352268559 0.52261788267749054 0 0.52261788267749054 -38.927743897197615 0 0 0 0 4.8107532050971678 -3.0632744490733472 0 -3.0632744490733472 -32.959145175967024 0 0 0 0 4.0893124534291019 0.04461030496827334 0 0.04461030496827334 -31.542780718892573 0 0 0 0 -2.0781326954527231 1.7002905153781285 0 1.7002905153781285 -35.576000831002148 0 0 0 0 -5.7188738960205114 4.9754631453527054 0 4.9754631453527054 -28.221153737978057 0 0 0 0 -1.3339078321500892 13.250412045907979 0 13.250412045907979 -26.792746016873934 0 0 0 0 -0.17087877203971402 11.356609466165992 0 11.356609466165992 -33.694107510205868 0 0 0 0 6.518802885918916 4.1586036374775972 0 4.1586036374775972 -36.04158725891466 0 0 0 0 0.91815277768910164 10.220721769445845 0 10.220721769445845 -39.366301278031187 0 0 0 0 1.0191274254004838 14.387619370669654 0 14.387619370669654 -36.997324922487678 0 0 0 0 3.6165699976295684 13.264589742090465 0 13.264589742090465 -36.533666328499748 0 0 0 0 1.2509457776686759 15.260710301760355 0 15.260710301760355 -33.818155042911457 0 0 0 0 -1.8590523315697283 15.446021086005203 0 15.446021086005203 -31.325422458645789 0 0 0 0 -0.77295976024538504 13.995893316621277 0 13.995893316621277 -30.85438797950701 0 0 0 0 -3.6846628706075535 10.097830905194314 0 10.097830905194314 -26.30454131464694 0 0 0 0 -2.23892258946114 14.155076938899583 0 14.155076938899583 -24.260976410239891 0 0 0 0 -2.1886987782388587 14.161688627173135 0 14.161688627173135 -28.136118489776436 0 0 0 0 -1.5964334612793323 12.207274171942117 0 12.207274171942117 -27.609267081890721 0 0 0 0 -5.1801004513337148 14.598227912313178 0 14.598227912313178 -28.590653424395896 0 0 0 0 -1.5796420454393001 15.120823274445229 0 15.120823274445229 -31.972001678404922 0 0 0 0 -11.33510608048482 10.43628072773663 0 10.43628072773663 -23.193982166588739 0 0 0 0 -4.330461142311492 10.171342423012447 0 10.171342423012447 -24.903800652276914 0 0 0 0 77.261618129023333 -38.371553613562426 0 -38.371553613562426 -72.208473772359866 0 0 0 0 -4.7649992131059662 14.198105477971694 0 14.198105477971694 -29.567693677063232 0 0 0 0 0.29669449276339976 -2.7753367571628487 0 -2.7753367571628487 -6.9076062278460562 0 0 0 0 82.883750648325773 -102.94881422790178 0 -102.94881422790178 44.905864123157698 0 0 0 0 -1.1392712168449179 34.347190121849053 0 34.347190121849053 33.457304351348284 0 0 0 0 0.37500998402013241 -0.15726950604658008 0 -0.15726950604658008 -0.24799874489119134 0 0 0 0 43.907492545370815 -63.920921802175144 0 -63.920921802175144 49.73861250206221 0 0 0 0 -3.7299228796523494 -10.980545415653978 0 -10.980545415653978 -35.440080680065876 0 0 0 0 1.2173549776331853 -13.357176195496805 0 -13.357176195496805 -19.146325667225938 0 0 0 0 -4.9701858855044065 9.4851668838041405 0 9.4851668838041405 -13.609224958307095 0 0 0 0 -7.3790310314350336 11.27932510585515 0 11.27932510585515 -9.5784193100907942 0 0 0 0 -3.8693592829832824 14.469549035187356 0 14.469549035187356 -14.125066007314672 0 0 0 0 35.939981566794053 15.298485832820006 0 15.298485832820006 6.1608845190339707 0 0 0 0 31.625589101782953 5.86474840649214 0 5.86474840649214 -16.623666439097178 0 0 0 0 76.291634077956218 -35.210659020188359 0 -35.210659020188359 6.0140175693273932 0 0 0 0 26.388360081296401 -11.398340555531831 0 -11.398340555531831 9.6148843205970707 0 0 0 0 48.970088972048089 -35.403003669148347 0 -35.403003669148347 46.807695966320807 0 0 0 0 78.546543781355638 -11.108318967053634 0 -11.108318967053634 16.139043305709492 0 0 0 0 52.020995224364697 -31.740241386472007 0 -31.740241386472007 6.2162131536983907 0 0 0 0 33.412582100963618 -11.887032233993523 0 -11.887032233993523 -3.997227543543886 0 0 0 0 93.344911348302816 -47.773636488134912 0 -47.773636488134912 5.3249380901906989 0 0 0 0 11.032777686008217 -31.497258509709354 0 -31.497258509709354 25.406517602330041 0 0 0 0 54.80016503192094 -19.056099207905447 0 -19.056099207905447 -0.50741331429071579 0 0 0 0 9.0550551115715017 21.11449645370692 0 21.11449645370692 -25.750851829064231 0 0 0 0 4.1471334461358325 -2.911984708197906 0 -2.911984708197906 5.1470252430030996 0 0 0 0 0.48861029665853195 34.922491058695641 0 34.922491058695641 -48.326333725418408 0 0 0 0 3.7959775169365901 24.487455209718973 0 24.487455209718973 -52.634647106452576 0 0 0 0 14.745605606658557 -27.255434081459725 0 -27.255434081459725 -12.465483075884549 0 0 0 0 -36.80795591084015 17.618664992642152 0 17.618664992642152 1.2024574838774242 0 0 0 0 -24.91268146084272 66.624847710756967 0 66.624847710756967 -120.65715887322494 0 0 0 0 -108.27831737772902 12.575411257455016 0 12.575411257455016 -14.484462693804318 0 0 0 0 -7.9185890078445258 21.260065969298466 0 21.260065969298466 -52.927624982799898 0 0 0 0 -8.8525329909530424 31.868899709176219 0 31.868899709176219 -48.739609644035227 0 0 0 0 0.57108720410978364 0.49136666528983675 0 0.49136666528983675 -2.6584185942947371 0 0 0 0 0.48001906634031011 -2.6080560264325081 0 -2.6080560264325081 -6.7281323985788397 0 0 0 0 86.935910155145734 -9.3772637173642579 0 -9.3772637173642579 -10.065622961491499 0 0 0 0 0.77958877609410049 0.080236508526375871 0 0.080236508526375871 -1.822437030815574 0 0 0 0 2.0463060920628138 3.6973329085146531 0 3.6973329085146531 -11.651488194705053 0 0 0 0 79.282779115599922 -68.678496369697086 0 -68.678496369697086 29.106155767689415 0 0 0 0 62.030952629773537 -60.04480542061583 0 -60.04480542061583 20.153171469450172 0 0 0 0 6.2686040992140306 -20.197239988070123 0 -20.197239988070123 20.825384560911033 0 0 0 0 31.332865884406942 -69.469332806290822 0 -69.469332806290822 49.001316202741691 0 0 0 0 29.360034488734414 -26.024958386613889 0 -26.024958386613889 -12.193684039921209 0 0 0 0 107.9351416149309 -21.107333100113465 0 -21.107333100113465 -13.638095252359562 0 0 0 0 4.4127162854744739 -71.345631396031877 0 -71.345631396031877 -92.774628939295326 0 0 0 0 97.670615477024967 -32.58476512470952 0 -32.58476512470952 -16.900700849460009 0 0 0 0 87.657469087180971 -46.331764171357463 0 -46.331764171357463 19.399897171882913 0 0 0 0 113.62274343857348 -102.19587841735938 0 -102.19587841735938 45.597931756687103 0 0 0 0 113.42314980222159 -51.200463213175681 0 -51.200463213175681 -63.324743477276797 0 0 0 0 92.221725404069275 -0.067581251319097646 0 -0.067581251319097646 -75.205098544381826 0 0 0 0 95.821924704906905 -29.945583498214546 0 -29.945583498214546 -10.397207082984096 0 0 0 0 91.231757061388279 -7.2821231964555864 0 -7.2821231964555864 -36.182616150497779 0 0 0 0 91.382838990163691 -11.398767291740114 0 -11.398767291740114 20.91559161639816 0 0 0 0 48.054463616521616 15.720364397012418 0 15.720364397012418 -31.501194081315589 0 0 0 0 84.330552872831504 9.5237498515366497 0 9.5237498515366497 -47.701885037217835 0 0 0 0 88.942166306759191 21.964527881944377 0 21.964527881944377 -17.318274916177415 0 0 0 0 38.678234571729035 -7.9800955714979409 0 -7.9800955714979409 37.729000530502162 0 0 0 0 22.21222705272271 62.247510001157934 0 62.247510001157934 -46.859910785515694 0 0 0 0 10.570027101101118 43.758974552989912 0 43.758974552989912 -18.155340797115969 0 0 0 0 -0.57460217989842022 40.198905113207729 0 40.198905113207729 -38.22672527633938 0 0 0 0 16.337207048422442 62.538850328092394 0 62.538850328092394 -30.919937482641672 0 0 0 0 -11.499708777869898 94.336073465337222 0 94.336073465337222 -66.396060611801204 0 0 0 0 58.933135005015245 28.055803049430097 0 28.055803049430097 -168.56429774645039 0 0 0 0 -37.689821643041569 -56.089113004653427 0 -56.089113004653427 -73.551774807479433 0 0 0 0 -0.54332775324504567 0.93415520260013096 0 0.93415520260013096 -1.5089958996229775 0 0 0 0 7.4115467168148506 -8.0216462045964931 0 -8.0216462045964931 -68.01952404000258 0 0 0 0 8.3260876935728803 -7.5713752383448991 0 -7.5713752383448991 -144.59131418589561 0 0 0 0 -10.463970926030196 -3.1474103535574613 0 -3.1474103535574613 -12.40656202616492 0 0 0 0 36.858481061694803 -2.1712665804498101 0 -2.1712665804498101 13.117613177562816 0 0 0 0 -31.579155647488967 68.642044005506818 0 68.642044005506818 -17.372776415811131 0 0 0 0 61.39197375791116 12.634605611057054 0 12.634605611057054 -29.395195254546707 0 0 0 0 0.4234273442313703 0.42530276654990207 0 0.42530276654990207 -0.41387949614430397 0 0 0 0 15.212255210484372 -26.122655066184961 0 -26.122655066184961 1.8738313355461287 0 0 0 0 -0.084173945692862115 1.3724694188492714 0 1.3724694188492714 -5.0027053508848542 0 0 0 0 0.048194069701164466 -1.7080583376487084 0 -1.7080583376487084 -16.115873438704966 0 0 0 0 4.3489527076202421 -12.983334015258151 0 -12.983334015258151 12.109247182271247 0 0 0 0 2.1550734935630249 0.90274517344993521 0 0.90274517344993521 -9.1940252333525905 0 0 0 0 27.50308511419788 -13.859182188693921 0 -13.859182188693921 -2.3744224316596956 0 0 0 0 49.914131645607611 -5.3543875563314032 0 -5.3543875563314032 -9.5445983586232614 0 0 0 0 46.926075192799814 -1.9838680632042269 0 -1.9838680632042269 -2.1133864621442626 0 0 0 0 38.723148512049164 -6.0377716086863984 0 -6.0377716086863984 -3.1197346562094026 0 0 0 0 43.807934853551984 -13.748093550436579 0 -13.748093550436579 -7.6802358979202836 0 0 0 0 53.083803866431367 -9.5302011843941727 0 -9.5302011843941727 -9.3560759739293644 0 0 0 0 48.137799112680682 -8.0525380017597854 0 -8.0525380017597854 -9.4254871221219219 0 0 0 0 49.16710633488583 -9.3406363307258289 0 -9.3406363307258289 -7.952253753150444 0 0 0 0 48.567164057813557 -24.18055362914447 0 -24.18055362914447 2.0815836609126563 0 0 0 0 48.953817049420934 -7.2259816030602906 0 -7.2259816030602906 -10.890963494410244 0 0 0 0 54.298402139685209 -11.556373594814886 0 -11.556373594814886 -13.018810620770864 0 0 0 0 45.479221166493176 -7.7843038484315912 0 -7.7843038484315912 -8.6059481041565959 0 0 0 0 44.90492583619482 -6.2970672964801224 0 -6.2970672964801224 -9.6978784389029897 0 0 0 0 8.7162324417840864 6.0407126011673427 0 6.0407126011673427 -6.2350567929681233 0 0 0 0 21.18615119296669 -13.833741747922431 0 -13.833741747922431 -1.763929442706285 0 0 0 0 0.64295198035429957 -0.34725249341382103 0 -0.34725249341382103 -0.96262563593564909 0 0 0 0 25.876782114169032 39.814997142350876 0 39.814997142350876 -97.951937047118463 0 0 0 0 -13.830284664218638 109.37300898851123 0 109.37300898851123 -110.5845728800914 0 0 0 0 15.558751591423515 39.788672442215557 0 39.788672442215557 -104.03091301105104 0 0 0 0 4.1326166020591018 46.373729185603452 0 46.373729185603452 -47.132881354251367 0 0 0 0 53.139164885232617 -6.0323925033346768 0 -6.0323925033346768 -27.988550943788141 0 0 0 0 -56.358110539470772 3.3226457246000791 0 3.3226457246000791 -1.0975367647611165 0 0 0 0 -45.955081823267278 18.697468588170977 0 18.697468588170977 -1.0439953924751535 0 0 0 0 -68.078988455569231 14.893674420777188 0 14.893674420777188 -1.6906469833838855 0 0 0 0 -36.306925934194823 35.127672132990369 0 35.127672132990369 -15.929498318608239 0 0 0 0 -63.352137946159218 5.1473041301927651 0 5.1473041301927651 -2.0316535728788949 0 0 0 0 -76.866286709157293 14.045645544016679 0 14.045645544016679 -7.7302806240995778 0 0 0 0 -54.00408298932507 -13.627813340001239 0 -13.627813340001239 4.0101829797513346 0 0 0 0 -66.382523563846917 4.6765593512745909 0 4.6765593512745909 -0.44979570956365933 0 0 0 0 -90.619906876451722 -6.9384982758333535 0 -6.9384982758333535 4.1560181455652128 0 0 0 0 -57.88758498926795 -21.77869739744142 0 -21.77869739744142 6.9187199771740779 0 0 0 0 -15.640796680219353 -33.52830071598828 0 -33.52830071598828 -2.6690090805059299 0 0 0 0 2.9117118095281143 -8.6135296656236733 0 -8.6135296656236733 -1.0566658744792221 0 0 0 0 13.424230017609617 -20.80446946488496 0 -20.80446946488496 -13.835192891513543 0 0 0 0 -17.453542745457071 -18.130720262516661 0 -18.130720262516661 -10.375011150051705 0 0 0 0 -32.607529726567009 -20.476071969688746 0 -20.476071969688746 0.44017268137503152 0 0 0 0 -53.283061008682836 -13.563706300598824 0 -13.563706300598824 1.3055362499690091 0 0 0 0 -24.233281184446582 -6.6450144172204091 0 -6.6450144172204091 -31.480592792365769 0 0 0 0 -23.275169576676376 -1.9711083809834804 0 -1.9711083809834804 -16.988356939469668 0 0 0 0 -17.252971164217271 -18.255877899458255 0 -18.255877899458255 -22.127931474663455 0 0 0 0 -6.6794680132481226 -27.916800028200413 0 -27.916800028200413 -39.269610567631389 0 0 0 0 -6.8893171206702846 -6.9109031003963537 0 -6.9109031003963537 -52.765995752484969 0 0 0 0 -7.2423245297906256 -5.3070310237452532 0 -5.3070310237452532 -39.577307896352977 0 0 0 0 -29.332600389631068 10.188260634399285 0 10.188260634399285 -32.632424927431202 0 0 0 0 -28.934303158668172 12.635917203328518 0 12.635917203328518 -18.205087931214621 0 0 0 0 -40.334282679319216 4.124424640655775 0 4.124424640655775 -4.4654207055591542 0 0 0 0 -45.42296242044327 -5.4690906556388654 0 -5.4690906556388654 -14.811244813578014 0 0 0 0 -36.031729841935203 17.879818792776859 0 17.879818792776859 -5.6163660354798139 0 0 0 0 -38.571185349660482 11.257664147499781 0 11.257664147499781 -17.285750952689796 0 0 0 0 -28.190999089871397 19.947616731848825 0 19.947616731848825 -31.378195378601959 0 0 0 0 -26.741104706473834 15.291366530604591 0 15.291366530604591 -34.616483613897799 0 0 0 0 -22.727625783110113 19.121453653352319 0 19.121453653352319 -40.225298867683705 0 0 0 0 -23.849080303336805 20.38364383778071 0 20.38364383778071 -38.584228975579208 0 0 0 0 -29.692807775603626 18.468750048448328 0 18.468750048448328 -39.88236317178098 0 0 0 0 -24.381059312193017 17.631603487817188 0 17.631603487817188 -40.986896531325328 0 0 0 0 -24.858906553149858 19.221342201161178 0 19.221342201161178 -38.930848348797554 0 0 0 0 -21.651249327048802 18.190284849046407 0 18.190284849046407 -42.246326335869526 0 0 0 0 -30.098977457385161 7.4674263295833043 0 7.4674263295833043 -51.960509388854007 0 0 0 0 -0.33002221536190746 20.531766966945725 0 20.531766966945725 -81.403967021070684 0 0 0 0 -1.157456911535732 21.715003694391385 0 21.715003694391385 -46.805838638279965 0 0 0 0 -13.169252880754357 11.995344278506764 0 11.995344278506764 -51.656127165378848 0 0 0 0 -14.635477205541321 14.199160987818232 0 14.199160987818232 -34.546296265353703 0 0 0 0 -17.08325196710291 22.176538146285111 0 22.176538146285111 -41.896862535724722 0 0 0 0 -17.07910339592982 24.970123733661694 0 24.970123733661694 -29.440328005555784 0 0 0 0 -7.6001740520409413 28.164242906505024 0 28.164242906505024 -48.039667307314403 0 0 0 0 -7.3186006878304681 23.195111426579842 0 23.195111426579842 -24.763735068785536 0 0 0 0 -5.7095367531449011 22.007387469556875 0 22.007387469556875 -34.397715540922036 0 0 0 0 -5.3056122322833374 15.957359027459461 0 15.957359027459461 -9.043848220127984 0 0 0 0 -17.416806400276357 6.3467436277546767 0 6.3467436277546767 -15.447695136608672 0 0 0 0 -30.930239650612691 20.138363119399401 0 20.138363119399401 -33.339961540044897 0 0 0 0 -17.746009245401353 10.308190552959445 0 10.308190552959445 -55.904665916485101 0 0 0 0 -17.477541738356479 -10.425879043605164 0 -10.425879043605164 -38.593809487433646 0 0 0 0 -15.61803089541786 -7.8557630644604615 0 -7.8557630644604615 -35.164135423075095 0 0 0 0 -13.113922737165112 -10.329261804166435 0 -10.329261804166435 -32.732513866037607 0 0 0 0 -12.023800201625789 1.4786346408786812 0 1.4786346408786812 11.828935972537693 0 0 0 0 -12.518370762343316 7.6945472727418291 0 7.6945472727418291 -58.868421419957485 0 0 0 0 -29.309457767697097 12.220234260300913 0 12.220234260300913 -50.011429354452048 0 0 0 0 -19.531474871913531 0.47344125119752789 0 0.47344125119752789 -96.421243084858361 0 0 0 0 -52.321068214247475 14.419255912966491 0 14.419255912966491 -47.778625357812416 0 0 0 0 -36.796477985188631 -13.246698263138569 0 -13.246698263138569 -76.893719718801549 0 0 0 0 -1.6459289558256387 10.112136965309219 0 10.112136965309219 -92.223946776400226 0 0 0 0 -21.052361026442213 16.860549923406325 0 16.860549923406325 -22.174164898970957 0 0 0 0 -14.18105861291707 32.223657844737318 0 32.223657844737318 -47.353348360335076 0 0 0 0 0.40910732956743723 -0.20643868301745094 0 -0.20643868301745094 -0.4326646874493989 0 0 0 0 5.5019245225194027 -6.3692595870088553 0 -6.3692595870088553 -1.895942570452462 0 0 0 0 -3.3951992239344939 -5.8826926611483543 0 -5.8826926611483543 -28.021623088269735 0 0 0 0 -0.33869153990028683 0.10121938718325729 0 0.10121938718325729 -0.50141073394832958 0 0 0 0 -38.081234945031468 -42.21119461572664 0 -42.21119461572664 -48.710846466495241 0 0 0 0 -27.541545943174242 -21.142372478794186 0 -21.142372478794186 -20.31860388214227 0 0 0 0 -1.1539246549433424 -0.032586492737080586 0 -0.032586492737080586 -1.0715147845593691 0 0 0 0 -3.5173666726424857 -0.19505401780721954 0 -0.19505401780721954 -0.27752419320305943 0 0 0 0 -7.5550992701668065 -0.17207273470694417 0 -0.17207273470694417 -6.866368378741754 0 0 0 0 0.38911749132907442 -0.5129490441789788 0 -0.5129490441789788 -1.7513073592583339 0 0 0 0 -17.683998537842967 0.69407851390042197 0 0.69407851390042197 2.4895728575802423 0 0 0 0 -0.44936786945768831 -2.364274724304761 0 -2.364274724304761 -1.4472972386724869 0 0 0 0 7.1365466701832148 -1.6034409135097576 0 -1.6034409135097576 -1.810651482315734 0 0 0 0 4.5576934634294162 -0.15846911772496242 0 -0.15846911772496242 -4.0366820454032677 0 0 0 0 0.22442696778756499 -0.46383295763826027 0 -0.46383295763826027 -1.1445547305738728 0 0 0 0 -16.926472080158064 -58.288273575985386 0 -58.288273575985386 -81.990597411760064 0 0 0 0 -19.791017065977528 -32.326504412515277 0 -32.326504412515277 12.431820845854418 0 0 0 0 -18.305485666342463 -32.142154124187527 0 -32.142154124187527 -35.079792991842346 0 0 0 0 -1.1028934085168072 0.27108345754517416 0 0.27108345754517416 -0.085096751239108315 0 0 0 0 17.574560700868972 -9.2431657529500626 0 -9.2431657529500626 -7.9461825462739739 0 0 0 0 -4.7555135593285627 5.1892642882587552 0 5.1892642882587552 33.455156458861893 0 0 0 0 -2.8315415215399753 3.4865048891906554 0 3.4865048891906554 -4.0329445615661825 0 0 0 0 -30.988074468004697 5.1095308688932164 0 5.1095308688932164 103.67124415896978 0 0 0 0 -86.619686791981593 113.71622721433778 0 113.71622721433778 -145.37801366105282 0 0 0 0 -24.25731970713737 170.81549028962809 0 170.81549028962809 -219.5622028567841 0 0 0 0 98.788827537675047 -142.57277804504565 0 -142.57277804504565 65.483699128791159 0 0 0 0 26.046752246270355 -96.573325912234679 0 -96.573325912234679 126.92197145667342 0 0 0 0 -0.37544516699124975 -0.85420356671698716 0 -0.85420356671698716 -1.527750520448496 0 0 0 0 51.896586138847283 -72.854428881282729 0 -72.854428881282729 25.749265651171868 0 0 0 0 11.396532557266283 -30.017008692087984 0 -30.017008692087984 28.712511959152835 0 0 0 0 7.1318348741035607 -33.801671574966349 0 -33.801671574966349 25.494844477054016 0 0 0 0 5.2020762950653143 1.049397868470745 0 1.049397868470745 -1.666381067104755 0 0 0 0 22.939313129131506 -28.813457657743811 0 -28.813457657743811 -39.89972506097547 0 0 0 0 -12.193307794986822 23.946409281982596 0 23.946409281982596 -8.8764910850181877 0 0 0 0 4.751884861788767 2.6298400860023321 0 2.6298400860023321 -6.4956916352925873 0 0 0 0 -120.39580712975481 170.28604252265359 0 170.28604252265359 -180.26198681589631 0 0 0 0 83.620418144583709 -68.592858994343715 0 -68.592858994343715 -37.044818378810305 0 0 0 0 159.69359711337077 3.5868559101963911 0 3.5868559101963911 -368.35550875405715 0 0 0 0 46.798234978079705 -49.672908006169109 0 -49.672908006169109 -89.955089391836736 0 0 0 0 1.0449048510085959 -0.24955524673077889 0 -0.24955524673077889 -2.535353850451429 0 0 0 0 2.3492555546409619 -1.8603075571502359 0 -1.8603075571502359 -0.14199509405261779 0 0 0 0 1.4216094267977439 0.1429189297737139 0 0.1429189297737139 -2.127047247309747 0 0 0 0 6.3659882743741036 0.35034955048740812 0 0.35034955048740812 -2.4040988953576061 0 0 0 0 1.9270401754462987 -1.3739711618294563 0 -1.3739711618294563 -3.6401685232547507 0 0 0 0 0.63258388287820011 -0.55173365929895457 0 -0.55173365929895457 -2.2450841263684822 0 0 0 0 5.2078012020460847 -21.11773510480225 0 -21.11773510480225 1.7868397763613757 0 0 0 0 -12.404335018034089 7.5044455723818828 0 7.5044455723818828 10.044797846866459 0 0 0 0 2.7112354222948625 -19.225621007278733 0 -19.225621007278733 0.43061847821445554 0 0 0 0 4.7459852742224484 0.31115505867319371 0 0.31115505867319371 1.3823673338549725 0 0 0 0 6.1500854022420555 -0.29256618754948249 0 -0.29256618754948249 -2.4456694290056475 0 0 0 0 2.6102593298347965 -0.29415575077032763 0 -0.29415575077032763 -4.2797103420306852 0 0 0 0 1.1172676414197209 -0.26800576598887815 0 -0.26800576598887815 -0.49561320097395978 0 0 0 0 2.0996866676574655 -0.26295264880036484 0 -0.26295264880036484 -3.9533013910995578 0 0 0 0 2.0367470814593389 8.1118072950912392 0 8.1118072950912392 7.7359163317123603 0 0 0 0 11.743463395564504 4.6217055875763435 0 4.6217055875763435 -2.3441927273697729 0 0 0 0 4.7165874440424318 9.253940710390907 0 9.253940710390907 -5.2271426927236462 0 0 0 0 4.824880527626874 1.3403404707705704 0 1.3403404707705704 -12.67660540547331 0 0 0 0 7.7540301071021531 5.540447398014976 0 5.540447398014976 -19.553174907629 0 0 0 0 -0.66014806026407502 -8.9391835815110312 0 -8.9391835815110312 -19.369214210462815 0 0 0 0 -0.76527652115698963 -0.92745489456511621 0 -0.92745489456511621 -4.5614294899205561 0 0 0 0 10.622543860341011 -0.053607436793754459 0 -0.053607436793754459 -18.593557791023159 0 0 0 0 -0.16814426300225471 0.4082203165312307 0 0.4082203165312307 -2.6401252142698333 0 0 0 0 15.484919278954521 -6.0911802794444156 0 -6.0911802794444156 -11.111339317865713 0 0 0 0 -7.3874521879738495 12.36318939062312 0 12.36318939062312 -7.9227939177617372 0 0 0 0 6.7454468585099221 7.1711059265389849 0 7.1711059265389849 1.5440577489498537 0 0 0 0 0.61302532368677276 0.34816111464965438 0 0.34816111464965438 -0.0060420781862227102 0 0 0 0 10.144188136081596 1.1581006260182676 0 1.1581006260182676 -8.4124009692568507 0 0 0 0 1.1150297087492684 0.9821380374499018 0 0.9821380374499018 -3.8197214417682019 0 0 0 0 13.359993741409539 10.50338929119107 0 10.50338929119107 -8.7345199233022868 0 0 0 0 9.1161275614583701 2.0185883245758305 0 2.0185883245758305 -8.1870577613990463 0 0 0 0 0.70967253704429822 2.1824179926043143 0 2.1824179926043143 -6.3579448662512732 0 0 0 0 2.6511658709443964 4.4839901528166592 0 4.4839901528166592 -8.9396198460872256 0 0 0 0 2.8693559687517336 3.2702447264537113 0 3.2702447264537113 -12.340944518211472 0 0 0 0 7.1427626835165938 -0.96127728634746745 0 -0.96127728634746745 -4.5193124005036225 0 0 0 0 3.2334384434057029 1.8776504129991736 0 1.8776504129991736 -6.0413576045693844 0 0 0 0 2.7834772848893863 2.6208264008582773 0 2.6208264008582773 -17.924799027960944 0 0 0 0 1.4229489793351604 1.6770381525784614 0 1.6770381525784614 -8.0972592060552415 0 0 0 0 -0.64793885836525078 14.622147180107845 0 14.622147180107845 -21.70746034847889 0 0 0 0 6.8613242246734671 20.33049563121358 0 20.33049563121358 -17.375409752746236 0 0 0 0 -1.5825646839844012 6.254994688300485 0 6.254994688300485 -1.5052035919202353 0 0 0 0 1.0119424768672616 9.5237714518862049 0 9.5237714518862049 -8.6042579900522469 0 0 0 0 -2.0100902154354117 12.868704600423371 0 12.868704600423371 -11.974916834557916 0 0 0 0 -7.294757280488966 16.49801081225587 0 16.49801081225587 -9.7576122084421968 0 0 0 0 -5.2709759412817903 14.048319271568744 0 14.048319271568744 -6.972971062878969 0 0 0 0 -6.1302325196069489 25.847891569135044 0 25.847891569135044 -19.50790344309371 0 0 0 0 11.352800694648586 4.9756221526968716 0 4.9756221526968716 -2.5296964574972662 0 0 0 0 8.4258436447996701 29.516058263702689 0 29.516058263702689 -94.370846328190964 0 0 0 0 -65.390425151104068 40.677745058259006 0 40.677745058259006 -18.109297327194326 0 0 0 0 -0.076387440951426466 0.18639685777479043 0 0.18639685777479043 -0.95931380239718678 0 0 0 0 -5.344237585229962 -5.2365607168253518 0 -5.2365607168253518 -97.346062927711955 0 0 0 0 -22.280133771960664 -42.465787138890846 0 -42.465787138890846 -43.680759267861504 0 0 0 0 -3.1065676823409802 -18.612540832944603 0 -18.612540832944603 -43.915475383680132 0 0 0 0 -1.45842109384796 -27.106367559174942 0 -27.106367559174942 -42.162862197440518 0 0 0 0 -12.556759091772818 -9.5388476964427582 0 -9.5388476964427582 -7.0047993575471992 0 0 0 0 24.679126005039052 -0.30395090418733162 0 -0.30395090418733162 8.9560624326868492 0 0 0 0 16.367644037260732 -29.690510256102243 0 -29.690510256102243 19.074793687881311 0 0 0 0 7.2303705954838335 -19.604247225476456 0 -19.604247225476456 -9.5212021770312276 0 0 0 0 -0.64878127787807216 -2.1627503838051325 0 -2.1627503838051325 -6.2192018332998487 0 0 0 0 11.109283041988363 -14.924922159794733 0 -14.924922159794733 -6.2779746674696071 0 0 0 0 45.363420260768066 -20.483162302151072 0 -20.483162302151072 -5.1571330297301756 0 0 0 0 0.117304846165041 -0.48169418218619597 0 -0.48169418218619597 -1.6983734585005479 0 0 0 0 20.609604632626656 23.621165457526104 0 23.621165457526104 -29.321414147097585 0 0 0 0 32.466633723854216 -3.695080232424516 0 -3.695080232424516 -13.447387159495804 0 0 0 0 -6.9360866253756512 21.368619706026038 0 21.368619706026038 -16.775431506453288 0 0 0 0 9.5391064553820115 17.826896739917174 0 17.826896739917174 -39.749346963246808 0 0 0 0 4.1628309744687613 1.5637178512911305 0 1.5637178512911305 -31.281754675680077 0 0 0 0 4.7991875135683131 5.150023273310353 0 5.150023273310353 -26.583509685747231 0 0 0 0 2.8242011849187247 1.3811311792320673 0 1.3811311792320673 -0.42022287881282416 0 0 0 0 2.6631415338846933 1.1522769305874867 0 1.1522769305874867 -0.62143824056007935 0 0 0 0 5.3621390838963094 9.1755184498839526 0 9.1755184498839526 -74.885169094759476 0 0 0 0 -23.816194725086007 -33.998589201219147 0 -33.998589201219147 -48.872457676748127 0 0 0 0 -4.1143551374060507 -2.1149501587988198 0 -2.1149501587988198 0.50258024020263292 0 0 0 0 0.1085107034463999 -0.16012236568332305 0 -0.16012236568332305 -0.78042406960035038 0 0 0 0 38.69984380348842 -46.901403164029944 0 -46.901403164029944 -9.8706100763920404 0 0 0 0 -9.5675450322814157 31.401631177738068 0 31.401631177738068 -54.239538285197341 0 0 0 0 10.509231375890622 -15.85358187143288 0 -15.85358187143288 -12.594040134898023 0 0 0 0 37.283068236772742 -36.330587961477761 0 -36.330587961477761 -45.573325293521521 0 0 0 0 26.372047506294621 -16.186117443151034 0 -16.186117443151034 -48.802856140687254 0 0 0 0 0.44079109479980616 -3.5009891650834106 0 -3.5009891650834106 -10.063287899964507 0 0 0 0 3.3822860239375174 0.93192230833896694 0 0.93192230833896694 -0.053748541098260993 0 0 0 0 28.211087504317291 17.494088164745335 0 17.494088164745335 -107.53269758305669 0 0 0 0 5.4618053008121024 -7.3264696442724926 0 -7.3264696442724926 -15.555615250690153 0 0 0 0 3.2984167803425066 -4.9345421796502933 0 -4.9345421796502933 -18.601327351448163 0 0 0 0 4.2304260760283796 -4.3807863657916641 0 -4.3807863657916641 -24.461983120321747 0 0 0 0 3.4255129776165631 1.9621988562043953 0 1.9621988562043953 -30.824442108038056 0 0 0 0 1.6868817785702959 -1.7786954539956241 0 -1.7786954539956241 -20.037953708375426 0 0 0 0 7.4788189822939017 -1.2564001858328311 0 -1.2564001858328311 -22.388361746278861 0 0 0 0 5.238757085065572 -4.3455404510013977 0 -4.3455404510013977 -33.72525341221808 0 0 0 0 1.9515725263150898 0.77048573092997685 0 0.77048573092997685 -22.909342180299291 0 0 0 0 3.3435179474518009 7.6608612759928292 0 7.6608612759928292 -44.851007158747507 0 0 0 0 -0.71336931196924525 9.4235484058849579 0 9.4235484058849579 -42.247966588365216 0 0 0 0 -0.13632529318272191 9.0099552279293675 0 9.0099552279293675 -37.896598825073852 0 0 0 0 2.7711167184761507 8.9142092772603974 0 8.9142092772603974 -38.882055239345391 0 0 0 0 1.4969253060737628 9.5330809857418899 0 9.5330809857418899 -38.038386750838981 0 0 0 0 2.5087606894150554 5.9671824727994647 0 5.9671824727994647 -30.745706868176057 0 0 0 0 3.2306887966980753 -1.5346406185309718 0 -1.5346406185309718 -25.809213269788415 0 0 0 0 4.9307633443113019 0.56170613908642508 0 0.56170613908642508 -33.57854801765734 0 0 0 0 -0.20226411505079511 32.476281937324984 0 32.476281937324984 -74.274752869353506 0 0 0 0 -33.666518563947157 -1.9357627677409255 0 -1.9357627677409255 19.119078947249591 0 0 0 0 19.410824062612448 -4.9616011836353664 0 -4.9616011836353664 -55.439207705645458 0 0 0 0 5.8409073997800078 -17.904283879871855 0 -17.904283879871855 -19.770395692924012 0 0 0 0 2.9873526028968627 6.0775002880610032 0 6.0775002880610032 -48.933386117002556 0 0 0 0 0.10831288446556186 4.8702190747208078 0 4.8702190747208078 -49.13155996875139 0 0 0 0 -2.0371698910201417 19.628134567656161 0 19.628134567656161 -62.962507300825564 0 0 0 0 -12.933581595381547 31.390073999323022 0 31.390073999323022 -71.455583392960762 0 0 0 0 -31.896019589615364 18.09435986951712 0 18.09435986951712 -69.787387865227061 0 0 0 0 -75.738489162299928 32.870988458549334 0 32.870988458549334 -50.557219999813242 0 0 0 0 143.65471165601048 -173.14029125387208 0 -173.14029125387208 -16.651655631499125 0 0 0 0 -0.22690716416052184 -2.1518552672417499 0 -2.1518552672417499 -4.4740044822787333 0 0 0 0 -34.423329369974724 47.158451300833576 0 47.158451300833576 -72.024604778334691 0 0 0 0 -30.770457495222971 29.125053365947508 0 29.125053365947508 -45.266513879387276 0 0 0 0 -14.839995188317744 19.660954156294338 0 19.660954156294338 -41.087771758693634 0 0 0 0 -15.735748896553332 23.02918855105645 0 23.02918855105645 -42.06608527875801 0 0 0 0 -26.481915619140864 28.106594898523781 0 28.106594898523781 -35.311321416618739 0 0 0 0 142.1816141820845 -82.590336595174904 0 -82.590336595174904 17.756978009630984 0 0 0 0 0.034363942006021997 -2.7022761183113033 0 -2.7022761183113033 -6.1716108828711 0 0 0 0 53.47430201961587 8.5334183262284569 0 8.5334183262284569 23.670553748203361 0 0 0 0 1.7273928593110668 12.25291169430875 0 12.25291169430875 -36.214408844208037 0 0 0 0 -1.3063178105144289 16.021204656301052 0 16.021204656301052 -35.785075928648666 0 0 0 0 1.3795468680081058 12.299714424432295 0 12.299714424432295 -35.595417642869506 0 0 0 0 1.4398008754598095 8.3474313174874624 0 8.3474313174874624 -38.660421609647528 0 0 0 0 -1.8986458330065261 15.55191546918104 0 15.55191546918104 -39.036958841018532 0 0 0 0 0.83356774541313428 13.557163104444896 0 13.557163104444896 -48.716042326725983 0 0 0 0 -13.517447104601047 22.023085547883511 0 22.023085547883511 -42.841280874013137 0 0 0 0 -4.8637764000599191 17.619769740753782 0 17.619769740753782 -40.944635714868127 0 0 0 0 -4.6468832352101117 15.194852484693911 0 15.194852484693911 -36.866982737065882 0 0 0 0 -7.6448966788620751 16.437318607094454 0 16.437318607094454 -34.159752626708723 0 0 0 0 -7.6582530636387673 16.820921582137089 0 16.820921582137089 -36.190944781807957 0 0 0 0 -16.178900251963682 20.118619087781099 0 20.118619087781099 -36.339516791667847 0 0 0 0 -21.765987739496154 15.08099437314786 0 15.08099437314786 -24.918906007967962 0 0 0 0 -11.97266943919692 19.480844042464923 0 19.480844042464923 -33.735843489503168 0 0 0 0 -9.0007046221262499 15.31406715797948 0 15.31406715797948 -29.481818829854546 0 0 0 0 -1.0162204294608728 15.53627601026983 0 15.53627601026983 -35.555320539100649 0 0 0 0 -4.0657904584470543 16.573011045185012 0 16.573011045185012 -34.403008528899591 0 0 0 0 -4.0512185057194188 16.288731586304721 0 16.288731586304721 -32.502114447182976 0 0 0 0 -3.651225545364241 17.79267666179112 0 17.79267666179112 -36.95634839998911 0 0 0 0 -1.8096629916758502 14.877745692846929 0 14.877745692846929 -38.188837549831078 0 0 0 0 1.1704669082691908 14.954195624016165 0 14.954195624016165 -36.004766989268319 0 0 0 0 0.86415017923263804 15.756973636139719 0 15.756973636139719 -34.129567307360048 0 0 0 0 -0.86039419858309429 16.258336760153611 0 16.258336760153611 -34.261701578600878 0 0 0 0 1.5786169420441638 16.799320950432502 0 16.799320950432502 -34.371747865714042 0 0 0 0 1.8079293429284462 14.407871580485335 0 14.407871580485335 -33.203641143983077 0 0 0 0 0.90876828871444104 15.414803244685345 0 15.414803244685345 -32.409218633401906 0 0 0 0 2.190129006819916 10.559867892080092 0 10.559867892080092 -32.908666973731783 0 0 0 0 0.61530196357568911 11.026040421819744 0 11.026040421819744 -27.352202984622636 0 0 0 0 1.3018675068590255 6.5096486598922638 0 6.5096486598922638 -17.454135352987464 0 0 0 0 -1.4269208212945159 9.9043398901640103 0 9.9043398901640103 -20.294683308100502 0 0 0 0 1.8107581522547207 9.4248042696788161 0 9.4248042696788161 -26.122443650233436 0 0 0 0 -0.60323536721762139 15.765306674728436 0 15.765306674728436 -28.132229445435314 0 0 0 0 -3.8156482879282976 15.981581315123549 0 15.981581315123549 -19.813510748871522 0 0 0 0 0.98738237217548885 14.194530483086965 0 14.194530483086965 -29.461454329948538 0 0 0 0 1.9656780030055074 16.148763956668631 0 16.148763956668631 -38.056201970654911 0 0 0 0 -2.0908661410628611 18.361794373135581 0 18.361794373135581 -30.481522189345014 0 0 0 0 -8.4690337710385393 12.292751120348612 0 12.292751120348612 -33.218977710043873 0 0 0 0 -0.93510300687648851 18.93663715306775 0 18.93663715306775 -38.13817464284034 0 0 0 0 -6.4221624748670365 10.558320845349954 0 10.558320845349954 -32.512523647096259 0 0 0 0 -0.74413926724179191 21.02353007731935 0 21.02353007731935 -26.550092421739464 0 0 0 0 0.92017719403108345 9.1398223464807415 0 9.1398223464807415 -38.22994682400531 0 0 0 0 2.8397934761458146 18.52962502631317 0 18.52962502631317 -18.250516476167832 0 0 0 0 -0.07656697084363262 0.47995659376586408 0 0.47995659376586408 -0.30523177585938299 0 0 0 0 43.110958691292353 -12.871802338962425 0 -12.871802338962425 -56.982533244909064 0 0 0 0 0.97580854175662801 -0.17848661726095427 0 -0.17848661726095427 -7.8300124820837125 0 0 0 0 -36.039989844798129 -17.385792367540034 0 -17.385792367540034 65.556487223516342 0 0 0 0 34.912936926873499 16.62731620401064 0 16.62731620401064 -90.924260938170846 0 0 0 0 -23.931106409036147 -2.7644181692767233 0 -2.7644181692767233 -40.117214815494663 0 0 0 0 -30.365854399461568 8.6519539125883966 0 8.6519539125883966 -30.722480369003961 0 0 0 0 0.68333932404555009 -1.3360002618396569 0 -1.3360002618396569 -1.3908728524913681 0 0 0 0 13.617896990390307 -3.136878392856147 0 -3.136878392856147 -14.806508078289426 0 0 0 0 19.689344124100217 -2.4844908737200058 0 -2.4844908737200058 -10.699164191162708 0 0 0 0 0.43746647731297394 0.26114248543991958 0 0.26114248543991958 -10.297239954618414 0 0 0 0 23.425517781188319 -10.657981544998165 0 -10.657981544998165 -24.889311821729279 0 0 0 0 -0.87414056395891748 11.784975484631559 0 11.784975484631559 -20.605176812024183 0 0 0 0 -3.326359471525393 7.8229373092908645 0 7.8229373092908645 3.2247415242700299 0 0 0 0 -3.816776877193206 15.113265605085871 0 15.113265605085871 -10.145014042407638 0 0 0 0 4.4232606564032722 2.3194571501380778 0 2.3194571501380778 -9.50777105454344 0 0 0 0 2.8643822477765752 -3.7922795899667108 0 -3.7922795899667108 1.7412912013812729 0 0 0 0 -1.2077138169977388 6.7701846412701343 0 6.7701846412701343 -11.213959364401489 0 0 0 0 5.9684956578571473 -1.4771654816845512 0 -1.4771654816845512 -12.632578350777294 0 0 0 0 7.057100384881096 0.57900375013832672 0 0.57900375013832672 -9.0525355083500472 0 0 0 0 1.6404653206701891 0.32017345110595063 0 0.32017345110595063 -11.696949925148214 0 0 0 0 12.233495987370134 -4.963766558784755 0 -4.963766558784755 -12.941790262980703 0 0 0 0 11.573799162115392 -2.6312559927877572 0 -2.6312559927877572 -10.001793287134888 0 0 0 0 2.7266140540012316 -6.379354554210579 0 -6.379354554210579 -5.0725419703928676 0 0 0 0 1.5345943476086448 -0.74778082013378588 0 -0.74778082013378588 -9.3051948754697449 0 0 0 0 1.2148746419163332 0.59004845764579128 0 0.59004845764579128 -13.233614959530968 0 0 0 0 20.102151207749358 4.0522319941647993 0 4.0522319941647993 -17.54745983318594 0 0 0 0 8.3990837488274224 0.0058943180622463842 0 0.0058943180622463842 -15.404422554191569 0 0 0 0 24.196920795345022 -5.8727901262343778 0 -5.8727901262343778 -7.4017190992817632 0 0 0 0 0.84243093685307069 4.2709719399079837 0 4.2709719399079837 -6.1365163664948437 0 0 0 0 6.9405227455866907 -1.5793045823240845 0 -1.5793045823240845 -14.131139110721506 0 0 0 0 2.4884309669168942 -0.84509780321104699 0 -0.84509780321104699 -16.390550139734742 0 0 0 0 4.8391826729490504 -3.6553447283006335 0 -3.6553447283006335 -15.471078888335796 0 0 0 0 2.5075900111014562 0.42460162622137432 0 0.42460162622137432 -22.228890291209154 0 0 0 0 3.059112271562384 -2.5191939856927661 0 -2.5191939856927661 -20.565481961415571 0 0 0 0 0.84974520685329935 4.6211794441294387 0 4.6211794441294387 -21.058271576605875 0 0 0 0 1.8683472167764421 6.2026812295721356 0 6.2026812295721356 -29.432072176949077 0 0 0 0 2.6695615516416638 3.8043946814646006 0 3.8043946814646006 -26.252298977285307 0 0 0 0 2.6208993467132586 1.9492248106434999 0 1.9492248106434999 -18.74973651572202 0 0 0 0 1.4403355199408452 2.5405244758417211 0 2.5405244758417211 -14.915855485844986 0 0 0 0 -6.9825908098360969 -6.1956439889859212 0 -6.1956439889859212 1.3223276668704784 0 0 0 0 -7.0014307941140146 -5.0314285498245681 0 -5.0314285498245681 -8.588857056451161 0 0 0 0 1.6973867762196373 2.5915110131286578 0 2.5915110131286578 -6.3868822667303817 0 0 0 0 1.3716632002566485 -0.29037496582168387 0 -0.29037496582168387 -14.383744227214265 0 0 0 0 2.2320477569043646 -0.11472273818594658 0 -0.11472273818594658 -19.991436446833177 0 0 0 0 3.1069073827715101 -2.5086428765275741 0 -2.5086428765275741 -11.963725448545119 0 0 0 0 1.7074527448195824 2.0823660625699851 0 2.0823660625699851 -9.718597659645134 0 0 0 0 0.69779740197434026 -0.043177920119512381 0 -0.043177920119512381 -10.311266821332596 0 0 0 0 -0.18869116511328232 -1.8920907367185615 0 -1.8920907367185615 -15.754351505511329 0 0 0 0 8.8928717178912393 6.2932981602511973 0 6.2932981602511973 -13.879387898846289 0 0 0 0 6.0639539493918164 -9.4709423843723926 0 -9.4709423843723926 -12.462485750457745 0 0 0 0 10.884541975947968 -16.808346473436131 0 -16.808346473436131 -10.085967852972317 0 0 0 0 0.59713672715278321 -1.0627252230703945 0 -1.0627252230703945 -3.4454106239327871 0 0 0 0 2.2372406296170766 -1.1892135310117737 0 -1.1892135310117737 -12.23499349399043 0 0 0 0 4.7089340289994635 -0.64336627329540619 0 -0.64336627329540619 -8.5976028552679384 0 0 0 0 9.562526430784601 -6.375041376934746 0 -6.375041376934746 -15.550698684133295 0 0 0 0 2.9042426610084249 -1.557903109140625 0 -1.557903109140625 -17.049665494933436 0 0 0 0 3.6397913954403975 -0.27531982388495635 0 -0.27531982388495635 -4.7168605716692582 0 0 0 0 7.9734530294622346 -2.7680359383231234 0 -2.7680359383231234 -11.822069696144354 0 0 0 0 7.9734530294613251 -2.7680359383234645 0 -2.7680359383234645 -11.822069696141625 0 0 0 0 2.7343635136882796 -0.93524864016035569 0 -0.93524864016035569 -10.996801530179173 0 0 0 0 9.7405014970681663 0.086192291004778099 0 0.086192291004778099 -16.76548382587589 0 0 0 0 9.8995765954024932 -0.50134224794669535 0 -0.50134224794669535 -16.778336313945601 0 0 0 0 9.8933895716387497 -0.55649606033580312 0 -0.55649606033580312 -16.238972705519245 0 0 0 0 9.7433089431225426 0.027626985667893678 0 0.027626985667893678 -15.728799638320197 0 0 0 0 40.45921775468355 -19.312972441092597 0 -19.312972441092597 -31.731831330609566 0 0 0 0 7.5130244556412435 0.23155308403693198 0 0.23155308403693198 -15.369950328828281 0 0 0 0 -0.18970195586980243 -2.2978740583970039 0 -2.2978740583970039 -16.138894894207475 0 0 0 0 -3.8244536010781758 -11.311202802779462 0 -11.311202802779462 -5.0567051689540676 0 0 0 0 -3.3220001832345787 -6.4662929908046181 0 -6.4662929908046181 -11.875710452610292 0 0 0 0 -2.7968270794945056 -11.627206612419286 0 -11.627206612419286 -1.4690646047774862 0 0 0 0 24.065773615898593 1.5187834235739501 0 1.5187834235739501 -29.000259390406427 0 0 0 0 -2.2226664283611228 5.7347500410932639 0 5.7347500410932639 -63.079921324031602 0 0 0 0 -3.8181123255283183 -8.4940442073057056 0 -8.4940442073057056 -15.266489802797878 0 0 0 0 -19.916864457720749 -18.998305878665633 0 -18.998305878665633 -20.723023768340681 0 0 0 0 -12.96568821031633 -24.695483987897205 0 -24.695483987897205 -25.975740760207202 0 0 0 0 -23.330303040388827 3.8412107545020149 0 3.8412107545020149 -10.985212334620883 0 0 0 0 -7.4969925428385977 2.6230372574955254 0 2.6230372574955254 -25.298527049878231 0 0 0 0 -5.4757343957189732 -0.50515648162036086 0 -0.50515648162036086 -10.399093853697195 0 0 0 0 -6.392190352556554 -0.17923263590455463 0 -0.17923263590455463 -8.0880177124527108 0 0 0 0 11.906653900160222 -22.170685362643326 0 -22.170685362643326 7.7561571188634844 0 0 0 0 -38.547020045936733 -39.919601265051824 0 -39.919601265051824 -50.141874508924957 0 0 0 0 -1.59202350927103 -9.1669276428528974 0 -9.1669276428528974 -4.5937827149946315 0 0 0 0 -0.16513900485109367 -6.510744854744356 0 -6.510744854744356 -4.6823341476123321 0 0 0 0 -0.87087228434019814 -1.735627950327205 0 -1.735627950327205 1.212016811809022 0 0 0 0 21.716643487987426 -36.226412168089155 0 -36.226412168089155 -60.802742750724065 0 0 0 0 -35.050937800932388 -5.8207858552905236 0 -5.8207858552905236 -13.502661372506736 0 0 0 0 0.20549993068711281 -0.25544398168799987 0 -0.25544398168799987 -2.4347398831791072 0 0 0 0 -31.670777056039469 24.189855973580961 0 24.189855973580961 -27.02822633514279 0 0 0 0 -23.213961789661141 15.304639301376028 0 15.304639301376028 -20.334540943898901 0 0 0 0 7.7769524843427007 -0.40002674169681995 0 -0.40002674169681995 -38.341974182680133 0 0 0 0 -30.07442315850966 -7.0329364252322648 0 -7.0329364252322648 -15.180940040325368 0 0 0 0 9.5966735354913908 1.9985554948430035 0 1.9985554948430035 -16.319777932567376 0 0 0 0 -4.4923717409001256 18.758590088313213 0 18.758590088313213 -25.892506741169655 0 0 0 0 0.48999460241905135 -3.156957535556657 0 -3.156957535556657 -13.422317651773987 0 0 0 0 -14.007076171858671 3.7841249103448718 0 3.7841249103448718 -11.466121421406569 0 0 0 0 -14.069541867813712 4.4032075023594075 0 4.4032075023594075 -10.889203887254553 0 0 0 0 35.240643788208416 20.234736141728831 0 20.234736141728831 4.4807949134465161 0 0 0 0 9.8601052639087357 -11.884161550918179 0 -11.884161550918179 -11.767235130611311 0 0 0 0 37.226750825630347 -3.7710374499724821 0 -3.7710374499724821 -28.34239020687437 0 0 0 0 -0.11387875967095762 -2.1396968733256712 0 -2.1396968733256712 -16.330952518523901 0 0 0 0 23.289081813018299 16.067953061018216 0 16.067953061018216 -21.495556407906406 0 0 0 0 2.7668534651874381 -13.01065899910941 0 -13.01065899910941 5.0228071532546892 0 0 0 0 11.346245235715784 1.9524362178310639 0 1.9524362178310639 -14.121183029365966 0 0 0 0 14.184283936538009 -0.36871212796836517 0 -0.36871212796836517 -14.491237302313493 0 0 0 0 10.121937619280345 -1.2377855342792827 0 -1.2377855342792827 -14.657798487221953 0 0 0 0 0.12149437487816472 -0.27181739203237942 0 -0.27181739203237942 -2.5813167569878792 0 0 0 0 12.776338164443686 5.8262715516609092 0 5.8262715516609092 -8.6872840303476551 0 0 0 0 -30.565374840791151 39.066718098880756 0 39.066718098880756 4.5841237834083586 0 0 0 0 -77.655460392514186 -49.862424524303833 0 -49.862424524303833 33.903245825406884 0 0 0 0 48.254968768589265 -54.707574295983477 0 -54.707574295983477 -98.976281520841212 0 0 0 0 -0.088313558076477616 -2.0458091187803222 0 -2.0458091187803222 -15.543830741105685 0 0 0 0 1.6031614091527757 25.786630217039971 0 25.786630217039971 -38.857477354356888 0 0 0 0 -43.935419093545569 19.031113548576954 0 19.031113548576954 41.076283094122118 0 0 0 0 -0.042632298695805357 -0.36624561075526774 0 -0.36624561075526774 -1.3813877767631126 0 0 0 0 -7.197587554917618 9.1094487116506571 0 9.1094487116506571 -1.1615913781006384 0 0 0 0 3.752364872958708 -1.492114086906895 0 -1.492114086906895 -22.213434760855307 0 0 0 0 3.8357231265160863 1.6059587546615148 0 1.6059587546615148 4.9341472757569136 0 0 0 0 6.1920493563338823 -14.445216700052697 0 -14.445216700052697 -11.03099080791344 0 0 0 0 0.05773408183724249 -0.18716788137027685 0 -0.18716788137027685 -15.190580382054943 0 0 0 0 -11.334191146710509 6.4847578606495517 0 6.4847578606495517 -25.98862090845796 0 0 0 0 4.7727176037885783 8.2402953711589362 0 8.2402953711589362 -14.095727035767254 0 0 0 0 -5.0643794030279423 -3.2297956249058188 0 -3.2297956249058188 -11.210271256044507 0 0 0 0 21.580127892346127 -11.875446648173238 0 -11.875446648173238 -17.169468348609371 0 0 0 0 15.712312948899353 2.4078600729471873 0 2.4078600729471873 -19.722118697209226 0 0 0 0 -7.6706004881793888 5.7011983427273663 0 5.7011983427273663 -9.3765757744185976 0 0 0 0 12.766097800569241 4.7641768691983089 0 4.7641768691983089 -15.882195996422524 0 0 0 0 59.836368314623996 -46.781409121682373 0 -46.781409121682373 -30.790820805268595 0 0 0 0 0.16164844467837769 -1.8073661367636822 0 -1.8073661367636822 -14.176109072927805 0 0 0 0 49.655438619241863 -22.655093171985072 0 -22.655093171985072 -53.29447812321996 0 0 0 0 12.543234217866257 16.650209769479261 0 16.650209769479261 -42.11700046542137 0 0 0 0 80.746561948475801 -1.2663547714992092 0 -1.2663547714992092 -0.76247974465513835 0 0 0 0 16.261101070247605 -14.528658746240581 0 -14.528658746240581 0.48526868110457144 0 0 0 0 -43.417308219517736 -9.8481112071250436 0 -9.8481112071250436 -26.268227900398415 0 0 0 0 -18.461963976243624 -28.470180840488865 0 -28.470180840488865 6.7139853219578072 0 0 0 0 4.4939913598983363 0.43075870399282401 0 0.43075870399282401 -3.564284844309678 0 0 0 0 -1.0321960481111745 -8.1786757667059646 0 -8.1786757667059646 -26.759096566504809 0 0 0 0 -3.7574476458577237 -3.164296308998928 0 -3.164296308998928 -33.421900277047371 0 0 0 0 -6.3720494503487544 -9.3124851925738312 0 -9.3124851925738312 -13.157068117590825 0 0 0 0 3.8966874515873542 -4.0541124136821054 0 -4.0541124136821054 -16.299700076945996 0 0 0 0 2.666625172830777 -1.3333867066912717 0 -1.3333867066912717 -14.818413881294873 0 0 0 0 5.3124726871641315 -3.0300648372676733 0 -3.0300648372676733 -15.687419340914857 0 0 0 0 1.7374566936755265 -0.8163538128311385 0 -0.8163538128311385 -14.133420357946331 0 0 0 0 8.349665196527269 -3.9110547472830035 0 -3.9110547472830035 -30.086249087532224 0 0 0 0 7.0052101632753647 -4.9159770268902321 0 -4.9159770268902321 -14.819257621191241 0 0 0 0 -0.088162481144834715 0.048983720514485185 0 0.048983720514485185 -4.8173864764821701 0 0 0 0 7.655578834576545 1.1803324612405959 0 1.1803324612405959 -12.493153249155966 0 0 0 0 0.8068692175579647 0.63044874872904955 0 0.63044874872904955 -13.263367228004096 0 0 0 0 6.0776429382162291 -18.016653123101719 0 -18.016653123101719 -37.204712391931082 0 0 0 0 15.921139989189221 -1.4366993820576113 0 -1.4366993820576113 -19.713731614905782 0 0 0 0 -13.26814748122132 23.306566053943641 0 23.306566053943641 5.2819031156809615 0 0 0 0 0.56687245184856372 -2.3748412783292348 0 -2.3748412783292348 0.76794363080247585 0 0 0 0 2.9511064400588447 -5.9882793791320967 0 -5.9882793791320967 -5.9945750493134939 0 0 0 0 10.139133691897428 -20.907156273222881 0 -20.907156273222881 13.115546766368425 0 0 0 0 -3.7325568648459466 -8.2066052908694473 0 -8.2066052908694473 1.5529601333864775 0 0 0 0 7.6916222001773349 -23.636534489479345 0 -23.636534489479345 41.148435798499577 0 0 0 0 0.0044422301686395937 -2.7248836325075381 0 -2.7248836325075381 -0.29449112140329881 0 0 0 0 6.4945983156664049 -6.08310268520097 0 -6.08310268520097 -12.082829054269325 0 0 0 0 1.4977269828074595 -5.0188565257372293 0 -5.0188565257372293 -12.064242273288345 0 0 0 0 1.0327122114271194 -3.1441210245083884 0 -3.1441210245083884 -15.282368825837324 0 0 0 0 1.2425918668933509 0.89368151689589514 0 0.89368151689589514 -11.388006261332517 0 0 0 0 6.4227390141603209 -6.1508990814397748 0 -6.1508990814397748 -10.886910141225599 0 0 0 0 21.954430916864567 -12.795058577838972 0 -12.795058577838972 -22.208011468836958 0 0 0 0 9.5338427332684432 -13.739883328194537 0 -13.739883328194537 -20.899350811257136 0 0 0 0 11.45479519523974 3.7834573193554206 0 3.7834573193554206 -27.942363577674087 0 0 0 0 35.821997004447937 -45.063134283599538 0 -45.063134283599538 -33.498928842761416 0 0 0 0 37.536084833105292 -33.428807170391337 0 -33.428807170391337 -101.9829942343431 0 0 0 0 20.986778711215834 -6.329318844059344 0 -6.329318844059344 -65.227377273096863 0 0 0 0 22.48383890553464 19.676080616687614 0 19.676080616687614 -94.838748593260732 0 0 0 0 25.781776698388057 6.5262260218246411 0 6.5262260218246411 -43.175889690974145 0 0 0 0 3.3289272182291825 17.454105846050425 0 17.454105846050425 -9.4827938906419149 0 0 0 0 13.991862391318136 18.552990229271018 0 18.552990229271018 -50.034241259008468 0 0 0 0 15.888774697400549 10.027108679651747 0 10.027108679651747 -22.610852473402701 0 0 0 0 8.0195062813799041 11.079070564572703 0 11.079070564572703 -21.893235523260955 0 0 0 0 7.6937036312014015 3.7273156032561019 0 3.7273156032561019 -7.3890761999737151 0 0 0 0 2.7899883966653078 7.7178016827128886 0 7.7178016827128886 6.3348745846233214 0 0 0 0 4.3993497247962523 4.6985493212016536 0 4.6985493212016536 -19.791288439118944 0 0 0 0 7.9108132143882131 3.9206317317921275 0 3.9206317317921275 -22.473764604637381 0 0 0 0 4.3648729848162073 5.5455589801515686 0 5.5455589801515686 -28.541304506293272 0 0 0 0 -0.036243868393937229 -5.3538286172887348 0 -5.3538286172887348 -12.722154345580895 0 0 0 0 1.0742635308595718 -2.8459097864266054 0 -2.8459097864266054 -15.964234563474227 0 0 0 0 14.089234341481358 -13.542444381880841 0 -13.542444381880841 -8.5364283315120701 0 0 0 0 -13.715709692051433 -4.5647762387991406 0 -4.5647762387991406 -13.408986944219578 0 0 0 0 -5.3223699515035605 -9.9076172512213816 0 -9.9076172512213816 -18.514354555903708 0 0 0 0 0.20097553055046036 -5.0703120384179208 0 -5.0703120384179208 -13.354268265974728 0 0 0 0 0.68435058522932191 -3.1874095507244213 0 -3.1874095507244213 -15.711962359633088 0 0 0 0 9.6571029554287406 -12.616646485345882 0 -12.616646485345882 -9.6975996687378938 0 0 0 0 -10.035058384211112 10.699926576606231 0 10.699926576606231 -20.458899669676441 0 0 0 0 5.3741466418746882 -3.808582095800034 0 -3.808582095800034 -13.148212323925407 0 0 0 0 1.0934224441797942 -3.678225790424372 0 -3.678225790424372 -16.637247844210055 0 0 0 0 -20.145422545256849 11.743592272772105 0 11.743592272772105 19.313797243382396 0 0 0 0 7.4363983138991898 -20.425551902507323 0 -20.425551902507323 -6.0167475936812025 0 0 0 0 23.873594724642544 -9.0926286877124767 0 -9.0926286877124767 -22.803581724519972 0 0 0 0 7.3089602008896009 1.5921155823475601 0 1.5921155823475601 -27.232382564452109 0 0 0 0 -0.10804936492638717 -13.076536585456211 0 -13.076536585456211 -10.165180740732467 0 0 0 0 -13.867602422502046 5.279348297673323 0 5.279348297673323 -19.264954870027395 0 0 0 0 -4.632743859704533 -10.328355531949455 0 -10.328355531949455 -23.789229492356185 0 0 0 0 1.0792800372893225 -3.5664943101232893 0 -3.5664943101232893 -15.784851651771987 0 0 0 0 2.9713870835247462 -6.635460124569363 0 -6.635460124569363 -13.277407433160988 0 0 0 0 4.0616503070642693 -3.7337579802322125 0 -3.7337579802322125 -5.6771704544162276 0 0 0 0 25.381644344917731 -8.728995236641822 0 -8.728995236641822 -7.9816461542923207 0 0 0 0 10.432037340259285 -8.5804762008942816 0 -8.5804762008942816 4.1133432522647126 0 0 0 0 10.884887619309438 0.13473347440640282 0 0.13473347440640282 -13.527375628898881 0 0 0 0 8.4664733233350944 -6.3908122434550023 0 -6.3908122434550023 -9.2199706189917379 0 0 0 0 8.5861456212252278 -4.4702802255278584 0 -4.4702802255278584 -2.5549154193058712 0 0 0 0 16.339022718951547 3.2912286539408626 0 3.2912286539408626 0.81643654009531019 0 0 0 0 16.040378143687747 -1.8815200934450047 0 -1.8815200934450047 -5.7716805865438801 0 0 0 0 7.3461646225285904 -8.637951314494785 0 -8.637951314494785 -11.393807962231222 0 0 0 0 6.8275811965528419 -7.359529497002768 0 -7.359529497002768 -6.6333176776870459 0 0 0 0 10.008473448281848 -9.7287747998639134 0 -9.7287747998639134 -5.3570973072448851 0 0 0 0 9.724849758617168 -4.7087191278798457 0 -4.7087191278798457 1.3889246162889322 0 0 0 0 1.2672189871976798 -13.271441651932491 0 -13.271441651932491 -13.610971368477976 0 0 0 0 0.38973060652256208 -10.887418397851434 0 -10.887418397851434 -5.945211198852121 0 0 0 0 -0.95853136143239226 -8.2507836986546863 0 -8.2507836986546863 -4.5288216111953261 0 0 0 0 -5.3359660010638663 -9.6222361826371525 0 -9.6222361826371525 -6.2239206454717078 0 0 0 0 0.67986126498499289 -2.4628870412142305 0 -2.4628870412142305 -19.882565619318484 0 0 0 0 1.9548287110796991 3.6696478238445707 0 3.6696478238445707 -34.539910636976856 0 0 0 0 -8.661087774972458 -23.574231330610758 0 -23.574231330610758 -18.687503824919986 0 0 0 0 8.7228458315341868 -10.479165200503758 0 -10.479165200503758 -20.780467296116626 0 0 0 0 1.9410006996343754 -1.0937399585126775 0 -1.0937399585126775 -3.5778103261273122 0 0 0 0 11.498756334275072 -9.6983989149584886 0 -9.6983989149584886 -16.119889338871417 0 0 0 0 10.627595930842688 -8.9973471038758817 0 -8.9973471038758817 -10.571501922159769 0 0 0 0 -1.3969863632614761 -0.25071693721520205 0 -0.25071693721520205 -26.501181743854431 0 0 0 0 7.0689066054003433 -10.630598824127446 0 -10.630598824127446 -9.6539908051363454 0 0 0 0 9.3609494202034114 -6.4971110830222187 0 -6.4971110830222187 -20.824157479305541 0 0 0 0 -6.953128995129191 -10.053959088787451 0 -10.053959088787451 -10.488521009345277 0 0 0 0 2.9397410671856505 -4.6003642210271209 0 -4.6003642210271209 -36.933664454610152 0 0 0 0 1.353071524563318 -2.6326346165793737 0 -2.6326346165793737 -2.249269987615174 0 0 0 0 -2.8710688881608348 -0.72640439374754351 0 -0.72640439374754351 -11.450328864881612 0 0 0 0 1.5381666657428923 -3.3627903291426264 0 -3.3627903291426264 -12.568326401648392 0 0 0 0 3.4981301212383187 -2.5170901999063062 0 -2.5170901999063062 -12.20352442409785 0 0 0 0 -1.0764756802359443 -11.865262584165976 0 -11.865262584165976 -26.601751307578525 0 0 0 0 -1.0307764843227005 -2.8522245741205552 0 -2.8522245741205552 -10.806675239316974 0 0 0 0 4.3045787721844198 0.46195340897670611 0 0.46195340897670611 -5.004933077867447 0 0 0 0 -2.23202784808052 -5.8386758894562263 0 -5.8386758894562263 -11.964210327206501 0 0 0 0 -0.28482746619198585 -2.4009870315523507 0 -2.4009870315523507 0.64945092747614019 0 0 0 0 0.98161901323916823 -8.0356911470051244 0 -8.0356911470051244 -13.816045810219293 0 0 0 0 1.1629645533776056 -6.7022477566888483 0 -6.7022477566888483 -11.423426234449835 0 0 0 0 5.4508316000133163 -5.8549252285993134 0 -5.8549252285993134 -14.194588488773661 0 0 0 0 0.94273240318187268 -0.12942112588877563 0 -0.12942112588877563 -1.336984245627213 0 0 0 0 -25.549994581786592 -8.3539276709132082 0 -8.3539276709132082 -19.299220891840378 0 0 0 0 2.302775685347342 7.3722881412418246 0 7.3722881412418246 -10.984437822584368 0 0 0 0 4.3005741671446351 -1.3717381304881542 0 -1.3717381304881542 -7.2633184460331952 0 0 0 0 -2.7427733372061311 -56.765492115228881 0 -56.765492115228881 -48.876057139613749 0 0 0 0 15.036646522458796 -12.405894462092874 0 -12.405894462092874 -50.000827504305107 0 0 0 0 0.66317367772512625 5.0021527862545554 0 5.0021527862545554 -10.678157760276008 0 0 0 0 -2.7365784871774395 -13.763723617472579 0 -13.763723617472579 0.37169106257169915 0 0 0 0 0.58360075704341829 -0.1171647773547928 0 -0.1171647773547928 0.46823685023037065 0 0 0 0 20.089004575704024 10.477377279129769 0 10.477377279129769 -38.13988919696294 0 0 0 0 -4.2328963495093603 9.0610595358434693 0 9.0610595358434693 -21.43736212119984 0 0 0 0 2.8630802136550528 24.930020496144607 0 24.930020496144607 -40.515693821636887 0 0 0 0 -49.104930059508661 4.4788721081399672 0 4.4788721081399672 -16.703144896187951 0 0 0 0 15.377017600703084 -0.29111599603652394 0 -0.29111599603652394 -13.580159491380982 0 0 0 0 -8.0306641736940492 10.508658968335112 0 10.508658968335112 -12.19185366111742 0 0 0 0 11.870950673607695 18.250828770401313 0 18.250828770401313 -19.961599409247356 0 0 0 0 0.66764616363592877 -0.34760163886869933 0 -0.34760163886869933 -13.650825319407716 0 0 0 0 -0.22988471560645518 -0.33456765610612127 0 -0.33456765610612127 -0.43056339765196228 0 0 0 0 29.625368304106019 -7.2326689418732713 0 -7.2326689418732713 -127.74205708021327 0 0 0 0 32.820091193738676 2.6211255746898132 0 2.6211255746898132 -18.278095111370931 0 0 0 0 -38.669949270832717 6.5459180873158402 0 6.5459180873158402 -1.955134378211369 0 0 0 0 -16.21256966537635 15.484947490098421 0 15.484947490098421 81.169890378143464 0 0 0 0 -0.44026172089203397 0.86476990259325515 0 0.86476990259325515 -2.972079236746481 0 0 0 0 3.4487892180686686 -4.4643893598185969 0 -4.4643893598185969 -54.374649540754035 0 0 0 0 0.76733838679549715 -0.91996696870598837 0 -0.91996696870598837 -12.246962535108711 0 0 0 0 63.365612623379434 0.38457464288057963 0 0.38457464288057963 -32.188424904684325 0 0 0 0 20.237211666009443 7.5962126541580801 0 7.5962126541580801 -10.0691113958801 0 0 0 0 4.3064700462901442 -12.073790085235487 0 -12.073790085235487 -5.6469699368753936 0 0 0 0 -0.124733505254498 -1.9335752634623176 0 -1.9335752634623176 -13.268303991998014 0 0 0 0 21.243168305720019 -35.366945516622764 0 -35.366945516622764 -23.157425760755359 0 0 0 0 30.814819289289915 -2.1575637309949798 0 -2.1575637309949798 -9.961232513746836 0 0 0 0 6.503862524866264 3.0948447931607461 0 3.0948447931607461 2.7950014667148935 0 0 0 0 35.619203553334273 -25.566363328327725 0 -25.566363328327725 -21.573672259681189 0 0 0 0 -0.02889464909819775 -0.36270233045288797 0 -0.36270233045288797 -4.3369307274430682 0 0 0 0 20.078317335689235 -8.0265145256844335 0 -8.0265145256844335 -10.390441558723069 0 0 0 0 -34.385238217551169 -48.484350141283016 0 -48.484350141283016 25.954086674779319 0 0 0 0 -16.140905528815892 76.903394747259881 0 76.903394747259881 -100.97240486871124 0 0 0 0 4.7328667659094208 0.71941698135924526 0 0.71941698135924526 -14.133150731797286 0 0 0 0 0.29903934614361627 -1.8926072918142443 0 -1.8926072918142443 -7.32221534036122 0 0 0 0 21.284797929759009 12.779040195752486 0 12.779040195752486 -5.3978493628219439 0 0 0 0 0.27251327065970921 -0.033557955243174176 0 -0.033557955243174176 -10.28672257974101 0 0 0 0 3.4166618456118867 -0.24704913732362277 0 -0.24704913732362277 -17.027482580477951 0 0 0 0 -0.73508022423921204 -3.0847545022158442 0 -3.0847545022158442 -15.495055411403882 0 0 0 0 11.793319713627625 -6.7196074988341934 0 -6.7196074988341934 -26.368469724169699 0 0 0 0 3.0852200860441492 1.4938143034824236 0 1.4938143034824236 -14.486322427290361 0 0 0 0 -2.7754790869905719 6.4410553979973884 0 6.4410553979973884 2.5820819819928147 0 0 0 0 2.6610516116628995 -1.8675371557307177 0 -1.8675371557307177 -8.988749469998055 0 0 0 0 5.9291093740553151 -3.1631622357908782 0 -3.1631622357908782 -1.5629898580664303 0 0 0 0 1.560465041458432 -3.3529044095198217 0 -3.3529044095198217 -8.4239793105150937 0 0 0 0 2.5681188778249826 -2.8595852213984907 0 -2.8595852213984907 -7.2054508041406109 0 0 0 0 2.239391307143296 -3.7032643703757167 0 -3.7032643703757167 -16.930543643038305 0 0 0 0 0.11249716808619592 -0.051480161294316318 0 -0.051480161294316318 -2.3003403478484294 0 0 0 0 -0.6385199569866149 4.8662059966938713 0 4.8662059966938713 -6.9152833348717753 0 0 0 0 0.72564789744660629 4.2371757871478621 0 4.2371757871478621 -16.484059884565795 0 0 0 0 -5.634911250960613 -3.7252177030677558 0 -3.7252177030677558 -27.173383449364337 0 0 0 0 -17.802783845094154 -4.0835587781057257 0 -4.0835587781057257 -21.894760277009482 0 0 0 0 0.44701202939704032 -1.4908171703981346 0 -1.4908171703981346 -5.232714980984464 0 0 0 0 -0.42361598671413958 -0.017488898760348093 0 -0.017488898760348093 -24.910546088905903 0 0 0 0 0.73092170580093807 0.42361926946978201 0 0.42361926946978201 -6.8285403400732321 0 0 0 0 1.5137824707550225 -2.3617899587392195 0 -2.3617899587392195 -8.6694577890910125 0 0 0 0 -0.010521505488558791 0.14908718763287965 0 0.14908718763287965 -1.6930507362571663 0 0 0 0 9.4634102719141993 6.0697223951101478 0 6.0697223951101478 -16.902204469930439 0 0 0 0 3.7090320485983739 8.3086615483334754 0 8.3086615483334754 -15.614267875505902 0 0 0 0 1.377105363590104 0.071909892373499318 0 0.071909892373499318 -14.287414549358665 0 0 0 0 1.2739070331335824 14.191429230229005 0 14.191429230229005 -13.005847443397215 0 0 0 0 5.6829523313346044 11.279910567369825 0 11.279910567369825 -13.747092896563117 0 0 0 0 0.91730777572388433 10.635324345166282 0 10.635324345166282 -8.9002684599690838 0 0 0 0 0.65569583893056915 9.2494471679256094 0 9.2494471679256094 -14.471112535517932 0 0 0 0 0.80795475386344151 3.5945663138800228 0 3.5945663138800228 -4.2237734966274729 0 0 0 0 0.0099280453198442586 -0.26039529097547387 0 -0.26039529097547387 -1.1509133981416024 0 0 0 0 0.29682086579341771 0.8095819633777559 0 0.8095819633777559 -2.266860759008356 0 0 0 0 0.36552084157951015 11.424995864098548 0 11.424995864098548 -17.399293429174577 0 0 0 0 -0.47348682110737172 1.2075017879196821 0 1.2075017879196821 -8.6187992484974529 0 0 0 0 0.42751977241414352 -3.941672844288405 0 -3.941672844288405 -2.636869007345922 0 0 0 0 0.18471671067446582 1.5068857469510064 0 1.5068857469510064 -5.3691839971695892 0 0 0 0 -2.1624132866327272 10.703510796121918 0 10.703510796121918 -8.2402600638260992 0 0 0 0 4.3293294624704686 -5.9014081227760471 0 -5.9014081227760471 -0.78337365677043636 0 0 0 0 -0.11597577829218864 -0.077280067808690234 0 -0.077280067808690234 -0.91808961023765479 0 0 0 0 2.6548096281321705 7.2419807886158196 0 7.2419807886158196 -9.1772756053705962 0 0 0 0 -6.5190688927762608 6.8560606734681642 0 6.8560606734681642 -8.7275368612754392 0 0 0 0 -4.7418165213089196 13.563018592464687 0 13.563018592464687 -10.342784481467788 0 0 0 0 -0.51658205527320433 -8.8940770821523074 0 -8.8940770821523074 -15.056954245781526 0 0 0 0 -7.480459708371427 -9.5689096553287527 0 -9.5689096553287527 -9.4086627960559781 0 0 0 0 -1.2407222183223894 -12.852504868913456 0 -12.852504868913456 -17.025043990250197 0 0 0 0 -2.5031841560710291 -9.5859647579395642 0 -9.5859647579395642 -6.4075258700431732 0 0 0 0 0.53580303354567604 -4.9808025730576446 0 -4.9808025730576446 -6.952995305917284 0 0 0 0 -0.86437881539126238 -5.4883097807032755 0 -5.4883097807032755 2.7656950706841599 0 0 0 0 5.6352797462302533 -4.6385033142705652 0 -4.6385033142705652 -3.4921405157601839 0 0 0 0 1.263706016426795 -10.464513297911253 0 -10.464513297911253 -1.4343909886611073 0 0 0 0 -1.2373050604114724 -4.949970943531298 0 -4.949970943531298 4.5659755792366923 0 0 0 0 0.32015744771041454 -4.5884898098215672 0 -4.5884898098215672 -3.8839130748820025 0 0 0 0 1.0242568712060347 -4.3800467240580474 0 -4.3800467240580474 -4.4874913510266197 0 0 0 0 2.6224850832259108 -8.1008220513049309 0 -8.1008220513049309 -9.8628817760873062 0 0 0 0 0.6461929681724996 -8.485797119671588 0 -8.485797119671588 -5.705426783159055 0 0 0 0 0.998886178328803 -10.61953795820591 0 -10.61953795820591 -10.750117478352422 0 0 0 0 2.7682640495256692 -8.6309068064410894 0 -8.6309068064410894 -13.742835939603538 0 0 0 0 3.608043785512109 -10.596453320874389 0 -10.596453320874389 -19.141186060396649 0 0 0 0 4.0448856472809211 -8.6674412064417083 0 -8.6674412064417083 -21.770050562354299 0 0 0 0 5.243380164273276 -9.2354468195499066 0 -9.2354468195499066 -21.579929882336728 0 0 0 0 3.3382714740023403 -8.2589858157907656 0 -8.2589858157907656 -12.609011819986335 0 0 0 0 1.7950182775766734 -7.5895740981122799 0 -7.5895740981122799 -12.590013000868851 0 0 0 0 -6.0793012301642193 2.2025908610894476 0 2.2025908610894476 -19.028738243293901 0 0 0 0 0.69560504109375954 -4.2495565003465732 0 -4.2495565003465732 -8.6493036510353463 0 0 0 0 1.1960739281069621 -6.4178562527833662 0 -6.4178562527833662 -7.6753701685829583 0 0 0 0 0.2424774183991758 -7.155556296173927 0 -7.155556296173927 -7.8819963538699085 0 0 0 0 1.3737447241167047 -4.0303133419965889 0 -4.0303133419965889 -4.138937627987616 0 0 0 0 -2.4240188525559461 5.4585111880496697 0 5.4585111880496697 -16.1769939734113 0 0 0 0 -25.452583276071607 40.576379458697716 0 40.576379458697716 8.2373063893573999 0 0 0 0 -0.03537086671661438 0.8092421738635589 0 0.8092421738635589 -1.2091791709372899 0 0 0 0 -3.1690540690144644 -1.4735230686032992 0 -1.4735230686032992 10.138059513773669 0 0 0 0 -0.035537631218587135 -1.1393579963356906 0 -1.1393579963356906 -0.37075442212898935 0 0 0 0 85.213664039015839 146.15377184341742 0 146.15377184341742 78.069942933303537 0 0 0 0 11.772593970916432 -17.824767582544155 0 -17.824767582544155 -45.383393187741603 0 0 0 0 -3.0054091635656732 -13.710990992800362 0 -13.710990992800362 -33.760592528429697 0 0 0 0 -88.354422940391487 -83.841518437511695 0 -83.841518437511695 -88.320124266732819 0 0 0 0 2.6080048083293264 -4.0139621973244175 0 -4.0139621973244175 -23.393067242017423 0 0 0 0 0.83149385572231083 -3.7806083948717184 0 -3.7806083948717184 -10.201201363499742 0 0 0 0 2.7205781007023688 -2.9767827817668149 0 -2.9767827817668149 -13.901167802901909 0 0 0 0 5.8279418420329421 -8.6718664469326541 0 -8.6718664469326541 -27.58107624623517 0 0 0 0 -2.5592476861747855 2.5518066597142024 0 2.5518066597142024 -22.691406382602054 0 0 0 0 7.4344213197855424 -8.3181893656183092 0 -8.3181893656183092 -31.103772186801507 0 0 0 0 7.4791194640840786 -11.180869577067824 0 -11.180869577067824 -30.306725561669737 0 0 0 0 6.1051653310444181 -11.431010917553067 0 -11.431010917553067 -25.372926775919041 0 0 0 0 6.0722131363932021 -11.41073319875386 0 -11.41073319875386 -24.597861781861866 0 0 0 0 5.9981515301551553 -11.856339327228852 0 -11.856339327228852 -25.719139021024603 0 0 0 0 5.9181781850406878 -12.126800122709028 0 -12.126800122709028 -25.465798686454946 0 0 0 0 4.9069825317249069 -11.111184729315937 0 -11.111184729315937 -23.49974809934065 0 0 0 0 8.4851221130559225 -9.0304864318777618 0 -9.0304864318777618 -24.938926805358733 0 0 0 0 7.3869688605846022 -10.545579131097838 0 -10.545579131097838 -26.600125961525919 0 0 0 0 6.8398609187611328 -10.699115411995081 0 -10.699115411995081 -25.356602930753525 0 0 0 0 5.9685496402116769 -12.157537930262151 0 -12.157537930262151 -25.795034235790808 0 0 0 0 6.1842733291724699 -12.203625073141666 0 -12.203625073141666 -28.78409261908746 0 0 0 0 4.6819159451796395 -11.745668455809209 0 -11.745668455809209 -26.592574909403993 0 0 0 0 5.3804510230861524 -13.097225736455584 0 -13.097225736455584 -26.75264518626318 0 0 0 0 5.3365936019035871 -12.088623450015803 0 -12.088623450015803 -24.107934903695423 0 0 0 0 5.4210819955651459 -12.350255787603601 0 -12.350255787603601 -25.190084158733953 0 0 0 0 5.1548391325795819 -11.607026306508487 0 -11.607026306508487 -23.712602253604928 0 0 0 0 3.3347945030523078 -10.938275632192017 0 -10.938275632192017 -19.051322539287867 0 0 0 0 5.0403303738862633 -11.832550705541507 0 -11.832550705541507 -24.114150619257998 0 0 0 0 2.5610626337308986 -13.331688682505046 0 -13.331688682505046 -22.318254486783189 0 0 0 0 2.8585111102265728 -12.929302092406942 0 -12.929302092406942 -24.906259868952475 0 0 0 0 -0.64265789186720212 -11.421132534840581 0 -11.421132534840581 -18.101338652813865 0 0 0 0 3.4778638143848184 -11.827454532023694 0 -11.827454532023694 -30.058956161334208 0 0 0 0 4.5010834205864967 -12.939027942299617 0 -12.939027942299617 -31.076053241842601 0 0 0 0 0.7153511309611531 -13.153827406126766 0 -13.153827406126766 -24.89432805783872 0 0 0 0 0.82671205151905269 -14.073783272577202 0 -14.073783272577202 -30.765157085582814 0 0 0 0 -0.66271598985849778 -13.15411281363231 0 -13.15411281363231 -30.450367898659351 0 0 0 0 -2.2684638544020572 -16.662616664318193 0 -16.662616664318193 -36.822798201606929 0 0 0 0 -5.740073403895436 -15.278575401581268 0 -15.278575401581268 -24.068991926564195 0 0 0 0 -0.76608117675868925 -12.757993899518624 0 -12.757993899518624 -23.248123961412603 0 0 0 0 -5.8952200332771554 -12.090534902960826 0 -12.090534902960826 -16.490460852119213 0 0 0 0 1.4097296614776269 -6.8509049558361994 0 -6.8509049558361994 -11.957235649831546 0 0 0 0 4.1824514287361581 -9.0529371104925076 0 -9.0529371104925076 -11.339224742825991 0 0 0 0 2.4257393925618658 -5.649515089314491 0 -5.649515089314491 -11.5336901645137 0 0 0 0 -2.8773330542346685 -4.3707693289168219 0 -4.3707693289168219 -12.938224175262064 0 0 0 0 2.4177597555757693 0.16257093115145516 0 0.16257093115145516 -7.8906420061476386 0 0 0 0 -0.18653897087256155 -4.9074435951970372 0 -4.9074435951970372 -9.1979880037661133 0 0 0 0 0.92918697117215743 -2.0065244448855992 0 -2.0065244448855992 -10.441873261767341 0 0 0 0 0.17493040713934427 -2.4962568871084159 0 -2.4962568871084159 -9.3715607041425173 0 0 0 0 -9.0630777876242803 -4.6555118302958363 0 -4.6555118302958363 26.073494810603734 0 0 0 0 -6.0829179336741959 -2.0712407440378229 0 -2.0712407440378229 -18.032851076071438 0 0 0 0 46.505327212956558 -44.692615378784467 0 -44.692615378784467 -104.07152322126785 0 0 0 0 -0.41703487038295517 -0.93301093855608386 0 -0.93301093855608386 -8.2149882433830577 0 0 0 0 40.899933027549196 46.599862766597653 0 46.599862766597653 48.60309904249516 0 0 0 0 2.3124856508642333 -4.4055464056952225 0 -4.4055464056952225 -13.59412053239217 0 0 0 0 8.4384058094174179 -2.6009752221252711 0 -2.6009752221252711 -7.9417629584859242 0 0 0 0 2.122738353996835 -7.3682566294350451 0 -7.3682566294350451 -16.691905110442239 0 0 0 0 1.3457460471044485 -1.3071435623939323 0 -1.3071435623939323 -19.59415503698429 0 0 0 0 0.73721927651513397 -25.45428212193292 0 -25.45428212193292 -24.263642426525621 0 0 0 0 3.1380673262221315 -1.7183484499255535 0 -1.7183484499255535 -6.1598071504848164 0 0 0 0 -3.4022060830025111 -8.6436521021882982 0 -8.6436521021882982 -17.94841622725562 0 0 0 0 -1.5600338827631539 -0.75237749042673441 0 -0.75237749042673441 -5.6392994125767135 0 0 0 0 17.256411734637368 11.759140553470843 0 11.759140553470843 -40.728459331371141 0 0 0 0 -1.5578963142086195 -1.390331526384216 0 -1.390331526384216 -18.605551310296732 0 0 0 0 9.177160398416504 -10.602362497475497 0 -10.602362497475497 -25.236408703174675 0 0 0 0 -0.062361848635020367 -2.8977109646379726 0 -2.8977109646379726 -23.159912998745661 0 0 0 0 8.5090097563074778 -9.1361375865235459 0 -9.1361375865235459 -28.105239980219267 0 0 0 0 -3.407617771887999 -3.9464355160853302 0 -3.9464355160853302 -29.238642258729669 0 0 0 0 7.7238732506978067 -7.1937209974284997 0 -7.1937209974284997 -19.782443037345729 0 0 0 0 -16.939915417631028 5.681373234013563 0 5.681373234013563 -3.0982783049125828 0 0 0 0 -2.7949353419642193 -1.0143077213328979 0 -1.0143077213328979 -6.3040170276431127 0 0 0 0 -8.6604602422626158 42.311457500048164 0 42.311457500048164 -51.353803041870378 0 0 0 0 -1.2684878743194652 -1.2085163853004453 0 -1.2085163853004453 -0.73898456351051323 0 0 0 0 -0.71607756835305736 -1.3042040716886731 0 -1.3042040716886731 -10.891708931676419 0 0 0 0 -1.9336685141490193 -0.061195807931909485 0 -0.061195807931909485 -6.57874946211723 0 0 0 0 -0.74135924092536243 -3.6183681360573701 0 -3.6183681360573701 -5.674923944944112 0 0 0 0 -2.7965986611341149 -0.8095999915076133 0 -0.8095999915076133 -2.9897539878925272 0 0 0 0 20.386685644240288 -20.672290937346361 0 -20.672290937346361 -14.23765817344065 0 0 0 0 -0.19130285197876518 -3.7565336017742075 0 -3.7565336017742075 -15.14020395782549 0 0 0 0 -4.8202091497589095 -8.9029065209289229 0 -8.9029065209289229 -5.966006606990959 0 0 0 0 10.107327842544692 -12.53196571085914 0 -12.53196571085914 -7.290116050506299 0 0 0 0 -0.17730772723892185 -3.6516821419246956 0 -3.6516821419246956 -15.368746168326364 0 0 0 0 11.641574943969289 -4.674709403585112 0 -4.674709403585112 -26.039596343596486 0 0 0 0 12.845813848315856 -14.013395178335173 0 -14.013395178335173 -16.821936536294515 0 0 0 0 -3.1139793757076859 5.0710269747721668 0 5.0710269747721668 -17.746037948748381 0 0 0 0 -3.7812676699932126 -3.9265914365385015 0 -3.9265914365385015 -8.7832225476100803 0 0 0 0 15.474992411395647 -14.268320337517252 0 -14.268320337517252 -11.830299800816292 0 0 0 0 1.2179834587148033 -4.7449290107655226 0 -4.7449290107655226 -15.005201735833623 0 0 0 0 32.276562034229698 -24.14146033930615 0 -24.14146033930615 -27.750645029240786 0 0 0 0 0.48592920240554527 -5.585711728500673 0 -5.585711728500673 -15.759086279449207 0 0 0 0 -1.2027920245226369 2.7844688266512208 0 2.7844688266512208 -24.744921640014354 0 0 0 0 -1.7987652485203398 -5.6397030764673843 0 -5.6397030764673843 -5.2293006210052226 0 0 0 0 25.655274590717283 -36.175202279154519 0 -36.175202279154519 -11.241237336730592 0 0 0 0 0.20940902738738987 -6.1613567936171183 0 -6.1613567936171183 -17.047372592166376 0 0 0 0 -6.9851763717790618 -6.0787290694900662 0 -6.0787290694900662 -11.563743892954164 0 0 0 0 -9.6594011794405645 4.6041395419701843 0 4.6041395419701843 -18.340545923438981 0 0 0 0 17.021213376070591 -13.624672761522248 0 -13.624672761522248 -21.08851904140505 0 0 0 0 11.219374559066239 -0.94500676897578728 0 -0.94500676897578728 -16.894551019051164 0 0 0 0 2.432309327344699 -0.91747472868242808 0 -0.91747472868242808 -10.682211051053164 0 0 0 0 -5.7876725702694785 -11.137972952411673 0 -11.137972952411673 -20.447870569089556 0 0 0 0 -4.3844054630668552 -6.6736708257808459 0 -6.6736708257808459 -6.8485047911567563 0 0 0 0 -3.9923592360959219 -1.9136223591367525 0 -1.9136223591367525 -14.397973725835982 0 0 0 0 3.7220581030803714 -3.9192662813759398 0 -3.9192662813759398 -3.6196851435911412 0 0 0 0 1.9293992566077225 -1.0924594815363466 0 -1.0924594815363466 -11.534034313810908 0 0 0 0 3.5093646952670952 -2.1677332876161017 0 -2.1677332876161017 -9.5928242339978738 0 0 0 0 6.6565719564970323 -28.567054236918466 0 -28.567054236918466 -3.7157058436305306 0 0 0 0 1.1533655076465656 -1.4894018575999199 0 -1.4894018575999199 -1.1143761338937637 0 0 0 0 3.4232524229164483 -23.647604929029058 0 -23.647604929029058 6.0285923031224229 0 0 0 0 0.948050992899788 -2.7482682139080925 0 -2.7482682139080925 -3.2773575703915014 0 0 0 0 1.5402061453830811 -7.0133617401820629 0 -7.0133617401820629 -12.558523831504317 0 0 0 0 5.3637531383187707 -2.7282184020396016 0 -2.7282184020396016 -10.729287389469164 0 0 0 0 3.0200154480460242 -3.2927426378287237 0 -3.2927426378287237 -10.986172412882752 0 0 0 0 3.30127538186332 -4.8654096240519777 0 -4.8654096240519777 -8.8288194845135877 0 0 0 0 2.3663641183699156 -2.7290552137719715 0 -2.7290552137719715 -2.6617700657570822 0 0 0 0 1.4126720767532106 -6.4207440300508551 0 -6.4207440300508551 -7.796440642890957 0 0 0 0 2.6787584823626958 -1.1708331006020671 0 -1.1708331006020671 1.0645401579870395 0 0 0 0 9.0702896160955042 -1.8523787288640676 0 -1.8523787288640676 -8.802032080513527 0 0 0 0 0.45641523042846988 -0.27010292656885859 0 -0.27010292656885859 0.46027945581649021 0 0 0 0 8.7000453852568853 5.5983000418341362 0 5.5983000418341362 -0.93154244172285416 0 0 0 0 -17.073954135614485 -2.8681472110101822 0 -2.8681472110101822 -3.5099198871776025 0 0 0 0 -11.200650690718703 -13.579439566939072 0 -13.579439566939072 -16.156982128384698 0 0 0 0 -22.845978735812423 0.99070920095982729 0 0.99070920095982729 -5.1925485420892983 0 0 0 0 0.24640590651166727 -0.10532737109323964 0 -0.10532737109323964 -0.10718829803540331 0 0 0 0 15.727586990016903 15.926048453836302 0 15.926048453836302 3.0582916535004188 0 0 0 0 5.9221037831828767 -14.717328507303819 0 -14.717328507303819 -9.0922500750666586 0 0 0 0 -2.8191191724013152 -23.529070743472857 0 -23.529070743472857 6.2117404767062681 0 0 0 0 -16.167040105809974 -1.6804091645062726 0 -1.6804091645062726 -4.811551976673627 0 0 0 0 -19.913909982309185 -18.038871010959241 0 -18.038871010959241 -7.7064844985961827 0 0 0 0 -40.615374139111282 -10.384917397921527 0 -10.384917397921527 -10.517474547031043 0 0 0 0 -0.90206909149736703 -41.034096057055194 0 -41.034096057055194 -55.233916981327638 0 0 0 0 -19.062922670804483 3.2642739357304436 0 3.2642739357304436 -43.100635576061904 0 0 0 0 -20.563003042963487 -33.55318139328665 0 -33.55318139328665 -47.509674037999986 0 0 0 0 -12.024765255279135 -57.774049434009839 0 -57.774049434009839 19.705707796991192 0 0 0 0 5.0760243451774159 23.001975231231881 0 23.001975231231881 -67.382085908527188 0 0 0 0 -0.034739602359809885 -0.26729763633773285 0 -0.26729763633773285 -0.73567687582861296 0 0 0 0 1.4461351116679566 -7.8317732734569745 0 -7.8317732734569745 -28.914536409419043 0 0 0 0 -3.379918698350906 -4.4174391860764217 0 -4.4174391860764217 -27.875876674874235 0 0 0 0 -14.315174155415917 -20.124119831217172 0 -20.124119831217172 -18.769424280133535 0 0 0 0 -14.464607133582149 -17.9977257896212 0 -17.9977257896212 -30.519061644711201 0 0 0 0 -28.683317338578057 2.5123888354155515 0 2.5123888354155515 -32.414594369535735 0 0 0 0 -28.521748023731529 -14.315721569239074 0 -14.315721569239074 -12.904157926402149 0 0 0 0 -72.807300609257254 19.426674127359547 0 19.426674127359547 -36.720727937512038 0 0 0 0 -5.4066895795359642 -7.5253784728461142 0 -7.5253784728461142 -55.143621341209837 0 0 0 0 8.4084323277459134 3.7219664917638511 0 3.7219664917638511 3.3615746587375952 0 0 0 0 -44.580954236823516 -43.210546150375649 0 -43.210546150375649 -33.888236105453871 0 0 0 0 26.539186938140688 -1.2573903264194541 0 -1.2573903264194541 -16.316859647258752 0 0 0 0 64.818373346395418 -43.450378278591643 0 -43.450378278591643 -29.671082644782473 0 0 0 0 0.027809320607204091 -0.57247684426701895 0 -0.57247684426701895 -1.6913881140458855 0 0 0 0 25.783836953549951 0.70251780145895282 0 0.70251780145895282 -18.773134247880535 0 0 0 0 18.596642253902246 -13.66347966757121 0 -13.66347966757121 0.28048571319800431 0 0 0 0 13.911868837118334 5.1135676346007131 0 5.1135676346007131 -11.516101225405123 0 0 0 0 0.66728550603335179 -4.9486950182209739 0 -4.9486950182209739 -18.168233754672656 0 0 0 0 -2.6844910804302344 7.2505649446288771 0 7.2505649446288771 -21.047050416599177 0 0 0 0 0.93353059585699316 -4.4665811617352791 0 -4.4665811617352791 -12.819513377936373 0 0 0 0 13.857789058944007 -10.154421804613207 0 -10.154421804613207 -28.646264122845423 0 0 0 0 0.21212494292059381 -0.26226265488538658 0 -0.26226265488538658 -3.4536350474574764 0 0 0 0 15.69292995676733 8.8887328708410678 0 8.8887328708410678 -13.698014366907046 0 0 0 0 4.9895606236046888 -5.1029038811783494 0 -5.1029038811783494 -16.429473803420933 0 0 0 0 3.2389533088059768 -1.3625896326999736 0 -1.3625896326999736 -14.358171457670885 0 0 0 0 7.5008415212781046 -5.9265894018104603 0 -5.9265894018104603 -16.709553773073822 0 0 0 0 7.8934605392203139 -9.1830783955276729 0 -9.1830783955276729 -13.451131876669024 0 0 0 0 0.3891680926034653 -3.8256957268380729 0 -3.8256957268380729 -15.083726538767351 0 0 0 0 2.3381602154281977 -4.2083712835322551 0 -4.2083712835322551 -14.022123769733444 0 0 0 0 7.8201874540773915 -1.128151555173428 0 -1.128151555173428 -19.761419730512898 0 0 0 0 30.407070088817818 4.5804291640292831 0 4.5804291640292831 -36.166691266222529 0 0 0 0 16.880734916955277 -2.2455010964783924 0 -2.2455010964783924 -14.557220740120101 0 0 0 0 10.628198483272282 2.6346210251012963 0 2.6346210251012963 -4.9120308556521195 0 0 0 0 3.6515531449291592 7.5090522020054777 0 7.5090522020054777 0.094852758167689899 0 0 0 0 0.0032845528755910342 6.150145466079266 0 6.150145466079266 -2.9498654766157415 0 0 0 0 2.6573815319145879 5.0708922418471047 0 5.0708922418471047 -3.4104090239434299 0 0 0 0 3.3169950195373552 4.5131010789345964 0 4.5131010789345964 -3.4257740083753845 0 0 0 0 6.5554177749114828 9.3387309652971453 0 9.3387309652971453 -8.0873255540316222 0 0 0 0 9.9349121239097542 3.8246545390529718 0 3.8246545390529718 -8.5986106600055336 0 0 0 0 0.08908527983651629 -0.14656261732290865 0 -0.14656261732290865 -0.57372299903899204 0 0 0 0 1.4968983053372313 -26.94860287147219 0 -26.94860287147219 -20.894444201516308 0 0 0 0 0.18429189343876473 17.550166835962955 0 17.550166835962955 -6.5409994777828615 0 0 0 0 -7.0055560656581894 -6.9473359831717971 0 -6.9473359831717971 -0.86259222954322468 0 0 0 0 0.023874654251637498 -0.044983797766667166 0 -0.044983797766667166 -0.20983119112329263 0 0 0 0 2.3733432709140523 7.3861665521353643 0 7.3861665521353643 9.9206041229663242 0 0 0 0 12.522136785514629 -5.9163200523653359 0 -5.9163200523653359 6.4229148440952031 0 0 0 0 -13.629825031451759 24.765425624845193 0 24.765425624845193 -4.3439235209189064 0 0 0 0 19.111214633043964 9.7246261786167452 0 9.7246261786167452 -23.361660653246872 0 0 0 0 3.8857400783002323 -7.0854091801065806 0 -7.0854091801065806 12.806257124600961 0 0 0 0 29.551437356768808 5.4289735486081554 0 5.4289735486081554 -7.3379615799567546 0 0 0 0 0.16046349273801469 -0.48000267968805055 0 -0.48000267968805055 -2.2633673154517524 0 0 0 0 38.945182726408937 -19.871299754429629 0 -19.871299754429629 -6.5817715707453317 0 0 0 0 6.2303249651777932 5.6162514655907216 0 5.6162514655907216 1.2301428932696581 0 0 0 0 0.13907736081799804 9.1240652015740125 0 9.1240652015740125 -7.567700319486903 0 0 0 0 6.0919193636936768 -5.6334769604509347 0 -5.6334769604509347 -11.265785044062795 0 0 0 0 4.4113037397709434 2.2213346965454548 0 2.2213346965454548 -3.8758066703476288 0 0 0 0 4.0896132227783433 5.8079361441459696 0 5.8079361441459696 -15.13526869315956 0 0 0 0 3.7276071156819715 7.9015707440285041 0 7.9015707440285041 -8.9295470617798856 0 0 0 0 4.0626130172010653 4.0477822744845184 0 4.0477822744845184 -5.511992293439107 0 0 0 0 -0.0071706500191128317 8.2055112641519372 0 8.2055112641519372 -8.9780064346059589 0 0 0 0 1.2025614010859087 -1.8842992978688926 0 -1.8842992978688926 -14.657050161762641 0 0 0 0 19.441575185830899 3.0603975111516775 0 3.0603975111516775 -61.07405843788365 0 0 0 0 -5.9488926160581457 36.990654952050136 0 36.990654952050136 -69.007331069662541 0 0 0 0 0.012914561449577304 10.415737467596955 0 10.415737467596955 -37.896395809364549 0 0 0 0 5.6314361230836489 12.344634565009983 0 12.344634565009983 -37.242333184226482 0 0 0 0 0.0025143128869164304 13.151569813734568 0 13.151569813734568 -36.265527106461377 0 0 0 0 -18.748442880111341 24.602659545131246 0 24.602659545131246 -27.388620983936562 0 0 0 0 3.0617276654026426 26.144304104280536 0 26.144304104280536 -56.522984225732216 0 0 0 0 -7.2437510977472286 12.725380273500377 0 12.725380273500377 -19.820188344914641 0 0 0 0 -9.1553177519198954 17.339054946257647 0 17.339054946257647 -26.709446827042484 0 0 0 0 -11.227370316614866 8.0020190824634483 0 8.0020190824634483 -12.988640457804649 0 0 0 0 -8.6207422894211305 1.1920515519732362 0 1.1920515519732362 -10.053001290943939 0 0 0 0 -1.1077944165248121 -4.266562918137879 0 -4.266562918137879 -6.0900866778338241 0 0 0 0 -16.884212724801912 9.8046593948201917 0 9.8046593948201917 -14.996652594981185 0 0 0 0 -20.916344722726159 3.2254752478189879 0 3.2254752478189879 -14.578940761497506 0 0 0 0 -21.001705204534382 23.385307877018931 0 23.385307877018931 -27.787888365850449 0 0 0 0 -35.948656810413986 42.963490885285864 0 42.963490885285864 -46.104523948850328 0 0 0 0 -11.070491410948144 18.501495570491898 0 18.501495570491898 -27.199576838258508 0 0 0 0 -13.872146050715218 15.968438501620767 0 15.968438501620767 -2.448787372224615 0 0 0 0 -11.436233437214966 97.459056787945883 0 97.459056787945883 -133.07058359163966 0 0 0 0 -11.270812040180536 80.989375190676924 0 80.989375190676924 58.128805107680819 0 0 0 0 -48.338679302395434 5.1779028393812041 0 5.1779028393812041 -31.06150326354873 0 0 0 0 35.417725017226459 -26.939158853198478 0 -26.939158853198478 -4.7650878031236061 0 0 0 0 0.065350492686051129 -0.12632640646798698 0 -0.12632640646798698 -1.0046287418392481 0 0 0 0 -74.032109015170093 97.359112963311418 0 97.359112963311418 -88.404321170646654 0 0 0 0 -75.597511899967188 91.418276241862259 0 91.418276241862259 -102.73401967480822 0 0 0 0 -40.597509081976 27.472383094920588 0 27.472383094920588 -30.722634337360432 0 0 0 0 1.5776005675860461 -1.8552022021049197 0 -1.8552022021049197 -101.02359692309801 0 0 0 0 -20.651186613536403 50.773051519385263 0 50.773051519385263 -77.602011896626209 0 0 0 0 -1.5737718025822076 -0.2942886994590026 0 -0.2942886994590026 -47.931605602385389 0 0 0 0 1.0192175064455853 18.315523979460522 0 18.315523979460522 -62.789997181278522 0 0 0 0 0.35159505006876779 0.56762798895569588 0 0.56762798895569588 -0.52272628259496656 0 0 0 0 1.1316239785618052 8.3385389200029749 0 8.3385389200029749 -39.261523428584951 0 0 0 0 6.5022000516472076 16.20808137602944 0 16.20808137602944 -178.1307459244299 0 0 0 0 -0.0064471392842193817 0.24787763482986236 0 0.24787763482986236 -0.2290467390866695 0 0 0 0 33.972695942523842 11.650059217472517 0 11.650059217472517 -3.2989847941462358 0 0 0 0 9.3562651922472746 -3.7418670302522514 0 -3.7418670302522514 14.010004878588006 0 0 0 0 17.97351638724901 26.75682918190796 0 26.75682918190796 26.273231863509864 0 0 0 0 17.150564969368304 1.3978606407126328 0 1.3978606407126328 -8.8082873130842927 0 0 0 0 17.169143180029618 10.480936421297883 0 10.480936421297883 -6.8473256747834057 0 0 0 0 9.6985169760544636 4.0723051481199946 0 4.0723051481199946 0.63537219129193545 0 0 0 0 3.4199852304706253 -2.2181086541654622 0 -2.2181086541654622 -10.692269851837409 0 0 0 0 10.491073669378652 5.764124131722383 0 5.764124131722383 -8.1233235649451672 0 0 0 0 5.9297085143041173 5.2242732217209777 0 5.2242732217209777 -1.6515025786266051 0 0 0 0 8.5563754014154618 10.493339077552264 0 10.493339077552264 5.1563245561337681 0 0 0 0 6.0383660155968997 5.5057379461586606 0 5.5057379461586606 -0.9555298676041275 0 0 0 0 9.2230293169440838 7.1599570117568874 0 7.1599570117568874 5.5738930944953609 0 0 0 0 1.5636472808831741 2.2725183498641854 0 2.2725183498641854 -12.152721908594231 0 0 0 0 0.95068752980528481 0.40330530629575989 0 0.40330530629575989 -0.46592233296054175 0 0 0 0 -9.8190841515414604 4.1222490193531485 0 4.1222490193531485 -11.352019489548184 0 0 0 0 2.6646181707982883 -3.1594435771485223 0 -3.1594435771485223 -36.164227014494827 0 0 0 0 2.0223980997773765 11.711051480456263 0 11.711051480456263 -46.848051899722122 0 0 0 0 -6.0844643537847105 12.473949658618949 0 12.473949658618949 -37.045902591673837 0 0 0 0 -5.0122998741418456 17.167293342636185 0 17.167293342636185 -45.306044717317491 0 0 0 0 -6.0454865109239506 18.092553426956329 0 18.092553426956329 -44.655999703720227 0 0 0 0 -7.6641460034550448 19.576475223365378 0 19.576475223365378 -44.8279414004719 0 0 0 0 -7.4014878141624507 19.384885277059766 0 19.384885277059766 -45.628029557899936 0 0 0 0 -9.4335353801810982 21.848658073677143 0 21.848658073677143 -46.230583161501272 0 0 0 0 -6.6473175401867763 19.054902170272726 0 19.054902170272726 -47.276889987459072 0 0 0 0 -4.6331954884238726 20.804444232776859 0 20.804444232776859 -46.874825394681466 0 0 0 0 -8.1150577777700033 28.177176834189595 0 28.177176834189595 -53.46545685604724 0 0 0 0 -9.0376393489126912 25.788723783673959 0 25.788723783673959 -51.407650887744239 0 0 0 0 -18.969091876785026 12.108406457020465 0 12.108406457020465 -34.466721377762497 0 0 0 0 -4.1585975247309541 15.930026659932992 0 15.930026659932992 -36.967424794562248 0 0 0 0 -18.395483881896443 34.119508092793694 0 34.119508092793694 -40.533708896929966 0 0 0 0 -15.820225126835737 21.731084296663539 0 21.731084296663539 -40.034767175434411 0 0 0 0 -17.530753553297359 -10.709235182031989 0 -10.709235182031989 5.2107135488163294 0 0 0 0 -13.723391315185557 31.164287085766773 0 31.164287085766773 -9.4576375150973035 0 0 0 0 19.500159443991663 6.2684053463217424 0 6.2684053463217424 0.10345862615486112 0 0 0 0 -0.0020145553625987578 -0.14099558205136375 0 -0.14099558205136375 -0.1804501725102341 0 0 0 0 2.8101159114738721 0.35422459236906434 0 0.35422459236906434 -0.74976867645455059 0 0 0 0 -11.476028017185158 20.960573202773958 0 20.960573202773958 -44.051802894690809 0 0 0 0 1.710003355621069 -0.2428216779246668 0 -0.2428216779246668 -0.12092384930838307 0 0 0 0 0.19739441727848894 -0.5656386926878767 0 -0.5656386926878767 -2.5742812661921306 0 0 0 0 22.76666301381583 -12.312761726181748 0 -12.312761726181748 -11.916003370066392 0 0 0 0 5.6771850211621313 -7.8823215529464505 0 -7.8823215529464505 0.25629696390205936 0 0 0 0 5.2634016727759203 6.5390502793443375 0 6.5390502793443375 -13.113192352776878 0 0 0 0 2.630182903800069 -2.3208485346031011 0 -2.3208485346031011 8.0741983471498315 0 0 0 0 1.5185550550622793 -2.1089625870927193 0 -2.1089625870927193 -0.44877860630776922 0 0 0 0 11.989460027215305 -6.6967689668545063 0 -6.6967689668545063 -4.5064414833650517 0 0 0 0 0.28686520009574262 -0.42058228532423492 0 -0.42058228532423492 -2.4271150787215348 0 0 0 0 0.86235732037415858 -0.68192175168132962 0 -0.68192175168132962 -1.5486128278507749 0 0 0 0 -0.63278095164450576 -0.014677901250252035 0 -0.014677901250252035 -1.4138665451300767 0 0 0 0 -0.14287612796803728 -0.6604760330174031 0 -0.6604760330174031 -0.85222390089802502 0 0 0 0 -0.14870427622561766 -0.34067434683309727 0 -0.34067434683309727 -0.3368765570382557 0 0 0 0 -8.8113222487233713 19.187434803515316 0 19.187434803515316 -44.606502510610881 0 0 0 0 -7.601115551984428 20.523061509475156 0 20.523061509475156 -46.318508268184814 0 0 0 0 -0.4307989432595889 -1.5147903361830686 0 -1.5147903361830686 -0.47490248502435861 0 0 0 0 -0.23668622268267825 0.44449945450651285 0 0.44449945450651285 -1.453505102545023 0 0 0 0 -8.6323717492900869 16.944056827673194 0 16.944056827673194 -43.448577452390509 0 0 0 0 -8.4354740343464982 16.576397228756832 0 16.576397228756832 -43.782986390611768 0 0 0 0 -9.2873765829720014 16.614759963627876 0 16.614759963627876 -43.397731543762347 0 0 0 0 -9.3540100065945353 17.065353929332559 0 17.065353929332559 -42.468872601511976 0 0 0 0 -15.121441887508354 15.345533057276043 0 15.345533057276043 -40.602864909305936 0 0 0 0 -11.552156233159309 14.55858297546547 0 14.55858297546547 -40.494458062756166 0 0 0 0 -11.799753449977516 15.917173571331659 0 15.917173571331659 -42.935786818667111 0 0 0 0 -8.752302744909457 15.409149354163674 0 15.409149354163674 -42.92385011463557 0 0 0 0 -10.136474067084805 13.207348319633638 0 13.207348319633638 -41.87193348591245 0 0 0 0 -10.021589548203963 13.538373042953026 0 13.538373042953026 -45.415091588438372 0 0 0 0 -6.8503224499884254 16.713596591755049 0 16.713596591755049 -45.07311249004033 0 0 0 0 -8.851302558818702 15.861563614104398 0 15.861563614104398 -44.672199225071381 0 0 0 0 -7.683162569972751 17.163481460310322 0 17.163481460310322 -44.503870783715684 0 0 0 0 -8.2693795778205867 17.140656915506042 0 17.140656915506042 -43.460578972960093 0 0 0 0 -7.4654282175309845 17.788933623370212 0 17.788933623370212 -43.524209004907334 0 0 0 0 -8.2877349215626168 17.069595393186773 0 17.069595393186773 -43.425340330089966 0 0 0 0 -0.31095178746741969 -0.54315943433497438 0 -0.54315943433497438 -0.59620471276884146 0 0 0 0 -0.59936917504671783 -0.10022098829313109 0 -0.10022098829313109 -1.800938126483743 0 0 0 0 -8.5588152246958771 17.149407086440988 0 17.149407086440988 -43.008721882826649 0 0 0 0 -9.4932552091681828 18.845602555695223 0 18.845602555695223 -41.203488198370906 0 0 0 0 -12.727534840980638 17.604469216821599 0 17.604469216821599 -41.679048861144111 0 0 0 0 0.08377507550472596 -0.010372085966178446 0 -0.010372085966178446 -0.29426704676762583 0 0 0 0 -13.532951355762521 22.902176139355106 0 22.902176139355106 -43.662158360981266 0 0 0 0 -18.432167122835267 23.638634560807986 0 23.638634560807986 -35.411024209899779 0 0 0 0 -18.455819454428706 22.804841621415108 0 22.804841621415108 -20.658882622332385 0 0 0 0 -14.625931816295406 17.355248072499307 0 17.355248072499307 -29.11632494688638 0 0 0 0 -14.61659088869634 17.082634379584078 0 17.082634379584078 -21.744495805545739 0 0 0 0 -18.273675665121687 4.4497267354990981 0 4.4497267354990981 -35.959837961176163 0 0 0 0 -16.26457797906491 10.042841293119409 0 10.042841293119409 -20.413468689903311 0 0 0 0 -17.88133074785344 14.489573114869927 0 14.489573114869927 -25.657492448324774 0 0 0 0 -15.800077901079703 15.052571785474356 0 15.052571785474356 -34.005181120809084 0 0 0 0 -17.784985386112339 11.602659094041883 0 11.602659094041883 -38.265447426469109 0 0 0 0 -13.361170464221232 9.346006999769088 0 9.346006999769088 -37.297129817066889 0 0 0 0 -11.912341600330024 10.17286429277101 0 10.17286429277101 -46.965882320124365 0 0 0 0 -7.0158186440376085 14.34451894784479 0 14.34451894784479 -49.019265073940915 0 0 0 0 -7.1381429872674289 14.251201422388476 0 14.251201422388476 -49.089500736739865 0 0 0 0 -6.4110112041634011 14.758555300522858 0 14.758555300522858 -69.124575971451122 0 0 0 0 -15.008754238332017 2.6557397819888138 0 2.6557397819888138 -53.490480041080446 0 0 0 0 -6.8603499201340128 19.676965292082969 0 19.676965292082969 -51.801492419260285 0 0 0 0 -8.6883948543443807 4.0208229069244226 0 4.0208229069244226 -63.997191913125789 0 0 0 0 -21.409936566329634 30.354695713664114 0 30.354695713664114 -46.57817338863606 0 0 0 0 -3.5295601109120018 -3.0397066138587263 0 -3.0397066138587263 -1.8812599413614635 0 0 0 0 -2.5290215360473951 4.1999819580559858 0 4.1999819580559858 -16.693613102987001 0 0 0 0 -2.7717969469987338 -7.2036630306961627 0 -7.2036630306961627 2.2103696524645784 0 0 0 0 3.8514262082499044 -10.13570310887917 0 -10.13570310887917 -0.071250212440645555 0 0 0 0 3.9572924453368614 -10.424365903356374 0 -10.424365903356374 -0.55851760878795176 0 0 0 0 -13.550604937740445 13.551737716799835 0 13.551737716799835 -31.190836469831083 0 0 0 0 -18.554645990997415 20.813791168076932 0 20.813791168076932 -32.20494931952453 0 0 0 0 -6.1606696778881087 10.381381338207575 0 10.381381338207575 -29.898225856603858 0 0 0 0 0.16096207357057057 -0.22048609784107853 0 -0.22048609784107853 -0.99385390970367382 0 0 0 0 3.1475787690751531 -0.50875288016504783 0 -0.50875288016504783 -7.2609329607494146 0 0 0 0 -5.1376816687064775 16.368614581376278 0 16.368614581376278 -41.510345726509058 0 0 0 0 -5.6794095567751128 18.644815384632238 0 18.644815384632238 -41.85118681050244 0 0 0 0 -7.3853896474068392 18.437940643224465 0 18.437940643224465 -42.199826212512562 0 0 0 0 -6.104467557391331 16.884571360564223 0 16.884571360564223 -47.019957455253461 0 0 0 0 -6.5959695485059626 17.600503175706308 0 17.600503175706308 -42.516880961349671 0 0 0 0 -7.3520354806025807 15.488877569792749 0 15.488877569792749 -46.420548916592452 0 0 0 0 -7.6907173680355356 15.641978382229354 0 15.641978382229354 -46.009022138197906 0 0 0 0 -6.7835896100158948 18.560005516742422 0 18.560005516742422 -42.898410980511471 0 0 0 0 -5.8126269583368071 17.673072932604555 0 17.673072932604555 -44.815247892053321 0 0 0 0 -7.5095194812276418 17.118910565585793 0 17.118910565585793 -44.666338466118759 0 0 0 0 -6.8199657879867459 16.232598507896455 0 16.232598507896455 -41.022475277934063 0 0 0 0 -7.2608878358598758 14.904977458432768 0 14.904977458432768 -41.873207675465892 0 0 0 0 -7.986121412469771 16.18906012932166 0 16.18906012932166 -35.165061733921902 0 0 0 0 0.79447603683991019 1.8276014468328867 0 1.8276014468328867 -21.266328654705831 0 0 0 0 -0.063058559217937349 -0.031997287361875237 0 -0.031997287361875237 -0.037219399095192784 0 0 0 0 -0.93212449095176453 2.0990676092987997 0 2.0990676092987997 -10.725493293834006 0 0 0 0 1.4002516439826422 -5.0243235286407071 0 -5.0243235286407071 -12.093329729490506 0 0 0 0 -1.4434465649525237 -2.9566515529013486 0 -2.9566515529013486 -10.537362712033428 0 0 0 0 -1.8219732011671681 -5.9210988239965445 0 -5.9210988239965445 -15.758486702296977 0 0 0 0 -4.7205632441783791 -4.5539701918532955 0 -4.5539701918532955 -3.1623380698365509 0 0 0 0 0.74174746635105748 -4.8482466392924835 0 -4.8482466392924835 -9.9950725117091679 0 0 0 0 2.5769533725196538 -1.9077025753185808 0 -1.9077025753185808 -6.3556559978787845 0 0 0 0 0.2765043218969061 -0.028008574389197349 0 -0.028008574389197349 -0.57756771906972659 0 0 0 0 -1.2553716483423614 -0.71635415327909868 0 -0.71635415327909868 -1.9094934762520097 0 0 0 0 9.0305533076548556 0.49358072455970614 0 0.49358072455970614 -2.385023622215158 0 0 0 0 1.7516566159266822 0.18840158735384094 0 0.18840158735384094 -0.66597833058667177 0 0 0 0 1.5173944004375197 -0.16420817010703725 0 -0.16420817010703725 -10.432680460293838 0 0 0 0 13.433507568804885 -2.6671660263777994 0 -2.6671660263777994 -28.275772153854632 0 0 0 0 6.2250188374357549 -3.3948987411104099 0 -3.3948987411104099 -13.985051163830576 0 0 0 0 1.7235176181010439 1.4675216321393698 0 1.4675216321393698 -3.6463998444833194 0 0 0 0 1.4597582474560276 -1.7049951557105238 0 -1.7049951557105238 -4.5570413930055054 0 0 0 0 3.1189051550983322 0.30301621879061713 0 0.30301621879061713 -6.8703267741325362 0 0 0 0 2.2871033884824357 -4.4246283123682133 0 -4.4246283123682133 -9.5265182308521617 0 0 0 0 3.0676357498728066 -4.7774924026525696 0 -4.7774924026525696 -9.3698296832553751 0 0 0 0 2.3810556070954307 -2.4047860474254179 0 -2.4047860474254179 -5.157414016920459 0 0 0 0 2.2489414055941097 -4.8910586839642747 0 -4.8910586839642747 -1.5597028689444414 0 0 0 0 1.3049721171425972 -10.280904706657566 0 -10.280904706657566 -8.6283307815274384 0 0 0 0 9.2065873055503289 2.4265120287514037 0 2.4265120287514037 -36.44432848312772 0 0 0 0 0.58431547769293601 -2.6453288983790229 0 -2.6453288983790229 -6.6079611209820683 0 0 0 0 7.0221867032776117 -2.1907312421913048 0 -2.1907312421913048 -16.138393436918705 0 0 0 0 5.981012774204828 -6.2550448844594939 0 -6.2550448844594939 -10.557181982549082 0 0 0 0 1.6358656710765445 -4.0642434543915442 0 -4.0642434543915442 -8.7520308390348873 0 0 0 0 3.1137270210381587 -5.0439938064516809 0 -5.0439938064516809 -8.62255622311568 0 0 0 0 2.4179073207772035 -4.7688455233455898 0 -4.7688455233455898 -5.5496820201369701 0 0 0 0 2.4682674925556967 -1.0341590434509271 0 -1.0341590434509271 -3.4169323259502562 0 0 0 0 2.4328455478331747 -4.8954418399076758 0 -4.8954418399076758 -8.036109553235292 0 0 0 0 2.4815589001477747 -1.1142707063008856 0 -1.1142707063008856 -9.8471710963185615 0 0 0 0 0.604311101592657 -0.59400828173738773 0 -0.59400828173738773 -6.9132171333112638 0 0 0 0 -0.20156936210040327 -1.83224594741599 0 -1.83224594741599 -4.8871913054495479 0 0 0 0 4.119046140343201 0.50930651183284681 0 0.50930651183284681 -7.6190553754422581 0 0 0 0 2.5524856336410267 1.0546481059627695 0 1.0546481059627695 -7.3534894644562883 0 0 0 0 2.5417022433075545 1.178095046123417 0 1.178095046123417 -5.7591950517653459 0 0 0 0 6.9053780365795774 -10.151546535238595 0 -10.151546535238595 1.002538827528042 0 0 0 0 4.543829646922859 -16.056796017986926 0 -16.056796017986926 9.2036850515360129 0 0 0 0 -0.71811181942939584 -11.240012851980282 0 -11.240012851980282 24.011095941345047 0 0 0 0 -0.032061031421659614 0.12650031756454894 0 0.12650031756454894 0.23148437673723166 0 0 0 0 3.6444030427109055 -1.0762721180426524 0 -1.0762721180426524 4.0192303889925824 0 0 0 0 2.5246046532647597 -16.855670104621822 0 -16.855670104621822 12.842947349879978 0 0 0 0 2.5472818543121321 -10.37793108043752 0 -10.37793108043752 11.98893289712214 0 0 0 0 4.889260226352917 -6.8918345461916033 0 -6.8918345461916033 6.0433339180108305 0 0 0 0 2.5939284663056696 1.9776579723620671 0 1.9776579723620671 -24.152287960423109 0 0 0 0 4.635650697552137 -8.6615011188223434 0 -8.6615011188223434 -1.4128237318018364 0 0 0 0 3.9971693061625047 -8.1183097502380406 0 -8.1183097502380406 -0.32762384401303279 0 0 0 0 0.147439015559371 0.63799116554082502 0 0.63799116554082502 -18.24061516643269 0 0 0 0 0.20104783838674223 0.080281922198260247 0 0.080281922198260247 -2.1757238947315241 0 0 0 0 0.80780557793267649 -1.0193143390307071 0 -1.0193143390307071 -2.8739721926609363 0 0 0 0 1.8945348844904002 -2.0904495047392828 0 -2.0904495047392828 -5.8779075492740418 0 0 0 0 -2.1647985831384631 -1.5213994048499444 0 -1.5213994048499444 -11.749884575900069 0 0 0 0 1.431044404840577 6.250419269471422 0 6.250419269471422 -22.04347742430582 0 0 0 0 1.4753946332168777 -2.4502808969727194 0 -2.4502808969727194 -2.9086662029457813 0 0 0 0 2.4043231638852376 0.70913282681885903 0 0.70913282681885903 -12.822345451919318 0 0 0 0 -3.0332264543160363 -4.5903302602127951 0 -4.5903302602127951 -1.0520636284445573 0 0 0 0 -1.3718954467270947 4.259524531333966 0 4.259524531333966 -9.3819610197078873 0 0 0 0 0.10569698088943369 -0.7365986384329517 0 -0.7365986384329517 -14.49595403143212 0 0 0 0 -2.1131424325537864 3.6921931060596762 0 3.6921931060596762 -38.315400509491155 0 0 0 0 -3.5570660520280057 2.5846473278027133 0 2.5846473278027133 -17.023162242947365 0 0 0 0 -18.412139238704071 -0.26349836296594731 0 -0.26349836296594731 -12.434328712663046 0 0 0 0 -2.8008231891030846 -16.261097550233899 0 -16.261097550233899 -28.632534006024798 0 0 0 0 1.2337559943912311 3.9385015830885095 0 3.9385015830885095 -16.415972215611191 0 0 0 0 1.1427233433497577 -1.6320829139790476 0 -1.6320829139790476 -17.653039030632499 0 0 0 0 2.977967287945944 3.688390654244813 0 3.688390654244813 -11.904557512829797 0 0 0 0 2.2694977030926111 0.041599176176987385 0 0.041599176176987385 -9.6432014570555111 0 0 0 0 -1.4223985176665792 1.1993822776701109 0 1.1993822776701109 -12.888636449502883 0 0 0 0 -5.1793987370413106 -1.1897387895278371 0 -1.1897387895278371 -8.81773682067967 0 0 0 0 2.4490644887607109 1.4866211392507029 0 1.4866211392507029 -7.1150411358089407 0 0 0 0 1.3374736687995892 4.8570417617102066 0 4.8570417617102066 -5.8104574025992406 0 0 0 0 0.71330008324957817 -0.36179675589710314 0 -0.36179675589710314 -3.2226883499415635 0 0 0 0 1.8241519555883769 6.5405653896268632 0 6.5405653896268632 -33.560621819417975 0 0 0 0 -10.010813473395956 -11.602076369277711 0 -11.602076369277711 -31.400757076703712 0 0 0 0 -0.4804637534588112 -6.855294015175124 0 -6.855294015175124 -4.4327144202922417 0 0 0 0 1.2419047129254142 3.8911951819676371 0 3.8911951819676371 -12.689591192331886 0 0 0 0 -0.07758117825377564 0.0091650383775743194 0 0.0091650383775743194 -3.4797517647008327 0 0 0 0 6.8491836048688128 -0.68021097543896758 0 -0.68021097543896758 -12.525874487064357 0 0 0 0 -7.437105928275372 3.7991051912909484 0 3.7991051912909484 -3.0334142615793098 0 0 0 0 19.676836684289356 67.879633307113181 0 67.879633307113181 -45.104072376072509 0 0 0 0 -0.61519254717164529 0.20220665095904877 0 0.20220665095904877 0.26500790902996663 0 0 0 0 -12.196883202528852 -17.181740452267604 0 -17.181740452267604 2.3929669431945513 0 0 0 0 -2.1402768296350132 -6.8478318689585649 0 -6.8478318689585649 9.6350701054743695 0 0 0 0 0.93455287193910408 -11.547256909556836 0 -11.547256909556836 1.0476641413042671 0 0 0 0 3.4071547610376456 -3.8742327408417623 0 -3.8742327408417623 10.467644077251862 0 0 0 0 9.0493242501584064 -9.4661865624102575 0 -9.4661865624102575 8.2359496935150673 0 0 0 0 1.7563098845682816 -15.538349983268745 0 -15.538349983268745 15.905168106738529 0 0 0 0 0.19331643576788338 -10.879369865842818 0 -10.879369865842818 8.0597987298897351 0 0 0 0 2.0300873538355404 -12.10088654088625 0 -12.10088654088625 5.6823085197065666 0 0 0 0 2.4123368544287587 -5.0462209335582884 0 -5.0462209335582884 -5.7674850479597808 0 0 0 0 1.9512493475549491 -7.0424616969557974 0 -7.0424616969557974 1.1437123079304001 0 0 0 0 3.3977302884675282 -10.845078743511294 0 -10.845078743511294 -2.6418186010450881 0 0 0 0 2.105600293029056 -7.9600981521634822 0 -7.9600981521634822 1.9086991443982697 0 0 0 0 3.4008282285346922 -7.9605064963279801 0 -7.9605064963279801 5.4306315739295314 0 0 0 0 -4.4496415979765516 -10.591299269004594 0 -10.591299269004594 0.9101507338891679 0 0 0 0 0.99563958714901446 -11.74565101089911 0 -11.74565101089911 2.279497636405722 0 0 0 0 4.9087984284674349 -8.3889732396055479 0 -8.3889732396055479 -0.61287291063308658 0 0 0 0 3.2882093676873865 -8.6969390676840703 0 -8.6969390676840703 0.97356051553470024 0 0 0 0 5.7042377106090498 -9.8779328436667129 0 -9.8779328436667129 1.4669809476708906 0 0 0 0 6.6051128717872416 -7.5992225750305806 0 -7.5992225750305806 1.965569538413547 0 0 0 0 -1.6957921044524937 15.55774294285311 0 15.55774294285311 -65.454404410171605 0 0 0 0 -2.997384140512545 -2.1290298392310767 0 -2.1290298392310767 -1.3538456628082045 0 0 0 0 -1.6204521090048454 -1.2205492811773695 0 -1.2205492811773695 -0.84496445242693952 0 0 0 0 -0.30567668480648535 -8.2835467516888457 0 -8.2835467516888457 12.431901777697931 0 0 0 0 -9.6764400533662638 35.869746200854593 0 35.869746200854593 -59.861775793388915 0 0 0 0 -0.38884316620668935 -0.44177965058995383 0 -0.44177965058995383 -0.43547067956600927 0 0 0 0 -0.10854518819327597 -0.22909949275415897 0 -0.22909949275415897 -0.2982050946173409 0 0 0 0 -8.4581892303006043 17.491035228727924 0 17.491035228727924 -25.047732803516737 0 0 0 0 -17.73052042988877 16.428553411360554 0 16.428553411360554 -21.371592450528624 0 0 0 0 -2.3522144214924765 10.577056033974714 0 10.577056033974714 -25.435097005574789 0 0 0 0 -11.238366825504045 10.896716695000578 0 10.896716695000578 -25.307575732966825 0 0 0 0 -7.0759606429832616 6.4796975673725683 0 6.4796975673725683 -22.988150305700401 0 0 0 0 -7.855195047965708 8.981848223182169 0 8.981848223182169 -23.861249329544989 0 0 0 0 -6.9102624413261537 8.0915455243803081 0 8.0915455243803081 -27.982905862438201 0 0 0 0 -38.175464874008355 -27.598042706875731 0 -27.598042706875731 -36.225311769953805 0 0 0 0 -0.22296762913978529 -0.23732639487575469 0 -0.23732639487575469 -0.25939090936258324 0 0 0 0 -10.89927008267 -11.165663889463985 0 -11.165663889463985 22.123227047310138 0 0 0 0 -14.328752180355195 51.370560526098416 0 51.370560526098416 -64.404992209999818 0 0 0 0 -0.52910554395192388 -0.3389863081253246 0 -0.3389863081253246 -0.26520147161221175 0 0 0 0 4.2452834965586135 -6.3089263467536512 0 -6.3089263467536512 -50.130844917865033 0 0 0 0 -4.5098566650061684 -0.94002024417113716 0 -0.94002024417113716 -28.820334599153739 0 0 0 0 -11.517113338442186 -5.6418332668727089 0 -5.6418332668727089 -29.540604016097859 0 0 0 0 -13.951101483046955 11.954803879772044 0 11.954803879772044 -12.199455769667111 0 0 0 0 -13.788247735683058 -17.1240367273831 0 -17.1240367273831 -55.682186663978428 0 0 0 0 -2.5738317022069168 7.8121832845899917 0 7.8121832845899917 -67.212609045462159 0 0 0 0 -3.9169083859399052 10.579528290282269 0 10.579528290282269 -38.699791715696847 0 0 0 0 -4.1428496385823337 -4.4313559997472112 0 -4.4313559997472112 -44.891726114856283 0 0 0 0 -6.001355995875258 -3.8663029132349038 0 -3.8663029132349038 -30.42992530981428 0 0 0 0 -14.76490849355946 1.3961381541794253 0 1.3961381541794253 -29.994530079366996 0 0 0 0 -12.921896322427358 10.714371800145273 0 10.714371800145273 -23.653527325021059 0 0 0 0 -13.470147173908799 5.7766398509520513 0 5.7766398509520513 -19.937723269558774 0 0 0 0 -31.781768299844771 -1.4376439918860342 0 -1.4376439918860342 -22.409567927992612 0 0 0 0 -12.209672628291059 -6.5006333285837172 0 -6.5006333285837172 -26.784154949725234 0 0 0 0 -10.345629304604813 -3.2869723956846428 0 -3.2869723956846428 -30.301043773769834 0 0 0 0 -36.025124559764464 7.3051034022195154 0 7.3051034022195154 -0.98721493801531324 0 0 0 0 -36.319104726326145 5.4982858847815805 0 5.4982858847815805 -11.798368750337431 0 0 0 0 -17.064143717501679 15.596350696273475 0 15.596350696273475 -0.24196921888028555 0 0 0 0 -18.543536051886804 -11.931454704638327 0 -11.931454704638327 5.2686020914898108 0 0 0 0 -0.22159130381131131 -0.12869743584527882 0 -0.12869743584527882 -0.031789152385710118 0 0 0 0 5.5103930857426349 -5.0515936303181661 0 -5.0515936303181661 -18.692422344860461 0 0 0 0 0.83206318339864538 9.0897440308077648 0 9.0897440308077648 -7.5276691619801568 0 0 0 0 -7.8722254593620846 -9.2767432889804695 0 -9.2767432889804695 -18.329456528868832 0 0 0 0 -13.348338164977577 -5.6683539328978441 0 -5.6683539328978441 -12.941099969380957 0 0 0 0 -6.9907008137324738 -3.0328476518025127 0 -3.0328476518025127 14.330042421631561 0 0 0 0 -8.2057756537301429 0.068899683388735866 0 0.068899683388735866 10.669619855339761 0 0 0 0 -0.38790738450502538 -0.13732921036297085 0 -0.13732921036297085 0.11161074260572246 0 0 0 0 0.68791773160299385 -1.1566458547060847 0 -1.1566458547060847 3.2640774404753756 0 0 0 0 -2.9810891331178482 -0.36637341932964773 0 -0.36637341932964773 -1.0181813206072547 0 0 0 0 -6.554959963543979 -6.0746152771698689 0 -6.0746152771698689 0.74895320128143794 0 0 0 0 1.6297476472594781 3.6914586149775914 0 3.6914586149775914 -2.3685910058047739 0 0 0 0 -3.9638779118251932 -7.1454159037930367 0 -7.1454159037930367 5.82427729813935 0 0 0 0 -17.342010878541373 5.2178040714652525 0 5.2178040714652525 -0.061387961961372639 0 0 0 0 -11.66487517136828 4.2424501254611187 0 4.2424501254611187 -2.4871004452070338 0 0 0 0 -4.7586358403870577 -5.4701002820124813 0 -5.4701002820124813 -10.884252217740141 0 0 0 0 -13.212430675322821 -5.1973223037448406 0 -5.1973223037448406 -3.2990922621811478 0 0 0 0 -16.391233202417425 -8.7280051479265239 0 -8.7280051479265239 -10.98617395274195 0 0 0 0 -6.10290020711426 -13.4398392295966 0 -13.4398392295966 -21.670453610409822 0 0 0 0 -15.172837321824204 -8.9611642845657116 0 -8.9611642845657116 -15.290120370375007 0 0 0 0 -29.44204818600133 -1.8115311260667113 0 -1.8115311260667113 -3.2305676263968053 0 0 0 0 -30.859491771308285 -18.845901780708118 0 -18.845901780708118 -24.057123654554744 0 0 0 0 -27.648360008053828 -13.136097678145688 0 -13.136097678145688 -14.697102288535461 0 0 0 0 -12.622509412593445 -16.798206374358415 0 -16.798206374358415 -30.414737972482726 0 0 0 0 -5.1605771708213979 -13.499627656445227 0 -13.499627656445227 -31.760798008041093 0 0 0 0 -5.7245068221355062 -11.767047385086741 0 -11.767047385086741 -22.584061739509707 0 0 0 0 -13.244840132628951 -18.413817351507532 0 -18.413817351507532 -27.522106702316705 0 0 0 0 -46.544555011311672 11.947072196514455 0 11.947072196514455 2.0735212917334138 0 0 0 0 -19.390044627293491 11.084047040620135 0 11.084047040620135 -4.3338704615671304 0 0 0 0 -13.811766414868941 6.3731933788390052 0 6.3731933788390052 -7.0248723013883136 0 0 0 0 -42.103546227826996 -4.7887385421090585 0 -4.7887385421090585 -3.7998425593823413 0 0 0 0 -25.433159229599596 -1.5442376028222498 0 -1.5442376028222498 -7.2442785754492434 0 0 0 0 -17.975920221185447 4.6971437805632377 0 4.6971437805632377 -0.77719280972542037 0 0 0 0 -29.020170821366378 5.0805968679339912 0 5.0805968679339912 -0.1695467228146299 0 0 0 0 -24.071241532438648 6.2233909292663157 0 6.2233909292663157 3.1037893547090789 0 0 0 0 -25.639452946034453 5.9655184889779775 0 5.9655184889779775 3.3696931101849259 0 0 0 0 -17.280278204735282 0.86840407389354368 0 0.86840407389354368 -4.1711398366887806 0 0 0 0 -24.793419322370966 4.4191860620721855 0 4.4191860620721855 1.5835570043072948 0 0 0 0 -17.115826060997847 5.8391922155460634 0 5.8391922155460634 1.3344472508831586 0 0 0 0 -34.102643887008071 9.694282059807847 0 9.694282059807847 6.1190347871797712 0 0 0 0 -22.953627332351687 9.1988548956032901 0 9.1988548956032901 5.8138096784150548 0 0 0 0 -35.312114378706127 -2.4852456417187909 0 -2.4852456417187909 4.7656061610869074 0 0 0 0 -18.683175334425329 -1.4901967816108481 0 -1.4901967816108481 4.7031260677449609 0 0 0 0 -5.2562388545665613 -2.5182703329955984 0 -2.5182703329955984 -0.48302863287342035 0 0 0 0 -1.5141869406645583 4.7765785104929819 0 4.7765785104929819 -0.4291266563413032 0 0 0 0 -0.75618855291997988 0.7473346388705977 0 0.7473346388705977 -4.5833034429924737 0 0 0 0 2.7323963601934906 0.24085045605716005 0 0.24085045605716005 -4.5974812553322408 0 0 0 0 -7.7252174353667442 1.4548759275294287 0 1.4548759275294287 -1.1182414306970259 0 0 0 0 -11.973056053115698 2.833003083132553 0 2.833003083132553 -0.79755056789872469 0 0 0 0 -13.151259365243476 3.6424454506081929 0 3.6424454506081929 -2.4334522641529475 0 0 0 0 -17.332624437739412 6.2832296912372385 0 6.2832296912372385 -2.062828814767272 0 0 0 0 -5.3625609195694324 3.3961505447737181 0 3.3961505447737181 -3.8373539169151627 0 0 0 0 -0.44940614008942248 2.2621712633754214 0 2.2621712633754214 -4.8084088784580672 0 0 0 0 -2.9587793144683587 1.007042256828754 0 1.007042256828754 -3.6492708870578099 0 0 0 0 0.58671458498648121 -0.020803509834422584 0 -0.020803509834422584 -3.4345512073014106 0 0 0 0 2.92763072911265 2.2858618980392293 0 2.2858618980392293 -4.6394321419957123 0 0 0 0 -2.8685935439943933 7.2019931471277232 0 7.2019931471277232 -6.3740883725949971 0 0 0 0 -13.647694542703732 7.1249614635055423 0 7.1249614635055423 -3.6036669710665592 0 0 0 0 -0.096777215854309429 1.1151984628013274 0 1.1151984628013274 -3.0840410899877497 0 0 0 0 -1.0606344966379311 1.7075173170560447 0 1.7075173170560447 -4.1716447928374691 0 0 0 0 1.4881547509852595 5.8729455745501582 0 5.8729455745501582 -2.1486942312640167 0 0 0 0 -0.26020913456420658 1.5612463527004365 0 1.5612463527004365 -4.2144769783544689 0 0 0 0 0.13029669889562623 0.18734174135531845 0 0.18734174135531845 -0.84006847978454147 0 0 0 0 1.6756910678220081 -1.3482995707845475 0 -1.3482995707845475 -2.5190549501294299 0 0 0 0 -0.99738129229899641 -0.19601959367901145 0 -0.19601959367901145 1.980577592521513 0 0 0 0 0.22435163450978735 0.48762540068673843 0 0.48762540068673843 -1.9245804516394855 0 0 0 0 2.2122573996518895 -0.21798399875115138 0 -0.21798399875115138 -2.7822585981384691 0 0 0 0 0.22252772901372253 0.57214213001364911 0 0.57214213001364911 -2.4113824545246132 0 0 0 0 2.0994527672883123 1.4602537094106083 0 1.4602537094106083 -1.9890153609958361 0 0 0 0 0.13371994362819106 -0.19932550763717316 0 -0.19932550763717316 -0.32847141941556401 0 0 0 0 3.3397813441180233 2.4848060347940191 0 2.4848060347940191 -3.2655600239922933 0 0 0 0 3.3840888840676371 1.6810346987513185 0 1.6810346987513185 -4.7202811019787987 0 0 0 0 0.93809536284643968 -2.3921406946656134 0 -2.3921406946656134 -3.7343421348159609 0 0 0 0 0.23859605276018336 0.17600367309228382 0 0.17600367309228382 -2.1675614493108952 0 0 0 0 -0.08108956462913075 0.66185554813049663 0 0.66185554813049663 -2.5695432351120502 0 0 0 0 0.5442543165169127 0.28470671385002788 0 0.28470671385002788 -2.5211123508688615 0 0 0 0 0.55198843421885613 0.16708823179396859 0 0.16708823179396859 -2.4210197017328028 0 0 0 0 0.096488648109925634 -0.56070772593557194 0 -0.56070772593557194 -4.6292204962442156 0 0 0 0 0.39467422077308356 0.58232242350641172 0 0.58232242350641172 -2.5917539911752101 0 0 0 0 0.40715325446112427 -0.22624230574270499 0 -0.22624230574270499 -2.35229016377248 0 0 0 0 0.44567562721914555 -0.11073334400953172 0 -0.11073334400953172 -8.3927552052555257 0 0 0 0 -1.6786302159729303 2.734600473431783 0 2.734600473431783 -5.8740102766969358 0 0 0 0 0.11872146740359701 -0.1278580610567559 0 -0.1278580610567559 -0.35812412742254907 0 0 0 0 0.080271655826507526 2.2446646131281796 0 2.2446646131281796 -2.920359555108007 0 0 0 0 -0.36723281444434974 -2.4789929344456141 0 -2.4789929344456141 -2.6891444506291009 0 0 0 0 0.99661565629457982 1.879643273907277 0 1.879643273907277 -4.2089428177287118 0 0 0 0 1.5658531242114861 3.1326899887803847 0 3.1326899887803847 -3.2886459379733424 0 0 0 0 -0.076028791297048315 1.0572487635965899 0 1.0572487635965899 -3.8092823334518471 0 0 0 0 5.3915068635297985 0.73604377963965817 0 0.73604377963965817 -6.1939095126035681 0 0 0 0 0.29774103370132721 -0.22647090137349046 0 -0.22647090137349046 -3.6252896748584789 0 0 0 0 4.2149524202469593 3.9882967632329382 0 3.9882967632329382 -8.6514751171707758 0 0 0 0 -0.31115530235462763 0.22933279577895505 0 0.22933279577895505 -0.7892638906785443 0 0 0 0 1.5875372100281879 3.2723554023314136 0 3.2723554023314136 -2.6145309448947955 0 0 0 0 -0.18942258350540442 -2.8909630836624274 0 -2.8909630836624274 -3.8195890781244088 0 0 0 0 0.51248538613862138 -1.5507149519344239 0 -1.5507149519344239 -4.3117585048858018 0 0 0 0 0.53819929146976619 -1.004317817851188 0 -1.004317817851188 -2.9698885282418814 0 0 0 0 2.3324907584304526 -1.83594532718962 0 -1.83594532718962 -4.3760283917490597 0 0 0 0 4.7829292016817533 -0.011607893867676466 0 -0.011607893867676466 -4.4888952239070932 0 0 0 0 1.2452752417012221 -2.7941161611988719 0 -2.7941161611988719 -3.4575259226631943 0 0 0 0 -3.5671731784905951 -2.6547502446899216 0 -2.6547502446899216 -3.3211170878021221 0 0 0 0 -0.53343518211086405 -0.72442499298585972 0 -0.72442499298585972 -4.5788094673280284 0 0 0 0 -3.6813932292597737 -4.7550612641171597 0 -4.7550612641171597 -5.4603982777589408 0 0 0 0 -0.42676373626623221 0.34805053361024285 0 0.34805053361024285 -0.18575153324051996 0 0 0 0 -10.354480790931689 -10.944541137534543 0 -10.944541137534543 -5.1710117907878157 0 0 0 0 -0.24061166335804196 0.13241966960388751 0 0.13241966960388751 -0.05728801338155165 0 0 0 0 -4.3430341467434914 0.061089304129836819 0 0.061089304129836819 -27.328517671110603 0 0 0 0 -1.3460923722655309 -2.7365905615031352 0 -2.7365905615031352 -6.1303513386901614 0 0 0 0 -5.6398926828228468 -3.5124400878330562 0 -3.5124400878330562 -5.2051309645303263 0 0 0 0 1.20316733553517 2.4711291812627678 0 2.4711291812627678 -15.062564306755121 0 0 0 0 -23.486114998784899 15.668907339426596 0 15.668907339426596 -14.799005090886567 0 0 0 0 -11.271617035374618 12.155617230181633 0 12.155617230181633 -17.59753041499971 0 0 0 0 -18.876210719205403 16.99834502101703 0 16.99834502101703 -13.725608153750727 0 0 0 0 -12.25955551098113 10.67410205909664 0 10.67410205909664 0.67375584625006013 0 0 0 0 0.061503555896023632 0.12121730830082811 0 0.12121730830082811 -1.3936506790500829 0 0 0 0 -2.4826111759324476 1.2878443362951657 0 1.2878443362951657 8.9377439625877741 0 0 0 0 3.8037904878422921 5.8086804646136443 0 5.8086804646136443 -1.3520301216667576 0 0 0 0 -0.92168245012237549 -0.33069180217989924 0 -0.33069180217989924 -1.3905224675745558 0 0 0 0 -0.69575207914171955 0.031427253855781601 0 0.031427253855781601 -1.6138090824224491 0 0 0 0 7.1484729020541522 3.5509035585928359 0 3.5509035585928359 -4.2830623073799643 0 0 0 0 0.045622773551196205 0.26411983279461992 0 0.26411983279461992 -1.5386616286124593 0 0 0 0 -0.19026601195029968 -0.47421826795425659 0 -0.47421826795425659 -1.5592652073173667 0 0 0 0 1.3100877341726829 1.1858742794660202 0 1.1858742794660202 0.015103042995178839 0 0 0 0 8.6187062680228195 -3.6541435633757828 0 -3.6541435633757828 0.68473472934601887 0 0 0 0 0.37908692036305508 -0.27001151901141185 0 -0.27001151901141185 -2.1229220715897625 0 0 0 0 1.2628069493623144 -0.80568598209356423 0 -0.80568598209356423 -1.7463709508206193 0 0 0 0 0.22109460752958654 -0.03783576430487301 0 -0.03783576430487301 -1.6820986209004332 0 0 0 0 0.1974086693739423 -0.51988579625049169 0 -0.51988579625049169 -1.4871327611742799 0 0 0 0 0.22975008479127368 -0.48824423231758374 0 -0.48824423231758374 -1.5665802211260598 0 0 0 0 5.8985444233176452 -0.22949186882669892 0 -0.22949186882669892 -1.3398202703970128 0 0 0 0 0.14739790109087442 -0.14683364353433426 0 -0.14683364353433426 -0.70635464078103638 0 0 0 0 -0.87457306923516231 4.141275077700584 0 4.141275077700584 -12.14691581720399 0 0 0 0 -1.2809443511193255 -0.44959938445890657 0 -0.44959938445890657 -3.8864764144127548 0 0 0 0 -5.4577152475024775 8.097611208771923 0 8.097611208771923 -6.8077607560203433 0 0 0 0 -4.4659171115677267 5.5307863210973665 0 5.5307863210973665 -6.1497133444354404 0 0 0 0 -4.2569313559987165 6.821026689507562 0 6.821026689507562 -6.3159640757039597 0 0 0 0 -13.16072910066088 10.946326828833662 0 10.946326828833662 -5.3606715239475307 0 0 0 0 -8.5406314702223867 5.4035371972872781 0 5.4035371972872781 -4.4710795328792301 0 0 0 0 0.076735953939465418 3.0331965403329377 0 3.0331965403329377 -5.6999951641810185 0 0 0 0 0.075253624495464244 -0.046138919917707355 0 -0.046138919917707355 -2.1515465597937506 0 0 0 0 -4.5448135913380838 3.4753425742028412 0 3.4753425742028412 -3.5523520900096628 0 0 0 0 -0.51717661618826583 2.6272227263616514 0 2.6272227263616514 -5.6461137421811145 0 0 0 0 -4.3541779779824612 6.3421719726418928 0 6.3421719726418928 -6.9420140019683458 0 0 0 0 -4.4995727224882103 5.3077774825105735 0 5.3077774825105735 -5.2767279025865719 0 0 0 0 -4.5321178029511771 6.6659484828142013 0 6.6659484828142013 -9.0696879082424857 0 0 0 0 -12.257643994283171 8.6974728005434372 0 8.6974728005434372 -6.9987307025112386 0 0 0 0 -12.102578029632809 12.215995590433522 0 12.215995590433522 -9.9862385974265635 0 0 0 0 -8.8143374357499624 5.3693345323627 0 5.3693345323627 -6.1209458598386846 0 0 0 0 0.17723074930353144 -0.071266641056380919 0 -0.071266641056380919 -0.55632426045615802 0 0 0 0 10.938320125376549 -6.7407615806150716 0 -6.7407615806150716 -1.4490842494906246 0 0 0 0 7.7797468313795406 -3.047800099092683 0 -3.047800099092683 6.5095984786712506 0 0 0 0 0.22825906738461565 -0.01967248375049202 0 -0.01967248375049202 -1.9801035792614456 0 0 0 0 0.497553048465951 0.060048625620231277 0 0.060048625620231277 -2.0307032832951251 0 0 0 0 1.259713697147987 -0.5688270333193941 0 -0.5688270333193941 -1.8009119256666963 0 0 0 0 19.637334853895482 -11.350654329071403 0 -11.350654329071403 -2.690289801785184 0 0 0 0 0.14294565150737937 0.0048882220281925015 0 0.0048882220281925015 -0.28086209808137141 0 0 0 0 0.52584102863721349 -0.69053371948572995 0 -0.69053371948572995 -0.57901729185194029 0 0 0 0 4.8045951749882647 -6.4923799804782902 0 -6.4923799804782902 0.98103464478845126 0 0 0 0 0.53286830735211144 -0.54150362113462869 0 -0.54150362113462869 -3.5781516540562279 0 0 0 0 -9.195611831259157 14.487368118734594 0 14.487368118734594 -16.167426919288118 0 0 0 0 17.606405753380386 -10.450566915780655 0 -10.450566915780655 2.2215138678875519 0 0 0 0 -2.4125000846815396 6.3308381871561323 0 6.3308381871561323 -24.740203456509335 0 0 0 0 -3.2295205442662791 -1.7531843374963501 0 -1.7531843374963501 -12.670686455398027 0 0 0 0 -4.1504246002564287 0.12257418781518936 0 0.12257418781518936 -8.3248641472437157 0 0 0 0 16.707124018651939 -13.885874186336878 0 -13.885874186336878 -10.776727266180387 0 0 0 0 0.062127647159286425 3.7526659374743758 0 3.7526659374743758 -6.214427389215416 0 0 0 0 -5.5567661165727031 6.9997124120154695 0 6.9997124120154695 -11.582858904665045 0 0 0 0 -6.5935533427469011 5.5041687731772981 0 5.5041687731772981 -7.2509951218125934 0 0 0 0 -6.7648959447748211 6.9437942664626462 0 6.9437942664626462 -9.4004502333300479 0 0 0 0 -4.5203326845021365 8.6278552563635458 0 8.6278552563635458 -17.811402457744407 0 0 0 0 -3.4950132639038145 4.5033453512915003 0 4.5033453512915003 -12.723422476570704 0 0 0 0 -4.5659942933689308 4.730283441611391 0 4.730283441611391 -11.612690974181533 0 0 0 0 -4.675515116651848 3.2501545830426721 0 3.2501545830426721 -8.6767009319300996 0 0 0 0 -4.105938078849249 4.6812349336378247 0 4.6812349336378247 -11.889452222692853 0 0 0 0 -4.248240167528337 2.4815799640285832 0 2.4815799640285832 -6.9538386330459616 0 0 0 0 -3.9062791409871807 2.3634344458914711 0 2.3634344458914711 -5.8821243366000999 0 0 0 0 -3.6277565474808853 0.87269419724179897 0 0.87269419724179897 -8.5279720409685069 0 0 0 0 -3.2269907920988317 2.1696949559518544 0 2.1696949559518544 -10.995473741487331 0 0 0 0 -2.9567069418193341 0.6056851527755498 0 0.6056851527755498 -4.8579251272976762 0 0 0 0 -4.3920047985357655 2.2161337488942081 0 2.2161337488942081 -3.2672551915420627 0 0 0 0 -3.4945537229453976 0.74305608496433706 0 0.74305608496433706 -3.3312920182797825 0 0 0 0 0.7743543182097028 2.388721766326853 0 2.388721766326853 -6.2123378635005793 0 0 0 0 -2.2057681594230871 4.2610954821429914 0 4.2610954821429914 -7.2906299837650295 0 0 0 0 -5.5907723055887573 2.1346849095407379 0 2.1346849095407379 -6.2550862345233327 0 0 0 0 -2.1586349038170738 2.2393481924318621 0 2.2393481924318621 -6.3066148800694464 0 0 0 0 -1.9501187510400086 2.0282117915776325 0 2.0282117915776325 -11.736590336471636 0 0 0 0 -2.0160380336154731 1.245910095133695 0 1.245910095133695 -3.3233361122001952 0 0 0 0 0.91470696886301539 4.4162866543756536 0 4.4162866543756536 -5.5758333863186635 0 0 0 0 -1.9521368444106884 0.71835087719409785 0 0.71835087719409785 -1.6921542716372642 0 0 0 0 0.40973713400808265 3.8658243805002712 0 3.8658243805002712 -4.8442221755176433 0 0 0 0 0.1750459041976562 0.086420417668627181 0 0.086420417668627181 -0.53350897543636577 0 0 0 0 -0.82823184779203984 1.592004107304092 0 1.592004107304092 -6.5865826524623117 0 0 0 0 -0.91340249984321531 1.9175413235529959 0 1.9175413235529959 -3.8069582861098752 0 0 0 0 -2.207361802970695 3.7001411983164871 0 3.7001411983164871 -1.929221202921326 0 0 0 0 -2.7620869135014772 2.0749343244433476 0 2.0749343244433476 -3.4097753033820482 0 0 0 0 -1.8371374784798036 2.1904644914920937 0 2.1904644914920937 -3.508850970380081 0 0 0 0 -1.4470129351881269 0.40219645638080692 0 0.40219645638080692 -3.4227487235075387 0 0 0 0 -1.0651753550940839 0.76048992887808708 0 0.76048992887808708 -3.2099192458063044 0 0 0 0 -2.6173809195976219 1.1044018892489476 0 1.1044018892489476 -2.8312506812872016 0 0 0 0 -1.3772552426700599 0.67134098862061364 0 0.67134098862061364 -2.7586581968425889 0 0 0 0 -0.60881156232511557 0.26935047126607969 0 0.26935047126607969 -2.9771760194012131 0 0 0 0 -0.66519849962531907 -0.038347992377566698 0 -0.038347992377566698 -2.1555785358941648 0 0 0 0 -0.54248042407334651 0.072423148623784073 0 0.072423148623784073 -3.2678261528649273 0 0 0 0 -2.0519484415589773 0.37801890008040573 0 0.37801890008040573 -4.6306717818370089 0 0 0 0 -1.3033007733508839 1.1940306487558701 0 1.1940306487558701 -3.8091133494199312 0 0 0 0 -0.88216995041284463 0.48007569321271149 0 0.48007569321271149 -4.4464827840665748 0 0 0 0 61.778283651403157 -12.224688012440538 0 -12.224688012440538 -77.866063116414807 0 0 0 0 0.19777428763555974 0.13282500995539692 0 0.13282500995539692 -2.9484032665140276 0 0 0 0 2.1635720456881344 -0.94211470451273271 0 -0.94211470451273271 -3.0798384551744675 0 0 0 0 0.070740976337248185 -0.24169888351389091 0 -0.24169888351389091 -2.6797589243387847 0 0 0 0 0.11127090829788244 0.092563341646382469 0 0.092563341646382469 -2.0198719511809031 0 0 0 0 -1.163108872134103 0.75884144122301223 0 0.75884144122301223 -2.9824185128236422 0 0 0 0 -0.61532580139851234 -0.99060524024480401 0 -0.99060524024480401 -1.8330434970357601 0 0 0 0 -1.291585763359592 -0.079033478654082501 0 -0.079033478654082501 -2.0921027133772441 0 0 0 0 2.8957432281548989 -1.0604165470908811 0 -1.0604165470908811 -4.3136584846506594 0 0 0 0 44.480112898355543 -23.98037977823401 0 -23.98037977823401 2.1213394585138303 0 0 0 0 0.1214912737495745 -0.056559338447509155 0 -0.056559338447509155 -2.8220000100284608 0 0 0 0 -0.99802186637424484 0.88657562761363806 0 0.88657562761363806 -2.9832062669393054 0 0 0 0 -0.84820564501097806 0.86327648991300521 0 0.86327648991300521 -5.0827633431708819 0 0 0 0 -3.0971183385019216 0.15959254989661531 0 0.15959254989661531 -5.2092914639688388 0 0 0 0 -3.2967422386448106 3.0688334014994325 0 3.0688334014994325 -6.5914829843113694 0 0 0 0 -1.0583636503629066 1.6025455375529418 0 1.6025455375529418 -6.7608930780697847 0 0 0 0 -2.2983613799269307 4.4427398305774659 0 4.4427398305774659 -7.5075481298517843 0 0 0 0 -3.9773563231760249 3.3658385093094694 0 3.3658385093094694 -5.3224286117310839 0 0 0 0 -2.964548595633687 3.9434811646988237 0 3.9434811646988237 -9.161672419124443 0 0 0 0 21.529928713723937 -12.896927999061063 0 -12.896927999061063 -8.0468460427509854 0 0 0 0 -2.6154829186357755 1.0112988635996771 0 1.0112988635996771 -1.9688868199609715 0 0 0 0 -2.8608281065665722 2.9702153237631137 0 2.9702153237631137 -4.6862424708197068 0 0 0 0 -1.0419329680066447 4.0001886119271148 0 4.0001886119271148 -4.2439274392618245 0 0 0 0 -0.063502158524508051 0.028723090125176043 0 0.028723090125176043 -0.010646717904492675 0 0 0 0 4.1733278846715045 -4.4275928550159733 0 -4.4275928550159733 9.5217505699474714 0 0 0 0 5.4125229982426202 -6.2014222683801563 0 -6.2014222683801563 -3.644795848580543 0 0 0 0 6.3013966935330004 -9.2541708690787345 0 -9.2541708690787345 14.738060624615173 0 0 0 0 -0.23174820708594002 -1.0860739066176848 0 -1.0860739066176848 1.1664442829096515 0 0 0 0 0.60116007997330734 1.4465298830009488 0 1.4465298830009488 -0.61621976714195625 0 0 0 0 -12.228429596660522 -2.340039535149117 0 -2.340039535149117 11.96380933301225 0 0 0 0 -8.0351297483259359 21.341565289365235 0 21.341565289365235 -4.3526842119808862 0 0 0 0 1.5702431981783782 -0.7259839484031545 0 -0.7259839484031545 8.8546917892444981 0 0 0 0 2.4500445861041236 -4.7533680207543512 0 -4.7533680207543512 12.74088364214731 0 0 0 0 -43.683034503597653 -5.9031272294014343 0 -5.9031272294014343 9.1978034123421821 0 0 0 0 -11.609076381705314 -32.432259708790298 0 -32.432259708790298 16.212205223899218 0 0 0 0 -54.270199340102273 35.323723403738768 0 35.323723403738768 -14.075970167397145 0 0 0 0 -10.084058244641035 8.6382747274293479 0 8.6382747274293479 -12.51569038506932 0 0 0 0 2.2045389146527832 19.37748706691832 0 19.37748706691832 -58.905986412133643 0 0 0 0 1.5633686223979488 26.281599845180267 0 26.281599845180267 -125.69579931319095 0 0 0 0 -20.408246187789551 -41.674825223293738 0 -41.674825223293738 -85.509197849765769 0 0 0 0 10.482013468951326 -12.900967875704737 0 -12.900967875704737 -83.857804613826374 0 0 0 0 5.5785949245597628 1.9805767266507246 0 1.9805767266507246 -38.885338079806388 0 0 0 0 0.012708219205505156 8.9713254897105799 0 8.9713254897105799 -47.062321540050107 0 0 0 0 8.635419964991252 3.1695650223828125 0 3.1695650223828125 -53.670347472200774 0 0 0 0 11.908333128942914 -4.3449886368644002 0 -4.3449886368644002 -40.450806340859344 0 0 0 0 6.5827296847015475 1.5628284897520643 0 1.5628284897520643 -28.07010010677368 0 0 0 0 11.756198689402819 6.3716075832535353 0 6.3716075832535353 -52.547448619864099 0 0 0 0 10.167060348439103 8.8551789635130262 0 8.8551789635130262 -53.63356237626067 0 0 0 0 -0.03765327344294761 0.065005014266411365 0 0.065005014266411365 -0.10018382549547766 0 0 0 0 0.00073262846698013819 0.18635336023180571 0 0.18635336023180571 -1.3029711526742176 0 0 0 0 -0.10310607475412885 0.10162511333939861 0 0.10162511333939861 -0.080140911800469894 0 0 0 0 0.30402292075257864 -0.34834716912337171 0 -0.34834716912337171 -3.0578980418822539 0 0 0 0 0.34270365256127516 0.69804230344104212 0 0.69804230344104212 -0.7097642095413903 0 0 0 0 1.4859484864298547e-05 0.42473191828048584 0 0.42473191828048584 -0.25897858435109811 0 0 0 0 0.57789619939927239 0.91344131029654818 0 0.91344131029654818 0.15429410401065979 0 0 0 0 0.00084131848633431676 0.83635081606371386 0 0.83635081606371386 0.43722164840255573 0 0 0 0 0.67686474942268626 -0.39381641184979799 0 -0.39381641184979799 1.2866299671732122 0 0 0 0 6.7115011946520955 -2.8473743246868253 0 -2.8473743246868253 0.75506982196384342 0 0 0 0 15.455522161021729 0.075471285857929615 0 0.075471285857929615 -1.030399089842831 0 0 0 0 7.0048442168829634 -1.8914654298450841 0 -1.8914654298450841 3.4583501017486924 0 0 0 0 12.86659254463305 -3.2689420033948409 0 -3.2689420033948409 -0.34041890172011335 0 0 0 0 0.045737369653818243 0.028698039241678686 0 0.028698039241678686 -1.299491330380107 0 0 0 0 2.5723376226522472 0.62294473056590505 0 0.62294473056590505 0.85635156705757254 0 0 0 0 4.8455858192642651 -2.4976172293663694 0 -2.4976172293663694 0.044361584968100942 0 0 0 0 6.2613465700323419 -0.016913058562295191 0 -0.016913058562295191 0.50147159156767884 0 0 0 0 9.2705436751925809 -6.4837739360259548 0 -6.4837739360259548 -7.9932232140690758 0 0 0 0 -33.533262584297709 26.191237987246495 0 26.191237987246495 9.2793727600374041 0 0 0 0 0.0098233205777439169 0.051267905795444157 0 0.051267905795444157 -0.42786023904230319 0 0 0 0 10.579630430897787 3.5495279320675763 0 3.5495279320675763 -24.470092804748674 0 0 0 0 5.9606645129845246 2.0722695916001612 0 2.0722695916001612 -4.4668517799309484 0 0 0 0 0.0028702666137983297 3.0600739248357058 0 3.0600739248357058 -2.7182810646463622 0 0 0 0 3.0846776119054065 0.96842265571740427 0 0.96842265571740427 -1.3016303975800838 0 0 0 0 3.0402065947508534 0.54885830346847797 0 0.54885830346847797 -4.8712994968955172 0 0 0 0 12.726208068349393 -45.575587862980683 0 -45.575587862980683 -169.63641142681809 0 0 0 0 -77.721738011654963 -50.596769235577995 0 -50.596769235577995 -128.21716046533675 0 0 0 0 -8.0466071973058817 3.2778327576288575 0 3.2778327576288575 -109.00924477454646 0 0 0 0 0.019600313828908512 -18.522248453641623 0 -18.522248453641623 -135.25464625688619 0 0 0 0 -16.579555252396197 -5.4544983211590079 0 -5.4544983211590079 -145.53348489460404 0 0 0 0 -28.209203835992813 2.079102710128609 0 2.079102710128609 -144.48792856012642 0 0 0 0 -28.620362972904587 -29.608002192068852 0 -29.608002192068852 -119.63233995969858 0 0 0 0 -36.208660273534193 10.695131559734364 0 10.695131559734364 -100.54679383875289 0 0 0 0 -56.202675138097803 -12.954839224222269 0 -12.954839224222269 -120.53792354652796 0 0 0 0 8.6308799122555371 30.043026184596783 0 30.043026184596783 -88.413681845263454 0 0 0 0 -27.792379800800752 1.3713195573309349 0 1.3713195573309349 -106.37272815397046 0 0 0 0 -13.772632480787703 -31.239599236905178 0 -31.239599236905178 -77.087269152643785 0 0 0 0 -31.218440737211587 6.3647162354700413 0 6.3647162354700413 -147.4967159766129 0 0 0 0 -94.764450515006573 -10.790773096083285 0 -10.790773096083285 -100.8015822357808 0 0 0 0 -33.954069962184803 -97.023646519046451 0 -97.023646519046451 -135.20367134381922 0 0 0 0 -105.67600265186418 -84.824299805964074 0 -84.824299805964074 -34.647882019795361 0 0 0 0 -0.12078415360231712 -0.32160081067667434 0 -0.32160081067667434 -1.1782307687855536 0 0 0 0 -14.859692127675771 -77.894143435280057 0 -77.894143435280057 -42.109758646449336 0 0 0 0 -23.991252029246297 -60.748497569911706 0 -60.748497569911706 -57.621091134875314 0 0 0 0 -17.424126494395011 -92.896775064297799 0 -92.896775064297799 -38.168380882478232 0 0 0 0 -21.644413914246741 -98.105574481223812 0 -98.105574481223812 -44.532178851370645 0 0 0 0 -53.465343444027155 -40.677386053403779 0 -40.677386053403779 2.5189954006982589 0 0 0 0 35.81691909713976 -14.654789274136419 0 -14.654789274136419 -14.674114459352495 0 0 0 0 2.8583692785648935 -9.1449225064243365 0 -9.1449225064243365 4.6529981440698975 0 0 0 0 -1.0411378754211711 -7.1905103492254057 0 -7.1905103492254057 3.9592633330771605 0 0 0 0 12.304905840826223 21.279619944992874 0 21.279619944992874 -119.48570032112184 0 0 0 0 -0.020692710979022727 -12.825284633530828 0 -12.825284633530828 -22.588401008846631 0 0 0 0 21.438612236245469 20.763112659777107 0 20.763112659777107 -119.77463124536189 0 0 0 0 9.3073452373819094 -4.9259651805205067 0 -4.9259651805205067 -18.797501004317837 0 0 0 0 0.0095434307178051854 -6.0015119162617339 0 -6.0015119162617339 -2.9239709793982911 0 0 0 0 0.09333720534214443 -0.52673649623012686 0 -0.52673649623012686 -3.1206514059584762 0 0 0 0 -0.023257335961162393 -0.40137034863543875 0 -0.40137034863543875 0.039206887184384698 0 0 0 0 12.629858138903197 2.4771676317132005 0 2.4771676317132005 -5.4877064690736006 0 0 0 0 0.90341457209285636 0.010879147464947891 0 0.010879147464947891 -1.5156101808788662 0 0 0 0 3.9433820519528862 -2.1977229356589305 0 -2.1977229356589305 0.37596831716655288 0 0 0 0 0.19777952697499318 -0.0054555320798215234 0 -0.0054555320798215234 -1.2376450106224581 0 0 0 0 2.6752013943984903 -3.1451880136019099 0 -3.1451880136019099 -0.3221591381889084 0 0 0 0 2.6608108500869463 -3.5138622887734527 0 -3.5138622887734527 -0.60399370467530389 0 0 0 0 -0.00048579260672695999 -3.7012705379502222 0 -3.7012705379502222 1.6513410514799034 0 0 0 0 0.032125493765875715 0.01748291789515477 0 0.01748291789515477 -0.14294870776743629 0 0 0 0 -1.8395481310113482 -1.7529244413053675 0 -1.7529244413053675 -19.443833171601 0 0 0 0 0.95595830532628057 -2.8970051648520894 0 -2.8970051648520894 2.1438325582112157 0 0 0 0 -0.011735667497846759 0.14380804001169167 0 0.14380804001169167 -0.026121354450218348 0 0 0 0 1.843873860047422 2.5667508555807217 0 2.5667508555807217 -12.753845260558592 0 0 0 0 1.4196825400545241 -1.6891311367278377 0 -1.6891311367278377 -22.687179268486943 0 0 0 0 3.2191296556575031 -2.7685934324590562 0 -2.7685934324590562 -23.413529708144779 0 0 0 0 -5.5925511902219149 -6.8388214498718298 0 -6.8388214498718298 -15.416307730494736 0 0 0 0 3.9598736121120783 -6.4109405792833059 0 -6.4109405792833059 -40.985614846933458 0 0 0 0 0.0017449227127312463 4.3377908634072702 0 4.3377908634072702 -25.729699197581795 0 0 0 0 3.5392500488456182 -0.041302000816358486 0 -0.041302000816358486 -39.551268299505409 0 0 0 0 -0.18754485455050726 0.36259013463847012 0 0.36259013463847012 -0.86488645594129565 0 0 0 0 -17.816424962916756 67.219512508090702 0 67.219512508090702 -3.367128807145491 0 0 0 0 61.422754443098505 38.156443358948763 0 38.156443358948763 -3.8566401316747942 0 0 0 0 -14.216197157100424 -22.143328008500248 0 -22.143328008500248 -24.308519723230347 0 0 0 0 -3.5540490151460915 1.2857325613549619 0 1.2857325613549619 -9.9583788259287758 0 0 0 0 38.02965840041152 13.345885260197065 0 13.345885260197065 -10.763870115064492 0 0 0 0 0.68160448116334038 0.94490723038870783 0 0.94490723038870783 -11.02590436486571 0 0 0 0 -0.054196219000378645 1.1172950915117177 0 1.1172950915117177 -2.3205228808907918 0 0 0 0 0.27403710545921833 0.76306947084190213 0 0.76306947084190213 -1.2586524854420755 0 0 0 0 -1.9885891619818494 -0.38761430782233219 0 -0.38761430782233219 0.75117379708535736 0 0 0 0 0.82122601071729573 0.29629686614303452 0 0.29629686614303452 -0.83955731700094027 0 0 0 0 127.95791944332493 -21.836560803121756 0 -21.836560803121756 -2.2769081613078015 0 0 0 0 -3.6740769854863231 63.365583943382262 0 63.365583943382262 -9.7630546460195546 0 0 0 0 123.08620952968219 71.332955009916986 0 71.332955009916986 -18.282813719420119 0 0 0 0 2.5208238477704725 76.07621231504902 0 76.07621231504902 51.465895468099916 0 0 0 0 30.327471822522782 -0.022017303029770119 0 -0.022017303029770119 -91.162259467590047 0 0 0 0 43.288364259040193 -41.616351032378589 0 -41.616351032378589 38.844620310825803 0 0 0 0 50.371055112358562 -31.25125255241619 0 -31.25125255241619 -59.31625221510501 0 0 0 0 156.30688744572703 8.1002968787533973 0 8.1002968787533973 -61.405126136818581 0 0 0 0 0.44588448901657352 -0.085202504222452902 0 -0.085202504222452902 -2.4450570032836367 0 0 0 0 31.711145692125712 19.294825911316366 0 19.294825911316366 -1.0021941811173747 0 0 0 0 63.639231086624051 65.739184193267647 0 65.739184193267647 53.408118710342023 0 0 0 0 38.332793992365993 -12.70214901878694 0 -12.70214901878694 -26.770983706930565 0 0 0 0 51.339074985211028 12.43653829421055 0 12.43653829421055 1.390185247852969 0 0 0 0 69.417952332225369 -19.136567384365662 0 -19.136567384365662 -57.395769178361661 0 0 0 0 61.734576602892886 -38.728004737489755 0 -38.728004737489755 -81.721735426650412 0 0 0 0 22.813555354563334 -73.111502717476469 0 -73.111502717476469 -44.247537093144729 0 0 0 0 2.7882060807259705 -48.304370983874833 0 -48.304370983874833 -36.571704627371219 0 0 0 0 12.925179564025811 -94.278656028976911 0 -94.278656028976911 -85.971261767721444 0 0 0 0 11.222745341470613 -89.858303187073034 0 -89.858303187073034 -84.994389374953244 0 0 0 0 30.613024400650495 -82.055397995418389 0 -82.055397995418389 -293.41061918800915 0 0 0 0 -116.33867201447288 58.28112159156808 0 58.28112159156808 -190.67663770529543 0 0 0 0 -6.9172814191778116 -95.76091429560438 0 -95.76091429560438 -86.236575993880251 0 0 0 0 40.400122146981822 -78.530259412734267 0 -78.530259412734267 -154.89863357790455 0 0 0 0 0.25081957257378118 -0.57703142799228857 0 -0.57703142799228857 -1.7479118572184831 0 0 0 0 -28.050763542171261 85.185884885890118 0 85.185884885890118 -187.6449016024817 0 0 0 0 -98.383634154925602 -98.16966469246654 0 -98.16966469246654 -100.17362044222318 0 0 0 0 -193.44227214296527 -56.983854885338587 0 -56.983854885338587 -216.34452937048991 0 0 0 0 -13.316887407854381 -13.921692377998625 0 -13.921692377998625 -292.99395034525332 0 0 0 0 -0.09181863741792673 0.095770404519811336 0 0.095770404519811336 -0.77312181745554653 0 0 0 0 -180.37064349078184 79.041889707761584 0 79.041889707761584 -37.756798451573559 0 0 0 0 -25.445621939490749 -38.561251832838025 0 -38.561251832838025 -51.932187177790183 0 0 0 0 -20.723083251831589 -33.609954138816249 0 -33.609954138816249 -177.78739989318274 0 0 0 0 -22.314342324960215 15.389235791770318 0 15.389235791770318 -212.37510378018487 0 0 0 0 -220.35189558424975 -14.010019518318131 0 -14.010019518318131 -171.5583962370838 0 0 0 0 -4.2043631973564857 -35.09231879620711 0 -35.09231879620711 -171.89044269928127 0 0 0 0 -15.262076567319511 -39.379853833944253 0 -39.379853833944253 -90.440110224975797 0 0 0 0 19.378768816751233 -22.825135762243008 0 -22.825135762243008 -175.29331950924097 0 0 0 0 -14.084876864194825 2.8157596612818452 0 2.8157596612818452 -76.150947783617084 0 0 0 0 -9.4763798551848879 0.4073582446162618 0 0.4073582446162618 -178.18350958238807 0 0 0 0 -108.62055210345918 46.697599728586283 0 46.697599728586283 -181.83932697834871 0 0 0 0 -153.0425304880842 87.825119365035789 0 87.825119365035789 -91.546968165086582 0 0 0 0 -109.24909552919812 48.953612914815494 0 48.953612914815494 -60.841190651997749 0 0 0 0 -60.253051051482174 39.526200854921626 0 39.526200854921626 6.2610052656909829 0 0 0 0 -67.42392376069887 63.724763908723617 0 63.724763908723617 -72.599396609366522 0 0 0 0 -60.324241884356468 75.673628249580361 0 75.673628249580361 1.1377364509608014 0 0 0 0 4.0884809657088885 52.482395432064095 0 52.482395432064095 -31.314266340235918 0 0 0 0 -24.701279232010251 87.508445652592854 0 87.508445652592854 -13.490008872819089 0 0 0 0 -30.925769316695238 60.303257209272488 0 60.303257209272488 -19.17617059623899 0 0 0 0 -0.11202841931059015 0.063892045606682046 0 0.063892045606682046 -0.35352547563239156 0 0 0 0 -161.03396046358631 55.823112258874971 0 55.823112258874971 -20.724375870842778 0 0 0 0 -73.343042958475678 35.8999176147463 0 35.8999176147463 -26.204408072993829 0 0 0 0 -160.38569738200221 59.535621873188575 0 59.535621873188575 -4.2535949163757323 0 0 0 0 -122.52096481227261 38.561597574316693 0 38.561597574316693 -22.893181671272032 0 0 0 0 -44.656432208544274 -13.858836404573594 0 -13.858836404573594 33.304348830370145 0 0 0 0 -0.32060233621637607 -0.10073862762130759 0 -0.10073862762130759 -0.5103774195745725 0 0 0 0 -0.19536033106726336 0.094644371051799681 0 0.094644371051799681 -1.9154511268770875 0 0 0 0 17.340758277795658 18.856060149189943 0 18.856060149189943 -52.028672517630184 0 0 0 0 0.52437823965608743 -0.35334275551531391 0 -0.35334275551531391 -2.3492112866442767 0 0 0 0 0.20301401567218136 0.077043591138135525 0 0.077043591138135525 -2.1914140638655226 0 0 0 0 -0.051451089304720199 -0.31231901902856407 0 -0.31231901902856407 -2.1937309982640727 0 0 0 0 -32.69147463972655 0.40805036384017512 0 0.40805036384017512 -2.2695302814827301 0 0 0 0 0.12196445459892614 0.36588458417353342 0 0.36588458417353342 -2.2843518794814059 0 0 0 0 -14.123548218231548 62.68460107339979 0 62.68460107339979 -23.100494498092303 0 0 0 0 -33.456864140473122 66.285587953108845 0 66.285587953108845 2.0682079497200903 0 0 0 0 -0.81513578468485548 0.37867166632463523 0 0.37867166632463523 -2.0607230233035807 0 0 0 0 -1.2822540340498847 0.30758904500225981 0 0.30758904500225981 -2.0697403552694595 0 0 0 0 -0.87624414685254237 -0.1719755359777082 0 -0.1719755359777082 -2.3759482596615271 0 0 0 0 -0.51027981882771201 0.039156446779088583 0 0.039156446779088583 -2.3175553159417177 0 0 0 0 -0.52325826163587408 -0.055033570772138773 0 -0.055033570772138773 -2.0081380041374359 0 0 0 0 -0.55444337504127361 -0.13484852421061078 0 -0.13484852421061078 -2.0679716958293284 0 0 0 0 -0.53552641291474856 -0.048479436505658668 0 -0.048479436505658668 -1.850267237809021 0 0 0 0 -0.44464747482689759 -0.4138206812198959 0 -0.4138206812198959 -0.62929497741260576 0 0 0 0 -6.4204715706328557 -24.101550531366229 0 -24.101550531366229 -22.088228023041665 0 0 0 0 -0.38594047958002875 -0.16761336767558532 0 -0.16761336767558532 -1.9716465421370231 0 0 0 0 -0.4585069128436885 -0.01414070446662663 0 -0.01414070446662663 -1.9784725517656625 0 0 0 0 -0.89780655695677525 -0.79412523135589197 0 -0.79412523135589197 -0.6181093271632605 0 0 0 0 0.023283480245171573 0.43207060102809258 0 0.43207060102809258 -2.114831866824133 0 0 0 0 -0.32049276995263654 0.25524751641091825 0 0.25524751641091825 -2.0578790714716888 0 0 0 0 3.9474740282100811 -1.6965863501309286 0 -1.6965863501309286 -2.7610610520916907 0 0 0 0 6.1250524952731098 -6.0640106064438442 0 -6.0640106064438442 -159.79921362254572 0 0 0 0 3.2187517680985707 3.5353633454160445 0 3.5353633454160445 -174.35894456214191 0 0 0 0 -4.6959212044003493 -24.163558943426324 0 -24.163558943426324 -188.13275749859167 0 0 0 0 -0.21014062326870286 -0.20194372318853482 0 -0.20194372318853482 -0.43725065106112027 0 0 0 0 17.89707200127782 2.1289791495837562 0 2.1289791495837562 -175.79084590646926 0 0 0 0 8.4627853983097339 4.9872356596961254 0 4.9872356596961254 -153.74113883726022 0 0 0 0 37.224546393678125 -19.624015708491243 0 -19.624015708491243 -117.35620957722858 0 0 0 0 10.181041110918898 -33.143216243826828 0 -33.143216243826828 -114.14195247228781 0 0 0 0 18.87568287578739 -43.057908846254577 0 -43.057908846254577 -154.06055530040339 0 0 0 0 13.087387875344007 63.402282840404951 0 63.402282840404951 -99.439124705702852 0 0 0 0 5.6980742645646387 -9.7291567661395675 0 -9.7291567661395675 -169.22366300208978 0 0 0 0 -10.661859011327635 -9.8223904891783604 0 -9.8223904891783604 -168.46642320077444 0 0 0 0 27.787352692813101 -11.532788525544674 0 -11.532788525544674 -179.70550445500521 0 0 0 0 31.989301562415008 -24.977475296233024 0 -24.977475296233024 -188.24566304651671 0 0 0 0 12.031590338339214 36.4826031261764 0 36.4826031261764 -201.54798332371865 0 0 0 0 28.97017419455463 -21.447339290822129 0 -21.447339290822129 -256.73307823206414 0 0 0 0 21.778451505779458 -3.9442065262082906 0 -3.9442065262082906 -188.34724477654527 0 0 0 0 24.4965816983092 5.1383793321665507 0 5.1383793321665507 -159.00545738906658 0 0 0 0 21.038151503394715 20.015039511705254 0 20.015039511705254 -150.75983003459123 0 0 0 0 8.3574611460712731 22.245885309777805 0 22.245885309777805 -151.15216060223975 0 0 0 0 20.783096792830293 5.7410212355334806 0 5.7410212355334806 -154.1045127958555 0 0 0 0 17.67435866841771 38.417525426477368 0 38.417525426477368 -119.44675401619406 0 0 0 0 9.300037129892246 2.9016062528335169 0 2.9016062528335169 -137.03327766375151 0 0 0 0 20.003362392791587 27.269668286096021 0 27.269668286096021 -53.202089350952519 0 0 0 0 1.2654095978801081 30.232209528474186 0 30.232209528474186 -78.641128818622747 0 0 0 0 16.328161710965404 3.9304385721588915 0 3.9304385721588915 -81.943115928730549 0 0 0 0 21.412139896910958 -30.835514753443931 0 -30.835514753443931 9.6321134062163765 0 0 0 0 -4.1339042883976731 28.611685469551048 0 28.611685469551048 -14.059350701561925 0 0 0 0 1.983307182329674 0.89168477913064592 0 0.89168477913064592 -0.48882387456968246 0 0 0 0 -0.67476523144661382 -2.2481046460935721 0 -2.2481046460935721 -4.3263765509818342 0 0 0 0 17.01591825119101 -0.97240533826698083 0 -0.97240533826698083 -18.662041302606667 0 0 0 0 -39.452012005280373 61.969586524579427 0 61.969586524579427 -35.1038368015179 0 0 0 0 2.4787180952882597 -19.258773826527204 0 -19.258773826527204 -13.245327120408547 0 0 0 0 0.65205032749162783 0.15182060568404054 0 0.15182060568404054 -0.84177043944613317 0 0 0 0 -7.7359336957038707 -123.93389686705541 0 -123.93389686705541 -49.418082576967208 0 0 0 0 -11.17444061577725 -106.26903826159923 0 -106.26903826159923 71.871732803449049 0 0 0 0 -15.201950724295038 -101.46271144271964 0 -101.46271144271964 -5.3646930830036581 0 0 0 0 5.5221548433177787 -57.76644260007015 0 -57.76644260007015 -22.247228320219619 0 0 0 0 22.405786645352453 -70.989296078750613 0 -70.989296078750613 -37.800313485500737 0 0 0 0 56.464098169417554 -23.105626657230459 0 -23.105626657230459 16.48934433856266 0 0 0 0 106.22797054040845 -74.625683217710048 0 -74.625683217710048 -13.048003673593485 0 0 0 0 37.005608873277808 -33.783553893161752 0 -33.783553893161752 25.080098673417524 0 0 0 0 11.760251970323424 -23.508609967643679 0 -23.508609967643679 -12.968711597267884 0 0 0 0 12.287183248144089 -23.633855864321959 0 -23.633855864321959 -86.199617280804887 0 0 0 0 43.766271155437281 -30.932615856765779 0 -30.932615856765779 -51.114763822311943 0 0 0 0 19.192969755812555 4.6767073961291317 0 4.6767073961291317 -78.543814713460961 0 0 0 0 42.760406852010647 33.216404047980177 0 33.216404047980177 -44.229865091888996 0 0 0 0 36.770127015548923 -29.632986663197698 0 -29.632986663197698 -12.439502325078138 0 0 0 0 -0.64252037420020658 -1.7383595663062756 0 -1.7383595663062756 -3.9898742425527516 0 0 0 0 30.774779290247096 -15.71448314514214 0 -15.71448314514214 -20.013651748287884 0 0 0 0 114.45048179153511 -16.304872094086932 0 -16.304872094086932 -29.236862117966666 0 0 0 0 13.55203328805375 17.791625107111713 0 17.791625107111713 3.0262447626937501 0 0 0 0 -15.153170435310017 -3.8091821441885259 0 -3.8091821441885259 -3.7740524588275548 0 0 0 0 7.5219835038458882 17.638330395689991 0 17.638330395689991 -24.813822234114923 0 0 0 0 0.7497740071502792 0.30297980052668905 0 0.30297980052668905 0.1315410139909261 0 0 0 0 -4.4189050361629256 -2.2156119380274504 0 -2.2156119380274504 14.941797237646824 0 0 0 0 12.534998030252609 -36.505743065537445 0 -36.505743065537445 30.754114672468859 0 0 0 0 19.65439278569221 -9.9123023060969899 0 -9.9123023060969899 -88.517765401391443 0 0 0 0 0.18811343732092767 0.058059806328934371 0 0.058059806328934371 -0.0026265629559922843 0 0 0 0 -16.578673782021156 -20.096030418837927 0 -20.096030418837927 -77.456786540625217 0 0 0 0 7.7431095129116159 -33.797862156089195 0 -33.797862156089195 -114.56023186918173 0 0 0 0 7.7952145030738791 -28.047852461711955 0 -28.047852461711955 -38.539578951084877 0 0 0 0 -19.425554656606096 -24.513777563311123 0 -24.513777563311123 -79.447598674512847 0 0 0 0 -3.2149603231565038 16.765244636872012 0 16.765244636872012 -78.090599987848236 0 0 0 0 -3.9969623103100886 7.3171712065686734 0 7.3171712065686734 -36.971012216501549 0 0 0 0 -9.8250795133107118 28.92730203749943 0 28.92730203749943 -90.888829109022481 0 0 0 0 -41.026974522727897 43.923155453014715 0 43.923155453014715 -51.536616342100388 0 0 0 0 -26.974119982052617 30.441627236948989 0 30.441627236948989 -39.861779666876828 0 0 0 0 -25.64285233379178 25.816118112675213 0 25.816118112675213 -72.215803711120316 0 0 0 0 4.9547341003295742 17.230973073689483 0 17.230973073689483 -80.013867225776266 0 0 0 0 -10.31228917062748 38.131103243388225 0 38.131103243388225 -62.469835807879463 0 0 0 0 25.487894650993951 7.3184235938460915 0 7.3184235938460915 -47.254046447635119 0 0 0 0 -6.8634956603583532 20.072596562629769 0 20.072596562629769 -35.99085494488827 0 0 0 0 17.285285460838338 -0.99447393373338855 0 -0.99447393373338855 -55.485726749127025 0 0 0 0 -1.5126386185779097 -1.2181510132522817 0 -1.2181510132522817 -114.95384943831959 0 0 0 0 12.21797585548822 18.992237937502068 0 18.992237937502068 -144.8576435178984 0 0 0 0 -10.808060275700939 30.493258520516974 0 30.493258520516974 -82.304614784973637 0 0 0 0 -6.0175262991497789 14.589744297469224 0 14.589744297469224 -119.2838677666241 0 0 0 0 -30.658367332755063 -17.265578744708364 0 -17.265578744708364 -119.04638537636492 0 0 0 0 -0.2872414271919439 -0.23602703083152932 0 -0.23602703083152932 -0.22041560075044053 0 0 0 0 11.911177901861208 15.435495982198518 0 15.435495982198518 -229.07503467209608 0 0 0 0 -2.9061163014594626 9.2823608851067547 0 9.2823608851067547 -148.3003431576858 0 0 0 0 7.9786066540416414 0.56595101616312604 0 0.56595101616312604 -166.50650369446885 0 0 0 0 4.1356596835005348 -1.9588540411637041 0 -1.9588540411637041 -12.43115524516179 0 0 0 0 -13.561370328142829 -23.438224552376141 0 -23.438224552376141 -24.040771967253022 0 0 0 0 -6.4958127511267776 -7.5794625187645579 0 -7.5794625187645579 11.06750050090659 0 0 0 0 0.99494484820588625 2.6963139571713555 0 2.6963139571713555 -25.06111772397162 0 0 0 0 0.65615319997602484 3.7647233665128965 0 3.7647233665128965 -1.2629814258471015 0 0 0 0 11.988982008274661 3.8584390374162467 0 3.8584390374162467 -12.57755695144624 0 0 0 0 3.6132893751686197 -6.9372130470692355 0 -6.9372130470692355 2.182819655163712 0 0 0 0 -0.36848278910678389 -0.53654725510483914 0 -0.53654725510483914 -0.46529721922191669 0 0 0 0 -6.7371169485351174 10.214939707413578 0 10.214939707413578 -2.4939730088485703 0 0 0 0 -5.8435662227151397 -10.865088034944165 0 -10.865088034944165 -7.9273648247099118 0 0 0 0 14.635627820285322 -14.47867448659963 0 -14.47867448659963 -113.23229277635983 0 0 0 0 10.903641377912095 -22.054701110999304 0 -22.054701110999304 -103.83242944796984 0 0 0 0 15.975520860788265 34.981145925799865 0 34.981145925799865 -33.454146795977522 0 0 0 0 37.546434081824287 13.477692473911475 0 13.477692473911475 -198.31610002089292 0 0 0 0 11.482948148242706 -51.94180667345006 0 -51.94180667345006 -127.98158801744648 0 0 0 0 5.7666249723642977 -19.46260393425564 0 -19.46260393425564 -105.13123952577735 0 0 0 0 -45.923385604663167 -67.61579943110155 0 -67.61579943110155 -37.448318669103628 0 0 0 0 1.7330420224743364 -12.406353106941424 0 -12.406353106941424 -90.573245128858616 0 0 0 0 -7.2927531315528427 2.3467288713536618 0 2.3467288713536618 -113.33635757733126 0 0 0 0 -14.768153986801963 17.256344487144816 0 17.256344487144816 -67.986811801942167 0 0 0 0 -17.640171045060299 3.8634755068014783 0 3.8634755068014783 -95.586526036702708 0 0 0 0 -29.2509130520898 0.29292412783115651 0 0.29292412783115651 -53.327092606794395 0 0 0 0 -42.800835757372454 -12.292959958776919 0 -12.292959958776919 -47.65053181026326 0 0 0 0 -15.418534626383718 26.205696333547166 0 26.205696333547166 27.481520905181242 0 0 0 0 -48.289391157613437 -10.890763069685818 0 -10.890763069685818 2.5439378771880001 0 0 0 0 -0.43905770002992583 -1.3874298105284009 0 -1.3874298105284009 -3.117474495039616 0 0 0 0 37.882557596549105 -62.523235567844495 0 -62.523235567844495 32.201794804670499 0 0 0 0 -0.25761865305178533 -0.52710053912881349 0 -0.52710053912881349 -1.2994694677526581 0 0 0 0 -41.166636838951263 51.826506067574883 0 51.826506067574883 -182.9268252923539 0 0 0 0 -44.829321776549932 48.785784565178801 0 48.785784565178801 -32.944022572050017 0 0 0 0 -39.953670477056392 61.782952166278392 0 61.782952166278392 -122.87565976581755 0 0 0 0 -12.528145475467909 9.3581062013436167 0 9.3581062013436167 -214.03021637277925 0 0 0 0 -80.045159616870933 -71.803912524113912 0 -71.803912524113912 -15.896303270866156 0 0 0 0 -7.3546283342700463 -94.600002916055018 0 -94.600002916055018 -177.69619826945564 0 0 0 0 -59.991386595211196 -103.74805473868491 0 -103.74805473868491 -121.50279942452653 0 0 0 0 -142.05674115691841 -83.35020956858898 0 -83.35020956858898 -190.57388856272519 0 0 0 0 -83.0866766471961 -20.613500619047045 0 -20.613500619047045 -4.9256624148624724 0 0 0 0 -0.2645056838820381 -0.33012242991638274 0 -0.33012242991638274 -0.46225490949674253 0 0 0 0 -34.694981098323069 -75.290595341808512 0 -75.290595341808512 -203.35314520086627 0 0 0 0 -7.7807599081595527 30.236618939484515 0 30.236618939484515 -125.81752320083615 0 0 0 0 -31.180128563637311 -57.553020974510446 0 -57.553020974510446 -124.37660056731329 0 0 0 0 -112.85811979754573 -69.911904269897605 0 -69.911904269897605 -46.001490117087087 0 0 0 0 -62.232883420824862 -14.86745720529575 0 -14.86745720529575 -11.098086965856055 0 0 0 0 -43.396564854650023 -12.923843327804207 0 -12.923843327804207 -17.551449324479108 0 0 0 0 -53.005953343081131 -42.560169349114631 0 -42.560169349114631 -48.36548514934475 0 0 0 0 -56.087233031658116 -27.240461809431508 0 -27.240461809431508 -40.462175028816091 0 0 0 0 -8.440339480948694 21.835107425444221 0 21.835107425444221 -5.0955735509742226 0 0 0 0 -67.028173717143318 11.34313570501763 0 11.34313570501763 7.3487824613575867 0 0 0 0 -11.392954438785239 -21.567979411247052 0 -21.567979411247052 -54.112382718540175 0 0 0 0 -3.5671773129515714 -13.646581898201475 0 -13.646581898201475 -46.421956146742559 0 0 0 0 -11.456080295545007 -21.749355379875851 0 -21.749355379875851 -41.916915316134691 0 0 0 0 -17.553554260017791 -17.820232397294603 0 -17.820232397294603 -30.075568757098154 0 0 0 0 -24.595314184309132 -28.711712571847784 0 -28.711712571847784 -46.665823672106853 0 0 0 0 -35.134231623434061 -21.001151084403318 0 -21.001151084403318 -22.620645283695012 0 0 0 0 -13.561683538368015 -17.164615310864974 0 -17.164615310864974 -54.751785205747183 0 0 0 0 -2.7984140084195133 -17.870595008879718 0 -17.870595008879718 -89.816026367125232 0 0 0 0 -20.023589795046178 -27.102317657656386 0 -27.102317657656386 -77.550945957499607 0 0 0 0 -20.056627091682913 -25.095622169689705 0 -25.095622169689705 -63.673827545007953 0 0 0 0 1.7792239891764439 -6.6273544948467134 0 -6.6273544948467134 -55.876216897260747 0 0 0 0 2.4592181319592328 -5.5096839947827903 0 -5.5096839947827903 -63.298739517096692 0 0 0 0 0.38094007324605172 11.403334758853362 0 11.403334758853362 -56.66697742767974 0 0 0 0 -4.1740874565270474 9.4596612017853658 0 9.4596612017853658 -46.571803739054303 0 0 0 0 -4.0700983303119074 16.423450553842486 0 16.423450553842486 -101.40738599142242 0 0 0 0 -3.2343304753273969 21.12405715146997 0 21.12405715146997 -77.771535625411843 0 0 0 0 -16.920985596097637 9.6232266857750801 0 9.6232266857750801 -18.599862879869534 0 0 0 0 -21.119747844368874 19.351362927259288 0 19.351362927259288 -18.885434965459353 0 0 0 0 -7.4637420545600435 20.070539055235713 0 20.070539055235713 -45.963825391051842 0 0 0 0 -6.1018051271230433 14.445809816915244 0 14.445809816915244 -26.232099369995922 0 0 0 0 -11.495752900690832 11.910496928618613 0 11.910496928618613 -14.495661394901617 0 0 0 0 -5.6457898372980253 5.2271223762327281 0 5.2271223762327281 -7.8698386185606068 0 0 0 0 100.28826541666081 -154.28487877486168 0 -154.28487877486168 23.666293345431768 0 0 0 0 0.030569370502909532 -1.3837124004014267 0 -1.3837124004014267 -3.9407686165334184 0 0 0 0 -9.1229302079190973 5.3185712828233136 0 5.3185712828233136 -11.015812431005543 0 0 0 0 -72.702934351063419 35.858390098545897 0 35.858390098545897 75.177945312591419 0 0 0 0 -48.792823290207224 55.28441385259157 0 55.28441385259157 9.4341674361487549 0 0 0 0 -39.86243458898339 40.628997767465535 0 40.628997767465535 -52.113753578276373 0 0 0 0 -54.828282860040417 83.067967045649311 0 83.067967045649311 -91.502945316983642 0 0 0 0 -57.833577794644128 41.96085598935133 0 41.96085598935133 -52.983486321026248 0 0 0 0 -27.290712870554756 39.751697212371255 0 39.751697212371255 -55.57421823916593 0 0 0 0 -102.11850507909728 192.67669738031782 0 192.67669738031782 -317.70852563304288 0 0 0 0 -4.5446903585573217 31.128924497199478 0 31.128924497199478 -201.65640476388216 0 0 0 0 -36.722284262723917 -64.442175454939388 0 -64.442175454939388 -130.09635954466694 0 0 0 0 -1.4147892438524297 2.0636994903658969 0 2.0636994903658969 -2.8995359413674642 0 0 0 0 -46.868301778840873 -119.44348510548389 0 -119.44348510548389 -326.46401897755061 0 0 0 0 -48.765132257200435 242.56577261476468 0 242.56577261476468 96.68329044058919 0 0 0 0 -81.474625572462642 167.33251887382494 0 167.33251887382494 -68.36577092897187 0 0 0 0 24.238007834177324 61.935153255512887 0 61.935153255512887 17.506191955203576 0 0 0 0 183.64929806840479 -41.487494319630969 0 -41.487494319630969 -200.75622323359312 0 0 0 0 1.3261606620944941 -0.15921299737570926 0 -0.15921299737570926 -3.0786211261036627 0 0 0 0 -2.710355660256937 4.1278498429637693 0 4.1278498429637693 -8.4046322427930136 0 0 0 0 -218.58500589257349 -65.681991984688466 0 -65.681991984688466 80.191950448454463 0 0 0 0 -209.61275074989308 145.88276038821414 0 145.88276038821414 -127.49396521969447 0 0 0 0 -13.580773853138545 9.0582958999162884 0 9.0582958999162884 -69.092667619532222 0 0 0 0 -26.466112265147018 91.667010934987957 0 91.667010934987957 -282.92503866538846 0 0 0 0 -2.3175925102503285 0.33636924788257438 0 0.33636924788257438 -0.088345608914808693 0 0 0 0 -12.218728464625656 56.944023052412376 0 56.944023052412376 17.104981384896746 0 0 0 0 -220.17882432272597 251.09268594537741 0 251.09268594537741 -53.289588169391209 0 0 0 0 -162.35173371474113 -6.9015835760610571 0 -6.9015835760610571 50.96010487750209 0 0 0 0 14.227319072433033 39.830291268279325 0 39.830291268279325 136.5094848660093 0 0 0 0 -2.2667576326089587 5.0481822682504678 0 5.0481822682504678 -8.3240882112749404 0 0 0 0 228.06289788487328 271.76087023325886 0 271.76087023325886 1.1904980391773279 0 0 0 0 34.486268160306835 86.519940604106921 0 86.519940604106921 77.795956626236148 0 0 0 0 67.308762821562084 -57.409458250862372 0 -57.409458250862372 -109.19035852731895 0 0 0 0 126.19673795063909 -4.142365190640021 0 -4.142365190640021 -67.444016369258861 0 0 0 0 -37.820649361682243 -30.871684669367596 0 -30.871684669367596 -86.321677207886751 0 0 0 0 20.983797010925258 70.749521642918353 0 70.749521642918353 -96.472363325304286 0 0 0 0 -67.134050988073753 28.338620419297285 0 28.338620419297285 -196.55620590787839 0 0 0 0 -194.30255612874009 1.534776842850988 0 1.534776842850988 -28.885820215421518 0 0 0 0 -88.20559078615517 108.73073675282353 0 108.73073675282353 -103.12005276258606 0 0 0 0 -97.058797286862841 84.487215387525339 0 84.487215387525339 -103.52263880522605 0 0 0 0 -38.390108151374974 88.218526692984597 0 88.218526692984597 -104.35311688208799 0 0 0 0 -56.948910075550977 82.758366427847704 0 82.758366427847704 -136.62679647205732 0 0 0 0 -75.761346195047764 127.58694713888963 0 127.58694713888963 -129.53385796705697 0 0 0 0 31.477301694476182 114.24389550479009 0 114.24389550479009 -141.89035569059433 0 0 0 0 12.161038318012501 27.07942452563816 0 27.07942452563816 17.437093868180455 0 0 0 0 0.22803954957564124 -0.50457003466466199 0 -0.50457003466466199 -3.2591388027040722 0 0 0 0 223.17749770236892 -9.7428644444717065 0 -9.7428644444717065 -124.38462134423844 0 0 0 0 -8.5237819902859506 119.63793987361146 0 119.63793987361146 -129.12497231274756 0 0 0 0 -49.184758846003874 -27.904922942122084 0 -27.904922942122084 -60.033143727268225 0 0 0 0 -51.344752268184322 12.357839971453814 0 12.357839971453814 -233.29013345067506 0 0 0 0 58.527404538047207 76.87975256122445 0 76.87975256122445 -38.282562780718763 0 0 0 0 -5.8001931595930767 -225.51411026551204 0 -225.51411026551204 -93.764426671469437 0 0 0 0 123.7423940171404 113.63483122471371 0 113.63483122471371 -337.73721112893691 0 0 0 0 0.071816790862746283 -0.44210354959210907 0 -0.44210354959210907 -1.7807405500566418 0 0 0 0 -8.9566066070327732 -86.943959488107794 0 -86.943959488107794 -196.60523551586084 0 0 0 0 58.019311746581735 -144.73737168896446 0 -144.73737168896446 -498.94843701286209 0 0 0 0 75.32736344401799 113.09753406047412 0 113.09753406047412 -661.25930981015972 0 0 0 0 -33.906971829146961 130.74583769440551 0 130.74583769440551 -500.33407802594411 0 0 0 0 0.79777971756504895 -0.79235421458832533 0 -0.79235421458832533 -1.2086085412711576 0 0 0 0 196.25961163457305 -29.333934147280161 0 -29.333934147280161 -499.18412262003392 0 0 0 0 142.75832481082099 -58.288029108320188 0 -58.288029108320188 8.5238693046367189 0 0 0 0 131.4624563526919 -54.157911932737079 0 -54.157911932737079 12.934235410275051 0 0 0 0 35.93168920182444 -41.489066087361607 0 -41.489066087361607 42.387045808611219 0 0 0 0 99.31447582823094 -110.48752229858428 0 -110.48752229858428 96.58459387952189 0 0 0 0 72.661521714095031 -90.254094989103123 0 -90.254094989103123 -3.1951589397322095 0 0 0 0 74.225827665512384 -52.957553112094502 0 -52.957553112094502 -57.608992398162627 0 0 0 0 93.598814298906603 -30.242761406989302 0 -30.242761406989302 2.6269953882465416 0 0 0 0 0.11752441196971938 -0.041668173379039608 0 -0.041668173379039608 -1.4892363409015204 0 0 0 0 25.252925267336053 -96.146260475421172 0 -96.146260475421172 -33.272031887901903 0 0 0 0 106.07265591351614 -41.681305626906351 0 -41.681305626906351 -54.617854362091748 0 0 0 0 107.63172278303142 -63.125434760352164 0 -63.125434760352164 -196.12363678645897 0 0 0 0 89.208428097143951 -24.833341875320457 0 -24.833341875320457 -48.181607940427966 0 0 0 0 70.884832229920107 -24.924924562491924 0 -24.924924562491924 -38.556169332198806 0 0 0 0 55.688402593063699 10.633964698106638 0 10.633964698106638 -16.146095886813782 0 0 0 0 7.79995828321114 6.0680266074862175 0 6.0680266074862175 -13.196612232784901 0 0 0 0 34.313932211439806 -27.962487015406623 0 -27.962487015406623 -4.0665357416291954 0 0 0 0 73.566593391141282 -39.281513865428678 0 -39.281513865428678 -29.277417132985647 0 0 0 0 37.499597213878353 -33.994505998831528 0 -33.994505998831528 -0.3385478796726602 0 0 0 0 1.7831391761225974 -2.1597228396760464 0 -2.1597228396760464 -1.9842863649511884 0 0 0 0 7.4722978845246644 15.998525797123875 0 15.998525797123875 -354.34072647289941 0 0 0 0 51.046484495921312 29.065399051165059 0 29.065399051165059 -438.02203855882181 0 0 0 0 48.468443078951083 70.022618121839969 0 70.022618121839969 -499.73169166845491 0 0 0 0 -3.0482640472286624 71.333520928927101 0 71.333520928927101 -392.25737064087207 0 0 0 0 52.553745591511323 -88.643554814409981 0 -88.643554814409981 -500.08307056313424 0 0 0 0 -24.81881904782345 -115.97563253824728 0 -115.97563253824728 -209.29300281609721 0 0 0 0 50.98549559215121 8.1706592817113233 0 8.1706592817113233 -263.93908482012921 0 0 0 0 -24.942842470821262 -56.186356588836134 0 -56.186356588836134 -174.63859540424801 0 0 0 0 -1.0030230686149466 2.7271800686149614 0 2.7271800686149614 -6.5494282747366555 0 0 0 0 -5.5932029184384149 -13.332314078046579 0 -13.332314078046579 -188.86502608531373 0 0 0 0 102.97885741079733 45.216193564781861 0 45.216193564781861 -1.5750200356196729 0 0 0 0 37.218122342582092 53.704096330044194 0 53.704096330044194 78.412463653073246 0 0 0 0 0.13495770062162071 0.89713545809375717 0 0.89713545809375717 -3.9083167858267274 0 0 0 0 1.8665050196495234 -1.7194540725199996 0 -1.7194540725199996 -4.3904182308718394 0 0 0 0 14.14578031303904 8.1865449630222429 0 8.1865449630222429 -22.393152827582526 0 0 0 0 14.751368930947933 2.2640100932867426 0 2.2640100932867426 -19.281922430943723 0 0 0 0 -2.5121682248168193 6.7254090010939986 0 6.7254090010939986 -12.285975929125758 0 0 0 0 15.243336627573854 -3.614408146925598 0 -3.614408146925598 -9.6935086350074471 0 0 0 0 35.747287484882804 67.364210149646169 0 67.364210149646169 31.644013389730389 0 0 0 0 19.026441028784234 70.764458272730735 0 70.764458272730735 31.389712691489876 0 0 0 0 61.546522311514082 52.397316609332847 0 52.397316609332847 31.918830814644025 0 0 0 0 -21.677844620846656 41.277598396987742 0 41.277598396987742 33.601743332252227 0 0 0 0 -0.38573538166912158 17.05148395215565 0 17.05148395215565 1.5613499878159018 0 0 0 0 14.689894866292889 39.977273760546268 0 39.977273760546268 -96.430496437045804 0 0 0 0 -90.10878440153914 38.670389148570393 0 38.670389148570393 -91.837170169947058 0 0 0 0 28.473603831963089 -16.299006189140528 0 -16.299006189140528 -52.010605972449639 0 0 0 0 58.455904966774909 73.24441714868226 0 73.24441714868226 -24.213099593087463 0 0 0 0 -2.6187063666938313 6.7160394272121344 0 6.7160394272121344 -12.228442204942095 0 0 0 0 175.74975543354452 108.44931029905547 0 108.44931029905547 -1.0517603294347282 0 0 0 0 108.7766574241715 36.479400230153715 0 36.479400230153715 -22.445558939234957 0 0 0 0 103.58722785127873 3.155641985114471 0 3.155641985114471 -73.777806072475869 0 0 0 0 -2.3486593500581727 6.2746853454420837 0 6.2746853454420837 -11.376177754049813 0 0 0 0 32.398784125046603 4.420967195864705 0 4.420967195864705 -37.972149128459932 0 0 0 0 -11.221278815319465 -36.109252992172514 0 -36.109252992172514 -75.317892858482082 0 0 0 0 31.788296876525298 -32.730334292657837 0 -32.730334292657837 -96.358059087466245 0 0 0 0 20.991541403291251 -41.550153693419816 0 -41.550153693419816 -65.537825999358574 0 0 0 0 21.049496949797543 -43.40123219890711 0 -43.40123219890711 -73.16999915028191 0 0 0 0 -5.1266347408933086 -82.468890913314226 0 -82.468890913314226 -117.01306469341034 0 0 0 0 30.445598685592216 -16.31916269032763 0 -16.31916269032763 -227.41404038909059 0 0 0 0 -9.4547812681638845 -98.975794687007237 0 -98.975794687007237 -178.41275921242959 0 0 0 0 35.772234848012616 5.7387559637659251 0 5.7387559637659251 -138.17775282513139 0 0 0 0 40.209476910898786 53.59138922377133 0 53.59138922377133 -174.94332891441263 0 0 0 0 -33.940998844203421 -45.074647509722126 0 -45.074647509722126 -236.95970494615358 0 0 0 0 -0.24260301722296496 -0.65749522085736167 0 -0.65749522085736167 -1.7763388840744767 0 0 0 0 -60.977707964825754 -72.897259773973019 0 -72.897259773973019 -38.055405904527106 0 0 0 0 45.101933659351118 54.7238500796484 0 54.7238500796484 -152.35109957677196 0 0 0 0 -6.8800448223112767 57.967322134403275 0 57.967322134403275 -16.580718028923002 0 0 0 0 44.783634960368801 32.022269521146882 0 32.022269521146882 -118.52991365922753 0 0 0 0 17.748468750333245 31.583330480769291 0 31.583330480769291 -105.82308334349364 0 0 0 0 33.249328241515613 51.966977479365823 0 51.966977479365823 -85.011094987125034 0 0 0 0 23.872463417232098 37.979139494550964 0 37.979139494550964 -114.15095153794027 0 0 0 0 25.125623013922393 32.892466465238613 0 32.892466465238613 -123.24124823496641 0 0 0 0 29.614058918275788 27.255829126557728 0 27.255829126557728 -119.19093926163191 0 0 0 0 39.554532389490817 43.377872627542274 0 43.377872627542274 -115.9729646039832 0 0 0 0 36.078320974651653 -3.4289075030499134 0 -3.4289075030499134 -95.260590591005894 0 0 0 0 10.051693763839353 16.645095495243368 0 16.645095495243368 -61.89396332814249 0 0 0 0 22.878548005788957 12.783860803465359 0 12.783860803465359 -115.05205228756449 0 0 0 0 -14.449131060798408 6.5399513867450878 0 6.5399513867450878 -63.832775749491702 0 0 0 0 -0.1722364890335939 -21.462100943788755 0 -21.462100943788755 -14.206078272625746 0 0 0 0 -12.134103231169831 -28.856659613853481 0 -28.856659613853481 -4.4075824764313438 0 0 0 0 9.6859611516288453 -21.15942151229865 0 -21.15942151229865 -93.588800020215899 0 0 0 0 -24.265553894002721 -73.09547300905615 0 -73.09547300905615 -122.48512910865793 0 0 0 0 33.262575988065691 -20.90263071799302 0 -20.90263071799302 -203.53783065022435 0 0 0 0 -0.18056712681122733 0.30773325437220578 0 0.30773325437220578 -0.840113837474604 0 0 0 0 -13.238200871138645 28.683156361145393 0 28.683156361145393 -68.703458268126269 0 0 0 0 -44.742091837574776 -61.429933073189204 0 -61.429933073189204 -219.17214861206412 0 0 0 0 -55.890351545216618 -6.7683314517253166 0 -6.7683314517253166 3.3216419988664256 0 0 0 0 -6.6382779279084758 -11.061149260133789 0 -11.061149260133789 26.565616081772532 0 0 0 0 -1.7752266472249403 -0.96251026367463055 0 -0.96251026367463055 3.2314447664131194 0 0 0 0 15.407405984368893 6.8144416356572037 0 6.8144416356572037 23.924285639283653 0 0 0 0 -15.008018965179451 2.1309261158580739 0 2.1309261158580739 29.681966268103679 0 0 0 0 -71.014229020297932 1.6655310720111629 0 1.6655310720111629 36.083772729129123 0 0 0 0 -24.357981326948689 1.8754321487908783 0 1.8754321487908783 31.550846910404289 0 0 0 0 -14.739664008237014 -18.706976813574329 0 -18.706976813574329 32.788717852683476 0 0 0 0 60.413775058422061 39.574358272820973 0 39.574358272820973 47.011375076192962 0 0 0 0 36.374894775046499 -10.788853804827113 0 -10.788853804827113 36.045036128649372 0 0 0 0 19.674458800912248 -7.3640742984916869 0 -7.3640742984916869 -3.3953128391931386 0 0 0 0 78.513619460772929 25.572488033478294 0 25.572488033478294 -1.4657620059698502 0 0 0 0 76.56197740470077 36.683962926064851 0 36.683962926064851 3.006746518763066 0 0 0 0 15.214002962353355 -36.666979506800999 0 -36.666979506800999 -54.703186316370193 0 0 0 0 -158.51944557639274 175.95703290550045 0 175.95703290550045 -1.9201181584114693 0 0 0 0 -0.80724967982967555 1.1408551782675733 0 1.1408551782675733 -2.4389253459246589 0 0 0 0 -85.994082814315959 -249.46562441258061 0 -249.46562441258061 -499.29176168858248 0 0 0 0 -26.920106766547729 199.35705491956378 0 199.35705491956378 -499.31343171071012 0 0 0 0 -55.062607835583051 307.62932901951581 0 307.62932901951581 -356.34782330139933 0 0 0 0 30.636937831140969 22.471494480678302 0 22.471494480678302 -247.66011626221552 0 0 0 0 -0.36015330477495822 0.67724682363148503 0 0.67724682363148503 -1.0755902596622136 0 0 0 0 -19.851682461549196 210.84909530787945 0 210.84909530787945 -377.54246069977307 0 0 0 0 -69.218054113690471 -27.735374996040264 0 -27.735374996040264 31.626217880594595 0 0 0 0 -97.68568221135439 169.5521225134321 0 169.5521225134321 -104.87289551621143 0 0 0 0 -77.622361006668825 37.964437459704186 0 37.964437459704186 -50.687641014799738 0 0 0 0 -0.37633480460006519 0.9177195709526238 0 0.9177195709526238 -2.0117118220551191 0 0 0 0 60.383537473686886 17.339458734039908 0 17.339458734039908 -18.429664602757839 0 0 0 0 26.857892983215656 -47.578034098906755 0 -47.578034098906755 -15.736496150744642 0 0 0 0 -36.183871164429462 -14.380316375614711 0 -14.380316375614711 -11.570237098365851 0 0 0 0 -34.434193853972523 -8.2482278127777136 0 -8.2482278127777136 7.2728681645421602 0 0 0 0 -9.8788992879233675 24.729102422437791 0 24.729102422437791 13.710346240689432 0 0 0 0 -50.23553857145901 6.122831863900501 0 6.122831863900501 18.416946653203922 0 0 0 0 -57.061946316894371 -22.360068741712894 0 -22.360068741712894 -1.3465385360304936 0 0 0 0 -75.726921397852166 76.605392250610748 0 76.605392250610748 -38.290234594489448 0 0 0 0 -6.1578976980570417 36.542079796310645 0 36.542079796310645 -382.54822018754567 0 0 0 0 -96.763177767053506 157.62038768036973 0 157.62038768036973 -276.10380212208111 0 0 0 0 1.9967457526317176 -30.798228274486064 0 -30.798228274486064 -58.902767019118983 0 0 0 0 0.057219328682872619 0.039735595858228834 0 0.039735595858228834 -1.2763976675765676 0 0 0 0 -2.3226587249613004 8.1158101936898674 0 8.1158101936898674 -242.70436596981017 0 0 0 0 -34.211326445316644 190.29704287282584 0 190.29704287282584 -286.64664799809998 0 0 0 0 13.345390205447991 92.182042850453399 0 92.182042850453399 -317.4308098405927 0 0 0 0 0.06104497499869712 0.16142663619245923 0 0.16142663619245923 -0.6247674120483051 0 0 0 0 -53.976939307219666 129.2849072897925 0 129.2849072897925 -453.36656829940512 0 0 0 0 8.4854722971282044 133.98121800747276 0 133.98121800747276 -436.52247832153262 0 0 0 0 35.712818873477545 34.628956013186325 0 34.628956013186325 -499.90158333640966 0 0 0 0 0.11579291538329006 11.821679569744447 0 11.821679569744447 -453.39311429665577 0 0 0 0 28.072057986789751 57.09640249100994 0 57.09640249100994 -476.54749406046631 0 0 0 0 1.5408544071394634 41.714304660875769 0 41.714304660875769 -412.9201430533758 0 0 0 0 9.4390704680330018 58.08045779148506 0 58.08045779148506 -274.73601217745949 0 0 0 0 0.057252887505257449 0.24448214373166977 0 0.24448214373166977 -0.70531118887031719 0 0 0 0 -0.01053438177596689 27.312551405359045 0 27.312551405359045 -207.7252101493923 0 0 0 0 -26.118309928369602 32.008606845814938 0 32.008606845814938 -244.42863442953785 0 0 0 0 -34.106548351764843 106.96068009104965 0 106.96068009104965 -224.30441375504915 0 0 0 0 -19.736628415401846 37.091295239471947 0 37.091295239471947 -78.233950387277218 0 0 0 0 -16.288216974931373 79.26809823766871 0 79.26809823766871 -154.15907633774441 0 0 0 0 -27.187039461210883 40.296564544202738 0 40.296564544202738 -27.045064627343436 0 0 0 0 -0.02257982568247259 18.615814928409236 0 18.615814928409236 -87.868510260082985 0 0 0 0 -4.3025727928011097 20.225191434246881 0 20.225191434246881 -28.834018805868254 0 0 0 0 -0.030505051517296843 5.2113217877968054 0 5.2113217877968054 -8.29599610220248 0 0 0 0 -9.6833544844853776 -7.1089037068413745 0 -7.1089037068413745 -7.9625320232771628 0 0 0 0 -0.022681240445629282 -0.15652151941566927 0 -0.15652151941566927 -0.97991312930011532 0 0 0 0 -4.9542394345340037 -7.7610847424498388 0 -7.7610847424498388 -2.2609371120015567 0 0 0 0 0.1412670349688413 0.038453435357929777 0 0.038453435357929777 -0.75641750430779453 0 0 0 0 -28.918698965030565 13.413333844583349 0 13.413333844583349 -3.6036155640922516 0 0 0 0 -26.45330381245136 45.585184981098791 0 45.585184981098791 -67.33836962559235 0 0 0 0 -4.4628280903200057 -9.7546002949347894 0 -9.7546002949347894 -35.451442722249965 0 0 0 0 12.418061264129761 4.6105211444078122 0 4.6105211444078122 -3.6563340312022774 0 0 0 0 0.23161407996051264 -0.21072558155775667 0 -0.21072558155775667 -2.382734270420336 0 0 0 0 0.14762121451850932 0.19440086711262694 0 0.19440086711262694 -0.66942895142999248 0 0 0 0 -10.829261379287711 8.1042032656691845 0 8.1042032656691845 -28.402216874519581 0 0 0 0 -34.522588734808238 -1.2452680057576799 0 -1.2452680057576799 -8.0313230389238015 0 0 0 0 -22.342906648234646 14.223050000522562 0 14.223050000522562 -5.9252803569288517 0 0 0 0 -0.6003336179884684 42.061006850741251 0 42.061006850741251 -100.66630185134818 0 0 0 0 -30.454065384400494 37.657202676757151 0 37.657202676757151 -37.122804185678888 0 0 0 0 -50.708709984906797 71.633433009308192 0 71.633433009308192 -92.226894477353198 0 0 0 0 -50.954414270619324 74.203306200108273 0 74.203306200108273 -116.69743702939741 0 0 0 0 -25.565280566860853 28.067405909989247 0 28.067405909989247 -106.28026097853717 0 0 0 0 -27.801281655000807 40.459676317614822 0 40.459676317614822 -172.10083871327879 0 0 0 0 7.1708684092858519 30.61817193578463 0 30.61817193578463 -105.05592830482055 0 0 0 0 -2.4986093828383993 42.950610587351548 0 42.950610587351548 -116.81876194034339 0 0 0 0 -1.0162319648118512 34.850531264496112 0 34.850531264496112 -101.28490113619046 0 0 0 0 16.102165152882201 27.02596829356844 0 27.02596829356844 -117.77366722872102 0 0 0 0 -26.572202295052229 10.555961516274692 0 10.555961516274692 -122.86844170976724 0 0 0 0 -26.980936454582952 12.934986499756633 0 12.934986499756633 -136.71323824773208 0 0 0 0 -48.136578130341512 0.59565518065755896 0 0.59565518065755896 -114.06498307081347 0 0 0 0 -48.519650690066541 2.5556507756900828 0 2.5556507756900828 -141.13600381359538 0 0 0 0 -64.490285053229925 34.320912161287197 0 34.320912161287197 -152.46285985136501 0 0 0 0 -33.749065657018583 7.6005157827012226 0 7.6005157827012226 -145.26370166313427 0 0 0 0 -0.040472063297679474 3.971158308192571 0 3.971158308192571 -176.58226414970704 0 0 0 0 -0.62423827080132666 14.832554137953139 0 14.832554137953139 -189.54077940103525 0 0 0 0 -0.018877628507435552 -0.098488523182446386 0 -0.098488523182446386 -0.29446232008761086 0 0 0 0 6.3254347313709482 36.688561037897898 0 36.688561037897898 -204.64807012589517 0 0 0 0 -25.848502324815684 25.355158412346555 0 25.355158412346555 -10.721123133184847 0 0 0 0 15.793282553263907 23.933260555679908 0 23.933260555679908 -37.55003480454252 0 0 0 0 10.196475105799493 1.0070787297941877 0 1.0070787297941877 -23.942740374980076 0 0 0 0 28.097843529229067 12.299689139684233 0 12.299689139684233 -13.753783598076097 0 0 0 0 0.606228257775971 -1.2356023899253108 0 -1.2356023899253108 -3.948590572639251 0 0 0 0 27.032534251499555 -15.916115250393432 0 -15.916115250393432 -46.703512158629565 0 0 0 0 -6.4662821691908903 -40.045884332104379 0 -40.045884332104379 -58.031488238346924 0 0 0 0 -10.855022314914549 17.121437324922113 0 17.121437324922113 -92.037221111226245 0 0 0 0 -6.8248243151210772 33.040573909500836 0 33.040573909500836 -37.324897277281707 0 0 0 0 -35.686848983846176 -19.645102127694599 0 -19.645102127694599 -25.384067942231013 0 0 0 0 -0.067944448560631088 0.5378750632820184 0 0.5378750632820184 -1.3560793237920592 0 0 0 0 -59.891718148487143 -73.505323639496964 0 -73.505323639496964 -126.21019368605766 0 0 0 0 -33.392057330265743 -35.374796861251525 0 -35.374796861251525 -67.996404533841996 0 0 0 0 151.45920102192349 151.95203424715464 0 151.95203424715464 -156.69163414833929 0 0 0 0 -0.28198632523169875 0.91654637323434329 0 0.91654637323434329 -2.0144766983169689 0 0 0 0 -4.5125949680518715 46.011146635961268 0 46.011146635961268 -182.86794483143331 0 0 0 0 -38.556252885811659 -24.320118127680416 0 -24.320118127680416 -28.826272610429442 0 0 0 0 -19.222859626122272 -20.152683160811193 0 -20.152683160811193 -36.81779363744954 0 0 0 0 -27.237603157208014 -10.517583037733402 0 -10.517583037733402 -13.514083292775467 0 0 0 0 -36.471764607565774 -16.16708767234104 0 -16.16708767234104 -14.919706077949741 0 0 0 0 -20.804279566913465 -14.91330225235879 0 -14.91330225235879 -7.1993319338489528 0 0 0 0 -15.712991042931662 -11.241052344219497 0 -11.241052344219497 -13.864025469227272 0 0 0 0 24.605056250189591 -59.646534730575468 0 -59.646534730575468 49.397569421048729 0 0 0 0 -65.956043282871178 79.483766936889424 0 79.483766936889424 -3.3387888200386442 0 0 0 0 -61.984618489785589 107.89891751987216 0 107.89891751987216 -105.55953934600439 0 0 0 0 -121.82324495427997 70.604903426513374 0 70.604903426513374 204.45246734978582 0 0 0 0 -21.399706435255212 12.29928581769127 0 12.29928581769127 27.523699047157834 0 0 0 0 -28.695986517435585 -0.12977205482570753 0 -0.12977205482570753 8.8025552508256624 0 0 0 0 -6.2790803838445299 -12.938701601729008 0 -12.938701601729008 12.578719845291289 0 0 0 0 20.510352096379506 -6.2363553020219342 0 -6.2363553020219342 -14.390519839497756 0 0 0 0 62.224394945328527 1.5729693291760327 0 1.5729693291760327 -4.1538395512302486 0 0 0 0 -0.53392843534542944 1.9740350710616044 0 1.9740350710616044 -4.7897785201492216 0 0 0 0 7.1189747611795156 6.6176428965252398 0 6.6176428965252398 0.60673775739951452 0 0 0 0 0.021306975558900376 -12.541847414929862 0 -12.541847414929862 -11.074870892218428 0 0 0 0 -1.8631077810723582 -0.75851172658485666 0 -0.75851172658485666 -4.0244473573650339 0 0 0 0 5.9068810134807563 -7.515808362138614 0 -7.515808362138614 -31.733867612670338 0 0 0 0 -12.642519342983064 -2.9992315711174342 0 -2.9992315711174342 -2.2297683475408121 0 0 0 0 -10.568823754389086 2.8642181249651912 0 2.8642181249651912 -7.8937272879379634 0 0 0 0 -6.3040748364614956 -4.2392469653209446 0 -4.2392469653209446 -21.777779299669646 0 0 0 0 -3.8284549103074141 0.95897859350839099 0 0.95897859350839099 -21.365454463129026 0 0 0 0 -3.0846372804907105 -2.5526248720900639 0 -2.5526248720900639 -29.114946913360654 0 0 0 0 -1.3076322017890831 2.625860487253445 0 2.625860487253445 -0.75959572824359389 0 0 0 0 -5.5442176949974282 -5.9652403505265283 0 -5.9652403505265283 -26.394054547363226 0 0 0 0 -3.1574358024516869 2.3551198301929297 0 2.3551198301929297 -5.6872664090433549 0 0 0 0 -6.458760671140908 -7.3878153971809297 0 -7.3878153971809297 -26.941588444045578 0 0 0 0 -3.2421103281997148 -5.6997106078417801 0 -5.6997106078417801 -28.82491560260496 0 0 0 0 -4.6039306829650286 -7.4260268038867707 0 -7.4260268038867707 -29.08043905689064 0 0 0 0 -1.7457241229530434 2.732598189298209 0 2.732598189298209 -5.3969070501165017 0 0 0 0 -3.313499596496285 -7.5283712422355462 0 -7.5283712422355462 -24.138626896112243 0 0 0 0 -0.69987957986018046 -0.25402423093458992 0 -0.25402423093458992 -19.798596670336337 0 0 0 0 0.3618230504461768 -2.6176851221758448 0 -2.6176851221758448 -18.539914457818046 0 0 0 0 -2.5331494379955188 1.7664448242835533 0 1.7664448242835533 -22.514782151580448 0 0 0 0 -0.75449982141390137 1.4378642949134246 0 1.4378642949134246 -27.918322601255113 0 0 0 0 0.57423873297511818 3.1576853570577441 0 3.1576853570577441 -35.055679336905357 0 0 0 0 20.416207838281935 2.4191876434651931 0 2.4191876434651931 -35.035933274695424 0 0 0 0 0.59954972168975473 2.242499225262236 0 2.242499225262236 -35.918235836587883 0 0 0 0 22.821145910337236 -5.7222408016536974 0 -5.7222408016536974 -34.223585467223756 0 0 0 0 0.64642641661885136 -0.78314710604058746 0 -0.78314710604058746 -23.043753434728842 0 0 0 0 12.249253565807976 -5.5046819498747936 0 -5.5046819498747936 -45.779796478926528 0 0 0 0 2.6800685317017985 4.8376588943515291 0 4.8376588943515291 -7.6112921325303429 0 0 0 0 -0.52415514830090615 -0.45152541133435875 0 -0.45152541133435875 -15.125723376137557 0 0 0 0 0.42539611591382709 1.2255204839858607 0 1.2255204839858607 -20.376979001418249 0 0 0 0 -0.51530494906621982 -1.4431382652932712 0 -1.4431382652932712 -15.56726524206897 0 0 0 0 1.6237411217556428 -1.310981154716842 0 -1.310981154716842 -16.079351063801937 0 0 0 0 0.067241777232978084 -3.8711193250282028 0 -3.8711193250282028 -10.55493075213522 0 0 0 0 3.172481416621963 -5.0981441759832649 0 -5.0981441759832649 -13.636467757075025 0 0 0 0 -0.38519997307972176 -0.4983360386972393 0 -0.4983360386972393 -19.92251352718381 0 0 0 0 -4.353208197837489 -0.10986785392015008 0 -0.10986785392015008 -18.217892760416589 0 0 0 0 0.56789787519463664 -3.5022056613594836 0 -3.5022056613594836 -18.205420985648264 0 0 0 0 3.2633403234094658 -7.5250339781403 0 -7.5250339781403 -29.440625268723807 0 0 0 0 -0.074293557801411225 -4.2402589397151473 0 -4.2402589397151473 -17.431817220498885 0 0 0 0 0.88475268388694639 1.412461844529771 0 1.412461844529771 -6.5664672280373644 0 0 0 0 -1.4731898795098459 -4.6481988501328715 0 -4.6481988501328715 -21.193556351853431 0 0 0 0 -1.2813550128488487 -8.724722366287665 0 -8.724722366287665 -18.195447893810865 0 0 0 0 3.1523570902276545 -0.7625624896599974 0 -0.7625624896599974 -5.4414289584118931 0 0 0 0 0.44868652838999878 -4.9326529094246325 0 -4.9326529094246325 -16.914510460574149 0 0 0 0 1.0032276255982424 -4.315209022705929 0 -4.315209022705929 -17.565451366216053 0 0 0 0 -1.1117311958660139 -2.2597530216733048 0 -2.2597530216733048 -14.060966121299316 0 0 0 0 3.3868755244404838 -9.1822197050233854 0 -9.1822197050233854 -11.885571337470651 0 0 0 0 -0.19235244790820616 -4.7636264317743553 0 -4.7636264317743553 -10.34550129817012 0 0 0 0 2.7833601228378484 -6.5285784724396763 0 -6.5285784724396763 -16.718388371499827 0 0 0 0 0.39686803587713992 -4.4068555668532738 0 -4.4068555668532738 -11.517008012153786 0 0 0 0 0.67514045611665097 -5.2565938818397626 0 -5.2565938818397626 -15.546888733887499 0 0 0 0 0.64953919157562723 -3.0594713038932468 0 -3.0594713038932468 -12.940935785952206 0 0 0 0 0.42831183541852624 -2.3961731979452452 0 -2.3961731979452452 -14.651669253218643 0 0 0 0 0.30935074982141941 -8.6615169918404717 0 -8.6615169918404717 -16.76870982492801 0 0 0 0 1.0176252202041116 -1.4464058764331469 0 -1.4464058764331469 -3.1751009911356896 0 0 0 0 -1.8423552338422979 -6.3138906186283288 0 -6.3138906186283288 -12.22565578479589 0 0 0 0 0.12403556032626284 -8.5803395934879063 0 -8.5803395934879063 -11.409693831034929 0 0 0 0 2.2637431766958116 -5.5398036061478706 0 -5.5398036061478706 -14.012880913691333 0 0 0 0 -5.6004731562222787 -10.133632845061584 0 -10.133632845061584 -14.019992464459392 0 0 0 0 1.6462013172723573 -6.4533142711677556 0 -6.4533142711677556 -14.766038148200096 0 0 0 0 2.2912370410089125 -5.9333459962974757 0 -5.9333459962974757 -18.630526615462031 0 0 0 0 3.7758896209616069 -8.6949407172471638 0 -8.6949407172471638 -23.804204569619287 0 0 0 0 2.9983210561808846 -10.682393621338633 0 -10.682393621338633 -9.7796132741941619 0 0 0 0 3.0303056770094372 -6.4573929061775743 0 -6.4573929061775743 -17.325224863092672 0 0 0 0 0.7655160635308107 -5.8929350908207425 0 -5.8929350908207425 -8.7550505841677477 0 0 0 0 -1.0839262168851813 -4.4241786933830829 0 -4.4241786933830829 -9.3555366851662392 0 0 0 0 0.80369993578688081 -3.2751708546506961 0 -3.2751708546506961 -9.7161064934111891 0 0 0 0 1.4953618986319839 -9.3892151085634623 0 -9.3892151085634623 -8.7930523566365082 0 0 0 0 0.67106402393005737 -8.8345189816735683 0 -8.8345189816735683 -4.6585420994415472 0 0 0 0 1.15404211210695 -10.703030399071793 0 -10.703030399071793 -8.6017885628143631 0 0 0 0 1.3070720684028378 -1.1355881891698483 0 -1.1355881891698483 -3.0476439293841944 0 0 0 0 2.341504199279862 -2.7188622480105158 0 -2.7188622480105158 -9.6466591533635171 0 0 0 0 -8.0737677088000055 14.924276545013527 0 14.924276545013527 -25.685805782866737 0 0 0 0 18.879725980182684 -32.458635801164064 0 -32.458635801164064 13.819931992797137 0 0 0 0 8.7540449743536328 -12.151728529742433 0 -12.151728529742433 -14.803728982745687 0 0 0 0 6.1783612672343224 -17.052665047230903 0 -17.052665047230903 -8.9438826666727209 0 0 0 0 0.47352480052423984 -3.0189524327158805 0 -3.0189524327158805 -15.268565452335014 0 0 0 0 28.592692795545645 -20.89469820243346 0 -20.89469820243346 -29.071735535148946 0 0 0 0 40.607881077231013 9.404463036691368 0 9.404463036691368 -26.178393170349864 0 0 0 0 0.48589538687334155 -1.55184090677822 0 -1.55184090677822 -5.8314319524872236 0 0 0 0 -1.7185055326542624 -2.3382016607548621 0 -2.3382016607548621 -18.734710262853355 0 0 0 0 -0.75169297911579891 -4.9910775553788804 0 -4.9910775553788804 -16.232235480161837 0 0 0 0 -2.0192477342307029 5.7295070208131165 0 5.7295070208131165 -29.92852349583368 0 0 0 0 9.6768496922550185 -11.261091362362151 0 -11.261091362362151 -27.711337721202653 0 0 0 0 -0.51116943006763904 -4.0695259322378661 0 -4.0695259322378661 -12.038011302757241 0 0 0 0 2.1992379188036466 -19.36710322663032 0 -19.36710322663032 -15.314093982654413 0 0 0 0 -0.086974138467900364 1.0790103829454756 0 1.0790103829454756 -2.7668125755254707 0 0 0 0 -24.712761073987878 -29.903183856043611 0 -29.903183856043611 -25.483659046146386 0 0 0 0 -24.868585589028939 -27.376158863834419 0 -27.376158863834419 -20.68327423536266 0 0 0 0 -20.451935952008853 -22.167658158263976 0 -22.167658158263976 -32.090743319630747 0 0 0 0 -20.66803340034096 -18.602443323536662 0 -18.602443323536662 -17.896281318115143 0 0 0 0 -1.2006576007880616 -3.5297695082459892 0 -3.5297695082459892 -13.252150311890373 0 0 0 0 16.762529444023016 -10.064244179849766 0 -10.064244179849766 -27.154614837539611 0 0 0 0 -16.122060128758903 15.889862437114061 0 15.889862437114061 -46.213875333423857 0 0 0 0 -15.694389643062323 15.472646502852058 0 15.472646502852058 -67.739117666304082 0 0 0 0 -19.8071182414335 10.288509507949129 0 10.288509507949129 -30.470180541165064 0 0 0 0 -14.893260519678279 -3.9152769822110258 0 -3.9152769822110258 -31.702803495029002 0 0 0 0 -18.948739867925042 -16.02081170824772 0 -16.02081170824772 -67.799115752324724 0 0 0 0 -3.2014838277432318 15.002865424945412 0 15.002865424945412 -109.44653089438452 0 0 0 0 62.123952236564492 210.51838323485481 0 210.51838323485481 197.39753808179739 0 0 0 0 -125.20894412191501 -177.80928405459645 0 -177.80928405459645 -78.828144327949303 0 0 0 0 -12.991070493627376 44.709967220562248 0 44.709967220562248 -71.911713810885885 0 0 0 0 -23.821127014763988 46.812840118587701 0 46.812840118587701 -27.580783692543264 0 0 0 0 -4.2011851843869863 15.166378760196494 0 15.166378760196494 -26.611478758932662 0 0 0 0 80.048211896062185 48.560699473890963 0 48.560699473890963 -32.256052750763956 0 0 0 0 -2.303476384611713 -4.7376044823761276 0 -4.7376044823761276 5.5659408357695384 0 0 0 0 -34.532804718591706 22.679551997771341 0 22.679551997771341 -3.0186069959777342 0 0 0 0 -35.4343561933091 17.758083834385388 0 17.758083834385388 -25.557986202284155 0 0 0 0 -32.917621874094266 31.494497741608711 0 31.494497741608711 -31.090353264364239 0 0 0 0 6.7466457333666767 -6.1204300839874577 0 -6.1204300839874577 -9.4915177612521688 0 0 0 0 -5.0057267282452358 -30.134941542148454 0 -30.134941542148454 -57.887309590275436 0 0 0 0 -35.357129304810769 51.994203095561943 0 51.994203095561943 -79.961290040477252 0 0 0 0 -0.33605303423653954 -0.30611354498989796 0 -0.30611354498989796 -0.49409758695533412 0 0 0 0 -20.342430824588973 -1.6565809740779969 0 -1.6565809740779969 -0.024586900404301559 0 0 0 0 -57.499994192804593 -1.0184655493566197 0 -1.0184655493566197 -19.443854097247367 0 0 0 0 -4.5235432536744611 -10.471819793638133 0 -10.471819793638133 -79.085659142096418 0 0 0 0 -13.374601880306727 -7.628403047145639 0 -7.628403047145639 -15.769504849710302 0 0 0 0 -13.863269920715084 8.6296311542891999 0 8.6296311542891999 -34.846731670519148 0 0 0 0 60.783424286519221 -8.6506479105769358 0 -8.6506479105769358 -47.470974221326287 0 0 0 0 24.425706714605212 26.715863732205435 0 26.715863732205435 -39.927496646223517 0 0 0 0 0.31567304061230983 -1.8408758259481655 0 -1.8408758259481655 -23.369622200864413 0 0 0 0 18.057995829209119 -5.3863836124191948 0 -5.3863836124191948 -25.555208173387655 0 0 0 0 11.569977929387733 -6.7866471084807927 0 -6.7866471084807927 -22.983564883554209 0 0 0 0 11.478459100291047 -1.4507134308214518 0 -1.4507134308214518 -22.851554172984834 0 0 0 0 10.364164818630684 -0.9543983438579744 0 -0.9543983438579744 -22.508542150365429 0 0 0 0 0.19666613410618883 -2.0379819302913664 0 -2.0379819302913664 -22.257279222484215 0 0 0 0 5.8801275527687267 2.3725593989947811 0 2.3725593989947811 -23.693973142773302 0 0 0 0 15.264017165947735 -1.8119113318107338 0 -1.8119113318107338 -25.380060878806944 0 0 0 0 6.6478389813346439 -23.651844159569919 0 -23.651844159569919 -12.976025073467497 0 0 0 0 -4.3906906718500522 0.85362647207762166 0 0.85362647207762166 -22.616303318274731 0 0 0 0 10.498281553639572 -10.50833589766944 0 -10.50833589766944 -25.002633209290593 0 0 0 0 -7.5726999998701103 -5.8204310918654301 0 -5.8204310918654301 -36.097333029009405 0 0 0 0 -21.489824998313679 8.2800786431394044 0 8.2800786431394044 -25.364822172757158 0 0 0 0 -14.571422348859414 3.0479654896012107 0 3.0479654896012107 -20.506834881439886 0 0 0 0 -11.812748071487249 5.7879264934601906 0 5.7879264934601906 -27.291374771367373 0 0 0 0 -24.131808087765421 6.9077255183381112 0 6.9077255183381112 -19.407450686071115 0 0 0 0 48.527546740073404 -12.308816471378407 0 -12.308816471378407 -32.120061180773973 0 0 0 0 -6.9933387001206029 -11.085375283169014 0 -11.085375283169014 -10.854095431344035 0 0 0 0 4.3713454667189353 -4.7457190215018272 0 -4.7457190215018272 -44.308128149090408 0 0 0 0 3.4152950375515729 -2.8596682994138973 0 -2.8596682994138973 -47.923759405699457 0 0 0 0 -3.2098918695681959 -14.857443426326881 0 -14.857443426326881 -43.45826980201673 0 0 0 0 2.1421395804627537 -13.036097098682148 0 -13.036097098682148 -49.282694838801945 0 0 0 0 -1.4695701993223338 -11.260916645724137 0 -11.260916645724137 -37.83006459257922 0 0 0 0 3.2218344541863644 -10.263554441185988 0 -10.263554441185988 -44.595004763468751 0 0 0 0 3.1685492630338246 -9.6509595954848919 0 -9.6509595954848919 -36.025960900871723 0 0 0 0 5.3806561035351024 -9.7944707501301309 0 -9.7944707501301309 -38.660273557292385 0 0 0 0 3.390313406339601 -13.349954923282894 0 -13.349954923282894 -36.904541729647462 0 0 0 0 5.9650033625741798 -8.2091980915456588 0 -8.2091980915456588 -34.363169099083279 0 0 0 0 5.7549486741115743 -2.5110112413740353 0 -2.5110112413740353 -40.700899810073906 0 0 0 0 6.3803583941020179 -4.3170820859927517 0 -4.3170820859927517 -35.784865022849772 0 0 0 0 7.3099882686218507 -2.8263521630810828 0 -2.8263521630810828 -33.394533627370038 0 0 0 0 8.4787565553199329 -3.6678086257857103 0 -3.6678086257857103 -33.481722802205695 0 0 0 0 6.4254418732393788 -9.3271217050209998 0 -9.3271217050209998 -31.796761469277044 0 0 0 0 7.249170812694274 -7.9470715489287613 0 -7.9470715489287613 -29.651191168579544 0 0 0 0 11.438721349615435 -5.3195534518818022 0 -5.3195534518818022 -29.28037720768225 0 0 0 0 7.1066287255796965 -8.0740197712016197 0 -8.0740197712016197 -24.919559284502611 0 0 0 0 10.931258705706682 -3.1663839813113555 0 -3.1663839813113555 -27.908916665472134 0 0 0 0 8.4017369777129716 -2.8217378501431085 0 -2.8217378501431085 -26.187379500568568 0 0 0 0 7.5593667935631856 2.3591158934141276 0 2.3591158934141276 -25.855088911240045 0 0 0 0 5.180018385234689 5.4663304359301037 0 5.4663304359301037 -25.720642204523756 0 0 0 0 8.052924037032426 2.7495003540166181 0 2.7495003540166181 -30.862720242494106 0 0 0 0 6.959526313694596 1.3971193013967422 0 1.3971193013967422 -28.79863764278889 0 0 0 0 4.5747885943550273 4.4231961384803071 0 4.4231961384803071 -33.368895420649096 0 0 0 0 6.9390963571408975 1.9205558022686091 0 1.9205558022686091 -39.174895382551767 0 0 0 0 5.130515629354953 6.2777092697707815 0 6.2777092697707815 -34.692643375625266 0 0 0 0 1.2112290404136274 10.415365341752477 0 10.415365341752477 -27.795075151631863 0 0 0 0 0.96107911829096793 9.5642661062393017 0 9.5642661062393017 -29.015184571481768 0 0 0 0 -0.48167492439279158 14.931263414998284 0 14.931263414998284 -39.561551342716143 0 0 0 0 2.0169431031334852 5.7230768402159811 0 5.7230768402159811 -40.576782220756286 0 0 0 0 4.3018295893828054 6.2660778823856162 0 6.2660778823856162 -44.781448357012039 0 0 0 0 -6.2560677196397592 10.880280864666929 0 10.880280864666929 -13.069100280073144 0 0 0 0 -4.3574628469447418 12.51190736106571 0 12.51190736106571 -21.476516946648189 0 0 0 0 -3.9789549052625262 10.582546591296705 0 10.582546591296705 -24.038779646107741 0 0 0 0 2.9899991794961807 6.979037498769685 0 6.979037498769685 -22.809590208655209 0 0 0 0 -0.50912544781505176 10.117249796362557 0 10.117249796362557 -20.637443366020307 0 0 0 0 -1.1193267125354396 8.1953359487552007 0 8.1953359487552007 -18.341661008430492 0 0 0 0 1.0613877325439489 6.2353035458704653 0 6.2353035458704653 -14.991351357878557 0 0 0 0 1.4747696456411177 7.3013254802754091 0 7.3013254802754091 -19.513427225807845 0 0 0 0 3.8346509579530448 8.059722481202698 0 8.059722481202698 -26.300275720381705 0 0 0 0 4.7470447177660446 3.7005928532616963 0 3.7005928532616963 -21.009615103497708 0 0 0 0 5.075756364343988 5.2630466995929055 0 5.2630466995929055 -21.285032504879382 0 0 0 0 -0.08580848883246972 2.5256931146402621 0 2.5256931146402621 -14.314897229192866 0 0 0 0 1.6327240050907221 4.9257921850621642 0 4.9257921850621642 -14.237525431015456 0 0 0 0 -1.7891133749105874 2.6376836229195959 0 2.6376836229195959 -1.6218133778419279 0 0 0 0 -1.5784981276881354 4.6434331104401281 0 4.6434331104401281 -6.2762538456827315 0 0 0 0 -0.50436828708438952 3.236487094358381 0 3.236487094358381 -8.0172727112717439 0 0 0 0 -2.3291006655641695 8.128706704551405 0 8.128706704551405 -11.553084357948137 0 0 0 0 -2.9129589649084551 5.1762715644088075 0 5.1762715644088075 -0.69872511114590452 0 0 0 0 1.6040010395385655 2.554772415716668 0 2.554772415716668 -0.77323848253062266 0 0 0 0 -1.2633274105543251 2.9583207119467261 0 2.9583207119467261 -3.9829257610560944 0 0 0 0 40.378948636980283 18.086206738141072 0 18.086206738141072 1.790821075454005 0 0 0 0 -4.3707185331213623 6.6693523527246725 0 6.6693523527246725 -4.9984673615272186 0 0 0 0 -1.1672432503401353 5.3240026527828377 0 5.3240026527828377 -10.384049845042682 0 0 0 0 22.693279243212373 -17.466447466510544 0 -17.466447466510544 -19.545947996924951 0 0 0 0 0.35050535769031121 -1.5196007470095743 0 -1.5196007470095743 -18.732493857115642 0 0 0 0 0.51681475897657947 -13.539378229853355 0 -13.539378229853355 -11.266361542301183 0 0 0 0 -11.999911834815634 -17.712227778631814 0 -17.712227778631814 -15.12596034382841 0 0 0 0 -8.1803754231177663 -12.549420191671743 0 -12.549420191671743 -9.982713578073799 0 0 0 0 -0.58680415662547603 -17.535481199355672 0 -17.535481199355672 -21.649082207664833 0 0 0 0 6.4420158801933667 -10.581983207697704 0 -10.581983207697704 -20.007770435021484 0 0 0 0 -9.194724481819776 -11.578177434781537 0 -11.578177434781537 -15.219321222166712 0 0 0 0 -14.790890476142522 -18.826779266075391 0 -18.826779266075391 -23.11790661001578 0 0 0 0 -11.97028515356169 -9.7566534993602545 0 -9.7566534993602545 -22.237181223061043 0 0 0 0 -9.2457592369743224 -15.633431736326429 0 -15.633431736326429 -16.82411312154909 0 0 0 0 7.1804691244155094 -15.532268413676036 0 -15.532268413676036 -7.1641820055119751 0 0 0 0 47.025049644084447 -14.523908098345601 0 -14.523908098345601 -27.174959623881477 0 0 0 0 7.9735022415336516 -0.029062856400969395 0 -0.029062856400969395 -21.302762242481549 0 0 0 0 0.19611000354103258 -1.7923099084070773 0 -1.7923099084070773 -20.680635717648677 0 0 0 0 1.3694317615643286 3.8029748256765288 0 3.8029748256765288 -18.971053149636646 0 0 0 0 2.9781359892799628 3.3272368929265213 0 3.3272368929265213 -19.672564015131684 0 0 0 0 2.2719573722013138 0.6737002592853969 0 0.6737002592853969 -20.476994598146121 0 0 0 0 -0.28217416014217633 0.79439898182909019 0 0.79439898182909019 -18.854398978820427 0 0 0 0 -0.74108565090410039 1.9401669476150047 0 1.9401669476150047 -4.4617817488117453 0 0 0 0 -0.3566988225354919 -0.32027044627486134 0 -0.32027044627486134 -20.098469657879832 0 0 0 0 -0.21791290272926744 1.4660173359079636 0 1.4660173359079636 -15.440655931223773 0 0 0 0 -1.3092287422628806 2.5433567731291866 0 2.5433567731291866 -1.2998454525540666 0 0 0 0 -1.7238965907470174 -1.9628858327641865 0 -1.9628858327641865 -21.46146602593808 0 0 0 0 -0.049461583674883514 2.4569881819040802 0 2.4569881819040802 -14.2546132785792 0 0 0 0 0.50481812133193671 -1.5921038832161685 0 -1.5921038832161685 -29.888190862452575 0 0 0 0 -3.6739483868332172 0.37885048138855382 0 0.37885048138855382 -12.104233057468264 0 0 0 0 -0.28595076560071275 0.50983529184245779 0 0.50983529184245779 -11.531735737293516 0 0 0 0 -0.086017104305483372 -0.95183924416141963 0 -0.95183924416141963 -17.856334777141456 0 0 0 0 1.0732756645504651 2.6738687042957281 0 2.6738687042957281 -31.801213888361417 0 0 0 0 0.79306809611989593 -3.849847461190393 0 -3.849847461190393 -15.23115273079668 0 0 0 0 14.113460683954372 -9.1547366678723847 0 -9.1547366678723847 -9.0023489308550779 0 0 0 0 11.392941251782759 -1.9535984594385809 0 -1.9535984594385809 -14.892369733053329 0 0 0 0 0.8927394029773712 0.36312017811689756 0 0.36312017811689756 -5.6104866654779091 0 0 0 0 14.621631897185978 -5.3000656461135236 0 -5.3000656461135236 -15.435131261594506 0 0 0 0 -21.046904458181643 -8.8332815422136264 0 -8.8332815422136264 -3.5518454496450431 0 0 0 0 -9.4945479235263974 -0.59465956924350394 0 -0.59465956924350394 -8.5758887978445273 0 0 0 0 10.661003200974278 4.1768136541122658 0 4.1768136541122658 -23.829466463090284 0 0 0 0 -0.43700286797698107 1.6004392674489631 0 1.6004392674489631 -7.1176282746408024 0 0 0 0 2.6036958903954144 -7.5732750669427844 0 -7.5732750669427844 -19.924124261008274 0 0 0 0 2.298692360473475 1.3809514927600093 0 1.3809514927600093 -4.3326389610330169 0 0 0 0 0.15052695027134178 -1.6434048720491319 0 -1.6434048720491319 -21.131588983948859 0 0 0 0 1.299202381777377 -3.0604372673719809 0 -3.0604372673719809 -23.760583696414187 0 0 0 0 1.6608894879866511 -2.8458904322645822 0 -2.8458904322645822 -25.517404343929684 0 0 0 0 0.57878487233998266 -1.5410357881161254 0 -1.5410357881161254 -19.070714900067799 0 0 0 0 0.03169120577308604 0.10577341881162283 0 0.10577341881162283 -24.011737515897266 0 0 0 0 3.5952938953514604 5.9701145364197146 0 5.9701145364197146 -18.141002658367142 0 0 0 0 14.850321511198786 23.829664021144936 0 23.829664021144936 -16.347854475241547 0 0 0 0 6.5068582966323447 50.862642604064604 0 50.862642604064604 -62.08838426357579 0 0 0 0 0.86512511575805284 1.0599880563548858 0 1.0599880563548858 -4.5450785861737142 0 0 0 0 -72.964614011558297 43.232682373054558 0 43.232682373054558 -41.70982526204898 0 0 0 0 2.9607474716209454 -2.5391342670415806 0 -2.5391342670415806 -3.9020682301393315 0 0 0 0 -14.984048040927519 17.928430787722391 0 17.928430787722391 1.3686494802386733 0 0 0 0 12.80929488620859 -45.581528562255698 0 -45.581528562255698 -23.537985096868397 0 0 0 0 1.6086367213704627 3.482780858506572 0 3.482780858506572 -18.438689065302086 0 0 0 0 -0.13984436546328372 -0.17852823427247166 0 -0.17852823427247166 0.12347661633757312 0 0 0 0 2.5336669799846732 -10.832481651113085 0 -10.832481651113085 -43.19533292466167 0 0 0 0 -4.6574593368975457 -7.0902652567219775 0 -7.0902652567219775 -26.532943040321697 0 0 0 0 -0.12923993637368625 -0.16443311796647642 0 -0.16443311796647642 0.083265120205320287 0 0 0 0 -0.67509858923961019 -4.3568924137089198 0 -4.3568924137089198 -25.01663188884595 0 0 0 0 10.742453407472965 -6.3541967309993197 0 -6.3541967309993197 -30.410553708020416 0 0 0 0 2.6266277894761743 0.35016340107631549 0 0.35016340107631549 -15.947852435116602 0 0 0 0 1.9170051874981482 5.3519662570656692 0 5.3519662570656692 -7.8299754475965528 0 0 0 0 4.6127731482122272 0.30654152718921068 0 0.30654152718921068 -16.129537427105788 0 0 0 0 5.6596369722899453 14.07343760161757 0 14.07343760161757 -0.47801919203357102 0 0 0 0 -0.57019061387791226 0.26524959873995613 0 0.26524959873995613 -61.919183474322836 0 0 0 0 -0.4578337631250422 0.31532083213721762 0 0.31532083213721762 0.33042801013793976 0 0 0 0 -4.9381063582756042 -4.0301178917936795 0 -4.0301178917936795 -30.997900983340514 0 0 0 0 4.0986430567038497 -8.0619970042212117 0 -8.0619970042212117 -29.645739618123116 0 0 0 0 -4.1412844088449674 -0.68904291883973201 0 -0.68904291883973201 -22.267587680853921 0 0 0 0 0.15856411130174286 -1.9300913005446045 0 -1.9300913005446045 -21.650727462608696 0 0 0 0 0.69549617757064652 2.4915126389864355 0 2.4915126389864355 -24.852671800683538 0 0 0 0 -0.32074241873834719 -0.23551058033275041 0 -0.23551058033275041 -4.3924675559985049 0 0 0 0 5.6992204884223838 0.56674996517494947 0 0.56674996517494947 -23.353914872926907 0 0 0 0 -15.740741714821866 52.241869188932469 0 52.241869188932469 -149.31897232613665 0 0 0 0 -36.063730923448986 26.016378848547902 0 26.016378848547902 -55.773278392362045 0 0 0 0 6.3528611966428343 15.639304767039903 0 15.639304767039903 -70.485551051203402 0 0 0 0 -28.396928513863827 22.617601299880334 0 22.617601299880334 -52.506441660172641 0 0 0 0 1.5489947066226364 9.0888194690797945 0 9.0888194690797945 0.8595910486565117 0 0 0 0 -5.5448920860095168 2.1763698260581794 0 2.1763698260581794 0.025136460809777716 0 0 0 0 1.3705184034897684 -9.8534478437286452 0 -9.8534478437286452 -24.207796204034821 0 0 0 0 -0.22828090641978227 0.8784011340502671 0 0.8784011340502671 -0.96711734054034793 0 0 0 0 -2.0183775765611629 3.0616598036419873 0 3.0616598036419873 -1.6341323674719419 0 0 0 0 -8.8357973662666609 0.96785589031424024 0 0.96785589031424024 -20.884910344265791 0 0 0 0 -7.3810189955495389 -3.7148809418531528 0 -3.7148809418531528 -16.311775627554198 0 0 0 0 -14.991312818306255 -7.3270549750120608 0 -7.3270549750120608 -26.332093307995819 0 0 0 0 -21.739181632937857 19.864157308631547 0 19.864157308631547 -47.161649401562499 0 0 0 0 -15.774873689043488 1.0943479427692182 0 1.0943479427692182 -14.475389438371622 0 0 0 0 -0.33539098251628729 -9.3027752403040722 0 -9.3027752403040722 -25.282434543872114 0 0 0 0 -2.3875148883587372 -6.2111220916594903 0 -6.2111220916594903 -20.7841463983832 0 0 0 0 -6.9339014551901244 -9.4840666263407343 0 -9.4840666263407343 -23.044622911276747 0 0 0 0 -2.8991577027136373 -4.5324959953495636 0 -4.5324959953495636 -25.698723132849409 0 0 0 0 1.5117180413149072 -6.0352077085071869 0 -6.0352077085071869 -25.276564321698061 0 0 0 0 -8.0387327865680618 -5.0495326705158732 0 -5.0495326705158732 -21.33957985142024 0 0 0 0 23.674236652614752 -1.4820746768784829 0 -1.4820746768784829 -28.137757425238306 0 0 0 0 -0.29397808547511373 -0.021035409900603597 0 -0.021035409900603597 -0.068725962716543521 0 0 0 0 -35.376445436369636 27.023009283960164 0 27.023009283960164 33.119341174644887 0 0 0 0 -40.392042231876758 52.360913409906516 0 52.360913409906516 -59.354544798763527 0 0 0 0 -48.19161749191943 15.680306325906713 0 15.680306325906713 -33.013257748118122 0 0 0 0 -4.0298801095933925 -0.16765588032490086 0 -0.16765588032490086 -66.095289160890388 0 0 0 0 -0.17746542019495815 -0.19440181959279634 0 -0.19440181959279634 0.116264273584191 0 0 0 0 -88.455218896618533 64.598749850566719 0 64.598749850566719 -63.547400937981365 0 0 0 0 -12.519496155424179 16.136999056087006 0 16.136999056087006 -69.976111091858002 0 0 0 0 -101.90367295533756 102.25471076104304 0 102.25471076104304 -76.692137233836092 0 0 0 0 -57.999798094249854 86.76530123606608 0 86.76530123606608 -89.424524137750723 0 0 0 0 -67.643943951557929 8.1414413126476575 0 8.1414413126476575 -188.24991548957212 0 0 0 0 -124.58613996255065 67.098962297600337 0 67.098962297600337 -204.50196505541317 0 0 0 0 -81.177586162269606 117.99796263612598 0 117.99796263612598 -178.40307508476354 0 0 0 0 -172.22375073631963 36.491561443615069 0 36.491561443615069 -18.913628889378742 0 0 0 0 -130.39342689487626 151.9146954558887 0 151.9146954558887 -151.40985209079008 0 0 0 0 -262.6884344190903 157.83932189132429 0 157.83932189132429 -224.95227676264585 0 0 0 0 -1.5399968193705849 0.03662242187681386 0 0.03662242187681386 -0.182858437797349 0 0 0 0 -70.934380784639018 170.8327661402509 0 170.8327661402509 -323.20553213614448 0 0 0 0 -143.55991523942072 210.78751292623724 0 210.78751292623724 -344.73781638297351 0 0 0 0 -81.546961964576894 -27.044703775572998 0 -27.044703775572998 25.278077791849228 0 0 0 0 -7.9823809090947861 10.113958861243418 0 10.113958861243418 -28.140381415883894 0 0 0 0 23.795038615176054 3.4559336570573578 0 3.4559336570573578 -124.97072389651748 0 0 0 0 -73.725778063666723 140.38364206108918 0 140.38364206108918 -164.72538890764827 0 0 0 0 -3.8284423851133709 0.25156607536704811 0 0.25156607536704811 0.15207641110053682 0 0 0 0 -39.560931022066832 118.63381692180167 0 118.63381692180167 -316.62570822916587 0 0 0 0 -26.477664345759656 220.81377135339335 0 220.81377135339335 -306.45050074237497 0 0 0 0 -28.811749897731367 144.93638437427967 0 144.93638437427967 -500.04542062896553 0 0 0 0 -135.41723499799153 118.09817567490995 0 118.09817567490995 -317.78109681012393 0 0 0 0 -118.39270240598583 79.753286628505066 0 79.753286628505066 -248.63093101578863 0 0 0 0 -25.922353968951757 89.596598652323792 0 89.596598652323792 -317.23081289877371 0 0 0 0 -23.920211025331945 49.251753758533141 0 49.251753758533141 -500.01020598710693 0 0 0 0 -14.856077497661779 -40.521301022317857 0 -40.521301022317857 -310.74416402906081 0 0 0 0 -121.39913966271556 73.762180059148477 0 73.762180059148477 -260.02216314008365 0 0 0 0 -4.9058137919203091 5.6225613754754704 0 5.6225613754754704 -20.057576577579312 0 0 0 0 -1.1199497995416368 -0.62242262014730576 0 -0.62242262014730576 -15.200955185369306 0 0 0 0 -3.6128148479169795 5.8486563163714891 0 5.8486563163714891 -20.972632198430915 0 0 0 0 -2.1320932738385636 4.2620194662306403 0 4.2620194662306403 -19.910581223341069 0 0 0 0 0.094162887108111715 -1.9799530499084763 0 -1.9799530499084763 -18.224401529034019 0 0 0 0 4.0017732679887104 -1.2114882288483386 0 -1.2114882288483386 -20.075759432656014 0 0 0 0 -0.44626586141885127 4.7380248054855656 0 4.7380248054855656 -27.746894714980044 0 0 0 0 -7.4969482901487936 11.675844163360125 0 11.675844163360125 -32.05273353852786 0 0 0 0 -6.4972647848496763 2.5096623969625398 0 2.5096623969625398 -20.96471786567281 0 0 0 0 -5.9017614635921518 5.6593806486591802 0 5.6593806486591802 -20.284978518972821 0 0 0 0 -5.5725105978121974 6.9135483117488548 0 6.9135483117488548 -21.054472773389989 0 0 0 0 -151.09330599785835 7.5869156389110231 0 7.5869156389110231 6.6015784781975526 0 0 0 0 28.948313755757226 13.752659029088136 0 13.752659029088136 -61.566684106354387 0 0 0 0 -4.0218209948924395 0.11311982886539163 0 0.11311982886539163 0.55231857230351267 0 0 0 0 5.7068671698857862 94.483372580642481 0 94.483372580642481 -220.48167051917426 0 0 0 0 -24.961121306982196 250.03382477688149 0 250.03382477688149 -499.03654765884767 0 0 0 0 -223.02371777093501 317.08610672584882 0 317.08610672584882 -211.54058317980596 0 0 0 0 -13.251247257333455 121.65302380125468 0 121.65302380125468 -496.29343253043987 0 0 0 0 -1.6989386009316132 0.86226961523412982 0 0.86226961523412982 -0.6969982340202332 0 0 0 0 -274.9621470873164 74.245542940945512 0 74.245542940945512 27.942580974992779 0 0 0 0 -13.986369464049059 -82.458149331478126 0 -82.458149331478126 -500.21109367173767 0 0 0 0 5.5465431450968197 -66.371771263806295 0 -66.371771263806295 -101.2868105155685 0 0 0 0 -0.0073374799119530661 0.36706118559448253 0 0.36706118559448253 -0.74938547078630968 0 0 0 0 14.908372881147613 -0.70568025690897684 0 -0.70568025690897684 -4.8735400273308187 0 0 0 0 -3.1901635564911768 1.1116801179431892 0 1.1116801179431892 -1.0958925613459796 0 0 0 0 -4.184524545052227 6.2544056490050934 0 6.2544056490050934 -20.385989150205205 0 0 0 0 -8.8682533472274372 5.7046923080361012 0 5.7046923080361012 -14.411653938535892 0 0 0 0 -7.4500978251702179 -8.9248685670913801 0 -8.9248685670913801 2.3673975044357576 0 0 0 0 -7.1726887330126976 3.0556518464312692 0 3.0556518464312692 -9.8480132561059772 0 0 0 0 -0.95472014583970344 1.6428980600585579 0 1.6428980600585579 0.10375266448825382 0 0 0 0 -17.025844621798228 12.346961302100681 0 12.346961302100681 -1.8365709382042041 0 0 0 0 -38.302908683577719 -12.678640300345251 0 -12.678640300345251 13.034514733970354 0 0 0 0 -4.4928805147911701 2.0794465584094191 0 2.0794465584094191 -1.5464731459228256 0 0 0 0 10.624111059100073 74.073005334721529 0 74.073005334721529 -499.25935256736068 0 0 0 0 -8.9293114486493721 -4.5523184593878341 0 -4.5523184593878341 -9.6455325316246672 0 0 0 0 -0.40094614742602008 0.5165889748114294 0 0.5165889748114294 -1.7833119073936312 0 0 0 0 -12.08287232531489 -65.46911572915559 0 -65.46911572915559 -381.44216583546859 0 0 0 0 -2.7123427163163285 -9.2014567059495675 0 -9.2014567059495675 -16.689967611295287 0 0 0 0 -11.678966726008667 7.6924250657357334 0 7.6924250657357334 10.396706211897254 0 0 0 0 -27.928281745852569 -212.89194561721325 0 -212.89194561721325 -499.62964030848298 0 0 0 0 -1.9239847124323206 0.1866014684588817 0 0.1866014684588817 -0.41287855602342916 0 0 0 0 -2.8761884492174383 -1.4941635648098661 0 -1.4941635648098661 -5.7764914239493486 0 0 0 0 -3.9145445077986096 -1.2670811770531145 0 -1.2670811770531145 -7.663872134081771 0 0 0 0 -3.0552293343678332 0.14322130286799784 0 0.14322130286799784 -0.81952284157687494 0 0 0 0 60.805724733330628 -37.286119322951436 0 -37.286119322951436 -404.13587752372507 0 0 0 0 -2.4446467450253522 -2.5047864122245755 0 -2.5047864122245755 -9.0363178803744404 0 0 0 0 -2.7639734107420963 -1.8581071514620362 0 -1.8581071514620362 -10.342512660133366 0 0 0 0 -0.82872966879858723 -6.5513503396837223 0 -6.5513503396837223 -18.551739256035489 0 0 0 0 -1.9511794054706257 -0.04463827946504928 0 -0.04463827946504928 -2.3390721696655019 0 0 0 0 -7.0909385487954069 -1.2208706738401816 0 -1.2208706738401816 -6.4196534005532158 0 0 0 0 -4.5725213862058922 -0.20436919050348479 0 -0.20436919050348479 -9.2075647409901649 0 0 0 0 67.434441629853382 48.28879889819666 0 48.28879889819666 -497.90720135195488 0 0 0 0 -45.452712492281464 -79.823619268447146 0 -79.823619268447146 -192.0403856744224 0 0 0 0 -0.21948156473657079 0.25258308110348227 0 0.25258308110348227 -0.95324390509885504 0 0 0 0 -6.5853859471594234 -109.99632534812274 0 -109.99632534812274 -90.12187329428798 0 0 0 0 -20.947792128139476 25.205892167298089 0 25.205892167298089 88.242345820212904 0 0 0 0 64.690007919101234 -44.091043980409069 0 -44.091043980409069 -499.08338423792384 0 0 0 0 -80.62184989979383 137.7158240076119 0 137.7158240076119 -238.59829004443054 0 0 0 0 -0.98714964608064992 0.54794427571947768 0 0.54794427571947768 -0.89624970190164999 0 0 0 0 -3.0636176664930019 -1.6995450892000008 0 -1.6995450892000008 -6.1509680912604381 0 0 0 0 -2.208319429154642 -1.7536196408583464 0 -1.7536196408583464 -6.6530154722138377 0 0 0 0 4.9687709805238569 -0.52413099769660221 0 -0.52413099769660221 -8.0689285199418919 0 0 0 0 0.27539288326022415 1.2115573891842359 0 1.2115573891842359 -3.8699896753037137 0 0 0 0 0.0089072367571944588 0.28321517587031675 0 0.28321517587031675 -0.47462436072796699 0 0 0 0 -3.7671273913846335 -2.6753569316397261 0 -2.6753569316397261 -4.0582598317758851 0 0 0 0 -2.5754130974421514 -4.0335485088016867 0 -4.0335485088016867 -2.0031612560110688 0 0 0 0 -0.35549636423218089 -4.2597046713472082 0 -4.2597046713472082 -1.9952193587056399 0 0 0 0 -2.0731789271539469 -1.1487088857186336 0 -1.1487088857186336 -1.0655713175128767 0 0 0 0 -0.33477070416585553 -0.60247717439407267 0 -0.60247717439407267 -2.5067264274567354 0 0 0 0 -0.041705899427958576 -0.10829891939458003 0 -0.10829891939458003 -2.1791445738721791 0 0 0 0 -0.37313591782040817 -0.0079253800012932807 0 -0.0079253800012932807 -2.1662454457522111 0 0 0 0 0.35881648815167466 -0.13054066675806553 0 -0.13054066675806553 -1.229998340214479 0 0 0 0 -0.040610641164227301 -0.14943250100618855 0 -0.14943250100618855 -0.44134142573096724 0 0 0 0 2.2311590137386474 2.6271781237052778 0 2.6271781237052778 -10.697180587312232 0 0 0 0 0.37000066070842053 -0.49736833159229299 0 -0.49736833159229299 -4.1997747689935157 0 0 0 0 -2.7501542897458648 -5.2743058398848461 0 -5.2743058398848461 -5.1368853865237725 0 0 0 0 -6.5929832770326584 -4.2448419891602498 0 -4.2448419891602498 -1.8928671841968026 0 0 0 0 -1.5936229498606358 0.52001586938034627 0 0.52001586938034627 0.21471846342418122 0 0 0 0 -2.7606094021254535 -3.3937703533753165 0 -3.3937703533753165 -8.1820104286061905 0 0 0 0 -2.6673249690462626 0.63724920296448317 0 0.63724920296448317 -8.7682683995724346 0 0 0 0 -6.5091612659245897 -12.269849448269795 0 -12.269849448269795 -24.963822843053435 0 0 0 0 0.26116580244470811 -3.1093929793945563 0 -3.1093929793945563 -3.580969741885383 0 0 0 0 -6.5514435305104968 -11.661282962362321 0 -11.661282962362321 -19.211986989208299 0 0 0 0 -2.399575912247343 -2.521444941330401 0 -2.521444941330401 -1.6265531933852913 0 0 0 0 -1.3241452019709588 0.14911328282743463 0 0.14911328282743463 -0.37551821659995621 0 0 0 0 -0.82527894514521449 -6.5772904248996724 0 -6.5772904248996724 -18.469602689116982 0 0 0 0 -2.1898934046155318 -5.3536214966715079 0 -5.3536214966715079 -15.820411868863516 0 0 0 0 -2.5718072825966374 -4.4029388398693072 0 -4.4029388398693072 -18.179525680486549 0 0 0 0 -4.1608076504012388 -9.8379060093964767 0 -9.8379060093964767 -22.982880053667486 0 0 0 0 4.7601554752170898 -2.6098563639071841 0 -2.6098563639071841 -23.297868640587694 0 0 0 0 2.5402492625150899 0.015759002407548905 0 0.015759002407548905 -22.052268192346475 0 0 0 0 0.79388032008758191 2.7706407133520301 0 2.7706407133520301 -6.8122441051777374 0 0 0 0 3.4574643718678999 -0.43797688619156361 0 -0.43797688619156361 -27.748195343731965 0 0 0 0 2.8828407979513031 -0.19507568210542559 0 -0.19507568210542559 -22.736739779389495 0 0 0 0 9.3668822588862781 -4.2805603836365549 0 -4.2805603836365549 -35.331644249888086 0 0 0 0 4.5966801478214734 1.1379175005500599 0 1.1379175005500599 -24.633022765896669 0 0 0 0 2.8523120899060359 -8.1809035496980869 0 -8.1809035496980869 -25.579114337734367 0 0 0 0 -1.4065810820156344 -16.099926185080221 0 -16.099926185080221 -35.255129399052294 0 0 0 0 -17.150207610523296 -18.611416269012011 0 -18.611416269012011 -21.736709537150546 0 0 0 0 -12.065442155756841 -28.183940389966779 0 -28.183940389966779 -43.380337513987456 0 0 0 0 -17.130490064779437 -20.877442213937059 0 -20.877442213937059 -26.65518976574981 0 0 0 0 2.1828058015150873 13.94076289335834 0 13.94076289335834 -35.013229146935885 0 0 0 0 16.221215039385925 -6.3601712684277913 0 -6.3601712684277913 -63.553683470351928 0 0 0 0 8.7689463714691556 -1.5254195489335984 0 -1.5254195489335984 -28.097689511638237 0 0 0 0 21.608688099854817 11.670571923855476 0 11.670571923855476 -30.890953967692965 0 0 0 0 10.930506501650967 -3.2190432112436014 0 -3.2190432112436014 -17.442184919753913 0 0 0 0 -3.0363288392990171 -8.5852163470740379 0 -8.5852163470740379 -31.466666053035624 0 0 0 0 -0.82734729891911485 4.1037966664544285 0 4.1037966664544285 -2.6807811345688299 0 0 0 0 -20.766714451934888 37.576044728281985 0 37.576044728281985 27.587142851607553 0 0 0 0 -1.085404684815785 -0.73978443184239495 0 -0.73978443184239495 -26.877022040694101 0 0 0 0 -5.8130932025950415 -9.206294061201163 0 -9.206294061201163 -25.150858451963813 0 0 0 0 0.51192748135344512 2.1452845751230702 0 2.1452845751230702 -0.81346704233605127 0 0 0 0 -4.0718752942070751 -1.9773264885051276 0 -1.9773264885051276 -19.639188297902365 0 0 0 0 -2.7982737834022373 -7.2145804116200907 0 -7.2145804116200907 -23.972061437112416 0 0 0 0 0.28276024487638551 -0.69530386786584586 0 -0.69530386786584586 -24.135582517844341 0 0 0 0 -0.3246443363502749 -6.741337637273773 0 -6.741337637273773 -31.276328516099738 0 0 0 0 8.8878744357891719 14.89225609803529 0 14.89225609803529 -8.0852905889486237 0 0 0 0 -0.14084425706068515 3.8565805419922659 0 3.8565805419922659 -2.5077000313137732 0 0 0 0 58.709617888214325 -19.589411130440567 0 -19.589411130440567 -27.550115649885811 0 0 0 0 35.769294327492929 -58.798272573069355 0 -58.798272573069355 2.8305364682296386 0 0 0 0 -3.5082471731019762 -7.6308000198947692 0 -7.6308000198947692 -16.107576550098475 0 0 0 0 45.325002801759638 8.6228508583353687 0 8.6228508583353687 -13.967418902047939 0 0 0 0 19.012081616358955 -9.649436406211862 0 -9.649436406211862 -22.952195795271109 0 0 0 0 27.466308137606958 -18.176031672408484 0 -18.176031672408484 -13.408491842226795 0 0 0 0 26.208152395092299 6.9415590158632767 0 6.9415590158632767 -28.351029645870767 0 0 0 0 11.565195501805192 -1.8607081613095033 0 -1.8607081613095033 -30.589081112450913 0 0 0 0 7.1394942793660903 9.5905904852866115 0 9.5905904852866115 -30.537822558521839 0 0 0 0 12.967147568790551 -0.19033268722773755 0 -0.19033268722773755 -21.729844581320322 0 0 0 0 -3.2206657958505587 -5.9278903217615619 0 -5.9278903217615619 -18.409701315715388 0 0 0 0 8.6208556051836496 -17.475364515434464 0 -17.475364515434464 13.6045266082117 0 0 0 0 -19.806263009078037 -1.2622506771027844 0 -1.2622506771027844 32.471570809719708 0 0 0 0 -15.115910030949266 -26.564917027096243 0 -26.564917027096243 -2.085718788204872 0 0 0 0 -10.776764124079108 -18.233883039645491 0 -18.233883039645491 13.69175036315805 0 0 0 0 -42.3947018800514 -12.33723224161929 0 -12.33723224161929 28.974091041564918 0 0 0 0 11.567702505951701 5.3146622573217854 0 5.3146622573217854 -11.373249529747852 0 0 0 0 -80.472458766323712 37.145409883299521 0 37.145409883299521 -21.522371387061952 0 0 0 0 -2.0394625287167827 -12.307528136946587 0 -12.307528136946587 1.4320016274825207 0 0 0 0 -52.799059390943199 -45.279923894478515 0 -45.279923894478515 -26.576847895219316 0 0 0 0 -3.8272019323002127 -16.997785574714271 0 -16.997785574714271 -10.538020133080664 0 0 0 0 -0.33743279024204575 5.260421243803151 0 5.260421243803151 -18.882327900090559 0 0 0 0 -0.93898605108326905 19.184227542288923 0 19.184227542288923 -126.06757300043284 0 0 0 0 -20.003097996337544 74.09654226048599 0 74.09654226048599 -73.390050638586331 0 0 0 0 -55.78105797120179 -68.891172395988178 0 -68.891172395988178 -83.790506773978677 0 0 0 0 1.8289829061942617 6.2257938916817004 0 6.2257938916817004 -119.94628670200723 0 0 0 0 -41.030423554532817 58.512376592969957 0 58.512376592969957 -6.1948273093807984 0 0 0 0 -0.0049148607937682665 0.029790004651289559 0 0.029790004651289559 -0.98177733583942617 0 0 0 0 -19.28617638840052 -12.254356788655343 0 -12.254356788655343 54.674273496349997 0 0 0 0 5.3729447763497546 -15.141683219038669 0 -15.141683219038669 -50.918908911473181 0 0 0 0 35.426181283773246 -41.44651247709578 0 -41.44651247709578 -31.447610901744838 0 0 0 0 25.502450484664735 12.819994467730567 0 12.819994467730567 -145.23724348195083 0 0 0 0 -15.34309784339672 -19.746940527474976 0 -19.746940527474976 -26.993272607546601 0 0 0 0 -0.21941123873815485 -0.18368068753067113 0 -0.18368068753067113 -2.5307405950562663 0 0 0 0 -15.464944469429668 -28.143624448641958 0 -28.143624448641958 -69.157530527022686 0 0 0 0 -5.5669433608039078 38.009526350871425 0 38.009526350871425 -103.44953168175743 0 0 0 0 -7.8663515484625464 33.382917827219842 0 33.382917827219842 -30.436742006319832 0 0 0 0 -27.597227392319397 16.247433182401579 0 16.247433182401579 -40.84152829748291 0 0 0 0 -2.7817945711843208 -28.43062869928724 0 -28.43062869928724 -27.281763231478038 0 0 0 0 -8.5853417880808784 -27.80377254143491 0 -27.80377254143491 -102.48784016746256 0 0 0 0 -31.350541630997007 1.5378699776140365 0 1.5378699776140365 50.90141499617198 0 0 0 0 68.285912278676193 88.775218582669709 0 88.775218582669709 -32.159839470723455 0 0 0 0 12.646620609016709 61.101472905460071 0 61.101472905460071 -77.201909184198257 0 0 0 0 11.137049712108306 1.0432426394877981 0 1.0432426394877981 -121.40476179682571 0 0 0 0 -0.59598909802862465 -82.103615408408601 0 -82.103615408408601 -238.9943921854848 0 0 0 0 109.75840412880757 -60.887208451872539 0 -60.887208451872539 -44.184642262299803 0 0 0 0 -2.9282942578670776 -6.6413734842921297 0 -6.6413734842921297 -14.196099465943387 0 0 0 0 23.000820031918465 -28.266965853964393 0 -28.266965853964393 24.321727087405634 0 0 0 0 -32.02152208340167 21.231019939333621 0 21.231019939333621 76.096578374159719 0 0 0 0 -8.1789717846247072 39.181456009992381 0 39.181456009992381 -4.4821408191690182 0 0 0 0 -0.1052823819864232 0.26514364319755734 0 0.26514364319755734 -1.2883542291148622 0 0 0 0 -39.771750803885418 -19.785822924237209 0 -19.785822924237209 -13.946862048297589 0 0 0 0 -9.9959173259485219 1.9782033707066375 0 1.9782033707066375 0.62079761411706613 0 0 0 0 -0.098652443514468946 0.019926289734881419 0 0.019926289734881419 -0.47714836134625283 0 0 0 0 1.4493806524609252 -6.9338930650386175 0 -6.9338930650386175 61.58311159569439 0 0 0 0 0.13813952460658285 -0.23538721381647165 0 -0.23538721381647165 -1.5446310413415345 0 0 0 0 30.998877092470231 -11.220867038871006 0 -11.220867038871006 0.021646609500180602 0 0 0 0 3.738483446472042 -46.177313881484622 0 -46.177313881484622 30.197208392918128 0 0 0 0 148.93756587983691 44.644866066504846 0 44.644866066504846 -66.651476184037051 0 0 0 0 39.71491871062392 25.385489429421256 0 25.385489429421256 -12.519059364365006 0 0 0 0 0.16811652645402997 -0.13498023490310079 0 -0.13498023490310079 -3.2492289974265667 0 0 0 0 0.018466103131128779 -0.1386221309290897 0 -0.1386221309290897 -0.48147573801144405 0 0 0 0 0.3430124487479157 -0.26655634762347336 0 -0.26655634762347336 -3.79070526701042 0 0 0 0 -12.396703400514838 -5.7414520265148781 0 -5.7414520265148781 43.273035109375542 0 0 0 0 -9.0223103016466979 0.54845377002797591 0 0.54845377002797591 -4.6024750535307248 0 0 0 0 -9.2384173624687378 -5.2034456024280757 0 -5.2034456024280757 -34.060354341214861 0 0 0 0 -25.509319522686354 -20.398540896533689 0 -20.398540896533689 10.68657594646902 0 0 0 0 -12.842125535185311 -7.2192793677385794 0 -7.2192793677385794 1.7245144785588309 0 0 0 0 -15.730659336340722 -15.551924511640436 0 -15.551924511640436 -21.632628586049435 0 0 0 0 -15.541851201814143 -17.886143648007703 0 -17.886143648007703 -22.462073621790637 0 0 0 0 -30.722353810221662 -13.250795790318989 0 -13.250795790318989 17.763602466224256 0 0 0 0 -15.105830945808171 -20.071279364253769 0 -20.071279364253769 20.492479252303838 0 0 0 0 -36.103841743591687 -12.526451068415554 0 -12.526451068415554 25.756352840807722 0 0 0 0 -30.434881331527681 -11.635997476819512 0 -11.635997476819512 23.917982140442746 0 0 0 0 -23.296070515771675 -6.5100173675098176 0 -6.5100173675098176 3.6310322698856226 0 0 0 0 -9.9500203072989564 5.1127284465986236 0 5.1127284465986236 0.98022026427452147 0 0 0 0 -20.60682221560625 2.9892456426354101 0 2.9892456426354101 23.576423583034966 0 0 0 0 -35.174056185704799 -3.6532561598046485 0 -3.6532561598046485 30.90190018841281 0 0 0 0 2.7098961735232479 -6.7163646719247936 0 -6.7163646719247936 -20.160073288354624 0 0 0 0 -0.091244916091391376 -0.32223710105055164 0 -0.32223710105055164 -1.3230148042980656 0 0 0 0 -21.424898382302153 48.982240110910297 0 48.982240110910297 -53.617217260332836 0 0 0 0 -4.3626459026156255 -1.0342834164297869 0 -1.0342834164297869 -1.5236597385537607 0 0 0 0 10.19363745491151 8.0633422457988786 0 8.0633422457988786 -31.893572683053208 0 0 0 0 -4.956665961788616 -3.2729318734533308 0 -3.2729318734533308 -1.8485570455181914 0 0 0 0 -3.8274940156845787 -3.4265015364603642 0 -3.4265015364603642 -1.0416690982647197 0 0 0 0 -33.368766635010473 -12.151473109519202 0 -12.151473109519202 22.994274730759571 0 0 0 0 -24.07803764657136 -1.1457580209204252 0 -1.1457580209204252 -76.530849057668547 0 0 0 0 -55.582406887496077 -17.460234685671196 0 -17.460234685671196 -6.4630640648038025 0 0 0 0 -60.221261804191599 9.5126610035434851 0 9.5126610035434851 0.44435666765866699 0 0 0 0 -33.2445833946514 -8.3091999366518507 0 -8.3091999366518507 4.0367063218486692 0 0 0 0 -48.554681528330988 -5.5249352370467477 0 -5.5249352370467477 22.740726160053327 0 0 0 0 -45.110602431910777 -21.134240913657734 0 -21.134240913657734 31.768123245090464 0 0 0 0 -45.607373273593957 1.2691118426789672 0 1.2691118426789672 15.368900207152706 0 0 0 0 -21.194196877988283 38.776398177409419 0 38.776398177409419 -106.12160130787629 0 0 0 0 7.0042865175286098 -82.079804491590494 0 -82.079804491590494 -499.69419960648702 0 0 0 0 67.412094181649209 -115.30742295608025 0 -115.30742295608025 -494.63218124666969 0 0 0 0 55.452579764394081 48.659032923489804 0 48.659032923489804 -338.1041008821926 0 0 0 0 -33.146551967507712 -14.529305865308544 0 -14.529305865308544 -193.42203260284668 0 0 0 0 -39.952992141246447 -47.543750509884376 0 -47.543750509884376 -182.453036979947 0 0 0 0 -84.677241102788713 38.928343983951777 0 38.928343983951777 1.9398911920925457 0 0 0 0 -104.73968870798535 -30.705783451444859 0 -30.705783451444859 -57.402578336483202 0 0 0 0 -98.36591283773609 -237.74492994692787 0 -237.74492994692787 -255.39608339624584 0 0 0 0 -188.81999427289139 -178.75949070891107 0 -178.75949070891107 19.564265210563008 0 0 0 0 -0.45030747759425732 -0.27315050586009793 0 -0.27315050586009793 -0.42719810583910878 0 0 0 0 -0.73144668523915435 -1.6476292818661022 0 -1.6476292818661022 -495.96994843090619 0 0 0 0 -0.49431532737084066 -0.22051576644472104 0 -0.22051576644472104 -0.75705994629203932 0 0 0 0 -52.009819645680217 162.11039313479796 0 162.11039313479796 -44.416436791754677 0 0 0 0 -0.60656152669238605 -0.21640329845749329 0 -0.21640329845749329 -1.4933120257765395 0 0 0 0 -3.4110505206044763 0.17062558052930399 0 0.17062558052930399 -2.5875616676398181 0 0 0 0 41.504671068356458 121.19129987132871 0 121.19129987132871 -27.280578433136384 0 0 0 0 -37.484656261995923 -26.427472684996985 0 -26.427472684996985 57.495988237642678 0 0 0 0 -23.504276222048173 35.630825923858097 0 35.630825923858097 18.611136630253895 0 0 0 0 -57.10458475365283 -25.520743299472088 0 -25.520743299472088 59.327575865417089 0 0 0 0 -28.848251772491629 -37.732244127032089 0 -37.732244127032089 -318.96630501548248 0 0 0 0 41.45768144601778 62.7741589302384 0 62.7741589302384 -162.83152450444345 0 0 0 0 0.028823156299643486 0.077366427937419158 0 0.077366427937419158 -0.86803513339353566 0 0 0 0 72.925540124137626 -2.1409615647386993 0 -2.1409615647386993 -499.12396156157303 0 0 0 0 48.797573456141642 -14.439590232245109 0 -14.439590232245109 -419.75966214383789 0 0 0 0 -11.673961661254484 87.122168840870273 0 87.122168840870273 -348.63971879369205 0 0 0 0 -86.824918718429558 -319.25726136742685 0 -319.25726136742685 -305.18925012169353 0 0 0 0 -0.11170675706336786 -0.49801329561812635 0 -0.49801329561812635 -1.8933316304050454 0 0 0 0 -106.97790524822027 -232.22607914327622 0 -232.22607914327622 -498.82745845185013 0 0 0 0 -1.2706085825461138 -1.6248883595917381 0 -1.6248883595917381 -2.8741046428731059 0 0 0 0 -132.56760868537975 -209.04049220979732 0 -209.04049220979732 -455.10586754830217 0 0 0 0 -120.64962329892364 62.11101762603613 0 62.11101762603613 -156.85625677029924 0 0 0 0 -81.474241732491635 -42.203300193392636 0 -42.203300193392636 20.152733744841157 0 0 0 0 -106.49911212456385 -234.00265529166563 0 -234.00265529166563 -439.88565417052195 0 0 0 0 -230.54092917853038 -45.146463595895511 0 -45.146463595895511 -435.4881907706374 0 0 0 0 -354.40819704635413 -263.52060466146736 0 -263.52060466146736 -405.76437286418036 0 0 0 0 2.127385731475143 -145.43167076249074 0 -145.43167076249074 -500.26136457812271 0 0 0 0 78.931429682934152 -58.236237002320593 0 -58.236237002320593 -403.81482189541248 0 0 0 0 47.921656502114729 -165.58489881906576 0 -165.58489881906576 -364.62584147725943 0 0 0 0 -65.134909955860536 -109.40589994956997 0 -109.40589994956997 -109.31331943746727 0 0 0 0 27.078000845598467 -112.39008623227534 0 -112.39008623227534 -109.23895129573611 0 0 0 0 28.580570841278359 -53.649897587337136 0 -53.649897587337136 -135.79400124465798 0 0 0 0 39.853521627416754 -88.994883454150454 0 -88.994883454150454 -126.77760421765061 0 0 0 0 -41.20582325154173 -104.00263135162265 0 -104.00263135162265 184.48078038231074 0 0 0 0 -2.6951078231889674 -2.0916219546253494 0 -2.0916219546253494 -0.17066316398005932 0 0 0 0 -169.42239329512984 -40.635605463215597 0 -40.635605463215597 367.62157936000199 0 0 0 0 -123.97577704923185 49.120427942670403 0 49.120427942670403 227.36410998218707 0 0 0 0 -2.4032356094451357 -4.6522457190143474 0 -4.6522457190143474 -9.1138631936957193 0 0 0 0 -63.072627835495837 -118.42388393742067 0 -118.42388393742067 -19.526107267535735 0 0 0 0 -80.733499535671854 -71.645044744864663 0 -71.645044744864663 164.97907073821784 0 0 0 0 -126.31519841411145 48.778950009132217 0 48.778950009132217 13.502371879343798 0 0 0 0 -376.90163069046179 -49.462177307548757 0 -49.462177307548757 -32.043837085790301 0 0 0 0 -57.703721849058866 46.457640090087011 0 46.457640090087011 -4.864692706296637 0 0 0 0 -14.121158985376546 42.964306610587755 0 42.964306610587755 -105.46323448000066 0 0 0 0 -12.611616570066616 72.902974268324215 0 72.902974268324215 -25.505070799803235 0 0 0 0 -62.9085684016069 192.91802869975209 0 192.91802869975209 -118.3641767222548 0 0 0 0 63.177854496947475 140.0097297180281 0 140.0097297180281 -314.33688483681021 0 0 0 0 66.309973408027858 245.2963354965982 0 245.2963354965982 -499.08945032512111 0 0 0 0 135.62465928166608 58.180256962448198 0 58.180256962448198 -500.09114419211164 0 0 0 0 74.260451989811628 105.30727430289585 0 105.30727430289585 -318.80105271728758 0 0 0 0 32.599494452234566 19.540880774814696 0 19.540880774814696 -205.1786215802415 0 0 0 0 34.732761205308222 11.22228938675687 0 11.22228938675687 -206.82361349126813 0 0 0 0 107.37259516643469 -3.9829879790045197 0 -3.9829879790045197 -351.99672362748584 0 0 0 0 124.98363880266599 -87.191850175046397 0 -87.191850175046397 -499.7594776138651 0 0 0 0 58.971118002184909 -119.62916142585527 0 -119.62916142585527 -256.65769364322216 0 0 0 0 111.06791005453645 -25.985173233058759 0 -25.985173233058759 -344.43213651429414 0 0 0 0 -1.6952420092021581 -2.6117160571275253 0 -2.6117160571275253 -0.34578261719790782 0 0 0 0 18.456094512014804 -98.572736771473942 0 -98.572736771473942 13.213859818608398 0 0 0 0 27.0338654042515 -16.337723472435073 0 -16.337723472435073 -113.99673178344381 0 0 0 0 39.713885177088407 -31.445513197982336 0 -31.445513197982336 -183.4016686442742 0 0 0 0 23.888975185796731 -48.241505799158858 0 -48.241505799158858 -115.76025265507997 0 0 0 0 -30.601775135296151 21.027557500819285 0 21.027557500819285 -176.3231872115266 0 0 0 0 0.47795088629316113 -2.6348298396214505 0 -2.6348298396214505 -0.2040002987986802 0 0 0 0 -3.971077653710303 11.116787707596814 0 11.116787707596814 -37.330573200056278 0 0 0 0 -25.825681839507482 -62.293611447609237 0 -62.293611447609237 -92.464402380295269 0 0 0 0 0.69887140720677576 -0.92170223333674173 0 -0.92170223333674173 -1.0040267064461421 0 0 0 0 -94.942417748514501 20.492112349344097 0 20.492112349344097 -31.173153916704507 0 0 0 0 -100.71625839825482 -151.8245338629622 0 -151.8245338629622 -215.00202394476298 0 0 0 0 -0.55794993982495145 -0.69933053111856758 0 -0.69933053111856758 0.61875515462584607 0 0 0 0 -123.35574914599147 -126.30592664543201 0 -126.30592664543201 -186.72332201456538 0 0 0 0 -301.37203167875407 -104.22464260034531 0 -104.22464260034531 -20.28396541262282 0 0 0 0 -126.78220851994394 -156.0751013155691 0 -156.0751013155691 -159.10056619617717 0 0 0 0 -15.947678656717954 6.0451332988022841 0 6.0451332988022841 -96.804883422612875 0 0 0 0 -45.760703351089958 -10.295901387199137 0 -10.295901387199137 -108.51204451812737 0 0 0 0 -42.426841080663273 -35.972331564267733 0 -35.972331564267733 -67.979628849131586 0 0 0 0 -69.882765142151641 -30.990072787983308 0 -30.990072787983308 -81.326918580577512 0 0 0 0 -32.169883206483057 31.776446019384935 0 31.776446019384935 -54.513746334476309 0 0 0 0 -44.859119305504422 0.77473545094517249 0 0.77473545094517249 -91.81804138124096 0 0 0 0 25.823875131636459 10.11852810984692 0 10.11852810984692 -24.181448468571944 0 0 0 0 -35.750663825674501 36.309025653187291 0 36.309025653187291 -6.7255859106526259 0 0 0 0 -22.183284237419571 -14.690460303123928 0 -14.690460303123928 3.894341283954418 0 0 0 0 -29.087637998104469 -41.410896525312182 0 -41.410896525312182 -28.316214769023645 0 0 0 0 1.0394116075120801 -2.6723742131056452 0 -2.6723742131056452 2.3727914810343087 0 0 0 0 -60.170793963863353 -31.043800477622426 0 -31.043800477622426 37.394070728427323 0 0 0 0 2.50387450103986 -4.2785068865293852 0 -4.2785068865293852 -9.9864835458174639 0 0 0 0 -4.8213447870369279 -11.818472701210112 0 -11.818472701210112 -14.56693371264646 0 0 0 0 -11.561255509762191 -14.771302675215793 0 -14.771302675215793 -4.2953293515232076 0 0 0 0 -12.676645629381014 -33.591244344185725 0 -33.591244344185725 -46.524423933032267 0 0 0 0 -20.640722396989986 -47.107092288461899 0 -47.107092288461899 -39.381549445861083 0 0 0 0 -2.7417194095521893 -32.269269103037914 0 -32.269269103037914 -53.209234335990459 0 0 0 0 -1.0355438689263252 -27.450731629179359 0 -27.450731629179359 -59.240232752485099 0 0 0 0 -8.0248276523934123 -24.022989933619556 0 -24.022989933619556 -38.703265294946902 0 0 0 0 -1.9079030606264951 -16.830855171617259 0 -16.830855171617259 -66.197147769018102 0 0 0 0 -13.165137469406659 -45.118923103546194 0 -45.118923103546194 -76.299337746913125 0 0 0 0 -3.9922017118462634 -42.540142474036742 0 -42.540142474036742 -84.69699038509134 0 0 0 0 -0.1563873623144616 -43.825430455979586 0 -43.825430455979586 -86.275318440369119 0 0 0 0 -3.8456321244248102 -45.899692601453353 0 -45.899692601453353 -78.144271095015938 0 0 0 0 -13.578303578705004 -38.899827666946749 0 -38.899827666946749 -81.006483368890258 0 0 0 0 -2.5832627458541992 -35.025954148023516 0 -35.025954148023516 -82.253736611278327 0 0 0 0 5.739157441058012 -29.991862317262985 0 -29.991862317262985 -83.83877295306911 0 0 0 0 1.0560461877755785 -40.843723433582227 0 -40.843723433582227 -88.228124147241033 0 0 0 0 9.0510992283641656 -41.068308946319121 0 -41.068308946319121 -99.889047010480226 0 0 0 0 7.373603915716302 -37.962017160009509 0 -37.962017160009509 -88.114216014010708 0 0 0 0 6.5490262660874237 -42.318679508876357 0 -42.318679508876357 -99.701831277829115 0 0 0 0 4.5557590944626511 -49.68375019180985 0 -49.68375019180985 -91.611363465754039 0 0 0 0 -4.6697727802717921 -51.545724232477369 0 -51.545724232477369 -75.299358483860033 0 0 0 0 0.97581552589624643 -46.209779555355908 0 -46.209779555355908 -83.957711575450048 0 0 0 0 -3.6499542099678521 -48.132959477078998 0 -48.132959477078998 -72.709458171908409 0 0 0 0 -16.054002843160887 -57.61665366614659 0 -57.61665366614659 -74.46802079797817 0 0 0 0 -12.862796577924314 -66.004770215047301 0 -66.004770215047301 -86.965704679061218 0 0 0 0 5.0555898395111178 -53.339468717186207 0 -53.339468717186207 -110.11202359792696 0 0 0 0 8.2387647124797212 -42.28164011229228 0 -42.28164011229228 -105.63775196833876 0 0 0 0 2.9732017696161321 -56.668361807138581 0 -56.668361807138581 -139.08666214477125 0 0 0 0 -31.974691247117448 -85.731718292646292 0 -85.731718292646292 -116.91088964417463 0 0 0 0 -33.820127796720499 -77.851728298078342 0 -77.851728298078342 -115.15096724007708 0 0 0 0 3.2218124859210775 -54.515792886178133 0 -54.515792886178133 -154.8078395091361 0 0 0 0 -66.127367512957562 -93.743637123785447 0 -93.743637123785447 -177.267454854471 0 0 0 0 -33.277544995180136 -80.5572104137824 0 -80.5572104137824 -172.50465392216029 0 0 0 0 -89.943141894453106 -122.31158262007875 0 -122.31158262007875 -122.5707191206784 0 0 0 0 -55.687042361477666 -63.899401519269304 0 -63.899401519269304 -57.196015976751369 0 0 0 0 -51.665505768670755 -69.10648784181376 0 -69.10648784181376 -54.056220961590043 0 0 0 0 -39.740930093163286 -40.69633236731238 0 -40.69633236731238 -24.549822724427941 0 0 0 0 -25.498229061021732 -62.075568285249119 0 -62.075568285249119 -68.636108615753983 0 0 0 0 -46.197303427756196 -40.931256716054577 0 -40.931256716054577 -55.865423412199334 0 0 0 0 -105.00777239948457 -86.399951689577733 0 -86.399951689577733 -70.659367014476629 0 0 0 0 -59.297153125118484 -22.450035858060346 0 -22.450035858060346 -62.488361347325736 0 0 0 0 -22.305350928781536 -6.0396713153668315 0 -6.0396713153668315 -40.969789914065018 0 0 0 0 26.320841873951053 1.0020989624207459 0 1.0020989624207459 -33.333644925991393 0 0 0 0 -42.101217188277587 -9.6722847920877939 0 -9.6722847920877939 -11.850297275503181 0 0 0 0 -48.984043936110993 -41.821838185890556 0 -41.821838185890556 -31.965134715488603 0 0 0 0 -191.38462602307118 -153.66364353439212 0 -153.66364353439212 -72.078727337167038 0 0 0 0 91.527553055831959 19.266514017673899 0 19.266514017673899 -65.212065551371779 0 0 0 0 -88.935394682732294 32.383725442602781 0 32.383725442602781 53.347980243897837 0 0 0 0 -24.603398298734419 -121.78248483802918 0 -121.78248483802918 -323.56554065749003 0 0 0 0 -1.4802694006629529 -0.47913897143147466 0 -0.47913897143147466 0.00037342975107479415 0 0 0 0 -22.520199341027364 -38.398630723999304 0 -38.398630723999304 -167.43226327367302 0 0 0 0 -22.429018028983023 -34.512930108887758 0 -34.512930108887758 -92.693819326327684 0 0 0 0 -8.1152122479483637 -34.021297897086015 0 -34.021297897086015 -110.19609057492079 0 0 0 0 -24.520688883789944 -56.740205929757849 0 -56.740205929757849 -96.977553610542088 0 0 0 0 -50.715509831245697 -52.700403125327284 0 -52.700403125327284 -60.659080420775354 0 0 0 0 -33.451423490528896 -37.638245003344764 0 -37.638245003344764 -59.917161727897025 0 0 0 0 -41.891418374462319 -33.913242693247867 0 -33.913242693247867 -51.573368446840504 0 0 0 0 -14.65865261902735 -42.068396472609265 0 -42.068396472609265 -76.706134069399013 0 0 0 0 -15.220035153491153 -42.997655402285091 0 -42.997655402285091 -76.587714926519084 0 0 0 0 -29.119398851878941 -34.725707120899187 0 -34.725707120899187 -62.746924096031762 0 0 0 0 -31.755072607382772 -23.695191057681313 0 -23.695191057681313 -70.553008073742149 0 0 0 0 -30.279835841644172 -27.470001558382819 0 -27.470001558382819 -61.106483592608129 0 0 0 0 -23.466967107902974 -18.230416595547467 0 -18.230416595547467 -48.589258559870245 0 0 0 0 -24.286736371652751 -16.458872243023507 0 -16.458872243023507 -52.30435662252421 0 0 0 0 -9.1140492548781822 -2.5123721884533552 0 -2.5123721884533552 -41.25308114814743 0 0 0 0 -50.80256131204419 -44.186516288135863 0 -44.186516288135863 -48.541336659820445 0 0 0 0 -32.303662640690391 -23.642732187726779 0 -23.642732187726779 -43.144526012499227 0 0 0 0 -37.935469864509969 -19.681197066156983 0 -19.681197066156983 -37.113816802333531 0 0 0 0 -59.087202920815912 -20.578664790036441 0 -20.578664790036441 -22.451093862637208 0 0 0 0 -17.320439864842228 -19.344778458427299 0 -19.344778458427299 -13.82283427854145 0 0 0 0 -15.956772307036772 -4.8525564993369699 0 -4.8525564993369699 -33.476154316278325 0 0 0 0 -16.300211357327271 -5.3054075699938039 0 -5.3054075699938039 -25.388983026046844 0 0 0 0 11.857041703385676 10.101841996528947 0 10.101841996528947 -24.265991623529317 0 0 0 0 4.2168200338714996 9.3320238146416159 0 9.3320238146416159 -32.778995738972753 0 0 0 0 -10.910692439762215 2.3236612328646515 0 2.3236612328646515 -31.398179838136457 0 0 0 0 0.45390060326985804 12.664569410050717 0 12.664569410050717 -35.772302356255295 0 0 0 0 5.3996970050853861 5.2870104937121596 0 5.2870104937121596 -40.813930980209989 0 0 0 0 1.6859388913841258 6.0562450464424273 0 6.0562450464424273 -49.96917340275013 0 0 0 0 1.8565335645689629 7.0714501903648852 0 7.0714501903648852 -41.498419450056645 0 0 0 0 -1.7763524729125493 7.5288760328940043 0 7.5288760328940043 -38.327038154149704 0 0 0 0 -0.86206198273498558 9.0173923159709375 0 9.0173923159709375 -42.468099855239871 0 0 0 0 -11.755904877156809 10.021069037105917 0 10.021069037105917 6.0744840351921994 0 0 0 0 -6.4498068272603177 11.028123965304985 0 11.028123965304985 -14.968038704128048 0 0 0 0 -0.48240770980964953 13.127351799711505 0 13.127351799711505 -33.993525362524451 0 0 0 0 3.3512062529084119 11.802246570815214 0 11.802246570815214 -32.281596855735188 0 0 0 0 -0.11930426231640467 12.488866521295677 0 12.488866521295677 -32.417327301840487 0 0 0 0 1.6047006498311021 4.8925848392034368 0 4.8925848392034368 -16.361340854473383 0 0 0 0 6.2943205033550953 6.6628846320826369 0 6.6628846320826369 -25.100959925599454 0 0 0 0 5.5700094885575595 1.2762792141893442 0 1.2762792141893442 -20.081900786288315 0 0 0 0 -2.3249549727700014 -1.8536887997947815 0 -1.8536887997947815 -9.2063438998866332 0 0 0 0 4.6014325461127328 8.4897904251367891 0 8.4897904251367891 -31.875295912894217 0 0 0 0 0.76419863825116163 6.4509022772772253 0 6.4509022772772253 -2.9462997398552848 0 0 0 0 1.6351934368858565 11.957706005807268 0 11.957706005807268 -29.423511252127355 0 0 0 0 0.5643816310434886 -0.37084286126253119 0 -0.37084286126253119 -19.141816291734358 0 0 0 0 0.74599655014268507 -3.1611030726190554 0 -3.1611030726190554 -10.304830461149944 0 0 0 0 0.87695074234835602 -3.1041431587993884 0 -3.1041431587993884 -7.6494198373839026 0 0 0 0 2.573786047088845 -4.9909984769882385 0 -4.9909984769882385 -9.1794530381985169 0 0 0 0 0.91997344409765525 0.59496726673991951 0 0.59496726673991951 -3.6436591500789817 0 0 0 0 0.46453185194157243 -5.6477057784839531 0 -5.6477057784839531 -9.378259858716774 0 0 0 0 0.10847273230913856 -4.2083117983330567 0 -4.2083117983330567 -7.9214752629941358 0 0 0 0 2.6235085763729558 -4.5796368225423976 0 -4.5796368225423976 -12.239538001271285 0 0 0 0 2.1914216211473558 -4.1109393105948584 0 -4.1109393105948584 -11.057814704173325 0 0 0 0 -3.4770544808532691 -3.5750682980003603 0 -3.5750682980003603 -6.4063708422086165 0 0 0 0 0.077568990148596195 0.20424092455423826 0 0.20424092455423826 -0.82747799408469902 0 0 0 0 -3.8096133181222847 -3.9472120975044902 0 -3.9472120975044902 -5.8854919484701895 0 0 0 0 -3.5311728603423944 -7.2474997723388697 0 -7.2474997723388697 -10.215762650654142 0 0 0 0 -2.1172231369440055 -1.7419364975847884 0 -1.7419364975847884 -4.1032103785728395 0 0 0 0 1.7056411988507989 -0.99896626673807987 0 -0.99896626673807987 1.6660180431642857 0 0 0 0 0.38081464393759745 0.72409634742474971 0 0.72409634742474971 -0.69957794072672019 0 0 0 0 -0.77735040702395963 -3.9984962231264944 0 -3.9984962231264944 -7.9320903929260567 0 0 0 0 0.1504870424118715 0.15210918378952965 0 0.15210918378952965 -0.88392158635154061 0 0 0 0 5.1622583603224825 -4.3660565011040262 0 -4.3660565011040262 -25.451695089544046 0 0 0 0 -15.521733563934362 -22.734760707931628 0 -22.734760707931628 -20.187121429918989 0 0 0 0 3.9713626009890959 -2.6085094547411245 0 -2.6085094547411245 -3.6880121023959873 0 0 0 0 -18.030207314636755 8.4986783438689599 0 8.4986783438689599 -1.8845622056974207 0 0 0 0 -16.432605313474141 23.589607166121368 0 23.589607166121368 -20.311065818504176 0 0 0 0 0.16305038566614427 -0.21439055169154675 0 -0.21439055169154675 -0.5420664397190329 0 0 0 0 -1.5424181059523789 3.9248220464605765 0 3.9248220464605765 -33.943751166429138 0 0 0 0 -45.382461310069971 -22.369366604224751 0 -22.369366604224751 -58.320405646578365 0 0 0 0 -9.4723841940435705 -13.639493036092972 0 -13.639493036092972 -82.281463823545892 0 0 0 0 -4.32791216551459 26.041543056952833 0 26.041543056952833 -47.221131420942129 0 0 0 0 -6.096107826769412 -25.501683732124548 0 -25.501683732124548 -73.904092075883455 0 0 0 0 -5.477171599424878 -24.036762013044608 0 -24.036762013044608 -75.562166045984668 0 0 0 0 -17.368022283760354 -41.517571096381289 0 -41.517571096381289 -80.224879427620181 0 0 0 0 -26.420461079940935 -5.952171458786097 0 -5.952171458786097 -87.00377427451167 0 0 0 0 7.017793862528265 -20.038730533473426 0 -20.038730533473426 -73.081090227045991 0 0 0 0 4.9618005484815981 -33.211511669753918 0 -33.211511669753918 -92.845945314980781 0 0 0 0 14.457138776246737 -24.415257842499614 0 -24.415257842499614 -105.8685994932257 0 0 0 0 11.070522135087586 -18.433197891000418 0 -18.433197891000418 -78.124581975997899 0 0 0 0 2.377273375285661 4.0425702465417999 0 4.0425702465417999 -39.474744107197694 0 0 0 0 5.1541162108511003 -26.930115408229085 0 -26.930115408229085 -63.904321239534511 0 0 0 0 -29.132689334566521 -22.702336151998225 0 -22.702336151998225 -136.19919862462757 0 0 0 0 -13.700887074234473 -58.008954652828436 0 -58.008954652828436 -233.37162602470926 0 0 0 0 -34.27706371062277 3.7336271560043315 0 3.7336271560043315 -193.11597768919455 0 0 0 0 -15.533676549463507 -46.777980893284621 0 -46.777980893284621 -148.07518263979 0 0 0 0 3.564900085894692 -27.662392444536636 0 -27.662392444536636 -173.91981264112565 0 0 0 0 8.8177965209172555 -22.853685743432379 0 -22.853685743432379 -88.61489348527175 0 0 0 0 10.849936395188877 -23.875445057278739 0 -23.875445057278739 -121.26262744523956 0 0 0 0 1.4301009861739935 -23.128777048792813 0 -23.128777048792813 -117.78250115752962 0 0 0 0 1.2212099922512607 4.114557354997487 0 4.114557354997487 -73.193884530717696 0 0 0 0 8.9441712571819991 -11.12430009977561 0 -11.12430009977561 -60.739727680716442 0 0 0 0 4.5156212999369245 5.6290756963999229 0 5.6290756963999229 -105.01381926517706 0 0 0 0 -12.959190896437349 18.324721350229538 0 18.324721350229538 -60.340590536715808 0 0 0 0 -13.476720296078838 -8.1684321217710476 0 -8.1684321217710476 -71.9705140729493 0 0 0 0 -15.147063935919789 13.73014483787756 0 13.73014483787756 -138.48342505847086 0 0 0 0 -16.742768465115269 -20.888441267853409 0 -20.888441267853409 -48.611624049067359 0 0 0 0 -6.070476388639662 -8.8786629680876104 0 -8.8786629680876104 -12.866806483762502 0 0 0 0 3.8000291242150093 14.998848871667633 0 14.998848871667633 -28.988763160217786 0 0 0 0 -2.3430589158946873 2.9190145005550221 0 2.9190145005550221 0.84785092209244795 0 0 0 0 -18.330448459586819 11.731387463062219 0 11.731387463062219 18.021426701681776 0 0 0 0 -2.1814498782027556 1.3339985949017219 0 1.3339985949017219 -0.50258589453278812 0 0 0 0 -6.98473054569331 4.0661558899041665 0 4.0661558899041665 -2.756921367416453 0 0 0 0 -0.36185033370330166 0.96982361459226851 0 0.96982361459226851 -0.73366868664231077 0 0 0 0 -9.648677032765395 12.759498460445684 0 12.759498460445684 10.743138597667439 0 0 0 0 9.4105454560168482 -9.2220055843786213 0 -9.2220055843786213 -29.331179919439819 0 0 0 0 -1.458764118410568 1.2095262837492591 0 1.2095262837492591 -0.47814091944775416 0 0 0 0 -3.2834045107953784 3.848661847920539 0 3.848661847920539 1.8868852368543685 0 0 0 0 0.35258867675111105 -0.35316682773191133 0 -0.35316682773191133 0.91172163799251393 0 0 0 0 -3.8227393277273691 -2.6226833312207418 0 -2.6226833312207418 0.81496232746212627 0 0 0 0 -0.2428481123221502 3.0159441252483248 0 3.0159441252483248 -9.8105543202555054 0 0 0 0 -4.3540302818888108 6.1786023648592163 0 6.1786023648592163 -4.067025658961029 0 0 0 0 0.057038191864077881 -0.089729373420694536 0 -0.089729373420694536 -0.40547626370576495 0 0 0 0 -0.52059885780909099 5.9587471294034913 0 5.9587471294034913 -22.506646591711615 0 0 0 0 -5.0605853783188195 1.9993130059583564 0 1.9993130059583564 -5.8530283382719972 0 0 0 0 -2.4605227097006264 -1.0682095142697108 0 -1.0682095142697108 -4.751825960584938 0 0 0 0 -1.0453674411305087 0.37555580957860002 0 0.37555580957860002 -15.221958137044567 0 0 0 0 -1.790603596760775 -9.3756166172011035 0 -9.3756166172011035 -26.044843135579868 0 0 0 0 -5.059188103166548 -5.6812838173327691 0 -5.6812838173327691 -12.51728757048204 0 0 0 0 0.10300653708155472 0.028352267432794065 0 0.028352267432794065 -0.13330390634751588 0 0 0 0 -17.615979987705288 7.3752881246588231 0 7.3752881246588231 -24.38513045619402 0 0 0 0 5.9383534982670199 9.2396117397668149 0 9.2396117397668149 -37.731528475565028 0 0 0 0 -1.0475258299751999 1.7675456518823012 0 1.7675456518823012 -4.5862447986564803 0 0 0 0 -2.6112009727436316 -0.64906707463387647 0 -0.64906707463387647 -4.9519058031719396 0 0 0 0 0.34760106017674275 2.6085113798750399 0 2.6085113798750399 -6.9586547957687799 0 0 0 0 -2.767682534457208 -0.34329091806739598 0 -0.34329091806739598 -6.101634193734526 0 0 0 0 -2.6715027079733318 -3.0201805666142718 0 -3.0201805666142718 -9.9242586534510338 0 0 0 0 -2.0498607777903999 -2.979190590399412 0 -2.979190590399412 -10.551553038639213 0 0 0 0 -1.610368243422414 -0.40930075459198179 0 -0.40930075459198179 -6.0438186125402353 0 0 0 0 -2.8545096306813207 -3.4028701771267151 0 -3.4028701771267151 -8.1419243882223782 0 0 0 0 -3.9602942861491641 -4.1048988048748924 0 -4.1048988048748924 -7.0097161911871808 0 0 0 0 0.11867889832614753 0.03394651230057022 0 0.03394651230057022 -0.15621626886028039 0 0 0 0 -3.4468314474277406 -6.0844510786749311 0 -6.0844510786749311 -11.087328862940012 0 0 0 0 -0.0012335903270077608 0.066779722410810649 0 0.066779722410810649 -0.044713909815411235 0 0 0 0 -4.0542267961462812 -10.953104395986657 0 -10.953104395986657 -16.755365144152165 0 0 0 0 -7.3418348937796623 -14.628373249610377 0 -14.628373249610377 -19.404397317282474 0 0 0 0 -7.8929252515009374 -8.1621777428578497 0 -8.1621777428578497 -9.9745373010600815 0 0 0 0 0.099435217660511666 0.033053190157337653 0 0.033053190157337653 -0.12594382187484499 0 0 0 0 -12.228622416974652 -13.475648509044902 0 -13.475648509044902 -14.493570194340464 0 0 0 0 -3.259726625826147 -7.3804915056925893 0 -7.3804915056925893 -11.781120983503115 0 0 0 0 -9.53165782062365 -8.394297503949474 0 -8.394297503949474 -1.6148808513635231 0 0 0 0 1.5951042341744142 -5.4032296188133841 0 -5.4032296188133841 -7.7647848614847135 0 0 0 0 -0.045896464811050475 0.063624355637436736 0 0.063624355637436736 -0.039736641264262573 0 0 0 0 2.7012023589675209 -0.093749369031229435 0 -0.093749369031229435 -11.27972653722918 0 0 0 0 -6.0724585856361841 3.3245305367470337 0 3.3245305367470337 2.5375082195514551 0 0 0 0 -0.0075153195583843591 0.1092253442703548 0 0.1092253442703548 -0.053652143560380949 0 0 0 0 -12.434445827953596 -1.7201778357730291 0 -1.7201778357730291 -11.419639122849958 0 0 0 0 2.8037057650738006 0.61749613517417856 0 0.61749613517417856 -12.330366474027869 0 0 0 0 2.9022476930684888 -1.8582452775326601 0 -1.8582452775326601 -11.633801239114291 0 0 0 0 3.9644732507584592 1.2769089498729045 0 1.2769089498729045 -13.116642172652064 0 0 0 0 -0.46480870989444156 1.1920882430758866 0 1.1920882430758866 -13.373046371856617 0 0 0 0 1.2895044372501161 -5.576489091331041 0 -5.576489091331041 1.1296645008351334 0 0 0 0 -2.7802655249655572 6.8103709069287106 0 6.8103709069287106 -3.5126924494938976 0 0 0 0 0.74704987846231896 -0.1105513342935005 0 -0.1105513342935005 -0.26819351508113343 0 0 0 0 6.6763812908743603 -6.3734262953730649 0 -6.3734262953730649 -10.233577643050467 0 0 0 0 -4.7752058505727746 -9.0355667825924684 0 -9.0355667825924684 -17.677692856714657 0 0 0 0 -3.864288475404237 -13.746421761781676 0 -13.746421761781676 -19.557359521570106 0 0 0 0 0.90119656074350019 -0.12752294499058081 0 -0.12752294499058081 0.19997971875545417 0 0 0 0 2.2979432499904533 -3.4635833425152214 0 -3.4635833425152214 -11.341042035994178 0 0 0 0 0.5318034555833151 -5.1311864236041629 0 -5.1311864236041629 -10.865169812548629 0 0 0 0 -3.355021504209617 -1.3438613225825975 0 -1.3438613225825975 -8.1227451201084477 0 0 0 0 1.8337967458403455 -2.6643030889626971 0 -2.6643030889626971 -7.8285516720488886 0 0 0 0 1.2616073290473651 0.45071743600647096 0 0.45071743600647096 -3.9868513844112385 0 0 0 0 0.047448353505489926 0.13660660806530522 0 0.13660660806530522 -0.069364539309400008 0 0 0 0 3.7935865242164084 -4.4709354774647068 0 -4.4709354774647068 -17.595601019441347 0 0 0 0 3.869486515437643 -2.9681037730460957 0 -2.9681037730460957 -13.35619754527761 0 0 0 0 2.8022855315389279 -3.5927446257583142 0 -3.5927446257583142 -11.33846515742826 0 0 0 0 2.743617145784583 -4.0058469251657698 0 -4.0058469251657698 -13.392605006922167 0 0 0 0 2.6862737641142758 -4.3272769504583266 0 -4.3272769504583266 -12.152410462484113 0 0 0 0 1.5156792824220702 -5.462307969170979 0 -5.462307969170979 -12.007591512418003 0 0 0 0 2.6665560723799189 -4.1055651543410079 0 -4.1055651543410079 -14.208415032575431 0 0 0 0 1.3922206151549261 -6.1974451969688289 0 -6.1974451969688289 -13.787384456237305 0 0 0 0 1.159924900633996 -6.5610450548588233 0 -6.5610450548588233 -14.045129401604754 0 0 0 0 0.29681617299229401 -9.8080661042486099 0 -9.8080661042486099 -23.23552606766043 0 0 0 0 -17.945037064447433 -20.315319835744504 0 -20.315319835744504 -23.117927765279092 0 0 0 0 -11.434104036477038 -10.142776652318389 0 -10.142776652318389 -9.084759454086452 0 0 0 0 -18.186140617008959 -22.771414257185825 0 -22.771414257185825 -25.55697748370585 0 0 0 0 -5.168192703883733 -5.4637917520631163 0 -5.4637917520631163 -21.728511473506501 0 0 0 0 -7.1608424444659704 -14.10961626531298 0 -14.10961626531298 -45.437467164448208 0 0 0 0 0.56475531572152704 2.3570329343192498 0 2.3570329343192498 -25.681626460898769 0 0 0 0 -2.0970293617650668 -7.2352710134719018 0 -7.2352710134719018 -24.596374277716677 0 0 0 0 2.5136726367854862 -3.6626118448939451 0 -3.6626118448939451 -20.900819372305705 0 0 0 0 2.4325554868439667 -2.0105172388375649 0 -2.0105172388375649 -12.666270587403574 0 0 0 0 0.62256084324371841 -3.3342616963586806 0 -3.3342616963586806 -20.313373460492585 0 0 0 0 35.667736287729667 -39.976216766529433 0 -39.976216766529433 -209.36745238351432 0 0 0 0 -37.488119152839772 -78.921861235160577 0 -78.921861235160577 -178.43797294425985 0 0 0 0 90.143484651850258 59.997021086508539 0 59.997021086508539 -138.80225355556831 0 0 0 0 -5.7098780134332401 74.288912794634598 0 74.288912794634598 19.510035037334092 0 0 0 0 -9.887488013840084 -4.7944427595675734 0 -4.7944427595675734 -54.46952091233652 0 0 0 0 -25.281913506044248 15.289433107954665 0 15.289433107954665 13.124817752943272 0 0 0 0 3.8881891920673297 19.097038786710982 0 19.097038786710982 -64.899031106922848 0 0 0 0 -31.226761695010737 -17.328317257839444 0 -17.328317257839444 -52.805376408633492 0 0 0 0 9.239236895118097 -17.526769058644732 0 -17.526769058644732 -123.11021506827456 0 0 0 0 7.2258021838870263 -40.765283730822375 0 -40.765283730822375 -163.55097100545572 0 0 0 0 35.979359184585924 28.934659927698203 0 28.934659927698203 -93.343408754615666 0 0 0 0 -0.15595556665798549 -0.18219528148465258 0 -0.18219528148465258 -1.3834287998196864 0 0 0 0 42.286694913303222 -28.037332269306717 0 -28.037332269306717 -44.893578972474643 0 0 0 0 5.0490438387187169 -27.832354121606841 0 -27.832354121606841 -171.77313520834696 0 0 0 0 0.77217135608791931 0.3932267380057175 0 0.3932267380057175 -0.12680376462661158 0 0 0 0 -3.5722787448903546 -41.955578002774928 0 -41.955578002774928 -16.122517867421266 0 0 0 0 -13.869598552072148 -33.054628528543617 0 -33.054628528543617 6.4496351324241914 0 0 0 0 -0.93709371532469277 -60.23303566021491 0 -60.23303566021491 -77.711133822180273 0 0 0 0 23.613734994325114 -34.68837761940631 0 -34.68837761940631 -55.401335036533965 0 0 0 0 1.8392218320616789 -0.31370613534471659 0 -0.31370613534471659 -7.2936684383567822 0 0 0 0 3.0977330324126342 8.1589936038622 0 8.1589936038622 8.2184653365256963 0 0 0 0 -92.43616938342052 36.472601890729948 0 36.472601890729948 -18.120357456620695 0 0 0 0 0.071276208251805473 0.80095141695177841 0 0.80095141695177841 -0.72842042562021092 0 0 0 0 2.8415192816312405 2.0611100480923685 0 2.0611100480923685 0.031862453984894401 0 0 0 0 -8.314952843695778 28.241269188170918 0 28.241269188170918 -19.641004090130991 0 0 0 0 29.21730756880072 46.271991466714098 0 46.271991466714098 -82.518751233293187 0 0 0 0 27.245127731385537 84.357983670955036 0 84.357983670955036 -59.702215689519562 0 0 0 0 -0.40749407821988126 -0.75001923704458662 0 -0.75001923704458662 -1.047889172624032 0 0 0 0 -27.564385172564776 -68.675776530596522 0 -68.675776530596522 -11.660535874418201 0 0 0 0 31.853131930394397 49.695748791235019 0 49.695748791235019 -120.922352491124 0 0 0 0 32.85170345960853 -11.207642321322965 0 -11.207642321322965 18.641139036835739 0 0 0 0 25.073561327184734 74.10725729027854 0 74.10725729027854 -106.70697103429529 0 0 0 0 7.0426094938487154 -12.126312110384788 0 -12.126312110384788 -29.892567537045579 0 0 0 0 13.122608171792635 -24.708969734438597 0 -24.708969734438597 -4.4807689625340572 0 0 0 0 -1.6621418069164244 -1.8929082702140931 0 -1.8929082702140931 -1.7937351903104641 0 0 0 0 -77.881195949883477 -136.10664612991059 0 -136.10664612991059 -97.913061247470523 0 0 0 0 2.4572414229140733 -16.762434537240779 0 -16.762434537240779 5.1122821642675262 0 0 0 0 -27.117586738508862 91.788729984941256 0 91.788729984941256 -11.177340220236147 0 0 0 0 1.3432119513967109 -18.630445626398341 0 -18.630445626398341 3.1091209626829368 0 0 0 0 2.5337578414273878 -23.589592176628685 0 -23.589592176628685 23.399289946167301 0 0 0 0 6.8634081782411727 -18.035094956603643 0 -18.035094956603643 2.3124543883068327 0 0 0 0 9.7899112054087141 -10.183537477046229 0 -10.183537477046229 -4.9673524828731388 0 0 0 0 5.917160734919122 -13.475842348198967 0 -13.475842348198967 -6.4263735188669671 0 0 0 0 -1.6365845833747414 -13.303859587931584 0 -13.303859587931584 -6.1360871889219197 0 0 0 0 -0.74935769341064784 -9.8070071602364806 0 -9.8070071602364806 -10.78031895685308 0 0 0 0 8.5377919094687371 -13.922985851544468 0 -13.922985851544468 -9.6832897542899445 0 0 0 0 -3.5113595178815018 -21.323985970590002 0 -21.323985970590002 -15.312880535650038 0 0 0 0 8.021111168371732 -13.751662148792093 0 -13.751662148792093 -11.314163819476562 0 0 0 0 10.679414670310848 -11.453117922558704 0 -11.453117922558704 -10.789890893189749 0 0 0 0 10.540177250846682 -8.1099311645093621 0 -8.1099311645093621 -10.539867244824563 0 0 0 0 12.467245830041051 -11.170656729826078 0 -11.170656729826078 -16.010061908944408 0 0 0 0 16.152158822125898 -6.0850502820358088 0 -6.0850502820358088 -10.118355403583564 0 0 0 0 8.1422320777386474 -3.8683044707606768 0 -3.8683044707606768 -6.1137686356232734 0 0 0 0 9.7557373800673943 -2.8679914844540235 0 -2.8679914844540235 -6.4219959538831972 0 0 0 0 11.099412026240657 -2.7479582309797479 0 -2.7479582309797479 -11.148922441267132 0 0 0 0 10.465275333399433 -6.3924728093688827 0 -6.3924728093688827 -4.560109856121926 0 0 0 0 6.0901931288685489 -5.0971015818759042 0 -5.0971015818759042 -3.7932861629660692 0 0 0 0 7.0654589973406701 -2.8524962193537249 0 -2.8524962193537249 -5.4302641089288954 0 0 0 0 5.6549650405277134 -10.024633849421207 0 -10.024633849421207 6.5312729428005696 0 0 0 0 5.4628337214074634 26.651808804650386 0 26.651808804650386 7.5829617823428634 0 0 0 0 -9.4538349775406232 -11.67474892752216 0 -11.67474892752216 60.58080979636452 0 0 0 0 -2.1767436431159144 -1.670387480226303 0 -1.670387480226303 -2.3493602920748238 0 0 0 0 -0.035683938935085813 1.2354304375767802 0 1.2354304375767802 -5.0695064407974968 0 0 0 0 3.6826602969540545 -1.6806284626945853 0 -1.6806284626945853 -5.3502438182458718 0 0 0 0 1.1995624705129444 6.8645206732451243 0 6.8645206732451243 -2.3998634126519391 0 0 0 0 -0.12158904098082601 4.1345778679383329 0 4.1345778679383329 -2.6130549633435294 0 0 0 0 -0.23645876492525986 1.2791181774277902 0 1.2791181774277902 -2.1456619998389215 0 0 0 0 -0.36506500593543478 0.79490149878120064 0 0.79490149878120064 -2.8356681115858464 0 0 0 0 -0.7575768640053302 0.75913763115115707 0 0.75913763115115707 0.010079331271757752 0 0 0 0 -1.1286987202162475 0.69575916163955753 0 0.69575916163955753 -3.4370845930461655 0 0 0 0 -4.0304689685932118 0.20707311263777228 0 0.20707311263777228 -2.8176281196429045 0 0 0 0 -0.20645916809438761 0.76697444913507962 0 0.76697444913507962 -1.358062657708814 0 0 0 0 -5.2258626030357505 0.29562452652862703 0 0.29562452652862703 -0.30239243747928413 0 0 0 0 -4.5799993397727476 -3.0076607379805864 0 -3.0076607379805864 -4.1497249546741841 0 0 0 0 -2.2372078713638928 -2.6565073560093424 0 -2.6565073560093424 -2.5017036067292793 0 0 0 0 -4.5560249937906008 -1.3080551832617857 0 -1.3080551832617857 -3.1397667866976917 0 0 0 0 -0.45002491517186627 0.87083827455035134 0 0.87083827455035134 -2.6873657403202742 0 0 0 0 -0.25673428117352759 0.65646915404492301 0 0.65646915404492301 -1.5913073288740875 0 0 0 0 -3.7790320737500736 -0.41911890474511893 0 -0.41911890474511893 -0.67576043055078117 0 0 0 0 -1.3374492516045393 0.23020602314318239 0 0.23020602314318239 -1.1784898507717116 0 0 0 0 -1.3635430183643962 -0.31594850396504626 0 -0.31594850396504626 -2.288728020942699 0 0 0 0 -0.68753122886995044 0.72938843418536337 0 0.72938843418536337 -1.9021152350721806 0 0 0 0 -4.7969686092667416 -6.6674618748234025 0 -6.6674618748234025 -8.9937468366229041 0 0 0 0 -5.8180700688177751 -4.2369940469498033 0 -4.2369940469498033 -5.1298038064524007 0 0 0 0 -5.0833968237915457 -5.3913529801397999 0 -5.3913529801397999 -8.0779525012158047 0 0 0 0 -7.3249468839696306 -4.0262700778175713 0 -4.0262700778175713 -3.914159335059594 0 0 0 0 -4.0226889266855039 -3.6889796080158703 0 -3.6889796080158703 -4.8621901839205748 0 0 0 0 -2.7314751431388942 -2.1282376134788592 0 -2.1282376134788592 -4.040388797669948 0 0 0 0 -3.6502285914922084 -0.93784253888679814 0 -0.93784253888679814 -2.6894586760763559 0 0 0 0 -4.9342527864920385 -2.3058463060242502 0 -2.3058463060242502 -3.0751906136028992 0 0 0 0 -4.3667966204764426 -4.4446931225288608 0 -4.4446931225288608 -5.6941702820568025 0 0 0 0 -2.9973320253506586 -2.0160953196009359 0 -2.0160953196009359 -5.4558326842922042 0 0 0 0 -3.495819798932871 -1.6159997175476519 0 -1.6159997175476519 -3.9334400072348217 0 0 0 0 -2.6801275389589136 -0.84838483916564655 0 -0.84838483916564655 -4.7457425541019802 0 0 0 0 -1.9865693144863599 1.0119746581658546 0 1.0119746581658546 -3.0314138198946239 0 0 0 0 -2.4807568440619567 0.44875884860704218 0 0.44875884860704218 -1.2856215427036659 0 0 0 0 -1.8247838429782064 -1.2792869952613728 0 -1.2792869952613728 -2.9613639060398782 0 0 0 0 -0.91109824929608785 0.29545944756072196 0 0.29545944756072196 -0.57938666552085571 0 0 0 0 -1.0403264034973745 0.089647931065428565 0 0.089647931065428565 -1.3996951506278492 0 0 0 0 -0.71848681630758704 0.74054579966011591 0 0.74054579966011591 -1.5114357517076549 0 0 0 0 -1.5165996691698993 1.5607170704099644 0 1.5607170704099644 -2.3174310608474116 0 0 0 0 -2.3266625693448759 2.2905969802641266 0 2.2905969802641266 -1.0898256311779733 0 0 0 0 -2.059765935220284 0.73903162763667751 0 0.73903162763667751 -2.6764654097978564 0 0 0 0 7.309321677184812 -31.837943268043091 0 -31.837943268043091 -51.731932411396883 0 0 0 0 -0.30159145302530987 0.41376919581466609 0 0.41376919581466609 -2.190744030885071 0 0 0 0 -1.0169859014084466 -0.015464206874185038 0 -0.015464206874185038 -1.8822628646078101 0 0 0 0 -0.21098914424779935 0.49467269215875476 0 0.49467269215875476 -1.2726033667363907 0 0 0 0 -27.992049742196741 -40.411015641970153 0 -40.411015641970153 -49.340527270095663 0 0 0 0 -18.876654128800396 -24.620070659469093 0 -24.620070659469093 -89.366958463035189 0 0 0 0 -0.19406838513655211 0.14466144604275222 0 0.14466144604275222 -0.23992370076266134 0 0 0 0 9.3227682783385717 -72.903344666915473 0 -72.903344666915473 -143.17979643748913 0 0 0 0 18.319200548022252 -5.0762338241579528 0 -5.0762338241579528 -0.14967932087347435 0 0 0 0 -19.150231686724283 -39.141619433336928 0 -39.141619433336928 -42.781421086732735 0 0 0 0 -28.189145614740028 -77.758994939343211 0 -77.758994939343211 -66.42640672120433 0 0 0 0 8.6240246887330159 -39.622425450796072 0 -39.622425450796072 -74.199204752755804 0 0 0 0 -6.0086392475789125 -33.983767345265733 0 -33.983767345265733 -29.608456617581396 0 0 0 0 32.243895736804689 -19.318137161997583 0 -19.318137161997583 -38.648592870726588 0 0 0 0 8.088175998434906 -26.903570012372711 0 -26.903570012372711 -18.132830711501811 0 0 0 0 -10.736274057816331 -39.927728713777014 0 -39.927728713777014 -21.041726594956344 0 0 0 0 14.943127939979831 -37.156016051074857 0 -37.156016051074857 -44.89508904959439 0 0 0 0 -8.0568017062816466 -55.773060194332629 0 -55.773060194332629 -56.838916777602208 0 0 0 0 -16.650788081290784 -38.287177232463364 0 -38.287177232463364 -42.076139912833241 0 0 0 0 -24.141085529955348 -43.627412434667235 0 -43.627412434667235 -47.631926190233571 0 0 0 0 -30.785934810234494 -40.953248037977573 0 -40.953248037977573 -45.529029041215836 0 0 0 0 -21.707855992198262 -54.669010436032977 0 -54.669010436032977 -31.117515834375808 0 0 0 0 -9.3090969059062445 -34.391067538062998 0 -34.391067538062998 -45.544133154285191 0 0 0 0 -2.7170907651013749 -52.546269099058918 0 -52.546269099058918 -26.601664068962236 0 0 0 0 -30.460395847484847 -41.899043498772699 0 -41.899043498772699 -24.773510647852163 0 0 0 0 -8.0394129028991301 -28.219272128622833 0 -28.219272128622833 -21.28966376912831 0 0 0 0 61.118515775828655 -19.766909215374653 0 -19.766909215374653 -23.231787703125519 0 0 0 0 45.461852994988078 12.314232018102757 0 12.314232018102757 35.568655015627883 0 0 0 0 52.850453511146839 -18.636624851086708 0 -18.636624851086708 -1.6411785020436582 0 0 0 0 38.858505928087425 -3.1172587190444574 0 -3.1172587190444574 -16.047488093478023 0 0 0 0 24.302643078778829 -37.823066309393653 0 -37.823066309393653 -25.812411930838152 0 0 0 0 5.1059883002075992 -25.330372791556101 0 -25.330372791556101 -7.3437004795396206 0 0 0 0 -4.2209615171838095 -2.2493224980635205 0 -2.2493224980635205 7.7374852331140573 0 0 0 0 -2.5664400995731946 1.3463422745971112 0 1.3463422745971112 -0.66681274334852159 0 0 0 0 -0.071728241039494378 -9.8771801837550584 0 -9.8771801837550584 -5.2669512240336189 0 0 0 0 -38.055357150607563 -36.244198247392887 0 -36.244198247392887 -25.126495277817412 0 0 0 0 -0.26710825054778942 -0.35763269348681437 0 -0.35763269348681437 0.06800594939790372 0 0 0 0 -32.678864547399371 -37.92124783716099 0 -37.92124783716099 -47.145780809044936 0 0 0 0 -63.167779156790914 -39.995698854665989 0 -39.995698854665989 -22.27650351077682 0 0 0 0 -36.753376592133975 -56.814831419846996 0 -56.814831419846996 -29.567488056485672 0 0 0 0 -65.020406559061939 -44.318791759866144 0 -44.318791759866144 -29.394396722244764 0 0 0 0 0.19447642482273253 -0.25754100013478531 0 -0.25754100013478531 -0.16227430188666858 0 0 0 0 -80.90798741045063 -55.964572026867245 0 -55.964572026867245 -32.291462812012469 0 0 0 0 -0.74939026898289285 6.7721350109482046 0 6.7721350109482046 -14.07536340340107 0 0 0 0 -43.263831065586032 -9.0062051397442247 0 -9.0062051397442247 -115.24118670314328 0 0 0 0 -60.730797832695657 6.3507052305030811 0 6.3507052305030811 -61.873287518257257 0 0 0 0 -91.976067603139768 -41.289286339821047 0 -41.289286339821047 -51.182445486614597 0 0 0 0 -56.588290674417635 -42.281651724464155 0 -42.281651724464155 -96.769911756653528 0 0 0 0 -65.429629621911886 -40.546863922263583 0 -40.546863922263583 -52.730234196821584 0 0 0 0 -30.246215656457935 -46.012108527883356 0 -46.012108527883356 -54.829214751728614 0 0 0 0 -54.314676631767384 -30.786420373704686 0 -30.786420373704686 -48.720599243748438 0 0 0 0 -29.262311364918673 -40.193633785107522 0 -40.193633785107522 -128.74634139571572 0 0 0 0 -5.9643852376149198 -11.038342319309322 0 -11.038342319309322 -92.266427523933089 0 0 0 0 32.215812974869152 -8.7706746798717177 0 -8.7706746798717177 -179.52783361557522 0 0 0 0 29.42373204324781 -14.255145097552941 0 -14.255145097552941 -139.74890084400977 0 0 0 0 -30.033439291921923 -82.139385952967132 0 -82.139385952967132 -215.5998255922932 0 0 0 0 112.98773407634326 -283.78087094348302 0 -283.78087094348302 -246.51262345674695 0 0 0 0 -15.477401422751427 -135.43278683045173 0 -135.43278683045173 -28.068798305066593 0 0 0 0 -157.75410976156286 -44.841745896200337 0 -44.841745896200337 -74.991475202461515 0 0 0 0 -32.464326072929964 -34.559289312920555 0 -34.559289312920555 -126.5923041824426 0 0 0 0 -117.8757766329104 -39.594496480576709 0 -39.594496480576709 -92.508591925253768 0 0 0 0 -80.946312127827014 -21.424964034588356 0 -21.424964034588356 -143.44462272637247 0 0 0 0 -216.83324135033536 79.020802108345379 0 79.020802108345379 -167.2271695308732 0 0 0 0 -62.895214275556214 52.325308388753911 0 52.325308388753911 -369.22478898872396 0 0 0 0 -47.269305794416027 -27.465017312433247 0 -27.465017312433247 -216.47751542022343 0 0 0 0 -127.52983315808569 30.291137146768961 0 30.291137146768961 -130.25545512642384 0 0 0 0 140.86931864373059 59.843745235547772 0 59.843745235547772 -13.560844790640658 0 0 0 0 116.76515473072499 -5.5693195540929992 0 -5.5693195540929992 -51.401204736520867 0 0 0 0 21.791946787519919 -20.395380916109389 0 -20.395380916109389 -3.2919138624474726 0 0 0 0 44.823995249167922 -30.9645285606573 0 -30.9645285606573 -45.375271981524747 0 0 0 0 24.82231254545718 -30.728784627769301 0 -30.728784627769301 -38.262683811131865 0 0 0 0 -30.364620572311196 -40.584119184919018 0 -40.584119184919018 -20.744388892979259 0 0 0 0 -1.2272422529731557 -45.91559018122507 0 -45.91559018122507 -40.152844869042383 0 0 0 0 -5.7187391162912036 -32.380044567060395 0 -32.380044567060395 -100.65026670245334 0 0 0 0 8.854798183046114 -2.4096330982620202 0 -2.4096330982620202 -42.71290355610239 0 0 0 0 48.068123675964785 18.132473932127141 0 18.132473932127141 -140.50247008823499 0 0 0 0 48.208820899662619 22.757643534244224 0 22.757643534244224 -121.16515332599374 0 0 0 0 47.313457431737334 53.956429470414605 0 53.956429470414605 -58.295928644530363 0 0 0 0 77.450199577239175 31.084472848453061 0 31.084472848453061 -93.528894154615955 0 0 0 0 15.014749181758816 -16.549240129778809 0 -16.549240129778809 -6.0212072296581027 0 0 0 0 7.8091107993157607 -3.2406949053060998 0 -3.2406949053060998 -25.158254011633744 0 0 0 0 129.34382038384854 13.848449207040517 0 13.848449207040517 -52.512873055997261 0 0 0 0 -0.036678088500800773 -0.94299184106897238 0 -0.94299184106897238 -8.3547299651899429 0 0 0 0 41.825010187544819 -12.320892220195219 0 -12.320892220195219 -30.79268519753623 0 0 0 0 13.441859536123161 0.80571645589043328 0 0.80571645589043328 10.534788279878057 0 0 0 0 -22.020163052673865 -33.844640914520824 0 -33.844640914520824 -17.799639729471096 0 0 0 0 -3.2061403777243527 6.8569290250643462 0 6.8569290250643462 11.139782701285185 0 0 0 0 0.22464482426079535 -0.17993079566333847 0 -0.17993079566333847 0.51081174142110441 0 0 0 0 79.06477890364863 23.006877940503273 0 23.006877940503273 -12.06030582798121 0 0 0 0 13.656870450953676 -17.891917955483677 0 -17.891917955483677 -15.527626088286297 0 0 0 0 0.91210295606379743 -1.8189971859585778 0 -1.8189971859585778 0.56181678767521603 0 0 0 0 35.322243130552351 11.855391810822766 0 11.855391810822766 -8.880651360770571 0 0 0 0 0.57842521238485989 -0.71461602070280361 0 -0.71461602070280361 -9.7432440923378358 0 0 0 0 14.96679108463649 23.230579413635041 0 23.230579413635041 8.7387236838021636 0 0 0 0 9.5220359263211094 8.1662427240758007 0 8.1662427240758007 -11.270245838020855 0 0 0 0 5.1635724446774631 3.673196337628724 0 3.673196337628724 -9.3593237988588953 0 0 0 0 15.662445278006462 1.4921765357828463 0 1.4921765357828463 -9.7023590308363055 0 0 0 0 17.595971740509185 -30.049552754489014 0 -30.049552754489014 -12.058267141725082 0 0 0 0 19.895407406770119 4.4463807446363717 0 4.4463807446363717 11.675993251516957 0 0 0 0 -27.092370789226099 -63.628182947348122 0 -63.628182947348122 -62.195949211410152 0 0 0 0 0.84618782421810357 1.2250809220674483 0 1.2250809220674483 1.0111432166055394 0 0 0 0 -2.7476558982360189 6.4331919787591687 0 6.4331919787591687 -4.433284924720283 0 0 0 0 -4.3781058717840153 7.5529583345573883 0 7.5529583345573883 -3.5660311241290401 0 0 0 0 -4.4308456650909136 7.2242999188085832 0 7.2242999188085832 1.0508595139654062 0 0 0 0 8.8595570034926538 17.166992463753104 0 17.166992463753104 1.4399682152052264 0 0 0 0 5.3152463110188108 10.767465586786784 0 10.767465586786784 -0.78518949705539853 0 0 0 0 -5.2980550814086769 3.2546382085192818 0 3.2546382085192818 3.5534192908335172 0 0 0 0 -0.88030335544941352 3.1146550562798438 0 3.1146550562798438 1.4605688411993469 0 0 0 0 0.90525372667315196 -33.079255897227995 0 -33.079255897227995 -111.15307736889554 0 0 0 0 -28.989523764131022 -3.0174972837035057 0 -3.0174972837035057 2.3433617562641302 0 0 0 0 0.037557791785820138 0.046469253816773914 0 0.046469253816773914 -0.24131080828222196 0 0 0 0 -17.310885666049241 22.803667619736871 0 22.803667619736871 2.9987882179630105 0 0 0 0 9.8952351286117874 17.466378876915769 0 17.466378876915769 -24.154435563883453 0 0 0 0 -131.55229960939789 -40.30197392647915 0 -40.30197392647915 -18.410273390321549 0 0 0 0 25.367753186385301 79.241922105555204 0 79.241922105555204 -1.2032280764269672 0 0 0 0 -14.295746977292694 -65.154540688003181 0 -65.154540688003181 -117.92800911342783 0 0 0 0 -36.464630195979979 -85.595043833159025 0 -85.595043833159025 -125.41026603259706 0 0 0 0 65.442467534662015 -19.772137669694303 0 -19.772137669694303 -396.89699387449855 0 0 0 0 -1.0527557350249139 -1.378152230425421 0 -1.378152230425421 -1.5039620186181075 0 0 0 0 -74.063848138640338 -272.15196907814845 0 -272.15196907814845 -212.59042244199736 0 0 0 0 -73.351489468623186 -254.61588841105458 0 -254.61588841105458 39.943916075466589 0 0 0 0 -189.54038456525984 -16.60206429700338 0 -16.60206429700338 47.413106272128971 0 0 0 0 -163.43855368783437 -246.49565419208557 0 -246.49565419208557 -228.18252158424502 0 0 0 0 -0.13958050949651582 -0.59261906693109534 0 -0.59261906693109534 -3.6707678185854746 0 0 0 0 -53.033622634980119 106.8590363768858 0 106.8590363768858 -163.36727502857411 0 0 0 0 -84.640928798914388 -245.24107919439894 0 -245.24107919439894 -264.20882354581909 0 0 0 0 -45.861250631310895 52.556127529720925 0 52.556127529720925 -16.109038935967078 0 0 0 0 26.530502797344354 83.021529616853059 0 83.021529616853059 -168.16947823042847 0 0 0 0 24.126724390651333 12.758198100837944 0 12.758198100837944 -348.12728079501085 0 0 0 0 -2.0792096135790246 15.199699920510966 0 15.199699920510966 -159.99474413737425 0 0 0 0 -181.55471496008951 -159.28382270710267 0 -159.28382270710267 -200.04449053643748 0 0 0 0 -262.8750657954659 -15.762234761443892 0 -15.762234761443892 -121.09503800112634 0 0 0 0 -98.023779430570471 -113.13468152357518 0 -113.13468152357518 -175.6337071476064 0 0 0 0 -13.428964240219386 47.014630956658948 0 47.014630956658948 -130.76986264249678 0 0 0 0 -1.3813515289639675 -0.42783695457987037 0 -0.42783695457987037 -0.2135570086009988 0 0 0 0 -114.11585935493764 -82.877501031424345 0 -82.877501031424345 -211.26525796071837 0 0 0 0 -33.471007660642755 62.180355760150633 0 62.180355760150633 -128.12305252291753 0 0 0 0 -25.994694650071892 81.397680845816012 0 81.397680845816012 -81.823386818510244 0 0 0 0 88.164511952311884 38.032572760432629 0 38.032572760432629 -128.76679154024168 0 0 0 0 -51.116772896817679 40.659456173239505 0 40.659456173239505 -251.02115650866654 0 0 0 0 -50.828042523649799 50.04266858688743 0 50.04266858688743 45.96947610536877 0 0 0 0 -18.384368765646656 -15.014503838489532 0 -15.014503838489532 -26.625920983958167 0 0 0 0 91.85634255396684 -37.966514144492976 0 -37.966514144492976 -98.02713250009765 0 0 0 0 -5.7323098616983543 58.613020924824923 0 58.613020924824923 164.41182659037713 0 0 0 0 -76.018207797013304 -16.864637666855856 0 -16.864637666855856 6.5646815593918291 0 0 0 0 -188.18786242741555 -169.03046928877598 0 -169.03046928877598 -160.6439979047791 0 0 0 0 0.45280799175648578 -0.85603422578616017 0 -0.85603422578616017 -0.65188508633497122 0 0 0 0 -136.05860852416538 -76.860790834184627 0 -76.860790834184627 -27.731637588059584 0 0 0 0 0.080444002980930851 -0.15737351326249227 0 -0.15737351326249227 -2.7566737355197404 0 0 0 0 75.833959631497692 88.582377559692759 0 88.582377559692759 -514.86808973830193 0 0 0 0 -57.872336255435926 -123.17132944983678 0 -123.17132944983678 -339.54664351810175 0 0 0 0 61.314655516152847 133.00497635947488 0 133.00497635947488 -229.22201775042413 0 0 0 0 113.32314899753192 -14.381131389777693 0 -14.381131389777693 -493.22067922318001 0 0 0 0 107.95184805210556 3.0397072312825912 0 3.0397072312825912 -207.29862644842194 0 0 0 0 68.691079772412991 59.854427105398827 0 59.854427105398827 -287.79952038433657 0 0 0 0 68.900810548283431 65.480365565289446 0 65.480365565289446 -164.32538355472752 0 0 0 0 42.363967679109862 126.66453894147617 0 126.66453894147617 -78.748832817986113 0 0 0 0 24.396537250319284 82.7649841245875 0 82.7649841245875 15.959423378306383 0 0 0 0 40.705124013295062 -40.302299033739473 0 -40.302299033739473 26.020295202216346 0 0 0 0 52.47181399932623 49.205836114468184 0 49.205836114468184 -84.865791595117116 0 0 0 0 31.241390881063239 87.706873236723482 0 87.706873236723482 -136.69187749408775 0 0 0 0 54.838598226394993 65.388931410330315 0 65.388931410330315 -138.84294216926173 0 0 0 0 55.744285169326815 70.085131347600509 0 70.085131347600509 -116.80069204904248 0 0 0 0 31.847461091535365 60.55012928681208 0 60.55012928681208 -95.845092268960741 0 0 0 0 61.962628437452821 73.829926075199182 0 73.829926075199182 -141.82745085081388 0 0 0 0 26.61301989733775 54.537661442446279 0 54.537661442446279 -123.85331397875052 0 0 0 0 52.861199368176472 54.959005764262656 0 54.959005764262656 -144.93822013965632 0 0 0 0 88.072128637653606 -50.89009301228225 0 -50.89009301228225 -146.10165000702091 0 0 0 0 -104.23951213333696 -24.765651943735975 0 -24.765651943735975 -43.448542498515963 0 0 0 0 26.466045092136937 -83.200207970248357 0 -83.200207970248357 -185.45257001675009 0 0 0 0 26.624263479344648 -35.833702874892879 0 -35.833702874892879 21.089276842973049 0 0 0 0 248.7480814382605 87.818235194081353 0 87.818235194081353 -119.63501136992909 0 0 0 0 37.641452263070619 -13.331650465537678 0 -13.331650465537678 -141.07690603498531 0 0 0 0 0.4208420353469105 -0.58193274831217501 0 -0.58193274831217501 -0.36634361129356563 0 0 0 0 -154.01915264299461 -105.30411514119578 0 -105.30411514119578 -16.431374466363195 0 0 0 0 201.51154479945151 -9.9766460579385239 0 -9.9766460579385239 -87.087706489909579 0 0 0 0 -6.2808355968927287 37.012577697881625 0 37.012577697881625 14.092952739866632 0 0 0 0 44.745191955973951 -81.946285628894657 0 -81.946285628894657 -32.174455396645726 0 0 0 0 94.671620105991849 16.940891464170818 0 16.940891464170818 -20.130028514617152 0 0 0 0 -52.747443064859503 -6.845624510172911 0 -6.845624510172911 64.790366279017235 0 0 0 0 1.089680841877267 -1.7260910363473201 0 -1.7260910363473201 0.17380238643565171 0 0 0 0 60.176487092317416 -53.155586535660177 0 -53.155586535660177 -11.425031840403335 0 0 0 0 0.28710830721527381 -0.7078603080498227 0 -0.7078603080498227 -7.8893913099894171 0 0 0 0 58.980856853563068 -32.626767347129089 0 -32.626767347129089 -34.097833137061571 0 0 0 0 291.73501065618638 69.94069279190046 0 69.94069279190046 -106.90363958467833 0 0 0 0 184.59576878288789 -36.012296102952632 0 -36.012296102952632 -46.413294164145555 0 0 0 0 0.31062652978651012 -0.096004019353343101 0 -0.096004019353343101 -9.436881062057811 0 0 0 0 102.14714913624616 88.001668193551723 0 88.001668193551723 -26.423162496180339 0 0 0 0 13.63464030774098 -18.724834654216693 0 -18.724834654216693 -84.791062264661377 0 0 0 0 -13.2347523567724 40.024611650067527 0 40.024611650067527 21.645577871950081 0 0 0 0 0.41055907597106911 -0.71232046468468591 0 -0.71232046468468591 -10.860028660487503 0 0 0 0 30.391252350082045 104.3933566529245 0 104.3933566529245 167.50724303410698 0 0 0 0 245.44511418073131 -119.60003735930729 0 -119.60003735930729 -140.77216635353034 0 0 0 0 29.777808505109469 -191.63130937872552 0 -191.63130937872552 -199.42642401809098 0 0 0 0 1.1672981576168127 42.821950445087168 0 42.821950445087168 11.312290632789882 0 0 0 0 144.47476820853811 -21.757890417752634 0 -21.757890417752634 -64.381002105665175 0 0 0 0 -91.00992976594523 -74.938003984244006 0 -74.938003984244006 19.709364331530196 0 0 0 0 0.4224811163907134 -45.532205425983193 0 -45.532205425983193 -9.4099780757242115 0 0 0 0 -46.004744464172319 -84.442615932685385 0 -84.442615932685385 -52.331882794950616 0 0 0 0 1.0500651550859534 -1.867673379539597 0 -1.867673379539597 -1.1386056822652861 0 0 0 0 35.208720805523853 -56.765220414220494 0 -56.765220414220494 -25.221563753120108 0 0 0 0 -37.57254894100123 -89.312713294475088 0 -89.312713294475088 -25.868531772992128 0 0 0 0 -56.680202484282461 -106.12063294994277 0 -106.12063294994277 -39.921761085597609 0 0 0 0 0.99114897213488895 -1.6015469844529937 0 -1.6015469844529937 -0.84931254175036486 0 0 0 0 116.16852470693078 -48.904388753834837 0 -48.904388753834837 -72.023188966068119 0 0 0 0 -19.16428800313966 -99.679178091407721 0 -99.679178091407721 -99.252124571813511 0 0 0 0 0.53537810837781574 0.10168545579918131 0 0.10168545579918131 -0.07336349179823376 0 0 0 0 -7.9815984728083293 -165.55670100028237 0 -165.55670100028237 16.350123411319146 0 0 0 0 1.5926485589775439 -9.9382302410053853 0 -9.9382302410053853 -180.78406527912784 0 0 0 0 138.23706722368732 -93.592357013894798 0 -93.592357013894798 -500.0934128265485 0 0 0 0 83.153038624750977 40.214634184251963 0 40.214634184251963 -283.56075209634128 0 0 0 0 49.353018867108247 -102.6470765345266 0 -102.6470765345266 -212.32980688808038 0 0 0 0 21.905746553771721 -181.73247420951452 0 -181.73247420951452 -438.53528962496057 0 0 0 0 61.637164730555071 -166.43286885146199 0 -166.43286885146199 -250.52650329022345 0 0 0 0 -94.399368225843816 -101.65790333789164 0 -101.65790333789164 -40.380040027235736 0 0 0 0 48.766531526096848 15.152381547004552 0 15.152381547004552 -9.1668404575138993 0 0 0 0 -73.813523364815609 -73.998273820286158 0 -73.998273820286158 -54.775573098190762 0 0 0 0 16.958273659457085 2.1420768255229632 0 2.1420768255229632 -12.4460992004133 0 0 0 0 -252.24850125460347 -154.3518053861776 0 -154.3518053861776 -87.146275015983974 0 0 0 0 0.39515926375020738 -1.3426102811116858 0 -1.3426102811116858 -0.94809141226237692 0 0 0 0 -371.85873864958467 -321.82129691867135 0 -321.82129691867135 -292.31769160062777 0 0 0 0 -94.928584236231259 -266.18122723824058 0 -266.18122723824058 -499.19824944118136 0 0 0 0 2.4000520088905022 -354.21371687303099 0 -354.21371687303099 -467.35469565290362 0 0 0 0 -0.10812412671060193 0.22723535228333669 0 0.22723535228333669 -3.7083176493465757 0 0 0 0 -146.0124558037605 263.00089075636083 0 263.00089075636083 -192.22656263356339 0 0 0 0 -53.909690212824025 86.056267214312356 0 86.056267214312356 43.067249514880132 0 0 0 0 58.972162447709472 -39.680384450527526 0 -39.680384450527526 35.997818704347992 0 0 0 0 13.613629437493124 -9.9754873911704856 0 -9.9754873911704856 -16.065691795683051 0 0 0 0 13.693383941730644 -3.4021742960458141 0 -3.4021742960458141 -28.301080368213661 0 0 0 0 1.1192199326244463 -5.6297804674986764 0 -5.6297804674986764 -1.8048714382377966 0 0 0 0 1.3421063137162719 -22.851261075526963 0 -22.851261075526963 20.434965366603137 0 0 0 0 -3.1528343149442728 -1.1831188177944618 0 -1.1831188177944618 -0.45272179355380793 0 0 0 0 -67.559545493393898 -31.918557714753661 0 -31.918557714753661 64.597699895432243 0 0 0 0 30.651183308258226 -4.3284979414511326 0 -4.3284979414511326 -5.9744457228161991 0 0 0 0 -147.9025386201202 -119.66992145063796 0 -119.66992145063796 -10.173246147243844 0 0 0 0 -33.849831694175691 -70.729133365264261 0 -70.729133365264261 1.7033818393961155 0 0 0 0 -27.366045521244359 -41.903679507827974 0 -41.903679507827974 -56.298804016716986 0 0 0 0 -9.6480921250536085 -8.6748692541164019 0 -8.6748692541164019 -5.5038709250188731 0 0 0 0 0.84762181578112727 4.6822914371377848 0 4.6822914371377848 -17.281018628868878 0 0 0 0 6.174333497320049 5.0634728144391374 0 5.0634728144391374 -24.390355756581812 0 0 0 0 1.6377494174065532 -12.637670638743657 0 -12.637670638743657 -36.366761477439013 0 0 0 0 0.87074275417626268 0.68245084049885918 0 0.68245084049885918 -47.551419633102796 0 0 0 0 2.0008333639474842 0.7731713683883914 0 0.7731713683883914 0.037915109554045756 0 0 0 0 76.30797268997064 27.982433437167401 0 27.982433437167401 -299.55556412995793 0 0 0 0 23.727129429232622 148.55888828096545 0 148.55888828096545 -499.31744741079365 0 0 0 0 4.9688347276205604 1.0033308982710878 0 1.0033308982710878 -15.819785325743396 0 0 0 0 -171.37513202697031 213.55920248960138 0 213.55920248960138 -258.53646528996433 0 0 0 0 2.2163251594448008 0.170232546654006 0 0.170232546654006 -499.0840166549815 0 0 0 0 4.0699656360913208 2.0631581777756693 0 2.0631581777756693 -0.40500647903993681 0 0 0 0 1.4099575254831236 0.85769311414792604 0 0.85769311414792604 -0.28124432213630257 0 0 0 0 8.0211211509620171 1.860833997608097 0 1.860833997608097 -18.871513834924372 0 0 0 0 4.8022369685624353 -0.054772461945196582 0 -0.054772461945196582 -5.7376791918612486 0 0 0 0 7.0100784987559166 -2.0342210112439716 0 -2.0342210112439716 -16.189341614736804 0 0 0 0 -406.38330953667833 -258.78646923418046 0 -258.78646923418046 -25.65464062429146 0 0 0 0 -76.621988795233307 -84.893749336088149 0 -84.893749336088149 -143.29723610251494 0 0 0 0 -0.27515673409502778 -0.84623339165647771 0 -0.84623339165647771 -1.5700817251675154 0 0 0 0 34.60280672844015 -258.63915018646094 0 -258.63915018646094 -499.17948283871647 0 0 0 0 61.344761084466064 -139.19323180686479 0 -139.19323180686479 -356.49795282738341 0 0 0 0 82.850671116565053 -94.200686445064775 0 -94.200686445064775 -393.46429937882021 0 0 0 0 73.959659710779761 -103.92273745691182 0 -103.92273745691182 -261.95778137043999 0 0 0 0 6.2766037576404585 -93.033883632486322 0 -93.033883632486322 -259.55751197131121 0 0 0 0 21.602604063248634 -8.3620445889491748 0 -8.3620445889491748 -136.63664376834186 0 0 0 0 -109.22154276328069 -199.90481165729977 0 -199.90481165729977 -175.15640809649449 0 0 0 0 -31.799588214855049 -79.295754570066492 0 -79.295754570066492 -56.229454999615882 0 0 0 0 -0.86640002232775259 -10.679235414464131 0 -10.679235414464131 -5.8985390298157654 0 0 0 0 4.7159162972248998 -0.34574214989031837 0 -0.34574214989031837 -6.0851874450270316 0 0 0 0 3.100957951163025 -3.868402073046127 0 -3.868402073046127 -97.796170090986379 0 0 0 0 8.6924014375418039 -41.843533737039252 0 -41.843533737039252 -108.75361721997797 0 0 0 0 -21.528689107762318 -20.485184270664831 0 -20.485184270664831 -12.764527312147948 0 0 0 0 -23.962128025462221 -41.121949755136484 0 -41.121949755136484 -384.56056717088541 0 0 0 0 -79.498785230737667 195.04989832659339 0 195.04989832659339 -253.00989501027288 0 0 0 0 -0.27659932395414444 -0.11557831384710937 0 -0.11557831384710937 -0.97794988975429575 0 0 0 0 -65.083200425555106 138.15794210651438 0 138.15794210651438 -205.3474518421117 0 0 0 0 28.592193316312432 52.653506600205219 0 52.653506600205219 -267.8415349075276 0 0 0 0 -137.84151438473054 -12.044202942903212 0 -12.044202942903212 -268.44179416970474 0 0 0 0 37.048117540070052 129.71771993996026 0 129.71771993996026 -183.68694463363408 0 0 0 0 7.5131277533005232 109.81516985580856 0 109.81516985580856 -362.07383951481097 0 0 0 0 18.641597309989493 16.565761257724262 0 16.565761257724262 -165.34917479476371 0 0 0 0 -65.794970453706867 158.2891162053113 0 158.2891162053113 -250.31741064764356 0 0 0 0 19.629038669778311 46.636261611658483 0 46.636261611658483 -211.79423962432747 0 0 0 0 -4.0529968432427577 -2.4539000728604208 0 -2.4539000728604208 -1.586450649966344 0 0 0 0 29.844970079937639 71.558833370785578 0 71.558833370785578 -218.22462171532743 0 0 0 0 -21.413083156115007 111.35547325781317 0 111.35547325781317 -59.131516767226458 0 0 0 0 56.181561033698955 -122.14441660261855 0 -122.14441660261855 -40.503207264980631 0 0 0 0 -0.38810004463003406 -1.3422280554113417 0 -1.3422280554113417 -1.8460032902416295 0 0 0 0 18.98344546178555 57.236123525402036 0 57.236123525402036 -281.08080823966156 0 0 0 0 35.14626053862888 54.252995888467922 0 54.252995888467922 -286.8384998000256 0 0 0 0 -0.49358786840724034 -0.96271044589984811 0 -0.96271044589984811 -1.4522938610002925 0 0 0 0 47.146279040736545 -31.689355719812283 0 -31.689355719812283 71.707190734192409 0 0 0 0 -22.498043596694799 48.054788399203971 0 48.054788399203971 -190.74861624150799 0 0 0 0 47.376147526714135 -6.4545388809601718 0 -6.4545388809601718 -293.70386887878476 0 0 0 0 1.6629362561691696 0.094670437711128486 0 0.094670437711128486 -1.3521693353402622 0 0 0 0 33.742949019585581 58.820012838913499 0 58.820012838913499 -100.86962552300338 0 0 0 0 58.58253155151138 27.438811251422067 0 27.438811251422067 -176.21090310465661 0 0 0 0 12.176578182504073 115.76304517221934 0 115.76304517221934 -77.898405125244608 0 0 0 0 12.60202388399631 74.133888844708054 0 74.133888844708054 -182.27955708898662 0 0 0 0 -66.758299905795496 100.15690915481082 0 100.15690915481082 -24.945992791639583 0 0 0 0 23.404549254473295 28.801200500136474 0 28.801200500136474 -40.177364749019034 0 0 0 0 45.005806426127599 85.110995683706278 0 85.110995683706278 -345.0647769852294 0 0 0 0 36.645351151604359 50.29808123186649 0 50.29808123186649 -181.21233954405756 0 0 0 0 49.835640450387459 70.331872805013745 0 70.331872805013745 -223.16189672229666 0 0 0 0 32.07015312866757 61.79903340493729 0 61.79903340493729 -333.68581846813322 0 0 0 0 75.065569518263004 -7.5434358269576478 0 -7.5434358269576478 -231.10689786244075 0 0 0 0 80.827340530195769 -22.228211735415243 0 -22.228211735415243 -355.37810773288493 0 0 0 0 34.543830486159472 -28.834165109217565 0 -28.834165109217565 -209.71129995990123 0 0 0 0 115.23650465648356 -21.364330779910233 0 -21.364330779910233 -367.03741123527561 0 0 0 0 132.96020333813479 -35.681421373837566 0 -35.681421373837566 -500.03508517875343 0 0 0 0 57.616332091648097 31.096148380900559 0 31.096148380900559 -499.92790575853815 0 0 0 0 116.00438334539734 -4.4155670631555495 0 -4.4155670631555495 -478.51624523294959 0 0 0 0 4.770897372710035 -17.455173280486633 0 -17.455173280486633 -514.68144667415618 0 0 0 0 -84.535842815526721 19.158159926602821 0 19.158159926602821 -500.00946985516021 0 0 0 0 -0.5900821542407052 -1.0615417021092561 0 -1.0615417021092561 -2.5366902956740098 0 0 0 0 -33.34493621823416 119.80217905292739 0 119.80217905292739 -499.31178521604488 0 0 0 0 -34.493724368662349 106.03072568952257 0 106.03072568952257 -647.4931739913502 0 0 0 0 -0.092925822839632077 -0.10751644310970399 0 -0.10751644310970399 -1.500636201352318 0 0 0 0 -157.41919037570773 154.76536035572644 0 154.76536035572644 -39.519899470325981 0 0 0 0 -75.274030008306354 91.276224252324937 0 91.276224252324937 -507.67152913065553 0 0 0 0 -2.6445439284892034 88.458667273549963 0 88.458667273549963 -145.96574456708913 0 0 0 0 -7.8507857379231938 173.16349706705842 0 173.16349706705842 -408.95538189477838 0 0 0 0 30.908437774645964 19.989985577186715 0 19.989985577186715 -463.91493654305305 0 0 0 0 46.771837138510989 -28.508254959773694 0 -28.508254959773694 -500.04599226237497 0 0 0 0 -131.30316593683301 -48.476117570621682 0 -48.476117570621682 -580.2770633058426 0 0 0 0 -166.93402728895691 51.329227681765246 0 51.329227681765246 -487.12165294089391 0 0 0 0 -56.266556909717792 -91.956329822718317 0 -91.956329822718317 -26.454796406062087 0 0 0 0 -19.986785959701649 -194.2857968612534 0 -194.2857968612534 -453.95464183409229 0 0 0 0 9.2171265131327118 -27.907467075072191 0 -27.907467075072191 -149.97156355423976 0 0 0 0 0.85583071615856809 -67.621010404286153 0 -67.621010404286153 -195.86109616696558 0 0 0 0 -25.979813981307956 -66.499895826193097 0 -66.499895826193097 -90.530345859717272 0 0 0 0 30.294405118662453 51.439500545132205 0 51.439500545132205 -15.489293723525407 0 0 0 0 2.8226004857688807 5.7036141831038094 0 5.7036141831038094 -26.312723157969231 0 0 0 0 -25.376788842362551 -1.017853221102996 0 -1.017853221102996 12.112642500045695 0 0 0 0 -10.332481765293906 33.47263317868601 0 33.47263317868601 14.975994882155192 0 0 0 0 -21.994746747780621 -36.290984980872281 0 -36.290984980872281 -56.955888156466244 0 0 0 0 0.71606496383786167 -0.29298350649887084 0 -0.29298350649887084 -2.563321611491638 0 0 0 0 52.438440803848692 79.649138663859048 0 79.649138663859048 -150.34238167257377 0 0 0 0 1.6359767560069995 1.793258389011271 0 1.793258389011271 -3.9786066177475732 0 0 0 0 -9.9488559696171563 -34.936748438886752 0 -34.936748438886752 -31.164825786020515 0 0 0 0 1.8901861573801 3.5330679740391133 0 3.5330679740391133 -3.5798730558617535 0 0 0 0 1.1449808381139277 0.6247881720395192 0 0.6247881720395192 -5.6874305444743811 0 0 0 0 -0.009300745450445902 3.0777421425491411 0 3.0777421425491411 -3.1399436859733214 0 0 0 0 -0.16401864877813921 1.0590228472310628 0 1.0590228472310628 -3.9697437209682249 0 0 0 0 -2.7422114709208754 2.9934660820225218 0 2.9934660820225218 -5.3812313919661392 0 0 0 0 -1.0436318635516812 1.973796024603871 0 1.973796024603871 -6.2508635104841233 0 0 0 0 2.7441220855273514 1.4901718280689238 0 1.4901718280689238 -5.6632860442978199 0 0 0 0 -0.28868418162519305 4.0122650015127874 0 4.0122650015127874 -9.6869354378704884 0 0 0 0 0.020915583474959476 2.8534526701705545 0 2.8534526701705545 -6.3457629457625444 0 0 0 0 2.7243409356918846 3.0897528044470164 0 3.0897528044470164 -10.036474992790318 0 0 0 0 1.1189610354492459 -3.6723406811606765 0 -3.6723406811606765 -13.962416436047874 0 0 0 0 2.0357980695687559 1.8094321213020521 0 1.8094321213020521 -14.616231433545181 0 0 0 0 0.32275785231120097 0.079562244077749256 0 0.079562244077749256 -0.44321894055219957 0 0 0 0 1.6275108103024252 1.6323414297717136 0 1.6323414297717136 -8.791844010585919 0 0 0 0 4.3185348134108352 0.76604095415495976 0 0.76604095415495976 -14.856702856183801 0 0 0 0 1.2006280360877213 3.0555526444595671 0 3.0555526444595671 -7.9202663071737334 0 0 0 0 -1.1593245341910094 5.661713497490382 0 5.661713497490382 -15.041026474451428 0 0 0 0 20.82363366566635 28.35312480655557 0 28.35312480655557 12.656523144797575 0 0 0 0 -9.3774035410938836 8.4180049229353244 0 8.4180049229353244 27.589103320911818 0 0 0 0 0.95187015067603964 1.6837472442338335 0 1.6837472442338335 -5.883250259262887 0 0 0 0 3.7617699400264826 4.7768482414421669 0 4.7768482414421669 -5.6776219572675473 0 0 0 0 4.4858106658080743 3.7052647496143436 0 3.7052647496143436 -7.6980868534064939 0 0 0 0 2.2285019361065679 3.3562059188097919 0 3.3562059188097919 -6.6438835002536507 0 0 0 0 2.5383026634897874 0.40710696473797725 0 0.40710696473797725 -6.2392115149796155 0 0 0 0 2.5991914508999798 0.59998791429279663 0 0.59998791429279663 -7.9368864573880273 0 0 0 0 2.6179572142145275 0.29729223544927663 0 0.29729223544927663 -11.996841291987948 0 0 0 0 3.0579411647468078 1.8378714331411174 0 1.8378714331411174 -8.4458300103178772 0 0 0 0 2.4920361993424081 0.65112421344201721 0 0.65112421344201721 -7.9025204667595972 0 0 0 0 -0.29030444225645624 -2.9432203271680919 0 -2.9432203271680919 -7.41122531932524 0 0 0 0 2.1169775457384503 -0.1760275642027409 0 -0.1760275642027409 -5.0380002661549952 0 0 0 0 1.8545302919367259 -1.7123936658263119 0 -1.7123936658263119 -8.7616719146717514 0 0 0 0 2.6748952669279333 0.17083251015901624 0 0.17083251015901624 -8.8380423933267593 0 0 0 0 2.5238225466607673 0.12080395092471008 0 0.12080395092471008 -7.3858120756121934 0 0 0 0 2.646226653278859 0.51712094361209893 0 0.51712094361209893 -6.4749892170293606 0 0 0 0 2.1169423745506606 -0.18965757134901651 0 -0.18965757134901651 -7.0269821681831672 0 0 0 0 2.8748237537065506 0.84830023943868582 0 0.84830023943868582 -6.9325192486030573 0 0 0 0 2.8748312082043799 1.2066256841015028 0 1.2066256841015028 -5.9877220217895228 0 0 0 0 2.7274005920789932 1.080914583599224 0 1.080914583599224 -7.1237746901379069 0 0 0 0 2.7815811255640028 0.89883522787749826 0 0.89883522787749826 -6.723774929974752 0 0 0 0 3.1713807085022268 2.2805591611613636 0 2.2805591611613636 -6.7183069882448763 0 0 0 0 2.7130157171565088 2.1198258038311906 0 2.1198258038311906 -5.3034825529975933 0 0 0 0 1.6808897607079094 -0.57466894597346396 0 -0.57466894597346396 -2.7564646869645202 0 0 0 0 1.2641657235479613 1.6322300774695577 0 1.6322300774695577 -6.184160145729038 0 0 0 0 2.8802737274951369 1.3172526256330457 0 1.3172526256330457 -5.788477238114865 0 0 0 0 2.5354757605418854 1.6743473822061787 0 1.6743473822061787 -4.816266616440771 0 0 0 0 2.8490492891492067 1.4716164555102296 0 1.4716164555102296 -5.5951727292122087 0 0 0 0 3.0055288999567438 1.455387593494379 0 1.455387593494379 -6.0257036787297693 0 0 0 0 2.7953559122663307 1.3328140606140551 0 1.3328140606140551 -5.7893096444640832 0 0 0 0 1.0433634358426604 2.545953483136671 0 2.545953483136671 -3.3233758921727699 0 0 0 0 -3.8427808706130691 4.2677614807034843 0 4.2677614807034843 -2.6403795941441786 0 0 0 0 -0.66647785606801335 -3.8185762930515921 0 -3.8185762930515921 -13.85652504327345 0 0 0 0 0.76842266069042076 -0.22763666265318605 0 -0.22763666265318605 -0.71958227667889219 0 0 0 0 11.763000634588025 5.0883010455145268 0 5.0883010455145268 -15.290723830875322 0 0 0 0 2.0596201598417938 2.1636679284714511 0 2.1636679284714511 -2.273686054445339 0 0 0 0 1.0550406529210932 1.6910030999461014 0 1.6910030999461014 -3.4462907033739612 0 0 0 0 -0.71570620426132336 3.3412445699650561 0 3.3412445699650561 -2.4405697020993102 0 0 0 0 0.74874752185272908 1.6810478450871535 0 1.6810478450871535 -2.0695605193017172 0 0 0 0 1.3103332317939476 2.6066598092356799 0 2.6066598092356799 -7.6831388250593591 0 0 0 0 -0.0084569594338752552 0.49049274520150021 0 0.49049274520150021 -0.96502101511990723 0 0 0 0 0.61328501122534362 3.7820030965622209 0 3.7820030965622209 -4.0594621433192515 0 0 0 0 -0.44156727612687519 2.8646131166374289 0 2.8646131166374289 -5.5425574311484525 0 0 0 0 1.7715862295374336 0.87244700691553589 0 0.87244700691553589 -4.9972005883851125 0 0 0 0 0.33786137152168694 1.5284117395143291 0 1.5284117395143291 -2.7047886951942459 0 0 0 0 0.75650988036659328 2.3681382087415841 0 2.3681382087415841 -5.2225172894379739 0 0 0 0 -0.82715454989602222 0.1469238771678647 0 0.1469238771678647 -4.7194258263843949 0 0 0 0 1.000834190664101 -0.38289790861783146 0 -0.38289790861783146 -2.6421504901186808 0 0 0 0 1.1971005620887158 0.22358057049533642 0 0.22358057049533642 -2.3157395686722921 0 0 0 0 0.12487756419560014 -1.4077998172324442 0 -1.4077998172324442 -3.7005915863010159 0 0 0 0 0.69258188945650545 0.98656685817331891 0 0.98656685817331891 -3.1892960793738894 0 0 0 0 -0.096184388696315182 -0.51756806960293034 0 -0.51756806960293034 -1.0803336994176789 0 0 0 0 1.8271994891392505 1.1711289726484022 0 1.1711289726484022 -2.6823220554657752 0 0 0 0 -20.753834980931174 -60.225695873020413 0 -60.225695873020413 -61.266886049814275 0 0 0 0 -3.2659859342486826 15.345511537233961 0 15.345511537233961 -16.705218938845064 0 0 0 0 -0.077862778485837225 -0.097847047365121398 0 -0.097847047365121398 -2.4301418121212919 0 0 0 0 0.25349651866227296 0.15104575562723355 0 0.15104575562723355 0.030676406802444767 0 0 0 0 -16.195931390547425 -4.7659249346643264 0 -4.7659249346643264 -33.969224504695376 0 0 0 0 -0.36558662704575084 -0.67627496013392374 0 -0.67627496013392374 -0.70266953243663011 0 0 0 0 -0.17387752829044123 0.35421295102791461 0 0.35421295102791461 -0.32273031791450535 0 0 0 0 2.0824183840117598 -1.7086436582931128 0 -1.7086436582931128 -4.1672962980107968 0 0 0 0 0.78443834431971027 -1.0286877351200019 0 -1.0286877351200019 -1.1687568763277341 0 0 0 0 1.1315771194027064 1.9152369994089895 0 1.9152369994089895 -1.8017396858513166 0 0 0 0 0.94777688278426397 0.32466815728858656 0 0.32466815728858656 -0.41428095803833997 0 0 0 0 -5.7862959740698292 -22.410881358233922 0 -22.410881358233922 -83.116216326492577 0 0 0 0 -10.161429726387269 -21.028326346596259 0 -21.028326346596259 -83.49658471980274 0 0 0 0 -14.068372102801277 -30.685650216004433 0 -30.685650216004433 -101.24226200698136 0 0 0 0 2.4390856126323035 -21.220061186664594 0 -21.220061186664594 -101.13915044889654 0 0 0 0 -16.517841744503997 -68.188584991002244 0 -68.188584991002244 -212.00434171672896 0 0 0 0 -47.259719123440902 -37.202336547041341 0 -37.202336547041341 -125.9208225772893 0 0 0 0 19.081704302577805 -37.209760217089752 0 -37.209760217089752 -127.17038319690482 0 0 0 0 -32.482859803620528 -13.390969333064277 0 -13.390969333064277 -26.79681234004056 0 0 0 0 1.7059790998274984 2.717119355079376 0 2.717119355079376 -46.499042308283606 0 0 0 0 2.2749510544546681 -1.9558498434366811 0 -1.9558498434366811 -8.4260574876352621 0 0 0 0 -21.91024872889826 -40.27101876947745 0 -40.27101876947745 -98.728188722701816 0 0 0 0 -7.1231051880516674 -30.895686629535703 0 -30.895686629535703 -119.60076400985054 0 0 0 0 4.6410928902689825 21.166992268147624 0 21.166992268147624 -60.190046932358655 0 0 0 0 -10.544369953797755 -67.667037707829422 0 -67.667037707829422 -188.25437066392806 0 0 0 0 -44.070171622766402 -49.866136597271179 0 -49.866136597271179 -116.35881771707182 0 0 0 0 -12.573776014447345 -63.681730896168119 0 -63.681730896168119 -160.56729561866814 0 0 0 0 4.7845528196794049 -41.400107900930379 0 -41.400107900930379 -153.72956931363069 0 0 0 0 17.065305509278993 -33.104453325223403 0 -33.104453325223403 -197.76935579159453 0 0 0 0 25.970234221103667 -68.109122790315269 0 -68.109122790315269 -214.57617334256611 0 0 0 0 47.773138545200609 22.75587239649974 0 22.75587239649974 -102.13023533246451 0 0 0 0 36.872300488524438 -137.24419522257131 0 -137.24419522257131 -35.091797169489155 0 0 0 0 0.31008121764955021 -8.0895881631859083 0 -8.0895881631859083 -134.87131788232153 0 0 0 0 2.2294424753691775 -36.647537485951034 0 -36.647537485951034 -132.92782405322941 0 0 0 0 38.981957883309036 -39.970494565793615 0 -39.970494565793615 71.544345554063511 0 0 0 0 -0.24515105318025959 -0.42972318395096387 0 -0.42972318395096387 -0.51817844901363586 0 0 0 0 64.347201020973216 -57.512324341970952 0 -57.512324341970952 26.00767242549955 0 0 0 0 -1.937027445152933 -2.8454236295894244 0 -2.8454236295894244 -3.2186104143146039 0 0 0 0 9.9006456437055874 11.116345622988888 0 11.116345622988888 -141.06107067654739 0 0 0 0 27.168974317607194 61.476279113679084 0 61.476279113679084 -96.56832476686759 0 0 0 0 47.467194630701172 -67.536998312515607 0 -67.536998312515607 79.551692426689215 0 0 0 0 -1.6527719620546435 -2.441700364010547 0 -2.441700364010547 -2.8266991300940596 0 0 0 0 13.697260774970438 -54.341999087490365 0 -54.341999087490365 -13.455111138827306 0 0 0 0 -135.7053667695119 80.37051823098318 0 80.37051823098318 -4.5214675682836969 0 0 0 0 -0.55054548573338136 -1.1229086782238333 0 -1.1229086782238333 -1.3969194710018016 0 0 0 0 47.886306513032508 -79.651793453854197 0 -79.651793453854197 80.601163326923597 0 0 0 0 -2.6137846362651329 0.029420188714880169 0 0.029420188714880169 -1.2469050634936139 0 0 0 0 -4.4329728899187977 5.7234402966660127 0 5.7234402966660127 -2.5592404569899827 0 0 0 0 -0.43570101532533201 4.7416026183277609 0 4.7416026183277609 -9.247971949609564 0 0 0 0 -18.83695183049014 14.10096231890293 0 14.10096231890293 -10.439097668539034 0 0 0 0 -5.8301216812619572 -10.233033238844655 0 -10.233033238844655 -0.17328067635753541 0 0 0 0 -21.346099732881626 -2.4977874556898314 0 -2.4977874556898314 1.2306845644288842 0 0 0 0 0.53708533480893117 -4.4001920940442005 0 -4.4001920940442005 -5.5840152622713504 0 0 0 0 0.53000708607610303 -4.2917170002388048 0 -4.2917170002388048 -7.0573081710417682 0 0 0 0 -0.0086603500205631196 -4.6309332839982744 0 -4.6309332839982744 -7.2665127464088073 0 0 0 0 1.9984392265318451 -2.9141675211139955 0 -2.9141675211139955 -7.704974931392826 0 0 0 0 0.12647030095347975 -0.3616687451391627 0 -0.3616687451391627 -0.37429683954447768 0 0 0 0 -46.698891448026856 -21.825378565740721 0 -21.825378565740721 -13.469842352213163 0 0 0 0 -0.12878893897676305 -11.768208846348347 0 -11.768208846348347 -255.97550733339449 0 0 0 0 26.732948294099959 -139.3863303607277 0 -139.3863303607277 -499.02310947050955 0 0 0 0 -84.352204071090952 -189.36116687796766 0 -189.36116687796766 -432.87485450354598 0 0 0 0 0.80271337658261632 -1.5948501059370592 0 -1.5948501059370592 -5.7362221603186043 0 0 0 0 0.09433221245547399 0.47428897194974695 0 0.47428897194974695 -0.93057769874497609 0 0 0 0 -34.210246934994515 -8.2980787135284118 0 -8.2980787135284118 22.015515539386797 0 0 0 0 16.679744391289091 -33.228115580055601 0 -33.228115580055601 11.561669750212332 0 0 0 0 -0.79164093592385565 1.1189495794260704 0 1.1189495794260704 -2.4750846708726648 0 0 0 0 -192.09227661660779 298.95845549698743 0 298.95845549698743 -348.79704422324176 0 0 0 0 -99.64837557235488 102.16372811083784 0 102.16372811083784 -100.71900853835177 0 0 0 0 -51.636591548096568 240.32465715165381 0 240.32465715165381 -499.23681359386228 0 0 0 0 -108.56767251304285 222.8492268031905 0 222.8492268031905 -370.8188986030159 0 0 0 0 0.8169056691225095 0.03009491094267247 0 0.03009491094267247 -1.1778978214011921 0 0 0 0 -100.25970218540651 237.40104809459945 0 237.40104809459945 -358.26225139615417 0 0 0 0 -15.879855480902108 27.135793397369071 0 27.135793397369071 -18.375323068034049 0 0 0 0 3.1915004682050494 -5.4269426039318205 0 -5.4269426039318205 -20.813337766863697 0 0 0 0 -8.1551338923742804 -3.4766269532092338 0 -3.4766269532092338 10.174270321718723 0 0 0 0 -5.3997956846436637 -11.747698287968888 0 -11.747698287968888 -9.8071675126484479 0 0 0 0 -1.3118131377714946 3.3242958302007537 0 3.3242958302007537 -5.8467728863524826 0 0 0 0 2.4753264235673615 -3.7796159339904989 0 -3.7796159339904989 -10.618903951662105 0 0 0 0 0.52771177252548096 -0.53123424983554735 0 -0.53123424983554735 0.050666264512734926 0 0 0 0 -0.05774002475388329 -9.4142865229605377 0 -9.4142865229605377 11.858352329981699 0 0 0 0 10.48542032882888 1.2827794428433208 0 1.2827794428433208 -8.5690781374141807 0 0 0 0 0.64615929922905091 -2.8457774331440326 0 -2.8457774331440326 -7.1736132504146646 0 0 0 0 -2.1592605889411516 -4.1204298430920971 0 -4.1204298430920971 -5.6330130919141084 0 0 0 0 3.2405353469757756 1.1921338263518919 0 1.1921338263518919 -1.6752897201949963 0 0 0 0 -8.7292257210798425 4.8619688836661226 0 4.8619688836661226 -3.8388557661211387 0 0 0 0 2.2262807310783046 -0.012834730325970156 0 -0.012834730325970156 -1.511124433098388 0 0 0 0 -3.598254494856576 10.481756422595481 0 10.481756422595481 -9.3779118675774953 0 0 0 0 -14.709907030099943 85.583815331409141 0 85.583815331409141 -120.88369370617147 0 0 0 0 6.1727658007008017 -2.515987586852134 0 -2.515987586852134 -10.729668123361989 0 0 0 0 1.7278968679059974 -0.13847736814044609 0 -0.13847736814044609 -1.8530575199046844 0 0 0 0 -13.742602395353089 20.890387103276225 0 20.890387103276225 -0.45173760637408122 0 0 0 0 -11.963970890669216 63.028848724700765 0 63.028848724700765 -231.17402227575076 0 0 0 0 -63.400403457208121 184.4685387471377 0 184.4685387471377 -287.91586529131746 0 0 0 0 -1.2471196631075987 126.73021675770758 0 126.73021675770758 -339.11158287231046 0 0 0 0 -9.885114731023533 168.67177281652948 0 168.67177281652948 -415.39552296789498 0 0 0 0 78.594035960217113 120.2924830468628 0 120.2924830468628 -500.0379590909024 0 0 0 0 52.392026267416668 25.037520400790527 0 25.037520400790527 -345.94518798560955 0 0 0 0 42.270177876496462 16.853996074739371 0 16.853996074739371 -186.78798307259603 0 0 0 0 89.293197709882222 64.534517326371315 0 64.534517326371315 -349.77169688552641 0 0 0 0 63.845201569267829 10.913399559432037 0 10.913399559432037 -411.39857592415206 0 0 0 0 100.57566635863269 22.964234792631032 0 22.964234792631032 -499.87568003339675 0 0 0 0 57.126453744584694 -24.634724250960062 0 -24.634724250960062 -406.26712906768819 0 0 0 0 -7.5650110480748936 -33.542842288673455 0 -33.542842288673455 -136.95551029590388 0 0 0 0 6.8632659823854283 9.3425450215054298 0 9.3425450215054298 -133.08088645628686 0 0 0 0 19.583948704846357 35.203370919484883 0 35.203370919484883 -70.001009944171528 0 0 0 0 4.6777804263156497 -39.242771635343161 0 -39.242771635343161 -86.40938537196871 0 0 0 0 -34.600206341594102 -10.361174347980523 0 -10.361174347980523 22.569537086807486 0 0 0 0 8.2069392380460187 -15.904137425804493 0 -15.904137425804493 17.841408902490002 0 0 0 0 -2.5212470531948838 7.2802497352658975 0 7.2802497352658975 -2.6546383167597014 0 0 0 0 3.0823994362014573 0.95646319361487997 0 0.95646319361487997 -1.258575153161722 0 0 0 0 0.85502592550551526 1.3273464246422009 0 1.3273464246422009 -8.0195090623788019 0 0 0 0 -1.2134666009156945 1.8631464292629971 0 1.8631464292629971 -3.3898389484302243 0 0 0 0 7.0428187941377018 4.1270939536916558 0 4.1270939536916558 -6.0217456788122945 0 0 0 0 2.264758235869067 2.8727871021255851 0 2.8727871021255851 -6.3392481486675933 0 0 0 0 -0.44440918748016056 2.0377267815179643 0 2.0377267815179643 -0.062157044519641547 0 0 0 0 -6.4660318513799666 -2.8618030226380142 0 -2.8618030226380142 -3.9618481965571846 0 0 0 0 -1.0309052925349533 4.3881905390735483 0 4.3881905390735483 -3.6352755197563056 0 0 0 0 0.0072797403514672787 0.059894716304647488 0 0.059894716304647488 0.039813970781055197 0 0 0 0 1.1950262295844425 -0.31368847245903453 0 -0.31368847245903453 -7.7626071483555279 0 0 0 0 2.3874810088956337 1.3520390647663589 0 1.3520390647663589 -3.2032723493794037 0 0 0 0 2.7152806219669401 1.4283335145546516 0 1.4283335145546516 -5.9280976353966253 0 0 0 0 1.604976701514635 0.58953535166330084 0 0.58953535166330084 -2.2598782153398318 0 0 0 0 2.7803088031496372 -0.37410305140201672 0 -0.37410305140201672 -2.6322983404554634 0 0 0 0 2.2847275114964987 1.4323145728330928 0 1.4323145728330928 -1.7389315385503323 0 0 0 0 0.13706336057421353 0.075084722578859342 0 0.075084722578859342 -0.11285180296907527 0 0 0 0 -24.095681287252773 11.605809012341979 0 11.605809012341979 -7.2529715702003159 0 0 0 0 12.164605338283309 -8.7945433667282487 0 -8.7945433667282487 5.5371434219850926 0 0 0 0 2.1282764827024945 0.79880853659331663 0 0.79880853659331663 -1.8518082647280991 0 0 0 0 13.781332896288404 -8.4898811190350898 0 -8.4898811190350898 -1.8023434261449438 0 0 0 0 2.1614617835144827 1.6718525816565943 0 1.6718525816565943 -3.517130166388597 0 0 0 0 1.7615957313647739 0.19616560312294062 0 0.19616560312294062 -1.8268239833981283 0 0 0 0 9.2574631168204746 -5.4608966173375393 0 -5.4608966173375393 1.1786283520596044 0 0 0 0 8.0471579164604918 -7.5974993006930163 0 -7.5974993006930163 9.4225902522084652 0 0 0 0 -3.3592912291121593 19.595151849980539 0 19.595151849980539 -10.648075343287246 0 0 0 0 -13.924698381990311 5.1502822889433446 0 5.1502822889433446 -14.525637890994858 0 0 0 0 -22.510109466485574 15.192509443538256 0 15.192509443538256 -5.975674658693606 0 0 0 0 0.75809915585568888 19.078556152942838 0 19.078556152942838 -10.653333162947092 0 0 0 0 -14.987027463087998 12.553811550744285 0 12.553811550744285 -11.211468292318273 0 0 0 0 -14.890931608756546 15.279857617201742 0 15.279857617201742 -12.538887318471097 0 0 0 0 5.0063995200509908 23.088313529251536 0 23.088313529251536 -27.692256892434671 0 0 0 0 27.402388493105718 -2.0909124558893382 0 -2.0909124558893382 -8.1010500840795245 0 0 0 0 -5.4061302727945986 18.308575688674864 0 18.308575688674864 -2.9486759095789239 0 0 0 0 14.146867262506248 16.308257386812329 0 16.308257386812329 -8.2194805452672881 0 0 0 0 6.3066062253066093 6.6907905444836615 0 6.6907905444836615 -13.058271144494938 0 0 0 0 -2.8305597943740395 -2.7830331044724517 0 -2.7830331044724517 -8.7794566083575774 0 0 0 0 -4.5245830702970125 -2.5334853211252266 0 -2.5334853211252266 1.1876882508549897 0 0 0 0 7.3903864699950645 -4.8874792815913679 0 -4.8874792815913679 3.8874790403642692 0 0 0 0 6.1629718340195723 3.6620919001079528 0 3.6620919001079528 -38.997455359123705 0 0 0 0 -0.031610230549909524 0.1730660955112775 0 0.1730660955112775 -0.3152845597241547 0 0 0 0 -0.22000469841709069 2.7988602991039464 0 2.7988602991039464 -2.6951380907067155 0 0 0 0 1.825514358461529 -0.14665130830787021 0 -0.14665130830787021 -2.5576480040517851 0 0 0 0 1.0929202079714742 1.2049524680373906 0 1.2049524680373906 -6.2828517474899854 0 0 0 0 0.37113575871467308 0.025721191599529902 0 0.025721191599529902 -0.1624618198695913 0 0 0 0 1.4858015076529627 1.9092390140578743 0 1.9092390140578743 -0.39637577101998889 0 0 0 0 -1.1949838536709194 2.7319258214556612 0 2.7319258214556612 4.5967055904025074 0 0 0 0 -2.5798066432896576 1.0027714314746845 0 1.0027714314746845 2.9965643890827778 0 0 0 0 1.2798558437443717 -0.28317430427887302 0 -0.28317430427887302 -3.8120337315003994 0 0 0 0 4.1728011887321745 2.3807832543301899 0 2.3807832543301899 -1.3680333826281199 0 0 0 0 4.0966851936825037 3.0611580559132108 0 3.0611580559132108 0.069790624431334436 0 0 0 0 6.2113508731708862 -3.6280650829730803 0 -3.6280650829730803 -1.3253150900810056 0 0 0 0 22.863955403789078 14.257217746446258 0 14.257217746446258 -5.4861657615401782 0 0 0 0 -3.8275174997615977 3.398705208706815 0 3.398705208706815 -2.2944254517483387 0 0 0 0 25.312285292289289 2.3770860744734819 0 2.3770860744734819 -1.0305459790906752 0 0 0 0 -0.052726027084499805 0.26464964007219471 0 0.26464964007219471 -0.35178459483602964 0 0 0 0 23.629557028769568 15.029261064520597 0 15.029261064520597 -15.885487024577742 0 0 0 0 1.0889996848201648 -2.9932192253201952 0 -2.9932192253201952 -9.7100452633690608 0 0 0 0 23.851832102127446 17.139600432165935 0 17.139600432165935 2.7300048090037308 0 0 0 0 1.6641311472433316 -4.1995612962027735 0 -4.1995612962027735 -10.168882039339678 0 0 0 0 2.879068202070421 -3.6815180203684577 0 -3.6815180203684577 -10.069521250391517 0 0 0 0 11.342178638421501 21.495412951871003 0 21.495412951871003 0.72941768401869922 0 0 0 0 0.56048611751591892 -2.5981501309386807 0 -2.5981501309386807 -10.271129529883709 0 0 0 0 4.4765749168949736 -2.7311481908362794 0 -2.7311481908362794 -12.178172573314441 0 0 0 0 44.871804256210226 6.3227261611791619 0 6.3227261611791619 -16.003743526780454 0 0 0 0 4.3164069303680641 -1.9129988975901142 0 -1.9129988975901142 -10.325307060329578 0 0 0 0 4.34670736473754 -2.3588768678919223 0 -2.3588768678919223 -14.625093396589364 0 0 0 0 3.4566831764314578 -3.6325803679037563 0 -3.6325803679037563 -11.345458090796456 0 0 0 0 4.16921216654187 2.7007739073642369 0 2.7007739073642369 -19.209064530467231 0 0 0 0 -0.0081059515415727919 -5.9239739086828527 0 -5.9239739086828527 -11.716633963320419 0 0 0 0 3.1533082357633528 -5.4771658537938492 0 -5.4771658537938492 -17.118742199832923 0 0 0 0 1.6313788379396481 -3.7699622684458518 0 -3.7699622684458518 -9.4123376866755279 0 0 0 0 1.1526039996641841 -4.3791171491257046 0 -4.3791171491257046 -9.5804127686151332 0 0 0 0 0.0070394690239028307 -5.9573095656669466 0 -5.9573095656669466 -11.717436755423563 0 0 0 0 2.5075814941788876 -4.8051120884319971 0 -4.8051120884319971 -12.137495011091232 0 0 0 0 -0.24030266498323177 -85.45553241196103 0 -85.45553241196103 -282.18254542747798 0 0 0 0 0.23429226808403036 -85.367329904966937 0 -85.367329904966937 -282.18442026985417 0 0 0 0 -35.670740083764485 -35.446236949370359 0 -35.446236949370359 -288.60343514594069 0 0 0 0 27.632439382959291 -40.180630559523252 0 -40.180630559523252 -288.27547815719481 0 0 0 0 0.7715304247644994 -0.66740137846409198 0 -0.66740137846409198 -20.831418423051218 0 0 0 0 -32.608184476775314 -25.247911037824451 0 -25.247911037824451 -121.19763501936723 0 0 0 0 0.45235453794691161 0.11838271347119189 0 0.11838271347119189 0.0038138578979500792 0 0 0 0 6.8744479140317907 -0.66743944154404744 0 -0.66743944154404744 -29.198838704111154 0 0 0 0 -0.0050995666294680218 -5.4642387758240147 0 -5.4642387758240147 -18.115630375424189 0 0 0 0 0.48437732442311976 4.4907317739398422 0 4.4907317739398422 -0.94291826331027551 0 0 0 0 0.0047462467011231716 -5.2344177613645293 0 -5.2344177613645293 2.0798844819310034 0 0 0 0 0.004706773987665086 -0.028490473225177837 0 -0.028490473225177837 -0.080028013592901459 0 0 0 0 3.668536218435019 2.1733407534586604 0 2.1733407534586604 -7.8224136277622165 0 0 0 0 1.9842803311625872 -2.2182757477485211 0 -2.2182757477485211 -1.5888284915617987 0 0 0 0 0.0063996695903219825 -0.02918775877580515 0 -0.02918775877580515 -0.079829443742163164 0 0 0 0 2.782753281712198 0.23223911258901353 0 0.23223911258901353 -20.492032050082344 0 0 0 0 2.6188646630815811 -7.0365014524331855 0 -7.0365014524331855 -3.311387715910314 0 0 0 0 6.5217900655044065 -4.8895553575271151 0 -4.8895553575271151 -17.72912740620086 0 0 0 0 2.6181443037338923 -6.9621255983856827 0 -6.9621255983856827 -7.1833928839241707 0 0 0 0 1.917152782533833 -1.3340444626001045 0 -1.3340444626001045 -8.2476115320241661 0 0 0 0 54.091481855402776 1.1564965604626423 0 1.1564965604626423 -27.013443950123474 0 0 0 0 2.9083502067499296 -1.5251257740328583 0 -1.5251257740328583 -10.118238659904819 0 0 0 0 0.65359840530222257 -2.8032305762215977 0 -2.8032305762215977 -10.551387636018681 0 0 0 0 0.72924445581921149 -3.0316155367143169 0 -3.0316155367143169 -10.521328832112516 0 0 0 0 27.264757792272803 -28.584867024032064 0 -28.584867024032064 -33.725282021976454 0 0 0 0 30.115598490059483 -19.044688974317523 0 -19.044688974317523 -12.3684984943975 0 0 0 0 7.0597987560686768 -34.276685185090912 0 -34.276685185090912 -375.54250386023159 0 0 0 0 -3.2434652409568194 -4.5352155306266901 0 -4.5352155306266901 -1.1712858075453185 0 0 0 0 9.4823904070544813 -25.971331625819403 0 -25.971331625819403 18.176614332209283 0 0 0 0 1.8173157112521754 -0.23703849323417003 0 -0.23703849323417003 -2.0452562166797263 0 0 0 0 -2.3850995049055115 -4.5447723327852145 0 -4.5447723327852145 -15.33813072372368 0 0 0 0 -10.182281364700884 -57.081158484996195 0 -57.081158484996195 -248.84565349517106 0 0 0 0 -19.962943253411822 -37.07404175330521 0 -37.07404175330521 -231.95961335030847 0 0 0 0 8.1102269557366071 -39.780455448229077 0 -39.780455448229077 -311.38974890622194 0 0 0 0 -7.680000639083346 -74.500266699365056 0 -74.500266699365056 -314.31479849240543 0 0 0 0 6.4439329385763813 -21.49041767181734 0 -21.49041767181734 -267.57706559415783 0 0 0 0 -5.0970362827188183 -63.27430235132033 0 -63.27430235132033 -335.61463473489766 0 0 0 0 -23.427959542267615 -64.337541140842404 0 -64.337541140842404 -266.54626947641827 0 0 0 0 52.618311030044424 -55.491395667773759 0 -55.491395667773759 -488.70739508059228 0 0 0 0 -33.625454920964216 37.555433086029552 0 37.555433086029552 -318.48467895678914 0 0 0 0 -1.736590672251654 -2.968662866937219 0 -2.968662866937219 -0.54163044177786279 0 0 0 0 5.1446563913075352 -48.230679169844734 0 -48.230679169844734 78.029161489992134 0 0 0 0 4.2783411603868444 -39.07218079798713 0 -39.07218079798713 -6.4374124291152839 0 0 0 0 32.258335254976714 1.4283624505260377 0 1.4283624505260377 -29.24657223016402 0 0 0 0 32.421990400034701 3.285687407250407 0 3.285687407250407 -20.016294324850151 0 0 0 0 -2.5926570780616203 43.918621257939776 0 43.918621257939776 -80.580380885407067 0 0 0 0 -44.964161013589546 29.129575329573527 0 29.129575329573527 -10.27206843364911 0 0 0 0 -25.682133578461617 23.380131068083756 0 23.380131068083756 -18.241540428649387 0 0 0 0 37.804011565072187 -102.19075413565997 0 -102.19075413565997 -90.807568007669033 0 0 0 0 6.5766971395471501 -38.103577260826569 0 -38.103577260826569 -164.96935730393852 0 0 0 0 -5.7743037171005938 60.474291276355984 0 60.474291276355984 -107.53062806681919 0 0 0 0 -0.27595730619454706 0.86195994663376041 0 0.86195994663376041 -1.2457738328320964 0 0 0 0 2.2290121371534042 -6.3708164444378781 0 -6.3708164444378781 0.11622588409227319 0 0 0 0 -36.03148415948499 9.2621161471297455 0 9.2621161471297455 -5.3805508304740215 0 0 0 0 -37.394469035613611 11.281370061869893 0 11.281370061869893 -5.5279274230233568 0 0 0 0 -75.485362378219179 -57.743904906448734 0 -57.743904906448734 -13.724674451558712 0 0 0 0 -0.4152566792561676 -0.19923357788755069 0 -0.19923357788755069 -0.63124446984643967 0 0 0 0 -0.8308047221526067 -12.049612174299909 0 -12.049612174299909 -230.64674204195217 0 0 0 0 -121.13254221748423 -48.820804779615173 0 -48.820804779615173 -172.93515651469443 0 0 0 0 -48.137270655422128 -98.481102441189478 0 -98.481102441189478 -303.72596505748152 0 0 0 0 72.34446348757092 -59.588028875907185 0 -59.588028875907185 -807.80623842548414 0 0 0 0 -0.60389703988522037 -0.91960471168930624 0 -0.91960471168930624 -0.45523735471287652 0 0 0 0 -65.005887375289831 -110.78954438323672 0 -110.78954438323672 225.00590362352705 0 0 0 0 -178.24820801044075 -93.329409645455598 0 -93.329409645455598 -41.551878366083656 0 0 0 0 -36.981809289081639 -244.16339326829166 0 -244.16339326829166 -439.65935761993569 0 0 0 0 -25.959775834596826 1.9869864452070942 0 1.9869864452070942 -2.9176087140858726 0 0 0 0 -0.81983935758418514 0.31081328235473649 0 0.31081328235473649 -2.2024748907286167 0 0 0 0 -72.992744070739349 -107.4015394089613 0 -107.4015394089613 -297.13295252033095 0 0 0 0 14.768730254548217 9.927636939765307 0 9.927636939765307 -36.279183441319219 0 0 0 0 -16.635380985571175 4.1465168329400512 0 4.1465168329400512 12.753981527089309 0 0 0 0 -2.4397751640390828 3.430907260556598 0 3.430907260556598 -4.2204561366871083 0 0 0 0 -16.180505753713135 5.1415433532010866 0 5.1415433532010866 -16.238790431470989 0 0 0 0 -11.485344937018681 -3.0720396761971642 0 -3.0720396761971642 -13.196375692770744 0 0 0 0 -11.291557252400736 9.5510955210984321 0 9.5510955210984321 -21.564199598435152 0 0 0 0 -0.45176391135063687 0.056815341716376366 0 0.056815341716376366 0.6798823118713635 0 0 0 0 -0.49355777702433945 4.1718679261584271 0 4.1718679261584271 -12.954370085276736 0 0 0 0 -0.39158584931173834 -3.1526099400207386 0 -3.1526099400207386 -22.774142488933649 0 0 0 0 -4.6317726808165078 -2.3116593849505094 0 -2.3116593849505094 -1.531092286286587 0 0 0 0 -1.8800207554540691 -3.7150708971289532 0 -3.7150708971289532 -14.315680721256285 0 0 0 0 0.096507177507487052 3.6404139266299307 0 3.6404139266299307 -12.830777695016248 0 0 0 0 -0.30748875791255159 -0.9406600188426637 0 -0.9406600188426637 -12.97877639577564 0 0 0 0 -8.5233534869063874 -1.1673649644153556 0 -1.1673649644153556 -9.9128975735129643 0 0 0 0 -7.2482038667858433 -1.685830151576738 0 -1.685830151576738 -12.834955636173618 0 0 0 0 -7.2504411103812041 4.8987039310471241 0 4.8987039310471241 -19.905575211951145 0 0 0 0 -6.8629212418586008 2.0283557650900548 0 2.0283557650900548 -2.6015199030480289 0 0 0 0 -2.2531006368458861 1.4379106336218683 0 1.4379106336218683 -10.208270178190787 0 0 0 0 -11.958755388010488 18.41124393605196 0 18.41124393605196 -28.017086094000661 0 0 0 0 -4.0201834059795942 3.1519169506991602 0 3.1519169506991602 -2.9485901330965589 0 0 0 0 -0.69795871052046499 0.24463788772006012 0 0.24463788772006012 1.5755107292684656 0 0 0 0 -7.7012022444012302 10.339692758707315 0 10.339692758707315 -13.228263468502064 0 0 0 0 -2.4929803503600567 -0.015749431626204569 0 -0.015749431626204569 -13.254841457535804 0 0 0 0 -1.1973460498332322 0.67401675901877844 0 0.67401675901877844 -2.5342562777206155 0 0 0 0 -0.90222167249429219 4.170220762606732 0 4.170220762606732 -17.279957315997308 0 0 0 0 0.088761228897112687 2.2089293678909598 0 2.2089293678909598 -15.556391037211142 0 0 0 0 -1.5802810518042634 13.548598725121792 0 13.548598725121792 -13.898421730790687 0 0 0 0 -1.3063129803512736 4.8312696480785711 0 4.8312696480785711 -13.73623524660621 0 0 0 0 0.0027110421989853251 0.81990098585447413 0 0.81990098585447413 -25.23492604272451 0 0 0 0 3.5488812519653585 6.0828622972803714 0 6.0828622972803714 -14.41476499137525 0 0 0 0 1.8717395957743861 8.3321864848348923 0 8.3321864848348923 -14.384380430265082 0 0 0 0 -0.48884189369016373 6.0678684399235436 0 6.0678684399235436 -14.667440413122524 0 0 0 0 1.4251350634988142 7.4147792782860051 0 7.4147792782860051 -13.404616418853038 0 0 0 0 -4.4487765205919914 1.0796247278049123 0 1.0796247278049123 -20.006569453562406 0 0 0 0 -1.1516799813493961 1.7683863482125162 0 1.7683863482125162 -20.134473641686782 0 0 0 0 0.98651783483117583 3.7798369017709774 0 3.7798369017709774 -23.441966427737498 0 0 0 0 -0.46014809736423423 4.2817017447650869 0 4.2817017447650869 -17.562056174312602 0 0 0 0 -8.5611772076211317 -3.5290526628590442 0 -3.5290526628590442 -19.417133624847338 0 0 0 0 -9.0823811749434071 1.585842370373939 0 1.585842370373939 -13.625968984248175 0 0 0 0 -17.689879059949948 -14.487003560273422 0 -14.487003560273422 -17.377654439806065 0 0 0 0 -31.990367320724616 -7.6886665041183733 0 -7.6886665041183733 -5.8340211394670405 0 0 0 0 -19.049951782912814 4.1939294845157065 0 4.1939294845157065 -1.8968851478202851 0 0 0 0 -0.25099869789480067 7.4462837275023048 0 7.4462837275023048 -9.745778215728933 0 0 0 0 -0.052752297578658541 1.0807909907515594 0 1.0807909907515594 -4.17636470193316 0 0 0 0 3.9238060794817216 1.686769311720127 0 1.686769311720127 -15.683402574574075 0 0 0 0 0.87179012302117798 10.900363353888224 0 10.900363353888224 -24.114268582952718 0 0 0 0 5.40953913160007 0.33288942717172176 0 0.33288942717172176 -20.871378124124021 0 0 0 0 -4.4756222766177345 -2.2146819721226763 0 -2.2146819721226763 0.32645453280612902 0 0 0 0 -64.001887231508121 -6.4713730701005261 0 -6.4713730701005261 -35.634701571572805 0 0 0 0 -7.3358746852636045 27.292795595458756 0 27.292795595458756 -59.303019863586087 0 0 0 0 -37.075605478911349 -25.291918531444253 0 -25.291918531444253 -15.271054230448499 0 0 0 0 -0.49562762847002617 -0.16560306762024979 0 -0.16560306762024979 0.10324270508528599 0 0 0 0 18.832349994314647 -8.566376915670844 0 -8.566376915670844 -34.204215508383641 0 0 0 0 6.430894499328133 -42.610350101555014 0 -42.610350101555014 -60.296242231045653 0 0 0 0 2.9407334638209903 -59.300274808651011 0 -59.300274808651011 -344.74067483989256 0 0 0 0 -2.4106515756739362 -1.5383636110905314 0 -1.5383636110905314 -0.16147208374169342 0 0 0 0 6.8437694349663367 -0.052886636892253591 0 -0.052886636892253591 -34.494904425515415 0 0 0 0 -1.7016312873132335 -0.24841774376091053 0 -0.24841774376091053 -30.124044264441181 0 0 0 0 2.3336656651453538 -3.5777183775880985 0 -3.5777183775880985 -27.506638582726737 0 0 0 0 -5.3537286196913945 -8.2120036077411527 0 -8.2120036077411527 -23.565971130425169 0 0 0 0 1.7722226602826581 -7.1649537088469515 0 -7.1649537088469515 -34.318830481197892 0 0 0 0 -5.348753603501212 -7.9124106965882675 0 -7.9124106965882675 -14.540002129513596 0 0 0 0 -3.375493201314157 -0.35446172252522956 0 -0.35446172252522956 -18.094699513570049 0 0 0 0 -1.02861419641496 -2.6498010509749292 0 -2.6498010509749292 -23.580913874160615 0 0 0 0 -0.41129408959777081 -1.538994966822429 0 -1.538994966822429 -22.388945059010666 0 0 0 0 -3.7255584866936289 -1.5764911548303644 0 -1.5764911548303644 -22.360537909968116 0 0 0 0 -1.7347832607069611 -0.028610900223611679 0 -0.028610900223611679 -24.073357349327125 0 0 0 0 0.039669457995154353 0.030340479723427904 0 0.030340479723427904 -0.039047592636307193 0 0 0 0 -0.8602628678956421 6.9933409753757587 0 6.9933409753757587 -11.613308458218853 0 0 0 0 -3.4631753247263628 3.4416082208663283 0 3.4416082208663283 -15.100247312253487 0 0 0 0 -1.9670037887928524 -1.7899018473308388 0 -1.7899018473308388 -17.151033286882011 0 0 0 0 11.72087888229786 -9.5095725705286895 0 -9.5095725705286895 -23.911003551152589 0 0 0 0 0.04509310253626557 0.021289669774031239 0 0.021289669774031239 -0.051788899945776734 0 0 0 0 -1.2725598455494591 -2.4889240864777094 0 -2.4889240864777094 -22.337631482703273 0 0 0 0 0.18325349352683007 -3.5993105503914649 0 -3.5993105503914649 -22.133817270729196 0 0 0 0 0.050723722570134022 -1.486052084981111 0 -1.486052084981111 -26.063392780761205 0 0 0 0 -0.44011436932332515 -1.2503635412567746 0 -1.2503635412567746 -27.032211008994636 0 0 0 0 -1.4004526770174659 -3.1944212525750117 0 -3.1944212525750117 -22.803568524595903 0 0 0 0 0.98797345275379478 -1.4703301600766281 0 -1.4703301600766281 -22.649653802418811 0 0 0 0 -1.7551741102631244 -2.8800813987959373 0 -2.8800813987959373 -15.622717561020181 0 0 0 0 0.0096198826060563403 0.0015741004541887094 0 0.0015741004541887094 -0.041168607687298575 0 0 0 0 0.0017785584810449462 -1.0428271917098755 0 -1.0428271917098755 -22.306871245109505 0 0 0 0 -1.0521137155523133 -4.8927670535822472 0 -4.8927670535822472 -24.81702503192264 0 0 0 0 -0.0053046326109864837 -1.601571188401067 0 -1.601571188401067 -30.136280800938039 0 0 0 0 -3.6646358436244002 -4.8087706980759322 0 -4.8087706980759322 -28.629008645416889 0 0 0 0 44.546972109797927 -42.76691417398888 0 -42.76691417398888 -423.5262071966863 0 0 0 0 0.96256811969794009 -5.011593843179071 0 -5.011593843179071 -37.235015469506834 0 0 0 0 -0.61290783534351534 -0.64664285110654163 0 -0.64664285110654163 -0.35111101246654819 0 0 0 0 -30.068999618384694 -61.398911753699394 0 -61.398911753699394 -56.114169933371159 0 0 0 0 -44.334422661317447 38.533303696751545 0 38.533303696751545 50.409062131064275 0 0 0 0 28.362529747731202 5.2865900393171614 0 5.2865900393171614 -103.996574259103 0 0 0 0 44.044026087465326 11.18265593789738 0 11.18265593789738 -32.416248386814914 0 0 0 0 13.843969597963763 -14.837233938405916 0 -14.837233938405916 19.321922832241398 0 0 0 0 -14.710967942091884 -0.93808007967982121 0 -0.93808007967982121 -24.003326387848574 0 0 0 0 1.1699732016516364 -15.378165179109601 0 -15.378165179109601 -19.276179958958892 0 0 0 0 7.7586864957064705 -6.3500304097551634 0 -6.3500304097551634 -28.902788039710686 0 0 0 0 -31.028148218880744 12.653318166277131 0 12.653318166277131 41.834616914784419 0 0 0 0 -8.7918191477037908 11.740643836426898 0 11.740643836426898 38.26732465979876 0 0 0 0 -0.65987539657463889 0.68870170959051791 0 0.68870170959051791 -0.94579741869968714 0 0 0 0 4.4676819025480512 18.580620750697562 0 18.580620750697562 34.934399298936114 0 0 0 0 -10.333178884842653 14.493647982048969 0 14.493647982048969 34.061073101018337 0 0 0 0 -0.49532158639400692 0.24102474844713484 0 0.24102474844713484 -0.069798974417231818 0 0 0 0 17.095615437669949 -3.2610772636135152 0 -3.2610772636135152 -29.561636518368687 0 0 0 0 12.625550066794659 5.3714665065554072 0 5.3714665065554072 -33.437298641030793 0 0 0 0 0.98952152730112175 9.3454224492697904 0 9.3454224492697904 -29.301278537522649 0 0 0 0 57.047641395197218 23.335285322120853 0 23.335285322120853 7.9159768893441651 0 0 0 0 23.591483944061604 64.681867514402711 0 64.681867514402711 26.544381041429006 0 0 0 0 4.8912402672713711 2.4159326921271713 0 2.4159326921271713 -28.152581919057184 0 0 0 0 -0.96089119626475061 0.89494137303363885 0 0.89494137303363885 -0.30202642969636528 0 0 0 0 -3.1491353011610101 10.654190077174462 0 10.654190077174462 13.36949103175084 0 0 0 0 -0.34697153370737699 0.79834014435378897 0 0.79834014435378897 0.47696185249541223 0 0 0 0 -27.543168130312274 69.753639341068947 0 69.753639341068947 -35.565641263869111 0 0 0 0 -3.9431683968202549 0.45407621340564219 0 0.45407621340564219 0.53411570161915733 0 0 0 0 -4.9708335360318472 -0.36778863158815511 0 -0.36778863158815511 0.79593409114204405 0 0 0 0 2.1121166594072744 7.2285568821734785 0 7.2285568821734785 -40.918407666009443 0 0 0 0 0.010328988334252664 0.11016284261447495 0 0.11016284261447495 -0.039564178295844243 0 0 0 0 -6.3257060866432653 1.7686331490085649 0 1.7686331490085649 1.4078776369620982 0 0 0 0 11.058501531421925 33.997663276487401 0 33.997663276487401 -23.898543626621176 0 0 0 0 56.331512781497253 -51.981977829152129 0 -51.981977829152129 -111.42113846684515 0 0 0 0 -31.777017866525235 79.000639602921638 0 79.000639602921638 37.575603303826938 0 0 0 0 2.1931038449143756 4.5727974715755408 0 4.5727974715755408 37.75470343582947 0 0 0 0 0.29091149579100206 0.20112899258552197 0 0.20112899258552197 -0.27602000541261162 0 0 0 0 -22.901092510052749 -0.49411265460730647 0 -0.49411265460730647 -134.25338055891461 0 0 0 0 14.370315401221397 33.329592573080618 0 33.329592573080618 -52.395733345181725 0 0 0 0 0.57322715227954291 -56.270364564339616 0 -56.270364564339616 -112.99646812197398 0 0 0 0 9.1554582682095287 -42.377522348288039 0 -42.377522348288039 -127.36008399704133 0 0 0 0 -1.039209829549236 -85.219134392353681 0 -85.219134392353681 -188.33231575353238 0 0 0 0 26.080995182596901 -48.615248446114947 0 -48.615248446114947 -193.74030835165649 0 0 0 0 5.0238246706641903 -82.562168497048333 0 -82.562168497048333 -219.37659061985869 0 0 0 0 18.924347740489569 -73.603984471081276 0 -73.603984471081276 -196.161402512329 0 0 0 0 -68.561449166994606 -52.475065494692899 0 -52.475065494692899 -177.2289424342548 0 0 0 0 -33.314085467174166 -0.83996353550446656 0 -0.83996353550446656 -264.56528581422754 0 0 0 0 -2.8435668153137428 79.877439357874437 0 79.877439357874437 -7.8987135420811683 0 0 0 0 -21.930792759081598 77.367176893719261 0 77.367176893719261 68.085990559782658 0 0 0 0 -38.916471225380228 -163.02762386591621 0 -163.02762386591621 -415.77995707489117 0 0 0 0 -54.060126444488105 -70.7102168938668 0 -70.7102168938668 -229.09160326180245 0 0 0 0 -0.051820864935653022 0.64911527649272394 0 0.64911527649272394 -1.0678185998860013 0 0 0 0 0.74525910478175206 -19.284960148243044 0 -19.284960148243044 -205.31902752073074 0 0 0 0 -19.967402629681899 -88.835658194622738 0 -88.835658194622738 -225.97228240972413 0 0 0 0 -3.3292630548848194 -41.441165805525088 0 -41.441165805525088 -226.27982680770037 0 0 0 0 14.605407696462606 -19.591763177849316 0 -19.591763177849316 -172.45931946221208 0 0 0 0 3.4622634566749184 -58.252993260723997 0 -58.252993260723997 -147.39822511194507 0 0 0 0 10.580093797775419 -41.255858744419584 0 -41.255858744419584 -197.92565945346178 0 0 0 0 -0.20932270711421097 -62.023272715070561 0 -62.023272715070561 -172.48096137338715 0 0 0 0 17.509472391472514 -74.601629254091677 0 -74.601629254091677 -215.38292247970276 0 0 0 0 -17.373390101443874 -108.22270391927213 0 -108.22270391927213 -298.20879269480338 0 0 0 0 -34.202687030730488 -106.53024962347536 0 -106.53024962347536 -224.75815825497824 0 0 0 0 -41.523947477916181 -119.97270109409146 0 -119.97270109409146 -142.20639341465085 0 0 0 0 -24.92480558857892 24.036271427726206 0 24.036271427726206 0.47702283538819756 0 0 0 0 9.1524121450366636 -34.961132163016828 0 -34.961132163016828 -89.066696450126983 0 0 0 0 5.3456877859285328 -50.384450933110202 0 -50.384450933110202 -153.73089408762098 0 0 0 0 5.0983258592430047 -95.321593093899082 0 -95.321593093899082 -237.98233609226554 0 0 0 0 10.955087974378444 -77.020448054487133 0 -77.020448054487133 -182.41477179772028 0 0 0 0 19.207372341901532 -68.974068856125996 0 -68.974068856125996 -228.52670787227544 0 0 0 0 26.556115823211712 -53.79134556401732 0 -53.79134556401732 -237.70309295444923 0 0 0 0 -123.62309618706911 -93.973632730941972 0 -93.973632730941972 -205.9859765803194 0 0 0 0 -39.508965083255589 -49.624100811419794 0 -49.624100811419794 -209.25754205757039 0 0 0 0 -41.279084909454355 -118.3721636153623 0 -118.3721636153623 -284.30275651447664 0 0 0 0 22.305175526868879 -8.2455377308961033 0 -8.2455377308961033 -291.5187303701706 0 0 0 0 -3.851985023318548 -30.943711747166162 0 -30.943711747166162 -74.391954697581241 0 0 0 0 21.723656761819711 -55.413910772190775 0 -55.413910772190775 -209.62369817442413 0 0 0 0 32.532625302619863 -55.105483324148736 0 -55.105483324148736 -210.27456619712029 0 0 0 0 -0.27911613897748222 0.306488162946291 0 0.306488162946291 -0.8750710724130415 0 0 0 0 -1.5665525737688972 3.6888617429182773 0 3.6888617429182773 -2.8742217791621911 0 0 0 0 -32.014418586511056 72.439176481620962 0 72.439176481620962 -44.127657577685568 0 0 0 0 3.4320397351679901 6.169412471781925 0 6.169412471781925 -9.4087804702803624 0 0 0 0 1.021650569285498 59.858228284352663 0 59.858228284352663 -145.67275401700681 0 0 0 0 21.196537829479198 34.658170940220771 0 34.658170940220771 18.183621541742468 0 0 0 0 -0.18594204113269874 1.9656449325922587 0 1.9656449325922587 -2.5529497452593901 0 0 0 0 -0.67428836656707425 3.0578869149858381 0 3.0578869149858381 -3.5545200192218616 0 0 0 0 17.556653339551872 -37.598874973395141 0 -37.598874973395141 -187.07706206049079 0 0 0 0 -15.542460702738254 -58.314399682561998 0 -58.314399682561998 -196.04691818402353 0 0 0 0 8.9419863996320785 10.592401921111559 0 10.592401921111559 -7.1192495251443688 0 0 0 0 1.4111767982776824 -4.2316271243607844 0 -4.2316271243607844 -17.008144382285536 0 0 0 0 -0.073112664644250036 0.064082228046604683 0 0.064082228046604683 0.010732046147365448 0 0 0 0 6.4655192157514563 -1.7711294855134838 0 -1.7711294855134838 -8.848865215731621 0 0 0 0 16.966483588369986 1.2239831805020458 0 1.2239831805020458 -29.830361157464722 0 0 0 0 5.1973738157701916 -2.610104623807274 0 -2.610104623807274 -27.453386822090579 0 0 0 0 6.7019020432047185 -1.3228844995437612 0 -1.3228844995437612 -26.631590576569579 0 0 0 0 4.0354063793499666 9.1811743745975036 0 9.1811743745975036 0.20920517264312366 0 0 0 0 -4.3064041895846543 -2.5044817804036938 0 -2.5044817804036938 -12.720264235202194 0 0 0 0 9.5927972392601841 -4.6951934695043747 0 -4.6951934695043747 -18.068050641528316 0 0 0 0 4.8122774271348057 0.21942585300212158 0 0.21942585300212158 -4.6502083374816721 0 0 0 0 5.0883429823867203 -0.074618372516852105 0 -0.074618372516852105 -18.28144036739468 0 0 0 0 6.4835694475790362 -3.8267194029169787 0 -3.8267194029169787 -19.42882063642719 0 0 0 0 5.7432009276643043 0.82373304825705418 0 0.82373304825705418 -27.158325672809042 0 0 0 0 6.1368676047841006 1.7972600935681839 0 1.7972600935681839 -19.457841587465197 0 0 0 0 9.090472438741287 2.4616384683649812 0 2.4616384683649812 -10.355208690445124 0 0 0 0 1.7564624905512574 2.2678056298327647 0 2.2678056298327647 -9.3630463569352287 0 0 0 0 2.764256957164168 3.0252552624159534 0 3.0252552624159534 -3.0176021237220993 0 0 0 0 0.79085712350005877 1.1158132838330506 0 1.1158132838330506 -4.0138196939835495 0 0 0 0 10.666915352885141 6.3745476614999461 0 6.3745476614999461 -2.8830747219935233 0 0 0 0 10.290387893037234 7.9569032762155985 0 7.9569032762155985 -7.991335979357018 0 0 0 0 -0.0050629314466917597 0.22876300476129074 0 0.22876300476129074 -1.1434647190494158 0 0 0 0 -2.9814538424867578 -1.5328084958600812 0 -1.5328084958600812 -19.768267955090778 0 0 0 0 -2.6411891023896032 -3.9307537790346032 0 -3.9307537790346032 -37.622808290928333 0 0 0 0 0.54003520703730601 -3.3077334078934655 0 -3.3077334078934655 -25.545391591196903 0 0 0 0 -3.4147050596947111 -2.0363249352317325 0 -2.0363249352317325 -17.779996819917869 0 0 0 0 3.6606757826742324 -0.015634534754326523 0 -0.015634534754326523 -18.866520632625907 0 0 0 0 3.7497830318983745 1.316607593756089 0 1.316607593756089 -10.774651720141264 0 0 0 0 -1.5511234249142944 2.097021581574154 0 2.097021581574154 -10.547069180937797 0 0 0 0 -7.0876074110247487 0.75441841355586803 0 0.75441841355586803 -9.4556837026081553 0 0 0 0 -0.019248178162854401 1.5537528322201979 0 1.5537528322201979 -22.107593921517037 0 0 0 0 -2.8521549668747639 1.9157213130988566 0 1.9157213130988566 -3.0110202836440294 0 0 0 0 -3.238390388754226 4.4632190507545602 0 4.4632190507545602 -9.7535738966610666 0 0 0 0 -0.87453932340230267 7.5904499268954169 0 7.5904499268954169 -3.7788704608810804 0 0 0 0 6.7155746729800683 4.2801763882866908 0 4.2801763882866908 -4.1144123782860333 0 0 0 0 0.61993852438851604 3.1234997989458861 0 3.1234997989458861 1.462530809612872 0 0 0 0 -4.5709562620049269 3.6762070571430741 0 3.6762070571430741 0.38161969374596083 0 0 0 0 -0.3650246059534652 5.2977266504058207 0 5.2977266504058207 -3.2059838753175995 0 0 0 0 -1.1265089418739223 1.0179313675894264 0 1.0179313675894264 -1.7211740583861683 0 0 0 0 6.9248680489178911 11.156645877494412 0 11.156645877494412 0.98799581690400373 0 0 0 0 2.9053537222875647 2.2758297111633965 0 2.2758297111633965 -1.455284680616387 0 0 0 0 0.32143087458654956 1.2225232849667851 0 1.2225232849667851 -4.1644904722560625 0 0 0 0 1.2159153907003315 3.5220188387647795 0 3.5220188387647795 -1.1065997717214486 0 0 0 0 -2.1961725470816553 -2.596144935459165 0 -2.596144935459165 -4.4884510590727587 0 0 0 0 -2.5935732891056773 -0.66602967829658155 0 -0.66602967829658155 -3.2147848709710161 0 0 0 0 -0.10513677769742458 -2.7605978902702191 0 -2.7605978902702191 -7.6652167364111392 0 0 0 0 -0.99578061968976561 -2.3923052397253546 0 -2.3923052397253546 -5.9813063704568776 0 0 0 0 -1.0063921056454868 -4.3397312711632381 0 -4.3397312711632381 -8.588537828232802 0 0 0 0 0.53750695603844179 -1.3649619731788789 0 -1.3649619731788789 -5.8486606397527794 0 0 0 0 0.87248113724911036 -1.5500002339440471 0 -1.5500002339440471 -6.9989118713810967 0 0 0 0 0.66179998983653832 0.085970333268051036 0 0.085970333268051036 -3.9179580261088631 0 0 0 0 0.78364402729602034 -0.013372097746923828 0 -0.013372097746923828 -3.1236301208919031 0 0 0 0 2.6276599187669154 -0.1179148466843678 0 -0.1179148466843678 -1.0059484599143369 0 0 0 0 2.4162500886861586 0.08677324755473137 0 0.08677324755473137 -4.4403886506133858 0 0 0 0 1.5580203094910416 0.77443702574691997 0 0.77443702574691997 -4.6631249997362829 0 0 0 0 1.720215254968906 -2.0549586387045906 0 -2.0549586387045906 -8.2800877571553428 0 0 0 0 -4.8756568696234126 -31.43470110727867 0 -31.43470110727867 -61.829373657764336 0 0 0 0 21.443326196071155 23.974870166283381 0 23.974870166283381 -61.1578047731673 0 0 0 0 40.133057183044968 30.553591012013385 0 30.553591012013385 -52.907716232261009 0 0 0 0 -23.083948199111887 -15.053045443994051 0 -15.053045443994051 20.127317979498912 0 0 0 0 -0.88220646871092656 2.1021360567749081 0 2.1021360567749081 -3.0495720248977847 0 0 0 0 -2.1758663025591716 -9.0982671174524512 0 -9.0982671174524512 -23.472738504173321 0 0 0 0 28.633536027086947 8.4526919190666376 0 8.4526919190666376 -43.469671381872104 0 0 0 0 22.717246851910105 -16.311090767524547 0 -16.311090767524547 -56.526155556265167 0 0 0 0 43.878929752959785 17.079161756490976 0 17.079161756490976 -105.79335882116629 0 0 0 0 3.6652995981057765 -5.533434140233112 0 -5.533434140233112 7.166888854240824 0 0 0 0 -2.6059297094816429 -3.6986524058274881 0 -3.6986524058274881 -7.9644218134635594 0 0 0 0 1.1806402363250106 -0.29060268985567994 0 -0.29060268985567994 0.071906488365260479 0 0 0 0 -1.2080260287687565 -3.7510700489719966 0 -3.7510700489719966 -8.8951776878184319 0 0 0 0 -2.5996801976687607 -4.0510222165794403 0 -4.0510222165794403 -13.384288280896726 0 0 0 0 -16.583866631175329 -3.9052401876851945 0 -3.9052401876851945 61.737258192569243 0 0 0 0 0.30620471555204076 -0.12003207377597747 0 -0.12003207377597747 -0.0087232704888320356 0 0 0 0 -6.2680971722375602 -5.5348551216984561 0 -5.5348551216984561 -7.934289340770647 0 0 0 0 -2.5826778197903195 -3.1900517797394059 0 -3.1900517797394059 -7.0052827869085377 0 0 0 0 -2.4969196600241048 -4.6415985658868522 0 -4.6415985658868522 -8.8506735401260812 0 0 0 0 -2.926675162215389 -3.4655546174258234 0 -3.4655546174258234 -8.4258435143756287 0 0 0 0 -1.5749366541844552 -4.4867427176905039 0 -4.4867427176905039 -8.4241927700292756 0 0 0 0 -18.887830198671281 -8.7492479371512673 0 -8.7492479371512673 -5.3809454732006543 0 0 0 0 -4.9054068900672547 -8.0792981065233107 0 -8.0792981065233107 -6.2024238628209787 0 0 0 0 -18.494403397122696 -25.212624382666945 0 -25.212624382666945 -22.863670469048657 0 0 0 0 -0.26460637760328815 0.00092712789376747651 0 0.00092712789376747651 -0.014746972148087067 0 0 0 0 -5.7544830599758825 -0.98597837539546163 0 -0.98597837539546163 -4.8055796512753659 0 0 0 0 -2.6152408727049008 -5.4415519823501199 0 -5.4415519823501199 -27.665068733071166 0 0 0 0 -11.039613196437713 -18.688313417341533 0 -18.688313417341533 -17.782099696407386 0 0 0 0 -22.23102444448012 -18.119782683799713 0 -18.119782683799713 -9.0783585237622901 0 0 0 0 -14.640740453522696 -9.6824400284813237 0 -9.6824400284813237 -25.348689634434777 0 0 0 0 -13.589427657228899 -14.217043405757636 0 -14.217043405757636 -14.581909279795582 0 0 0 0 -14.305863095802025 5.6873526181473153 0 5.6873526181473153 -8.156408819149874 0 0 0 0 -13.248937196970104 3.0196314566692308 0 3.0196314566692308 -45.652979657326796 0 0 0 0 -16.38672221789755 -9.2334416799785686 0 -9.2334416799785686 -24.213202312409521 0 0 0 0 -17.667840718072107 -8.8438445131964727 0 -8.8438445131964727 -28.433230387900039 0 0 0 0 -12.255903709575239 -4.9184931378263173 0 -4.9184931378263173 -55.844558579781733 0 0 0 0 -14.634717615513978 13.504725787258394 0 13.504725787258394 -65.924463567540442 0 0 0 0 -10.659555658100738 16.126252244318948 0 16.126252244318948 -79.355352485179537 0 0 0 0 -19.81178337744938 13.234995118797997 0 13.234995118797997 -53.471006410487121 0 0 0 0 -21.070593872851582 37.542450445405848 0 37.542450445405848 -91.867728177065146 0 0 0 0 -27.361522839927687 37.524487565652635 0 37.524487565652635 -86.813071729746298 0 0 0 0 -16.797812383635332 27.876438319772205 0 27.876438319772205 -81.097651565269189 0 0 0 0 -38.032270115484458 37.92629578618471 0 37.92629578618471 -82.237685097194799 0 0 0 0 -22.695231168584819 23.869613587825825 0 23.869613587825825 -63.943907360644516 0 0 0 0 -16.294312107410491 32.060754678415833 0 32.060754678415833 -78.043377505846365 0 0 0 0 -9.7895870113653416 22.357182869187454 0 22.357182869187454 -58.425930843857714 0 0 0 0 -15.633096593544565 24.098561306605006 0 24.098561306605006 -55.604475499365435 0 0 0 0 -10.852987921320175 13.251858379250223 0 13.251858379250223 -34.69636006617111 0 0 0 0 -17.388174096043382 10.262128868706668 0 10.262128868706668 -39.380463917388624 0 0 0 0 -18.378914836205247 53.75919155511383 0 53.75919155511383 -154.24906326314249 0 0 0 0 -5.7457973485890257 -30.879482693710088 0 -30.879482693710088 -62.766535661763555 0 0 0 0 -3.2753432838263095 -15.912014822880337 0 -15.912014822880337 6.9511500945491207 0 0 0 0 -0.28422793703661031 -0.15252925840291098 0 -0.15252925840291098 -0.20247398488871049 0 0 0 0 -14.716523934086265 42.48642679326349 0 42.48642679326349 -108.15710287847241 0 0 0 0 -15.577617151175069 26.481167301486266 0 26.481167301486266 -90.318266970043624 0 0 0 0 -9.2759958234078965 25.025685770076961 0 25.025685770076961 -98.31099872468576 0 0 0 0 -5.6313644903773792 2.7450512537297982 0 2.7450512537297982 -62.295126714331673 0 0 0 0 -20.633784301924209 -6.2623485401345533 0 -6.2623485401345533 -67.207177895351379 0 0 0 0 -26.279378581018435 -9.8598515129983753 0 -9.8598515129983753 -60.910855383956914 0 0 0 0 -0.022185003387590996 2.5435847690760056 0 2.5435847690760056 -132.25900752951702 0 0 0 0 -0.57966715134667768 0.15915746258506402 0 0.15915746258506402 -0.069517525216795661 0 0 0 0 -14.186009603429085 4.3154150764012229 0 4.3154150764012229 -6.0608512095400329 0 0 0 0 2.3429475960955086 14.307455631542325 0 14.307455631542325 -57.409803111679139 0 0 0 0 -17.958031916571425 -2.3548295992159183 0 -2.3548295992159183 6.2202131611088589 0 0 0 0 -7.781755925565645 -19.998615549262695 0 -19.998615549262695 -23.971807817690205 0 0 0 0 -0.61593113135606126 0.083349895493601167 0 0.083349895493601167 -0.020729832425312011 0 0 0 0 -1.593969040397738 -4.8714762857948699 0 -4.8714762857948699 -9.5542388329658934 0 0 0 0 -2.9502742924551058 -3.5975604441059659 0 -3.5975604441059659 -7.2480047646461117 0 0 0 0 -4.1946197700918049 -1.3085948893158275 0 -1.3085948893158275 -8.4029240574336654 0 0 0 0 -2.1922566326040851 -6.6947746026553432 0 -6.6947746026553432 -14.497141623048265 0 0 0 0 8.4814584647083393 4.0331860333667464 0 4.0331860333667464 -6.1698876182690583 0 0 0 0 -5.116759843370005 -5.291697576198203 0 -5.291697576198203 -1.5060048528644927 0 0 0 0 0.53827626872643464 6.541319454103359 0 6.541319454103359 -40.786764677624888 0 0 0 0 -4.0929606455650855 -16.209316108189796 0 -16.209316108189796 -31.168794144418825 0 0 0 0 -0.20741589570480568 0.12297935101109125 0 0.12297935101109125 -0.09430847072472659 0 0 0 0 -20.914381025559862 -12.274850679152223 0 -12.274850679152223 0.25518337255016377 0 0 0 0 12.290061410954806 3.7074817066145442 0 3.7074817066145442 -71.24851672677687 0 0 0 0 0.36960381495085248 1.5640066385587001 0 1.5640066385587001 1.4949685519692046 0 0 0 0 1.0751026927536635 5.091063613941003 0 5.091063613941003 -1.5760742776747065 0 0 0 0 -5.8586872634272424 52.33657411808872 0 52.33657411808872 -19.185171424414193 0 0 0 0 1.4318947126537012 7.939239903761063 0 7.939239903761063 1.4845711739465415 0 0 0 0 0.372542241298364 1.4997948343172887 0 1.4997948343172887 -4.0040866115370015 0 0 0 0 5.3325471452966582 20.064909368600638 0 20.064909368600638 5.5449156549166219 0 0 0 0 -7.5916316613816548 23.783650499157375 0 23.783650499157375 -96.492122389288852 0 0 0 0 -6.3534964536944472 -32.823873550349163 0 -32.823873550349163 -28.646067153058539 0 0 0 0 -0.14602698484978793 0.017604306465772268 0 0.017604306465772268 -0.70265023769590229 0 0 0 0 -17.044315133974642 6.8090019427769448 0 6.8090019427769448 18.088487480330514 0 0 0 0 -8.1188619897918528 29.353364526738119 0 29.353364526738119 -66.315951589207543 0 0 0 0 -74.927464456724465 -78.258285414680358 0 -78.258285414680358 39.861381533817621 0 0 0 0 -0.23466802536667675 0.3509419284505082 0 0.3509419284505082 0.15899453367303096 0 0 0 0 -9.2498746963973701 35.393049042544021 0 35.393049042544021 -52.355545671518485 0 0 0 0 17.261334781505013 21.54438360791255 0 21.54438360791255 -120.5838229821311 0 0 0 0 -23.409984664360884 -17.720938139502096 0 -17.720938139502096 -48.747111155771563 0 0 0 0 -23.972261223199084 -12.43339066530018 0 -12.43339066530018 -81.275094822496612 0 0 0 0 -11.775981467343399 7.6954068369705055 0 7.6954068369705055 -50.838403025292337 0 0 0 0 -10.669474417919531 1.9659523966562347 0 1.9659523966562347 -90.54559407742272 0 0 0 0 0.22392787957380733 -9.1987335050889669 0 -9.1987335050889669 -97.532517155154892 0 0 0 0 4.3753807837655359 -1.8223969040091106 0 -1.8223969040091106 -99.327028858630001 0 0 0 0 -6.2464472075243407 -6.7036217593717993 0 -6.7036217593717993 -84.438350132037158 0 0 0 0 -3.9341136738389082 3.0783564254579687 0 3.0783564254579687 -94.82213376175423 0 0 0 0 1.4284350271531423 3.1785542254897337 0 3.1785542254897337 -115.21116075604186 0 0 0 0 -5.7423229955963677 -10.871002233765921 0 -10.871002233765921 -106.16840424010661 0 0 0 0 -11.727166741207043 6.4880872624571566 0 6.4880872624571566 -45.047723473219776 0 0 0 0 7.8908851785760703 9.2277882256203156 0 9.2277882256203156 -80.273498632786868 0 0 0 0 -16.275382862398033 30.417084797301868 0 30.417084797301868 -26.718440639726623 0 0 0 0 5.1900292240443804 -0.81268857463282984 0 -0.81268857463282984 -91.21766041974297 0 0 0 0 9.0500106006634269 -1.5461663809292077 0 -1.5461663809292077 -91.543915192703935 0 0 0 0 7.3995759890591231 -14.649804200683093 0 -14.649804200683093 -161.76228680829627 0 0 0 0 -11.325091093494251 47.28852106811064 0 47.28852106811064 -123.81691474941726 0 0 0 0 9.0110628274078977 8.8472622701410728 0 8.8472622701410728 -71.620564657506577 0 0 0 0 -3.956766948787326 24.525509935074069 0 24.525509935074069 -90.09009205475013 0 0 0 0 9.0815552637392329 -20.82184660780149 0 -20.82184660780149 -75.265489160159632 0 0 0 0 -29.750198267041469 4.3896171231504013 0 4.3896171231504013 -72.611423537155133 0 0 0 0 -4.9154381428259057 24.742035400047826 0 24.742035400047826 -88.815873906600245 0 0 0 0 10.282683387841189 10.488890991214248 0 10.488890991214248 -81.009706420069051 0 0 0 0 0.93601566061805741 17.870988510379448 0 17.870988510379448 -77.856524534676282 0 0 0 0 1.901202251701136 2.4589241149133159 0 2.4589241149133159 -73.298735621186552 0 0 0 0 3.5464098675176388 7.0365780648653526 0 7.0365780648653526 -56.371724995429759 0 0 0 0 17.079136912066161 -3.2342583034205745 0 -3.2342583034205745 -101.15143122950803 0 0 0 0 -4.1244971125033398 2.6559044404382348 0 2.6559044404382348 -17.184690130057788 0 0 0 0 -1.2274922277707674 -10.519131595395265 0 -10.519131595395265 -50.754622606663588 0 0 0 0 5.0936937334182062 11.653133533448454 0 11.653133533448454 -5.5894866977187121 0 0 0 0 -1.1964904248902712 9.3588532194517029 0 9.3588532194517029 -26.323718749502405 0 0 0 0 -10.220479466324718 -3.1034602985655511 0 -3.1034602985655511 -16.193721381163414 0 0 0 0 -1.1240016128480761 0.63859206147481018 0 0.63859206147481018 -4.8500055027516282 0 0 0 0 -1.0385219420430469 0.087061184100461375 0 0.087061184100461375 -0.87359766164282249 0 0 0 0 -9.291615844484113 -6.6652269467681435 0 -6.6652269467681435 8.0706440753256175 0 0 0 0 0.24973445021969098 -3.99725428828242 0 -3.99725428828242 -7.1891565222877034 0 0 0 0 -4.6060487221877224 9.720241122654329 0 9.720241122654329 1.2600341352681426 0 0 0 0 -0.60196136027228553 1.7260333184826369 0 1.7260333184826369 -1.7023801788687773 0 0 0 0 7.9199118479559161 -5.9508095597366264 0 -5.9508095597366264 -21.885174107708167 0 0 0 0 3.2634739301607851 1.5968463850504122 0 1.5968463850504122 -4.6373093668498768 0 0 0 0 -0.76687396029303978 -0.95063117912280859 0 -0.95063117912280859 -1.5923567191656431 0 0 0 0 -7.8752400687322961 -10.949545710688653 0 -10.949545710688653 3.0374724049188444 0 0 0 0 -13.452836406839992 9.6463805751122891 0 9.6463805751122891 -8.1389797888568864 0 0 0 0 7.1226445870426573 3.2640080625742485 0 3.2640080625742485 -44.875142621701684 0 0 0 0 -1.3957444984851861 0.34908764424289984 0 0.34908764424289984 -3.3804666690130034 0 0 0 0 -1.2890242381339445 -0.34139470587044052 0 -0.34139470587044052 -0.49595706094980052 0 0 0 0 -1.26547547899726 0.60455216440914228 0 0.60455216440914228 -4.1833073951893311 0 0 0 0 -0.28725332445756829 0.26602138547713849 0 0.26602138547713849 -0.56055984742106002 0 0 0 0 2.0622858755097724 0.20076378436033337 0 0.20076378436033337 -4.2137126493580581 0 0 0 0 -0.22869640566983379 -0.65374372351509091 0 -0.65374372351509091 -2.0061927612712047 0 0 0 0 -0.62280028300830281 1.9671950855772593 0 1.9671950855772593 -3.1065771752450928 0 0 0 0 -0.011404639892703017 -0.80432484536595439 0 -0.80432484536595439 -3.9904170540303312 0 0 0 0 -0.3244907485993167 -0.85062248503436422 0 -0.85062248503436422 -2.7322498474950407 0 0 0 0 -0.4208159088220782 -0.44387035327872582 0 -0.44387035327872582 -3.7152588937606197 0 0 0 0 0.3509547608040009 -0.75286896958232319 0 -0.75286896958232319 -3.6701908347149583 0 0 0 0 -0.43401625906841446 0.093087108633881144 0 0.093087108633881144 -3.79123763073585 0 0 0 0 -0.31772863408765378 -0.61563210343667052 0 -0.61563210343667052 -2.1020505528434157 0 0 0 0 -0.25505858664178049 -0.13490601335433894 0 -0.13490601335433894 -2.2038705460836354 0 0 0 0 -0.69087209493659429 -0.68275296274441644 0 -0.68275296274441644 -4.142174394261815 0 0 0 0 -0.055137259710704711 -0.24811755687915138 0 -0.24811755687915138 -2.4524717970853089 0 0 0 0 -0.36970058902553515 -0.38980477432814631 0 -0.38980477432814631 -1.7249228667201129 0 0 0 0 0.72769212884478107 0.33142005176187794 0 0.33142005176187794 -2.2766400036437204 0 0 0 0 -0.083837073926716243 -0.59725481259829394 0 -0.59725481259829394 -2.7001069258112693 0 0 0 0 0.097929106639670416 -0.9784348219981247 0 -0.9784348219981247 -2.7610008232926546 0 0 0 0 1.0083997481150675 0.20163501598653966 0 0.20163501598653966 -1.7630710547527997 0 0 0 0 0.84926508022976033 0.13539295426707021 0 0.13539295426707021 -4.0734232974326154 0 0 0 0 2.1622305892814495 3.8343365080775129 0 3.8343365080775129 -4.2996726931069134 0 0 0 0 1.4038384441389007 0.34740840354322167 0 0.34740840354322167 -4.472299450035699 0 0 0 0 -2.7963345051956701 -3.7793739310006913 0 -3.7793739310006913 -7.2475090090892991 0 0 0 0 0.13182398293369163 0.277366056494178 0 0.277366056494178 -0.39624266614198334 0 0 0 0 -0.38600727560376358 0.26573927791492125 0 0.26573927791492125 -0.99828687103735447 0 0 0 0 -1.5445206880065996 -3.4430474884720752 0 -3.4430474884720752 -7.751224988535796 0 0 0 0 0.63776192389735797 1.0524398772904533 0 1.0524398772904533 -1.875624854873422 0 0 0 0 -0.080709710794252487 3.5253722433772055 0 3.5253722433772055 -11.486770257703938 0 0 0 0 0.068314922196811123 -1.032532187302861 0 -1.032532187302861 -1.0190648348306217 0 0 0 0 -0.95961664101291255 1.6484782149950234 0 1.6484782149950234 -2.1039735621172486 0 0 0 0 -0.75483336176984039 0.83473651037638774 0 0.83473651037638774 -4.982866070140517 0 0 0 0 -0.17683051113046208 0.0067231792982411775 0 0.0067231792982411775 0.10887414483449476 0 0 0 0 -2.2918750816429565 0.020107954645936843 0 0.020107954645936843 0.51105182175524533 0 0 0 0 0.23159532950297335 0.0337163198749586 0 0.0337163198749586 -1.7394322872453358 0 0 0 0 -0.025753331165105919 -0.49035892263054848 0 -0.49035892263054848 -2.3093678866280243 0 0 0 0 0.48319741971666474 -0.080862920985223852 0 -0.080862920985223852 -2.3614661911900683 0 0 0 0 -0.41094821406612925 0.58283105775237409 0 0.58283105775237409 -2.9807890257326628 0 0 0 0 0.62068588998047858 -0.92515983289376891 0 -0.92515983289376891 -4.0389453086809226 0 0 0 0 0.61616924986365995 0.87244872428021303 0 0.87244872428021303 -2.2378361706232681 0 0 0 0 0.48966342935227658 1.9643707979375904 0 1.9643707979375904 -0.98321528818269144 0 0 0 0 2.2193803223558177 1.7643529355659666 0 1.7643529355659666 -1.926559808811362 0 0 0 0 2.6061138639980612 -0.25589417990067886 0 -0.25589417990067886 -2.670242829910876 0 0 0 0 -0.80306715816436736 0.68494109537095937 0 0.68494109537095937 -1.2142675157992926 0 0 0 0 0.14862633279949478 1.6557051361869526 0 1.6557051361869526 -0.61306148894163925 0 0 0 0 -4.305939420777122 2.6200476682615772 0 2.6200476682615772 1.8821160268496442 0 0 0 0 -4.6966372355057047 -0.11255137286389072 0 -0.11255137286389072 7.7216997327477657 0 0 0 0 -0.90331964934375719 2.8052196367907527 0 2.8052196367907527 -1.8663902634980332 0 0 0 0 -2.4485820609621669 0.67232494135441812 0 0.67232494135441812 -0.83387385152309434 0 0 0 0 -0.61228876273003152 -0.64081103380704008 0 -0.64081103380704008 2.1956834607697147 0 0 0 0 -4.2593822310754206 -0.78836934863511487 0 -0.78836934863511487 -15.938470606139163 0 0 0 0 0.46390529166416172 11.263091571268887 0 11.263091571268887 -20.17085162234207 0 0 0 0 -1.9536997508224747 -1.5862700053432004 0 -1.5862700053432004 -0.48600238113744076 0 0 0 0 -0.27846734611819091 -0.063341172338029494 0 -0.063341172338029494 -0.81310486946797411 0 0 0 0 0.88482221655172566 1.3445038330801253 0 1.3445038330801253 -4.9976654671445431 0 0 0 0 -0.029760372541522792 -0.17441416058783155 0 -0.17441416058783155 -0.019326090442589816 0 0 0 0 -1.7720034008882379 4.2112305201662821 0 4.2112305201662821 -29.40647954380438 0 0 0 0 0.089206306510504874 2.0382022512494586 0 2.0382022512494586 -4.7460964364249776 0 0 0 0 -1.8405382397220951 1.7502621711239499 0 1.7502621711239499 -4.351802034982029 0 0 0 0 0.92450126430660262 1.4717926619473474 0 1.4717926619473474 -4.5962062561538914 0 0 0 0 -2.8874536922639891 3.7845625493264379 0 3.7845625493264379 3.9018023321686996 0 0 0 0 1.0234328787599907 -3.4314944450306939 0 -3.4314944450306939 1.4911607022368116 0 0 0 0 -10.861961691229908 -3.282987262007282 0 -3.282987262007282 19.576148392919094 0 0 0 0 -3.9047301860551404 -2.1012725531692453 0 -2.1012725531692453 -0.65743486762230052 0 0 0 0 -13.431989635115087 -7.1642954801500309 0 -7.1642954801500309 -32.046802868750092 0 0 0 0 1.9543647380830862 -7.5270092847385968 0 -7.5270092847385968 2.7451205928009585 0 0 0 0 -5.3789450714853047 6.0744590751646683 0 6.0744590751646683 7.67559531317238 0 0 0 0 2.2693400388442626 -7.7459183671307983 0 -7.7459183671307983 -34.131892307518683 0 0 0 0 1.1658590437309897 -0.78886414877342759 0 -0.78886414877342759 -6.0484478796970507 0 0 0 0 4.5652534436787846 -1.3500251992154517 0 -1.3500251992154517 -16.555847044670372 0 0 0 0 -1.7583718501189765 -10.004640533177735 0 -10.004640533177735 -14.045623378719938 0 0 0 0 -5.4861679005970458 -6.6003353479381985 0 -6.6003353479381985 -9.2305390576693753 0 0 0 0 -3.4618182364039427 -4.2468324263882096 0 -4.2468324263882096 -10.30293666781381 0 0 0 0 2.0498733294269584 -6.8492281523258498 0 -6.8492281523258498 -13.090786451490203 0 0 0 0 -4.2081717936726326 -0.34989405007945606 0 -0.34989405007945606 -4.0068748785124626 0 0 0 0 -11.274095535264372 -12.016881210133761 0 -12.016881210133761 -13.982021721694764 0 0 0 0 -8.9032127260534732 -3.8268154096602984 0 -3.8268154096602984 -6.2980963845111546 0 0 0 0 -5.6320497555955029 -0.28948740419218666 0 -0.28948740419218666 -4.7834363323490834 0 0 0 0 -2.8825329589442532 0.5865369200000714 0 0.5865369200000714 -5.7447208245350794 0 0 0 0 -2.3783310685777472 0.19507263821287779 0 0.19507263821287779 -5.4527903425441764 0 0 0 0 -0.97950049750128976 1.0330943590779498 0 1.0330943590779498 -4.4120620061839873 0 0 0 0 -2.3496308566805482 1.2355128521630832 0 1.2355128521630832 -4.3525253778007027 0 0 0 0 -1.1795933385191972 0.40508989406589535 0 0.40508989406589535 -4.7631678056368401 0 0 0 0 -2.8380886152810127 -0.69771566422650722 0 -0.69771566422650722 -5.1462336891036102 0 0 0 0 -1.1030157490981338 1.0836123062672414 0 1.0836123062672414 -3.5525360879855725 0 0 0 0 -1.9262843811026751 1.269744774902847 0 1.269744774902847 -3.5216056055724039 0 0 0 0 -3.2320193182480779 -0.78397522439672684 0 -0.78397522439672684 -2.9998855108005955 0 0 0 0 -0.78105966081945155 -0.53005088422924018 0 -0.53005088422924018 -6.1171976504365375 0 0 0 0 -0.27313587773492287 -2.4396324211082856 0 -2.4396324211082856 -13.813541353534674 0 0 0 0 -18.623388834625963 24.991626977384868 0 24.991626977384868 -57.454004837996763 0 0 0 0 -19.651579280769493 45.450023348522279 0 45.450023348522279 -72.209227002098487 0 0 0 0 -0.76246332954894669 -0.80650506654092169 0 -0.80650506654092169 -3.0246958924894898 0 0 0 0 -28.338749812899181 47.369952133834886 0 47.369952133834886 -79.481500405745464 0 0 0 0 -12.795540129218956 44.557521314034602 0 44.557521314034602 -88.469919463652332 0 0 0 0 0.3141400927845609 0.40751709289674309 0 0.40751709289674309 -0.16033914618101086 0 0 0 0 1.8205894607970681 1.9884318789154349 0 1.9884318789154349 -3.3885915358823695 0 0 0 0 -20.231309632946179 26.792678482210249 0 26.792678482210249 -83.187567970779128 0 0 0 0 -0.037605364113578343 -0.020998719641026398 0 -0.020998719641026398 -0.063661046394843268 0 0 0 0 -22.962761085091451 51.765670267599489 0 51.765670267599489 -134.0701281100919 0 0 0 0 6.2764449376822427 0.75816565266813996 0 0.75816565266813996 -3.2496714111453002 0 0 0 0 0.060950529226111883 3.3985599230190928 0 3.3985599230190928 -1.5422995582694057 0 0 0 0 -0.58430704001134259 -0.66056284946521515 0 -0.66056284946521515 -0.94038274057356119 0 0 0 0 0.4123822097398292 1.2172669845944402 0 1.2172669845944402 -1.4679339511541905 0 0 0 0 -2.0114119946887286 -5.4116737317945081 0 -5.4116737317945081 -11.555766915673303 0 0 0 0 6.2716660037477965 2.728483841936395 0 2.728483841936395 -13.418915677992118 0 0 0 0 0.57941654561935252 0.77212172920280864 0 0.77212172920280864 -4.9414268032815016 0 0 0 0 -0.47510515933856823 2.2363268824865372 0 2.2363268824865372 -1.5321366956777354 0 0 0 0 0.30785035982528086 2.1066615122763324 0 2.1066615122763324 -4.1390357822210717 0 0 0 0 0.35323870491680509 1.756483927843874 0 1.756483927843874 -4.5946233645126995 0 0 0 0 -1.1679254882167083 1.7284214446895021 0 1.7284214446895021 -3.642165461951663 0 0 0 0 0.626611654146501 2.3026801453534063 0 2.3026801453534063 -3.7040687486460229 0 0 0 0 0.54920103817334542 0.8104723923745496 0 0.8104723923745496 -3.0179211358808971 0 0 0 0 -0.0074712033746229048 0.89977685253234085 0 0.89977685253234085 -5.5411472739015153 0 0 0 0 -0.48622151141267822 -6.7166957664476286 0 -6.7166957664476286 -23.002729363321123 0 0 0 0 14.817989955980778 23.851521358418722 0 23.851521358418722 2.8783355415653205 0 0 0 0 -1.8176093286324684 -2.7868355363525552 0 -2.7868355363525552 -1.7283494852113108 0 0 0 0 -29.348503501018975 3.2397783044114021 0 3.2397783044114021 14.091149304254941 0 0 0 0 2.8581369032930271 -12.800686515011762 0 -12.800686515011762 -32.505448551102745 0 0 0 0 -0.048860296950355583 -0.18907458686485779 0 -0.18907458686485779 -0.41014756574170264 0 0 0 0 0.97240880729954338 8.8540395833715593 0 8.8540395833715593 -47.61231228107772 0 0 0 0 0.0085191761765333988 0.51927346536285768 0 0.51927346536285768 -29.133672458152432 0 0 0 0 -4.7495332683752318 5.8852589903908665 0 5.8852589903908665 -31.702915791413034 0 0 0 0 3.1569137265924794 1.2208847108922782 0 1.2208847108922782 -33.010088533545058 0 0 0 0 -0.002319305683737932 0.1781587764126383 0 0.1781587764126383 -25.482877443471807 0 0 0 0 -4.7478278574970183 -0.42787965649768012 0 -0.42787965649768012 -23.028622233628539 0 0 0 0 -3.9589976894697361 -1.5134481751465501 0 -1.5134481751465501 -21.53613090784529 0 0 0 0 -15.090909532590386 10.753807912955267 0 10.753807912955267 -28.680033308686689 0 0 0 0 -6.2313116847841421 1.9882762213346723 0 1.9882762213346723 -20.133529553933386 0 0 0 0 4.2528904193652366 -10.990390090508299 0 -10.990390090508299 -23.313159413581161 0 0 0 0 -13.57623767464934 -3.228319494599134 0 -3.228319494599134 -19.261263833406701 0 0 0 0 -4.5431089956336521 -2.7204452520752511 0 -2.7204452520752511 -16.391567692937315 0 0 0 0 10.444585623418485 -4.3924779626813688 0 -4.3924779626813688 -21.501418421272319 0 0 0 0 10.626680750563187 -6.2077647217047343 0 -6.2077647217047343 -18.367384021208636 0 0 0 0 0.68565150509603612 6.2475115312645357 0 6.2475115312645357 -17.74505781354037 0 0 0 0 0.20896498062475574 0.28082438167014701 0 0.28082438167014701 -4.6814701301384254 0 0 0 0 18.72902624598208 -1.8644497219638652 0 -1.8644497219638652 -23.68513921783142 0 0 0 0 2.9612250284426125 3.9784450078233728 0 3.9784450078233728 -16.717044980402278 0 0 0 0 21.493493045452567 -45.560187900436858 0 -45.560187900436858 22.617680729172207 0 0 0 0 69.436873028753439 -25.229757785046331 0 -25.229757785046331 -91.242815858337053 0 0 0 0 3.1972900845064669 2.6112085045041393 0 2.6112085045041393 -15.380829880443169 0 0 0 0 -63.757089887417351 141.8253382060484 0 141.8253382060484 -187.45664038985706 0 0 0 0 29.100599572670582 28.170553725258287 0 28.170553725258287 -41.755415404587893 0 0 0 0 8.6885969667647487 66.066308162417499 0 66.066308162417499 -128.0730149695305 0 0 0 0 -0.91018293841062192 -0.82463186054663939 0 -0.82463186054663939 -0.72717202644443546 0 0 0 0 -97.367264234997378 1.0297090908775317 0 1.0297090908775317 104.08205944304973 0 0 0 0 -0.86870415107330246 14.70412606092259 0 14.70412606092259 -48.283296124283197 0 0 0 0 7.3730896052259141 5.6474828868003897 0 5.6474828868003897 -46.499776911531171 0 0 0 0 20.920249123836811 3.6402835044859785 0 3.6402835044859785 -51.045647964099771 0 0 0 0 16.530519231669871 3.7113299908523913 0 3.7113299908523913 -33.187655331787028 0 0 0 0 11.150559693757259 -5.3059257023869577 0 -5.3059257023869577 -18.063551768087564 0 0 0 0 16.407638897642983 -1.3306768286311126 0 -1.3306768286311126 -57.535990229660456 0 0 0 0 17.153839003984785 -8.610621566647751 0 -8.610621566647751 -34.994809998629535 0 0 0 0 11.328123043980099 22.114138392036693 0 22.114138392036693 16.255731445843367 0 0 0 0 6.0410842635691893 10.018497260136883 0 10.018497260136883 -1.9880290696473821 0 0 0 0 6.3146576327654316 8.6639697398341013 0 8.6639697398341013 -24.028835217297456 0 0 0 0 5.2676305327367512 1.9199256592827147 0 1.9199256592827147 -4.6370696994439351 0 0 0 0 3.2208402363569704 4.5306039011445591 0 4.5306039011445591 -23.732472249826969 0 0 0 0 4.1844382696031062 15.877740564335909 0 15.877740564335909 -13.048218327566815 0 0 0 0 11.955713663560971 19.579168313540322 0 19.579168313540322 -16.111943069796325 0 0 0 0 -4.0061112674986532 9.4741713754178818 0 9.4741713754178818 23.675039870252476 0 0 0 0 2.8861914635891077 0.97619044959236234 0 0.97619044959236234 0.5817095350165058 0 0 0 0 -4.1432299684000213 11.914530754846055 0 11.914530754846055 -30.864577707392527 0 0 0 0 -18.909962884452824 26.347979159497299 0 26.347979159497299 -44.951095644589486 0 0 0 0 -5.4762456021895218 11.236425593643162 0 11.236425593643162 -28.51946643165229 0 0 0 0 -21.59461228347584 -10.8731963933933 0 -10.8731963933933 85.376142996290127 0 0 0 0 -24.702249088730241 62.298376404058217 0 62.298376404058217 9.2784885970204414 0 0 0 0 0.92660267885962966 0.24155327117114922 0 0.24155327117114922 0.057241983300794885 0 0 0 0 -76.711753156086104 25.231827147003969 0 25.231827147003969 -66.507922425919787 0 0 0 0 17.749065590967689 -4.2944255649299521 0 -4.2944255649299521 -58.172951526121324 0 0 0 0 -25.891380612913792 -47.078718483859575 0 -47.078718483859575 -106.95334136022757 0 0 0 0 -19.15693004955051 26.124213182012682 0 26.124213182012682 -17.273790196471509 0 0 0 0 18.239066971178886 4.9513668320735178 0 4.9513668320735178 -70.499488127745281 0 0 0 0 -2.7640781054049057 -23.026231172790176 0 -23.026231172790176 -59.681414355596189 0 0 0 0 11.081134070167309 -5.5156424507094926 0 -5.5156424507094926 -53.809052044939563 0 0 0 0 -47.040680252799575 -66.360450923406461 0 -66.360450923406461 -55.723366893148068 0 0 0 0 -18.528570238190923 -33.760697723613703 0 -33.760697723613703 -43.756626712723573 0 0 0 0 -63.698241940770004 -32.220478885936245 0 -32.220478885936245 -15.827776527734386 0 0 0 0 -0.31676167827873813 -0.38570347452224141 0 -0.38570347452224141 -0.57889854094610271 0 0 0 0 10.55176231445513 -18.406268110348861 0 -18.406268110348861 -145.56539418427565 0 0 0 0 -6.7724004556307591 -4.3360406117171806 0 -4.3360406117171806 1.0630068846248832 0 0 0 0 -0.024607299192602627 0.27010822224372077 0 0.27010822224372077 -0.4551424047010304 0 0 0 0 -31.664013434134972 3.5583709668308074 0 3.5583709668308074 5.4089929110505182 0 0 0 0 -15.418172440858314 -20.378700672338709 0 -20.378700672338709 -11.148603761157574 0 0 0 0 -13.281983741424312 -11.581339588261471 0 -11.581339588261471 -21.045667705919186 0 0 0 0 -11.794643083906521 -6.6628861251310809 0 -6.6628861251310809 -12.383713972972373 0 0 0 0 -5.0306482639448404 -9.5705740255270939 0 -9.5705740255270939 -10.561533141513792 0 0 0 0 -10.137725477276632 -9.6085023068289956 0 -9.6085023068289956 -7.1841948522887833 0 0 0 0 -0.17589102052674876 0.24234706861376054 0 0.24234706861376054 0.13233696151298879 0 0 0 0 -2.3960356754915892 -2.9945528086791455 0 -2.9945528086791455 -14.44675580499279 0 0 0 0 -3.4552098519519632 1.8494728795940318 0 1.8494728795940318 -1.5103715646978344 0 0 0 0 -2.0205199541547927 -0.95132542936426034 0 -0.95132542936426034 -1.5531069746539288 0 0 0 0 -1.4907592135425034 -0.85816338998802166 0 -0.85816338998802166 -2.407738495772719 0 0 0 0 0.57851289702348851 -0.14706091430121404 0 -0.14706091430121404 -0.72084488637366206 0 0 0 0 -1.2576299920187921 -1.5644190349503333 0 -1.5644190349503333 -2.6581232013784302 0 0 0 0 0.67504873824134393 -4.1110549611967144 0 -4.1110549611967144 -1.8973886542870559 0 0 0 0 -4.3162520523825378 -3.5479027612400387 0 -3.5479027612400387 -1.9491074440229568 0 0 0 0 -0.43499703724342309 -1.7078455804674473 0 -1.7078455804674473 -3.1678927008005218 0 0 0 0 -8.8114679598315888 -11.043663859776672 0 -11.043663859776672 -6.5027326726631145 0 0 0 0 4.4227661353179428 -6.0162635974329532 0 -6.0162635974329532 -4.613768885810714 0 0 0 0 -9.2921360918645632 -1.7236249389716249 0 -1.7236249389716249 -1.4722563452851318 0 0 0 0 -1.1370807487071564 -1.4391598671976746 0 -1.4391598671976746 0.47193268598228144 0 0 0 0 13.68398156761819 -28.219189541535343 0 -28.219189541535343 -6.2874040082006104 0 0 0 0 -0.18446456361473906 -16.323196513614903 0 -16.323196513614903 -3.39870291223815 0 0 0 0 -2.4178414910258486 -3.6557757965547744 0 -3.6557757965547744 -5.2006761406244237 0 0 0 0 -2.2718108472988376 14.027033531311645 0 14.027033531311645 -7.1042086717043276 0 0 0 0 27.601477182877147 1.6318257422162787 0 1.6318257422162787 -14.579496996810121 0 0 0 0 5.81639133515705 -36.677941999201721 0 -36.677941999201721 -13.597021019042131 0 0 0 0 -0.91833391023140265 -3.0627651728294172 0 -3.0627651728294172 -4.6362560636869219 0 0 0 0 18.019182357035959 11.333158200539401 0 11.333158200539401 -23.965508076451442 0 0 0 0 3.771089611857974 -13.647182203532793 0 -13.647182203532793 15.039826313599406 0 0 0 0 8.2774579175484178 -6.467879447073301 0 -6.467879447073301 8.9010747895044915 0 0 0 0 -1.3249502806584417 -22.098114935842204 0 -22.098114935842204 1.044090602434153 0 0 0 0 16.491162057410833 -10.18820215454798 0 -10.18820215454798 7.7892085616931581 0 0 0 0 -1.8555721149809277 -2.3379849990369808 0 -2.3379849990369808 -2.8752656202932414 0 0 0 0 7.1245340987645136 -0.070867533981754605 0 -0.070867533981754605 -28.28932895795424 0 0 0 0 0.53873688726127966 -14.857144149501892 0 -14.857144149501892 6.543810474620841 0 0 0 0 -3.3715807722921909 -0.71282480803984072 0 -0.71282480803984072 -10.983722150177357 0 0 0 0 -3.5097684214779292 -0.48222975286262226 0 -0.48222975286262226 -1.5298428612768475 0 0 0 0 -5.058189152232444 -9.32830840965471 0 -9.32830840965471 4.6573872991320968 0 0 0 0 6.1530028928346212 -7.0336221928222926 0 -7.0336221928222926 -32.007355506834756 0 0 0 0 5.9501824362433808 -5.5889672243492896 0 -5.5889672243492896 -29.390484928529986 0 0 0 0 23.354491723603587 -29.836788357306432 0 -29.836788357306432 -1.9484885539004608 0 0 0 0 4.6998466400850702 -22.001864851378741 0 -22.001864851378741 -5.0593342842594211 0 0 0 0 31.297894520357318 -13.391848742701541 0 -13.391848742701541 -15.865115054397393 0 0 0 0 8.3593327650229412 -3.3871600708557708 0 -3.3871600708557708 -15.952434779530449 0 0 0 0 14.294477821545911 -15.306971552870891 0 -15.306971552870891 -1.8859864969836053 0 0 0 0 3.2210579099973984 -6.3674600528556766 0 -6.3674600528556766 -2.1207154448230199 0 0 0 0 2.8499374279521135 -8.6363622636004038 0 -8.6363622636004038 11.82297248078612 0 0 0 0 15.000079563150621 -4.238915042627923 0 -4.238915042627923 -59.027466916905723 0 0 0 0 -0.8641882620582737 0.43259519996725615 0 0.43259519996725615 0.40305319930678962 0 0 0 0 -3.7751116542479508 -7.7710872784768981 0 -7.7710872784768981 -7.6333526249036368 0 0 0 0 -1.645925320426386 -7.4530107646141914 0 -7.4530107646141914 -13.729512910273115 0 0 0 0 -1.396922025720702 -0.32729635032901427 0 -0.32729635032901427 -0.40385003348352733 0 0 0 0 4.1129008750306184 -5.9858738731099947 0 -5.9858738731099947 -3.9272812132294348 0 0 0 0 0.7585620162675899 -1.7746073070722552 0 -1.7746073070722552 -4.770145094775069 0 0 0 0 -1.0929451906925036 -3.2546601474846066 0 -3.2546601474846066 -3.1433622887789525 0 0 0 0 -0.0054641897738747502 -2.6738762498048345 0 -2.6738762498048345 -3.1843564963965036 0 0 0 0 -2.0970144827982722 -3.7799832861774121 0 -3.7799832861774121 -3.0861550124718633 0 0 0 0 -1.739889669289937 -3.218484023518613 0 -3.218484023518613 -2.2209005144663934 0 0 0 0 -2.0932008056826605 -2.6844425142605068 0 -2.6844425142605068 -2.2520769109984045 0 0 0 0 1.3767711980503221 -0.27882542920492703 0 -0.27882542920492703 -3.2472202374532557 0 0 0 0 -0.18146999497889738 -1.9265119293650059 0 -1.9265119293650059 -3.2680393114560502 0 0 0 0 -0.0034658808530931822 -1.8058984937206333 0 -1.8058984937206333 -4.2143972702760948 0 0 0 0 -0.20223029146609406 -2.776425048659803 0 -2.776425048659803 -5.9960334614534077 0 0 0 0 0.45548602450419262 -0.40841854258168198 0 -0.40841854258168198 -1.7702576615305698 0 0 0 0 0.0058167161621916139 -0.010932200746538001 0 -0.010932200746538001 -4.9522839747478429 0 0 0 0 2.3911941878575487 -1.0401867679023553 0 -1.0401867679023553 -6.6022979543668043 0 0 0 0 2.6371676870610887 1.2823491565003451 0 1.2823491565003451 -5.6352270161733031 0 0 0 0 3.3449155397605637 -1.341589310361087 0 -1.341589310361087 -4.5949498810459772 0 0 0 0 -4.5289640964253977 -3.4272805134137343 0 -3.4272805134137343 -3.8747646476886075 0 0 0 0 1.9166461674918231 -1.9713141843890174 0 -1.9713141843890174 -6.6062237685909864 0 0 0 0 1.4613082568288798 -0.88703072414077155 0 -0.88703072414077155 -4.8101514344547169 0 0 0 0 6.9799188235427678 4.2986073838819721 0 4.2986073838819721 -5.8975226841034782 0 0 0 0 4.0713278705261269 -0.022142317403794465 0 -0.022142317403794465 -12.999903689031655 0 0 0 0 1.5760565697697757 1.6675013338766922 0 1.6675013338766922 -0.87150835234115931 0 0 0 0 0.8017819574476287 0.82606336922981427 0 0.82606336922981427 -5.0746651194203878 0 0 0 0 0.87614247061253681 0.34614077036007984 0 0.34614077036007984 -5.2933150480639597 0 0 0 0 0.81123590679282032 -9.3112326439490971 0 -9.3112326439490971 -23.55215945220516 0 0 0 0 -0.0044907532885854924 -7.948112593242513 0 -7.948112593242513 -15.483392581566022 0 0 0 0 -9.8910895025053858 -9.894739581429576 0 -9.894739581429576 -11.770544473718473 0 0 0 0 -6.6524857266512214 -14.019922363674141 0 -14.019922363674141 -17.470432662619714 0 0 0 0 0.016748879332588937 -0.039616672711872525 0 -0.039616672711872525 -0.015879166491330921 0 0 0 0 -2.8487955811605445 -2.2815150695068951 0 -2.2815150695068951 -7.9297380078478454 0 0 0 0 1.7817807799021104 -8.493239264777003 0 -8.493239264777003 -17.57380968371217 0 0 0 0 0.60285911395908531 -5.9769170186546035 0 -5.9769170186546035 -14.028603507124899 0 0 0 0 0.00060757567274263499 -7.3391812142372146 0 -7.3391812142372146 -7.923723361647717 0 0 0 0 -2.5917997837585887 -7.5532762092907433 0 -7.5532762092907433 -0.19629862084002525 0 0 0 0 4.4766742819929242 -8.6788483685522806 0 -8.6788483685522806 -0.64975636727467645 0 0 0 0 0.00077341814207312453 -7.4571832071386588 0 -7.4571832071386588 0.15198091362435662 0 0 0 0 -6.8454979393304383 -6.3816014000078667 0 -6.3816014000078667 1.7000042434028728 0 0 0 0 -1.4717617639917473 -1.0150893113725337 0 -1.0150893113725337 -0.12901893951376309 0 0 0 0 -4.7846209872277043 -5.384326061946922 0 -5.384326061946922 1.6482285150796088 0 0 0 0 1.6912878330837842 -7.4930633199819567 0 -7.4930633199819567 -7.0564911889528048 0 0 0 0 -0.90162885887571775 -2.4791070600667808 0 -2.4791070600667808 -4.8553059768573803 0 0 0 0 -5.0667971739287623 -14.445947317100945 0 -14.445947317100945 -1.8936993889019504 0 0 0 0 -5.0215882035779105 -3.5066860709684846 0 -3.5066860709684846 -2.0550351075162148 0 0 0 0 -4.9663372900287754 -16.002320845824897 0 -16.002320845824897 -11.797786987353902 0 0 0 0 3.48658462899607 -32.006900338650667 0 -32.006900338650667 8.0054434910016425 0 0 0 0 2.1607815926406104 -14.157067530300196 0 -14.157067530300196 1.2804898524700548 0 0 0 0 -1.4157893594968058 -3.6823846909167059 0 -3.6823846909167059 -1.5025899422071234 0 0 0 0 8.4613349667947659 20.4138996210595 0 20.4138996210595 12.2843023281672 0 0 0 0 -2.6567988304940879 -1.4084375844243304 0 -1.4084375844243304 -0.82384141808772782 0 0 0 0 3.4673051746331964 -20.228050110748882 0 -20.228050110748882 -71.542209117782477 0 0 0 0 0.0086782981998900222 -0.009787114016095444 0 -0.009787114016095444 -0.24189478350113625 0 0 0 0 -9.7217311068809238 -37.566730991022268 0 -37.566730991022268 -78.654033404400252 0 0 0 0 -6.1544759366936574 -21.314366612790764 0 -21.314366612790764 -32.835381306756517 0 0 0 0 -0.73884014010496735 -6.5784763729368478 0 -6.5784763729368478 -9.2160117775692925 0 0 0 0 0.067866111467359325 -0.010307422048757786 0 -0.010307422048757786 -0.043866833936036187 0 0 0 0 -7.9094186858986362 -15.837816450185301 0 -15.837816450185301 -32.783520844801387 0 0 0 0 -18.373218697947948 -25.045307542141927 0 -25.045307542141927 -9.4692247578295792 0 0 0 0 -3.355405982795304 -0.085312918947238359 0 -0.085312918947238359 -27.11916699480571 0 0 0 0 14.05465374504837 -15.120874763333632 0 -15.120874763333632 -14.416954572257964 0 0 0 0 19.479093542498589 -31.798382273960669 0 -31.798382273960669 -35.860895354379863 0 0 0 0 47.29676282992321 6.818075715273153 0 6.818075715273153 -13.369906880956592 0 0 0 0 52.151985342572438 11.868506996836004 0 11.868506996836004 -7.4911659796525782 0 0 0 0 43.176220818576894 36.941577152847458 0 36.941577152847458 7.1292361913410787 0 0 0 0 0.39978234389536471 -2.4707863364215843 0 -2.4707863364215843 -0.23396972091990165 0 0 0 0 36.185524761867796 13.612538763181874 0 13.612538763181874 -16.693142157753755 0 0 0 0 30.081602837883992 4.589095555991662 0 4.589095555991662 -21.265314789205149 0 0 0 0 29.339472951621147 17.969992555343197 0 17.969992555343197 8.3269210817015846 0 0 0 0 31.278055065290378 13.757788832509505 0 13.757788832509505 -29.967257121956209 0 0 0 0 20.219892035484904 16.083290128266526 0 16.083290128266526 -4.6054116239611176 0 0 0 0 21.968502086280246 4.0268056744753267 0 4.0268056744753267 -20.057990692890598 0 0 0 0 13.775546196237741 -2.5550927750155097 0 -2.5550927750155097 -30.106551015959155 0 0 0 0 38.518146374425896 -37.822781803668477 0 -37.822781803668477 -120.72256276481858 0 0 0 0 -0.48112560616125544 0.11763659692930517 0 0.11763659692930517 -0.25887386437303306 0 0 0 0 11.656891427423687 6.6502142053686839 0 6.6502142053686839 -46.600123960095516 0 0 0 0 40.341597723821053 -23.82676003735105 0 -23.82676003735105 -124.04411098943456 0 0 0 0 17.974139384324104 -7.5171039898814342 0 -7.5171039898814342 -57.470801645322354 0 0 0 0 22.948450742435355 -9.0731027870351681 0 -9.0731027870351681 -44.538557532066989 0 0 0 0 25.552752765804737 3.1332089913084928 0 3.1332089913084928 -40.528365347607178 0 0 0 0 27.197418762564851 -4.7960559138518875 0 -4.7960559138518875 -50.383503287885105 0 0 0 0 26.144029341764707 -13.715656558355477 0 -13.715656558355477 -60.546356700215256 0 0 0 0 21.620948299757799 -3.344833079376258 0 -3.344833079376258 -52.074937455385225 0 0 0 0 25.72749091483125 -15.469199219114671 0 -15.469199219114671 -49.416714678380231 0 0 0 0 27.324866201828357 -10.631865193096019 0 -10.631865193096019 -62.198576146794949 0 0 0 0 28.420874792807727 -18.927526554434735 0 -18.927526554434735 -63.661136178172455 0 0 0 0 25.808035087342091 -8.798138550031581 0 -8.798138550031581 -68.748057390572285 0 0 0 0 27.768654165760097 -15.868561772527755 0 -15.868561772527755 -70.019120485820167 0 0 0 0 26.751045809366644 -12.255498432161403 0 -12.255498432161403 -74.746321473219723 0 0 0 0 22.178805550452225 -7.4037648717494449 0 -7.4037648717494449 -62.545638964060345 0 0 0 0 26.044182509600716 -9.8231345208623679 0 -9.8231345208623679 -74.187370628336794 0 0 0 0 21.741034547793902 -3.7636311474343529 0 -3.7636311474343529 -79.457577525720353 0 0 0 0 15.876971419699316 -2.6833649688232981 0 -2.6833649688232981 -61.023475890295231 0 0 0 0 22.967369156136073 -4.6304790349386167 0 -4.6304790349386167 -63.089462763775373 0 0 0 0 31.069242707359734 -7.7353047170945501 0 -7.7353047170945501 -24.030060598030104 0 0 0 0 29.898005415709633 -12.174640280354652 0 -12.174640280354652 -14.354579122024006 0 0 0 0 29.206421265219845 0.98295642477751244 0 0.98295642477751244 -4.9056803405546816 0 0 0 0 31.267163628458178 -2.8217804844962302 0 -2.8217804844962302 -23.494210929144174 0 0 0 0 27.905339840692477 -12.461827736107807 0 -12.461827736107807 -22.347860808929909 0 0 0 0 28.759465365809419 -0.83888476795254974 0 -0.83888476795254974 -33.312856530021236 0 0 0 0 24.664103935989552 -6.245362200337695 0 -6.245362200337695 -31.013298842226504 0 0 0 0 24.7478295746524 -0.35702175426558824 0 -0.35702175426558824 -11.918900373990255 0 0 0 0 27.789702851763877 -10.481406390676057 0 -10.481406390676057 -46.37818013431388 0 0 0 0 28.731679936552425 -17.923755348761915 0 -17.923755348761915 -54.328121796890628 0 0 0 0 29.601551136103424 -19.849051389291617 0 -19.849051389291617 -60.192215871618828 0 0 0 0 29.991702967391873 -15.436207666161408 0 -15.436207666161408 -46.613877537602093 0 0 0 0 28.784152075601583 -13.061912022909382 0 -13.061912022909382 -45.203847494267393 0 0 0 0 29.175652652050474 -19.524958986323327 0 -19.524958986323327 -38.929952023539954 0 0 0 0 29.471586223705984 -7.3550443306639863 0 -7.3550443306639863 -34.212078629090684 0 0 0 0 33.204721341908112 -21.969957653614983 0 -21.969957653614983 -57.156267494952772 0 0 0 0 29.848825903868828 -21.288820996516733 0 -21.288820996516733 -44.16841456745442 0 0 0 0 33.553389556619322 -16.299427469097282 0 -16.299427469097282 -43.942623750917846 0 0 0 0 34.317433354309912 -20.77335389284417 0 -20.77335389284417 -40.764479580539046 0 0 0 0 35.109839833695389 -19.850815523986967 0 -19.850815523986967 -53.396072863833979 0 0 0 0 31.903061173744788 -19.012481643352658 0 -19.012481643352658 -29.310767524002586 0 0 0 0 36.255796153664278 -18.418877706939384 0 -18.418877706939384 -41.135870360871195 0 0 0 0 22.403594297371484 -29.374464737062226 0 -29.374464737062226 -59.50830088602379 0 0 0 0 26.199346804399909 -24.84330446003878 0 -24.84330446003878 -51.461541059845331 0 0 0 0 33.484858948915019 -19.50941746038734 0 -19.50941746038734 -53.234478036363726 0 0 0 0 29.168726596190197 -25.331427234166767 0 -25.331427234166767 -55.307662316146889 0 0 0 0 28.154296890347581 -32.603101074233564 0 -32.603101074233564 -66.623626080865506 0 0 0 0 33.6366424368384 -30.769135140886647 0 -30.769135140886647 -72.000644936968456 0 0 0 0 26.714093730776426 -35.156811184933758 0 -35.156811184933758 -69.144544909107935 0 0 0 0 33.935524649652862 -32.344120892739738 0 -32.344120892739738 -89.151498844090383 0 0 0 0 31.383967337502071 -24.589515884301363 0 -24.589515884301363 -70.213144933863077 0 0 0 0 27.570916360057282 -26.162171261486947 0 -26.162171261486947 -63.504362759216747 0 0 0 0 32.474814825020815 -23.726645016773546 0 -23.726645016773546 -75.900384552151081 0 0 0 0 32.909651716183831 -34.031004867092634 0 -34.031004867092634 -80.188655146368546 0 0 0 0 36.507934735593516 -43.818281629797639 0 -43.818281629797639 -108.54662761949294 0 0 0 0 33.051208140539529 -40.959138332182192 0 -40.959138332182192 -84.89269890950527 0 0 0 0 14.217902770214209 -44.893975879633217 0 -44.893975879633217 -77.956914857160882 0 0 0 0 30.308292422932027 -37.061154610484664 0 -37.061154610484664 -78.676179465735913 0 0 0 0 32.306831570578197 -44.164751617838192 0 -44.164751617838192 -92.052332005550852 0 0 0 0 22.355794555812167 -30.733512796754439 0 -30.733512796754439 -68.900937731086742 0 0 0 0 36.89581657768764 -15.610210601025756 0 -15.610210601025756 -125.00126252793052 0 0 0 0 32.59961989680636 -14.898711040703347 0 -14.898711040703347 -94.066304036976362 0 0 0 0 35.95045684919711 -21.558262899401598 0 -21.558262899401598 -99.963860836978711 0 0 0 0 36.041906852727834 -20.381374901277013 0 -20.381374901277013 -106.69664899245618 0 0 0 0 30.304418282111101 -11.251571739841893 0 -11.251571739841893 -94.38651994545944 0 0 0 0 32.397109436033759 -12.696618271525949 0 -12.696618271525949 -104.14201835441781 0 0 0 0 24.894767570331567 -4.766303414318827 0 -4.766303414318827 -94.92208622006001 0 0 0 0 25.716003197119903 -9.6925916466352646 0 -9.6925916466352646 -79.109801929908826 0 0 0 0 31.019692653335824 -16.053686405793997 0 -16.053686405793997 -92.695248030227958 0 0 0 0 26.987376371784194 -9.6321126653638203 0 -9.6321126653638203 -86.814120124501642 0 0 0 0 30.642440551895518 -16.970762476652453 0 -16.970762476652453 -83.639860417402815 0 0 0 0 27.964040879914222 -13.603397446211602 0 -13.603397446211602 -83.247566013247706 0 0 0 0 29.628394032588783 -17.021715882481658 0 -17.021715882481658 -79.607287397317123 0 0 0 0 32.767470750034207 -21.970524223012035 0 -21.970524223012035 -79.12323205895791 0 0 0 0 30.034163986776736 -21.356594217570091 0 -21.356594217570091 -72.594193374185124 0 0 0 0 31.061071569114091 -25.413620348539553 0 -25.413620348539553 -74.340029763308848 0 0 0 0 33.759746515976992 -23.058222505766025 0 -23.058222505766025 -85.64260056783678 0 0 0 0 36.706724040224231 -30.581727265496738 0 -30.581727265496738 -95.372554536006646 0 0 0 0 34.797320124451048 -28.747189615605748 0 -28.747189615605748 -86.221454258510676 0 0 0 0 35.719758259924717 -27.855904499127064 0 -27.855904499127064 -93.421563817745209 0 0 0 0 32.780380316477299 -18.498772681581613 0 -18.498772681581613 -93.910747203990468 0 0 0 0 37.288451332806815 -24.265333402314354 0 -24.265333402314354 -98.65057396319753 0 0 0 0 39.596677768830297 -34.881952597948839 0 -34.881952597948839 -110.27875440825301 0 0 0 0 39.227642045078099 -33.42571067946119 0 -33.42571067946119 -95.075231576623082 0 0 0 0 37.254577412499657 -22.742812901888101 0 -22.742812901888101 -112.29043142430601 0 0 0 0 32.865743360943782 -8.3898989904737391 0 -8.3898989904737391 -124.99264713723824 0 0 0 0 8.5137813316491702 11.898859359702328 0 11.898859359702328 -117.42765193820833 0 0 0 0 26.630291043712475 -1.3353107849870867 0 -1.3353107849870867 -124.05446647792269 0 0 0 0 -8.1885179195179205 17.698239364346591 0 17.698239364346591 -110.75944677161169 0 0 0 0 -47.073261582189048 11.596348762068374 0 11.596348762068374 -85.606875061272149 0 0 0 0 4.3685271564825712 2.3959182032049284 0 2.3959182032049284 -93.228047328491812 0 0 0 0 6.9554656761997649 5.9906955302139977 0 5.9906955302139977 -92.703553962595834 0 0 0 0 5.2615009889316298 0.11224717901131953 0 0.11224717901131953 -89.558218246951583 0 0 0 0 25.470414874428457 2.2260926104063401 0 2.2260926104063401 -118.16523098602829 0 0 0 0 29.295077669220177 -7.4551703321340028 0 -7.4551703321340028 -108.44679809322406 0 0 0 0 9.9744804686602038 8.7617360537842615 0 8.7617360537842615 -104.73976136214333 0 0 0 0 5.8762018809442793 3.7423573456217127 0 3.7423573456217127 -80.716575092927087 0 0 0 0 18.708569361320656 -1.1170625221930095 0 -1.1170625221930095 -98.116103721949912 0 0 0 0 23.213997548784846 -6.625115608854685 0 -6.625115608854685 -86.201369918562705 0 0 0 0 18.684337443652552 1.3721050220162283 0 1.3721050220162283 -95.834414449578617 0 0 0 0 14.282243229488351 -4.6025714348502333 0 -4.6025714348502333 -74.748496021740721 0 0 0 0 15.471625555319974 1.5249462190222403 0 1.5249462190222403 -75.990311333429418 0 0 0 0 -15.733503686339702 -1.1121647633735847 0 -1.1121647633735847 -46.846041870256158 0 0 0 0 9.0460669180884281 -17.166490549057926 0 -17.166490549057926 -36.610463637473003 0 0 0 0 -22.828378743019698 -25.595682600644068 0 -25.595682600644068 -36.698437497720988 0 0 0 0 -44.896081207618067 -11.513381927230512 0 -11.513381927230512 -60.255789687113065 0 0 0 0 6.8451931649230602 -19.195495807726729 0 -19.195495807726729 -59.147346286252287 0 0 0 0 -58.132076600153198 -2.770332554475317 0 -2.770332554475317 -65.944446271583729 0 0 0 0 0.48294842951736427 45.703880097133151 0 45.703880097133151 118.11570022723026 0 0 0 0 -19.456352872937853 -69.124459370125351 0 -69.124459370125351 44.291947041307139 0 0 0 0 39.91303941831211 -33.355782109245411 0 -33.355782109245411 10.143509299785364 0 0 0 0 -7.6197391595576534 -20.137038079573358 0 -20.137038079573358 -17.281907016118566 0 0 0 0 31.767649311151558 -4.7811208820421598 0 -4.7811208820421598 -13.041045783957088 0 0 0 0 45.387563071923807 -9.5146171279598093 0 -9.5146171279598093 -11.75796475817333 0 0 0 0 14.961874721196352 13.966099757232314 0 13.966099757232314 4.0798356091690948 0 0 0 0 9.4143577820736937 3.1582686137198834 0 3.1582686137198834 2.8741262013081723 0 0 0 0 9.9948327558815322 -49.045445998954165 0 -49.045445998954165 3.3136747275875678 0 0 0 0 -1.5908197081206765 -9.1019673934060847 0 -9.1019673934060847 55.09019193216136 0 0 0 0 -16.031093516924784 -35.994784207880002 0 -35.994784207880002 62.667646660695027 0 0 0 0 1.001718563657642 -0.81101200661393946 0 -0.81101200661393946 -1.5410804186992273 0 0 0 0 12.002379840492608 -15.702388363570208 0 -15.702388363570208 17.790393836008661 0 0 0 0 14.078343237422018 -63.655326312000398 0 -63.655326312000398 -99.96866548518301 0 0 0 0 -30.419845522482888 -53.866695803073526 0 -53.866695803073526 -60.931442957589752 0 0 0 0 -42.090970359659764 23.84304092459206 0 23.84304092459206 1.6904729452726315 0 0 0 0 2.0698995391919226 -0.10401557970590147 0 -0.10401557970590147 -6.5152370267514925 0 0 0 0 -0.081981063365464291 -3.0998349406960397 0 -3.0998349406960397 -9.4454102352302698 0 0 0 0 0.27440490216788094 0.007836970335652893 0 0.007836970335652893 -2.1709196597518527 0 0 0 0 12.702019606484313 -15.045850957489165 0 -15.045850957489165 29.148072064077496 0 0 0 0 7.6336643332817857 -5.8064831574383788 0 -5.8064831574383788 -21.101402330161363 0 0 0 0 0.86147221205783353 -22.193821357406705 0 -22.193821357406705 25.748564742178132 0 0 0 0 -3.2810125022763259 -3.452369733636715 0 -3.452369733636715 -14.03053065345739 0 0 0 0 0.52992918939344236 5.2543846520948136 0 5.2543846520948136 -7.2261265995857684 0 0 0 0 5.1277714043645801 -6.9671035636856686 0 -6.9671035636856686 -16.424810713455372 0 0 0 0 0.92370223195597845 -2.5982934047333401 0 -2.5982934047333401 -2.747721076477319 0 0 0 0 0.42948621447588398 0.13684426520275395 0 0.13684426520275395 -0.43547191503569493 0 0 0 0 1.2318635634294024 -1.701495743200752 0 -1.701495743200752 -6.9507740407063565 0 0 0 0 -4.7672822723815216 -7.2130246994056506 0 -7.2130246994056506 -7.9943177941295289 0 0 0 0 2.5920641918707403 1.5660477325589 0 1.5660477325589 -10.400138491317193 0 0 0 0 -1.6579881555039719 -3.6688964036729885 0 -3.6688964036729885 -7.7696470372266049 0 0 0 0 0.67788620183555048 -1.1125577202239043 0 -1.1125577202239043 -6.7832108935017459 0 0 0 0 0.75838077668561255 -3.1758049252712226 0 -3.1758049252712226 -14.573971455814899 0 0 0 0 3.1348352705812204 0.26475724305419135 0 0.26475724305419135 -15.035558523552027 0 0 0 0 3.3619821462340806 -1.0324326751592992 0 -1.0324326751592992 -8.0160657794840304 0 0 0 0 17.652317685381604 14.974940953100941 0 14.974940953100941 -14.319134475616011 0 0 0 0 19.894068955555497 6.069034964039929 0 6.069034964039929 -74.742693430574946 0 0 0 0 0.30421922565983606 -2.1431560004097561 0 -2.1431560004097561 -8.9560467014893348 0 0 0 0 1.3849504179067935 -4.2413926057888602 0 -4.2413926057888602 -5.6955385946440629 0 0 0 0 55.067185562349707 -16.010861273079172 0 -16.010861273079172 -49.945501912912732 0 0 0 0 38.629739463688395 12.411600486539101 0 12.411600486539101 -59.330289440593333 0 0 0 0 24.143659578642428 -31.833488235846744 0 -31.833488235846744 -68.453458349322318 0 0 0 0 39.877185192299066 -20.954806333538727 0 -20.954806333538727 -53.179928714765992 0 0 0 0 40.140657511762157 -16.415324903527107 0 -16.415324903527107 -8.4203801431649481 0 0 0 0 39.116698172338801 -21.823442231321678 0 -21.823442231321678 -36.970709911111044 0 0 0 0 35.13098308672997 -20.08328289887686 0 -20.08328289887686 -17.401591849047691 0 0 0 0 31.044262139581235 -5.4823120667788316 0 -5.4823120667788316 2.1382712886697846 0 0 0 0 37.162071085172954 -4.0196133007048047 0 -4.0196133007048047 -6.2411315058925538 0 0 0 0 33.203999745836995 -5.4332464533799794 0 -5.4332464533799794 -3.2867939026764361 0 0 0 0 40.152395329978106 -9.5564271647920123 0 -9.5564271647920123 -33.479938814254638 0 0 0 0 -8.5945272542032569 -16.574327836651719 0 -16.574327836651719 -5.2324383257655427 0 0 0 0 0.42432865483622817 -4.6971050268109975 0 -4.6971050268109975 -9.8767126754960159 0 0 0 0 25.65887773079703 7.5622108987772663 0 7.5622108987772663 24.777736505362554 0 0 0 0 9.5696688531090786 -2.8487855301227683 0 -2.8487855301227683 -2.1014982145497925 0 0 0 0 37.256552525410569 -5.2972695164858123 0 -5.2972695164858123 10.322948270833876 0 0 0 0 56.158553138478169 16.021875749480387 0 16.021875749480387 31.380996438325383 0 0 0 0 2.476947897532356 -7.0344822450126472 0 -7.0344822450126472 -13.903955024744626 0 0 0 0 0.84984110152805115 -1.4571989204372553 0 -1.4571989204372553 -6.746178751326795 0 0 0 0 -48.559726666190045 -31.894680402950144 0 -31.894680402950144 -2.7815386744769057 0 0 0 0 -10.98994096772185 -29.334315813650392 0 -29.334315813650392 -12.254042007101816 0 0 0 0 5.7913265312442945 -3.1469590534120471 0 -3.1469590534120471 -10.43397258755067 0 0 0 0 -13.454022505690162 -5.2529135583390598 0 -5.2529135583390598 -7.752974692342832 0 0 0 0 13.839712124300604 -22.018830805221114 0 -22.018830805221114 -15.731654528774015 0 0 0 0 11.834609912785027 -18.10188872161234 0 -18.10188872161234 -6.1740092519248719 0 0 0 0 -1.3408661563807045 -4.5906234755149882 0 -4.5906234755149882 -12.208702966597265 0 0 0 0 8.4563871337738874 -17.464578865582553 0 -17.464578865582553 -36.186724332204903 0 0 0 0 -1.076891272172219 -2.1090635402126967 0 -2.1090635402126967 -0.41200874108535857 0 0 0 0 10.944065652715608 -15.466053412606016 0 -15.466053412606016 -13.393533653077611 0 0 0 0 3.4677687189623612 -5.328385894099938 0 -5.328385894099938 -11.140086556220922 0 0 0 0 17.445708541322574 0.7770041798830789 0 0.7770041798830789 4.2763269485994897 0 0 0 0 4.9432175526329161 -10.933490741842434 0 -10.933490741842434 9.5129624940745998 0 0 0 0 40.169008267026584 -16.817073942333082 0 -16.817073942333082 -10.689013490442449 0 0 0 0 -36.565318063813379 21.05274416024713 0 21.05274416024713 120.50282171308208 0 0 0 0 0.14256359594040974 0.40055578562086191 0 0.40055578562086191 -0.48782447818346952 0 0 0 0 1.6466091707529245 -17.42049728607526 0 -17.42049728607526 4.1957555243061506 0 0 0 0 11.981149416604049 -27.548090390363484 0 -27.548090390363484 7.6330814966240723 0 0 0 0 11.77910462888758 -40.328760792874164 0 -40.328760792874164 -29.836860828841964 0 0 0 0 -6.7323486296686497 -8.3695914637123678 0 -8.3695914637123678 -2.4084718282701942 0 0 0 0 45.290353337937063 -41.419438097967941 0 -41.419438097967941 -112.27696487601497 0 0 0 0 -1.4854575461888602 -3.4936572208658254 0 -3.4936572208658254 -7.6653432049088934 0 0 0 0 44.989179749986356 -68.980485526027962 0 -68.980485526027962 -23.603481221009133 0 0 0 0 -1.3054639912090806 -4.7531469145769734 0 -4.7531469145769734 -1.335220702112565 0 0 0 0 10.57980439920334 -7.8827066296526027 0 -7.8827066296526027 61.691013283611028 0 0 0 0 40.934710508721309 44.532949922356693 0 44.532949922356693 -110.83458041162157 0 0 0 0 -0.41409574058006005 -1.0142955257377606 0 -1.0142955257377606 -2.7666965623004884 0 0 0 0 30.497607162826171 15.677601425708417 0 15.677601425708417 -96.799963094628765 0 0 0 0 45.457532326893443 14.692824343996108 0 14.692824343996108 -136.74597253288448 0 0 0 0 35.97112477806013 43.633561068883864 0 43.633561068883864 -32.681936485063488 0 0 0 0 62.864707534567231 34.504174323704319 0 34.504174323704319 -168.12498854711157 0 0 0 0 61.722406331997718 32.630820170296374 0 32.630820170296374 -134.96103014180699 0 0 0 0 36.285013827286747 -14.970924959673994 0 -14.970924959673994 -134.59615111103449 0 0 0 0 41.673203995616348 8.2925429885049198 0 8.2925429885049198 -54.244620808654872 0 0 0 0 8.3350215222700612 -21.344806644371147 0 -21.344806644371147 -52.076477795599203 0 0 0 0 10.555281713316599 -6.1567858103239814 0 -6.1567858103239814 -58.142233576996659 0 0 0 0 5.6461599276270817 -33.96296700871244 0 -33.96296700871244 2.2269098053675407 0 0 0 0 21.001971286292587 -55.180694251290333 0 -55.180694251290333 -13.834142246640113 0 0 0 0 6.2917619465642929 -42.9921412444628 0 -42.9921412444628 -15.038137980098327 0 0 0 0 3.6786614934181898 -14.411955069021133 0 -14.411955069021133 -39.520734056913625 0 0 0 0 -10.473345078112544 -37.381243426398214 0 -37.381243426398214 -51.762104381738027 0 0 0 0 6.7047721951425743 -16.118252481028094 0 -16.118252481028094 -133.36858745849895 0 0 0 0 2.1038185528240092 -27.890356313891971 0 -27.890356313891971 -55.991549738881986 0 0 0 0 -54.575614685597998 -34.267966484526369 0 -34.267966484526369 -129.73826301185363 0 0 0 0 0.6978140144398477 19.670045781523072 0 19.670045781523072 -90.067565538969575 0 0 0 0 24.247235660244783 39.082020571460134 0 39.082020571460134 -3.3781254353070835 0 0 0 0 44.234514469022642 -58.84205121604748 0 -58.84205121604748 6.9456827999783854 0 0 0 0 -18.250346481511485 -16.276142009893192 0 -16.276142009893192 24.512920971991207 0 0 0 0 -15.699114362092018 -5.3255537846025618 0 -5.3255537846025618 7.6780412583975703 0 0 0 0 0.28614965202373788 -0.2524149181875881 0 -0.2524149181875881 0.70158987783194959 0 0 0 0 24.865478591894785 11.901909470492683 0 11.901909470492683 26.449278065376348 0 0 0 0 94.981311288725124 38.81259810111078 0 38.81259810111078 15.23506012060534 0 0 0 0 68.540413712227405 -29.250826150273951 0 -29.250826150273951 10.062440062902169 0 0 0 0 5.8212110991483854 -30.200440370888828 0 -30.200440370888828 18.895385728601468 0 0 0 0 2.4242167250375815 -19.014565391710676 0 -19.014565391710676 -11.324958794145005 0 0 0 0 -18.732949783822846 -12.610096057806913 0 -12.610096057806913 -17.621432989316872 0 0 0 0 -16.580333963356242 -21.077045597630786 0 -21.077045597630786 7.2562791027066851 0 0 0 0 -13.453147536268954 0.67494450271078676 0 0.67494450271078676 -29.1387501410818 0 0 0 0 -6.965676965988628 -18.804976341648398 0 -18.804976341648398 39.753359453085068 0 0 0 0 -23.860169268547608 12.128593584641749 0 12.128593584641749 -1.4296659497140354 0 0 0 0 -3.9928513595396238 23.758676637125063 0 23.758676637125063 -88.270249373728802 0 0 0 0 -25.861722072179475 -0.24028121802530222 0 -0.24028121802530222 -27.332821722204244 0 0 0 0 -47.767142554428226 30.43275620069204 0 30.43275620069204 -89.286889603741656 0 0 0 0 -17.334090193356243 17.450816277017111 0 17.450816277017111 -36.598579533403608 0 0 0 0 1.6345631259215727 14.073708852765776 0 14.073708852765776 -100.81885704352908 0 0 0 0 -0.014364188516306142 -0.23411813835446083 0 -0.23411813835446083 -59.700337573240176 0 0 0 0 -7.6985059152605473 11.492661390784633 0 11.492661390784633 -61.619388367819738 0 0 0 0 -0.0041152515438800516 -4.1108046978633865 0 -4.1108046978633865 -36.797148969229966 0 0 0 0 -16.034878551546328 0.86808205811030348 0 0.86808205811030348 -23.442545950607382 0 0 0 0 -9.7933033970239265 -9.5002270592040077 0 -9.5002270592040077 -20.1183683114632 0 0 0 0 -11.920314122260255 0.18676469381546212 0 0.18676469381546212 -29.739157493371749 0 0 0 0 -10.09813151104936 -10.055405207276181 0 -10.055405207276181 -28.585112226779529 0 0 0 0 -12.784281682239566 -13.084464101055346 0 -13.084464101055346 -16.7694547137271 0 0 0 0 -54.631404126664506 -16.081046633693404 0 -16.081046633693404 -24.719990221092758 0 0 0 0 -22.061046251220432 -45.398917989843085 0 -45.398917989843085 -74.608739106546636 0 0 0 0 -21.349265411522765 -36.697535725274975 0 -36.697535725274975 -34.311469162986214 0 0 0 0 -8.0290733456306782 -36.789343650751789 0 -36.789343650751789 -4.1393221677462861 0 0 0 0 -7.4460175363426515 -32.876494889250353 0 -32.876494889250353 -34.296901633666494 0 0 0 0 6.0314743531362183 -33.906940623681294 0 -33.906940623681294 -27.859407382212485 0 0 0 0 25.600234999586519 -53.536114195995651 0 -53.536114195995651 -43.58561113554606 0 0 0 0 12.230612267070455 -37.271376409991717 0 -37.271376409991717 -63.361125805935444 0 0 0 0 -28.832973240613569 -20.02167205024034 0 -20.02167205024034 -24.065745780231737 0 0 0 0 -13.208838394652958 -36.356135825960337 0 -36.356135825960337 -31.330374112178561 0 0 0 0 -6.8519511772553869 -11.172462297828588 0 -11.172462297828588 -30.592960869487797 0 0 0 0 -4.2764581606604679 -7.0842806246919281 0 -7.0842806246919281 -24.535200798956765 0 0 0 0 -5.4908311965255052 -2.4114670706239849 0 -2.4114670706239849 -64.483305827645381 0 0 0 0 -32.233617575697735 2.302420699038521 0 2.302420699038521 -35.573038530007977 0 0 0 0 -11.364617379065294 2.3168434673343654 0 2.3168434673343654 -35.573601941618819 0 0 0 0 -15.925134307894723 -2.786750079560079 0 -2.786750079560079 -13.126016459204038 0 0 0 0 -6.0919267642095747 0.49126711286226055 0 0.49126711286226055 -12.884430218546186 0 0 0 0 -19.232692744529459 -1.845891721785847 0 -1.845891721785847 1.76396641678366 0 0 0 0 -12.098194014017508 -13.755792111647679 0 -13.755792111647679 -4.3446794650553784 0 0 0 0 -5.8265763335744509 -1.6798983183070959 0 -1.6798983183070959 -12.446450620733231 0 0 0 0 -7.9452055412457412 2.1078405438520349 0 2.1078405438520349 0.60605469237646048 0 0 0 0 -7.6312830915503582 5.3558470305943047 0 5.3558470305943047 -19.900219146461495 0 0 0 0 -11.822996443171633 -1.5425608602417924 0 -1.5425608602417924 3.9793093011485325 0 0 0 0 -6.1774970564002274 2.0080342426895186 0 2.0080342426895186 -1.1173375761900388 0 0 0 0 -2.2259267371504166 1.3908289587811851 0 1.3908289587811851 -12.127317964936992 0 0 0 0 -12.833290398514521 -5.7505758254574175 0 -5.7505758254574175 -12.028090953521314 0 0 0 0 -3.086493622032549 -0.31074434673337237 0 -0.31074434673337237 -9.7304480406055518 0 0 0 0 -4.8582175375971701 2.2671302310191095 0 2.2671302310191095 -13.097818071233178 0 0 0 0 -2.6184803863778825 4.3669788308616262 0 4.3669788308616262 -7.6682408335545915 0 0 0 0 -2.9586089550646193 2.1343353964980452 0 2.1343353964980452 -1.9058533742190775 0 0 0 0 1.6485287364987329 3.6715496592150885 0 3.6715496592150885 -7.2400793915458053 0 0 0 0 6.8281901971505476 -1.4016387292394938 0 -1.4016387292394938 -2.4152650949515646 0 0 0 0 -3.096560209880721 7.4774219739638283 0 7.4774219739638283 -9.1748042394237928 0 0 0 0 -0.29808350273382656 -0.18674864500771182 0 -0.18674864500771182 0.28323128731599923 0 0 0 0 2.651318058060312 1.1407477492830367 0 1.1407477492830367 -6.7241523454285925 0 0 0 0 0.37122939354783568 4.1999350821147345 0 4.1999350821147345 -8.132136422921576 0 0 0 0 -2.5276033650913501 3.5022688335669159 0 3.5022688335669159 -7.2138437534886179 0 0 0 0 1.7046077655188978 1.5567890686536927 0 1.5567890686536927 -5.0435204557253357 0 0 0 0 4.0228459373684586 1.6619612410695481 0 1.6619612410695481 -6.2780924393291571 0 0 0 0 -2.2599445026020817 -3.3815919707167268 0 -3.3815919707167268 -6.2137363503516099 0 0 0 0 0.75842503397115024 2.1938205288988684 0 2.1938205288988684 -3.329198351688774 0 0 0 0 3.169476089919101 1.1024791914496745 0 1.1024791914496745 -5.8716116878795219 0 0 0 0 2.0045526791734858 2.1564705317882726 0 2.1564705317882726 -4.0393937654280307 0 0 0 0 3.0885265280979235 1.453914382267806 0 1.453914382267806 -0.59935578911504805 0 0 0 0 4.0216822133415349 2.0533707834492816 0 2.0533707834492816 -5.7118863569066889 0 0 0 0 3.5456635365082434 1.572966020232343 0 1.572966020232343 -5.3893526284277868 0 0 0 0 -29.562093226070203 -22.096200917832903 0 -22.096200917832903 10.40745630233414 0 0 0 0 20.603603299944552 9.4786186449987326 0 9.4786186449987326 -45.776898165489001 0 0 0 0 20.297804022332777 9.8589995397559846 0 9.8589995397559846 -22.328819155802194 0 0 0 0 1.3403674230390314 0.93176630228509083 0 0.93176630228509083 0.64332633889569557 0 0 0 0 46.909086921100879 27.238436481061399 0 27.238436481061399 -33.820149601455341 0 0 0 0 -0.026221995845142482 -0.78623692903130094 0 -0.78623692903130094 -0.71163817172752175 0 0 0 0 3.6381112604378814 0.39921612235411885 0 0.39921612235411885 -8.3147564225216115 0 0 0 0 -9.4764201947610722 -1.7992725431969347 0 -1.7992725431969347 2.6832870172211187 0 0 0 0 1.6552006798751506 -1.5458311596767089 0 -1.5458311596767089 -1.349369826883958 0 0 0 0 -5.0556552088700073 22.183498733338638 0 22.183498733338638 -27.978693669630957 0 0 0 0 1.0526031748644584 16.511972058335687 0 16.511972058335687 -66.988129363520784 0 0 0 0 -37.148963462741051 -9.7646664637668437 0 -9.7646664637668437 -14.986095172592741 0 0 0 0 0.26536435966988658 0.43624984100411979 0 0.43624984100411979 0.25777546172722943 0 0 0 0 -31.221921449094111 -2.5953060520423605 0 -2.5953060520423605 -62.020297063711951 0 0 0 0 -3.2823164157704241 -93.884778019541045 0 -93.884778019541045 -108.75464011808501 0 0 0 0 5.3999767815823816 -3.3837949157887124 0 -3.3837949157887124 -106.11184796335965 0 0 0 0 -18.433231313504351 -34.623553309153522 0 -34.623553309153522 -202.11111512371826 0 0 0 0 19.894653010810543 12.955762205114297 0 12.955762205114297 4.7565086848298961 0 0 0 0 37.061197560906749 -32.688435864613894 0 -32.688435864613894 -3.8314664256072319 0 0 0 0 21.092463559111593 14.130676283680259 0 14.130676283680259 -54.426019939192884 0 0 0 0 3.7784929680491359 -26.819746993120134 0 -26.819746993120134 -34.536419323233531 0 0 0 0 11.29461445811603 -43.465251142799389 0 -43.465251142799389 -33.913216655482245 0 0 0 0 21.791266890155725 -11.102453392429197 0 -11.102453392429197 -33.210326578191598 0 0 0 0 0.0048283391587954916 -1.1753031139189651 0 -1.1753031139189651 -1.8113815731777123 0 0 0 0 74.128229458244164 -14.580000252014997 0 -14.580000252014997 -33.289136173691077 0 0 0 0 37.371743033604389 8.725586522260528 0 8.725586522260528 -0.55341823486742214 0 0 0 0 -88.929706105652713 -68.755492845381013 0 -68.755492845381013 -12.752190246123064 0 0 0 0 -30.949415815522116 -14.455621093133232 0 -14.455621093133232 31.447232903530676 0 0 0 0 -43.068924284747936 -87.51914051431595 0 -87.51914051431595 -41.707042911391909 0 0 0 0 -74.171592764300385 -50.407575608844127 0 -50.407575608844127 8.9484564220765606 0 0 0 0 -2.9874448355890024 -70.297147233203304 0 -70.297147233203304 -52.590703004849274 0 0 0 0 -12.838227344222105 -47.583950381117575 0 -47.583950381117575 -8.8699467994174483 0 0 0 0 -39.658532432506945 -79.036588448736438 0 -79.036588448736438 -23.191791531851777 0 0 0 0 -20.871516570604058 -66.233538443540056 0 -66.233538443540056 -32.132619106367201 0 0 0 0 -23.247706666355413 -94.8207604717918 0 -94.8207604717918 -62.725381994128838 0 0 0 0 -24.936020244689303 -87.674175103868038 0 -87.674175103868038 -43.205025725221731 0 0 0 0 3.4123339279764195 -62.879034855555801 0 -62.879034855555801 -138.28756076994614 0 0 0 0 -25.652378628384668 -109.32156345325484 0 -109.32156345325484 -99.413789790101873 0 0 0 0 -19.496914875991678 -88.089497415738606 0 -88.089497415738606 -62.11761462036884 0 0 0 0 2.1872650586811915 -0.31511473485898023 0 -0.31511473485898023 -6.4691059579308785 0 0 0 0 -80.449228759892137 -58.057351405433337 0 -58.057351405433337 -41.405219295236748 0 0 0 0 -0.17459388916389684 -1.2915725899255663 0 -1.2915725899255663 -2.0428771484693513 0 0 0 0 -69.890075427022339 -88.439903812221019 0 -88.439903812221019 -60.757713069491729 0 0 0 0 -76.988642285695278 -94.000639644482362 0 -94.000639644482362 -42.865430820716938 0 0 0 0 -77.066031416583428 -154.07131670122544 0 -154.07131670122544 -138.35885091280397 0 0 0 0 -118.19578807279004 -111.05711436567253 0 -111.05711436567253 -82.2259762702015 0 0 0 0 -112.3610785867952 -100.18875733241202 0 -100.18875733241202 -63.308814776195504 0 0 0 0 -144.44927560532778 2.9050684383619227 0 2.9050684383619227 -27.737673589479527 0 0 0 0 -45.90165235463266 -96.78858602045284 0 -96.78858602045284 32.295936032774989 0 0 0 0 -0.95204371424513679 -0.64101441415100169 0 -0.64101441415100169 0.015194245440415699 0 0 0 0 -30.738452531381483 -79.992353071002071 0 -79.992353071002071 -14.387990872441151 0 0 0 0 -35.710705010861076 -115.98097152085097 0 -115.98097152085097 -54.359887290615006 0 0 0 0 -22.966217227873329 -51.281654105266171 0 -51.281654105266171 -44.377037949650912 0 0 0 0 15.425853916530386 -21.415388182874949 0 -21.415388182874949 -23.829217040467483 0 0 0 0 40.059869371591503 -2.7251532817199404 0 -2.7251532817199404 -12.242863781328651 0 0 0 0 -13.196592703154039 -14.932586466052499 0 -14.932586466052499 43.711782665483042 0 0 0 0 53.87694155953443 -73.606678531275065 0 -73.606678531275065 43.23293203043977 0 0 0 0 -1.0042841203340038 -2.0572073728799722 0 -2.0572073728799722 -3.5951260820061108 0 0 0 0 62.357739439628197 -60.375838710162952 0 -60.375838710162952 49.111402217142313 0 0 0 0 62.085998632266922 -62.152165508463895 0 -62.152165508463895 52.302201369337126 0 0 0 0 -1.246640482110621 -1.1362728553666273 0 -1.1362728553666273 -0.47235648815803088 0 0 0 0 48.481276352354712 -44.60421470786423 0 -44.60421470786423 41.68796826817379 0 0 0 0 57.674784274829221 -93.079134485129089 0 -93.079134485129089 -186.0969623228857 0 0 0 0 -72.867086483809629 91.783384726241323 0 91.783384726241323 -123.22645006113817 0 0 0 0 -11.166946312990831 22.52393528968787 0 22.52393528968787 -267.36423471914009 0 0 0 0 3.6554965689774122 -13.893624274688818 0 -13.893624274688818 -199.49891487931563 0 0 0 0 -72.721901791889991 127.23671296308294 0 127.23671296308294 -239.49473022363418 0 0 0 0 -0.53499042267307551 -0.67423457697670663 0 -0.67423457697670663 -1.1355827784233377 0 0 0 0 -52.046838170291409 -76.636098335644419 0 -76.636098335644419 -106.97259931251938 0 0 0 0 -26.353367629276647 25.895562722451814 0 25.895562722451814 -91.420883794860856 0 0 0 0 5.1903292009411643 1.3516896585001632 0 1.3516896585001632 -65.756561511365362 0 0 0 0 10.046386598365928 -8.4022244796494761 0 -8.4022244796494761 -56.437436875648928 0 0 0 0 3.5510386942155492 -11.700848342779864 0 -11.700848342779864 -107.79204746267169 0 0 0 0 -0.6212645087105102 2.9331486911096363 0 2.9331486911096363 -97.155336000622356 0 0 0 0 18.585875488013926 13.687522910336156 0 13.687522910336156 -129.51194380957349 0 0 0 0 10.667413261095135 44.61430256269432 0 44.61430256269432 -129.07650784097063 0 0 0 0 13.29662592882903 35.284735922321715 0 35.284735922321715 -95.977651297807824 0 0 0 0 26.324546174418629 26.416740619907159 0 26.416740619907159 -78.716572682620608 0 0 0 0 17.276131385425799 11.208913431560177 0 11.208913431560177 -99.141476022863571 0 0 0 0 22.869651789450018 31.358775437275199 0 31.358775437275199 -95.226924486167263 0 0 0 0 -0.81629328167809945 35.276107409786164 0 35.276107409786164 -76.60692167932757 0 0 0 0 -21.467668189898177 50.143372730715782 0 50.143372730715782 -89.426904399393607 0 0 0 0 -24.102884413164702 40.99943171288578 0 40.99943171288578 -70.444009365348393 0 0 0 0 -0.86771980171511132 31.057254422381448 0 31.057254422381448 -74.494391701414315 0 0 0 0 -25.325284704697879 41.920903095737231 0 41.920903095737231 -69.88902720340684 0 0 0 0 -25.468447586784102 37.929751501943031 0 37.929751501943031 -51.758840521084494 0 0 0 0 -15.347550283953751 17.219185385759374 0 17.219185385759374 -23.818345357507496 0 0 0 0 7.2350641547714076 16.961659069863799 0 16.961659069863799 -55.292003798465885 0 0 0 0 6.8564187754791419 18.841201564493531 0 18.841201564493531 -64.305129044711975 0 0 0 0 7.8098304275324608 5.1672914374521497 0 5.1672914374521497 -46.960194579027302 0 0 0 0 14.519082752897248 6.1249006446760177 0 6.1249006446760177 -62.799501124094604 0 0 0 0 15.526794230710266 10.729335426221496 0 10.729335426221496 -88.801348792583667 0 0 0 0 8.3005978448989026 4.4018871675266382 0 4.4018871675266382 -63.273921976735437 0 0 0 0 12.058544186311451 -6.264769323064229 0 -6.264769323064229 -104.45000227569926 0 0 0 0 -5.778698142817575 -13.124027547679361 0 -13.124027547679361 -48.444125370925576 0 0 0 0 32.054133221625307 24.718104280215812 0 24.718104280215812 -130.2894858853615 0 0 0 0 19.702961733689847 6.3955125803968258 0 6.3955125803968258 -94.817941872815936 0 0 0 0 25.541014237024456 24.947588455504047 0 24.947588455504047 -96.451837361330035 0 0 0 0 -16.10905567477073 -38.624542969832078 0 -38.624542969832078 12.820725478399254 0 0 0 0 -2.9853008095483347 -4.1418044256483881 0 -4.1418044256483881 -45.912529047012868 0 0 0 0 -20.248205405537192 -59.587149093574226 0 -59.587149093574226 -50.241023093132299 0 0 0 0 -13.679539345370813 -33.957442751559029 0 -33.957442751559029 -94.315559901318011 0 0 0 0 -3.0010303815144539 -7.4300008837120686 0 -7.4300008837120686 -75.762884242683867 0 0 0 0 20.656723623200264 -1.9418890450463095 0 -1.9418890450463095 -177.70063068180207 0 0 0 0 -5.0993338732808979 -5.5677844553542855 0 -5.5677844553542855 -171.82029108217102 0 0 0 0 -24.363932627788017 20.298205574181338 0 20.298205574181338 -139.51795975980713 0 0 0 0 -31.480237660578609 -14.669324377614203 0 -14.669324377614203 -122.176167778136 0 0 0 0 8.337431266804515 5.213822764838369 0 5.213822764838369 -132.69205093028177 0 0 0 0 6.4667561591132596 -23.878582349316076 0 -23.878582349316076 -122.24117007509267 0 0 0 0 26.031363467521942 -41.938867356509036 0 -41.938867356509036 -18.76569574246696 0 0 0 0 -12.172564581186634 74.933954529385119 0 74.933954529385119 -139.88524800642358 0 0 0 0 -0.10503499061038513 -0.23450945540962742 0 -0.23450945540962742 -0.6113457402485345 0 0 0 0 25.039861950526415 18.793595889676169 0 18.793595889676169 -29.193984976469437 0 0 0 0 0.083609857846795421 28.335611475714359 0 28.335611475714359 -21.686059479278896 0 0 0 0 30.106026418498857 28.829493133281858 0 28.829493133281858 -94.941197431428009 0 0 0 0 33.044724300607186 16.506485245518888 0 16.506485245518888 -88.132015250235327 0 0 0 0 -1.997566897987781 45.618169904557362 0 45.618169904557362 -61.806444045590979 0 0 0 0 55.715148120141748 -12.733469541883096 0 -12.733469541883096 -35.196995381697434 0 0 0 0 -0.065066518505896731 -0.49893401525874381 0 -0.49893401525874381 -1.2760138695322496 0 0 0 0 6.4076126027007376 9.7870630586721745 0 9.7870630586721745 -21.736158316872206 0 0 0 0 19.603259441248156 11.376965237335753 0 11.376965237335753 -27.893192930503574 0 0 0 0 19.162832248921745 12.761433188232331 0 12.761433188232331 4.5489581848196394 0 0 0 0 6.8474072367889676 -22.392547261785694 0 -22.392547261785694 36.5181441780569 0 0 0 0 -0.12745222651799315 -0.29569146955648939 0 -0.29569146955648939 -0.56408455934342072 0 0 0 0 9.5121882198545791 8.9385323189826522 0 8.9385323189826522 -113.06633425519976 0 0 0 0 -19.690735579684372 42.841602623991548 0 42.841602623991548 -66.36417343553785 0 0 0 0 25.789078701621065 -68.637360022057692 0 -68.637360022057692 2.7184851384681679 0 0 0 0 13.323132404254466 25.627763788905668 0 25.627763788905668 -73.891522416152839 0 0 0 0 1.4776332498895499 6.6800673884608841 0 6.6800673884608841 -17.909117047802056 0 0 0 0 -0.059959738152569386 0.18537193470171687 0 0.18537193470171687 -0.020870284292760388 0 0 0 0 7.706665585517726 16.288647630139167 0 16.288647630139167 -46.295607583395395 0 0 0 0 27.619953648667661 -15.362451293523463 0 -15.362451293523463 -18.621673230636588 0 0 0 0 -17.283181255312456 30.493055000534923 0 30.493055000534923 -8.1450071312974615 0 0 0 0 -9.3878848699821447 11.841960918898621 0 11.841960918898621 -29.906585759146765 0 0 0 0 -11.677453426144325 20.611972444632784 0 20.611972444632784 -20.194162300939752 0 0 0 0 -7.2386204676914758 21.640213587657058 0 21.640213587657058 -23.128894184754245 0 0 0 0 2.8937509425510939 0.72491344022864723 0 0.72491344022864723 -24.005673789471984 0 0 0 0 -0.22357185702164539 0.26052725354565176 0 0.26052725354565176 0.012464618145688888 0 0 0 0 1.3632143434203954 -1.0907353131515265 0 -1.0907353131515265 -19.81047353676513 0 0 0 0 2.4328023723015235 2.5646509120975907 0 2.5646509120975907 -29.903525715279102 0 0 0 0 4.3551049506486379 -3.1227045499476844 0 -3.1227045499476844 -27.193355776777025 0 0 0 0 2.4756145336104964 -2.5873540227594276 0 -2.5873540227594276 -22.582221256017874 0 0 0 0 2.3389103268000326 -1.8518718535729022 0 -1.8518718535729022 -24.574017063170686 0 0 0 0 -4.3539206606697558 -3.1751613019642679 0 -3.1751613019642679 -1.07677405841482 0 0 0 0 5.3529420946883874 0.12341586811180605 0 0.12341586811180605 -24.110343133826973 0 0 0 0 1.406951530853803 -0.036889221944875317 0 -0.036889221944875317 -22.875253429392615 0 0 0 0 -1.0172079305627904 -5.4881686033650112 0 -5.4881686033650112 -13.328612588115902 0 0 0 0 -1.6084535383456569 -2.7774513076810763 0 -2.7774513076810763 -22.557960037391354 0 0 0 0 -6.5189126541283713 -10.921872498712219 0 -10.921872498712219 -7.527098848487185 0 0 0 0 -1.7794892084395997 -14.775505069952487 0 -14.775505069952487 -27.844502225505494 0 0 0 0 1.4673093062478983 -14.823729892780193 0 -14.823729892780193 -30.994663092005794 0 0 0 0 -4.5939256172341629 -14.726434999345656 0 -14.726434999345656 -12.361608633671608 0 0 0 0 -3.6858718442213103 -10.800587076583724 0 -10.800587076583724 -11.977360218733907 0 0 0 0 7.2022096387322563 -9.2849699574780971 0 -9.2849699574780971 -7.0355316996215151 0 0 0 0 -12.270059276600477 -2.3273809757074559 0 -2.3273809757074559 11.136451033427875 0 0 0 0 -4.8469190664136477 -3.5283169049798744 0 -3.5283169049798744 -15.247580534027293 0 0 0 0 -29.007519250929136 -18.866636329382345 0 -18.866636329382345 -23.01008384740453 0 0 0 0 -16.337967772823504 -14.821778294473916 0 -14.821778294473916 -7.8289426413005003 0 0 0 0 -14.151017683078749 -19.614735795855722 0 -19.614735795855722 -32.395138803169175 0 0 0 0 -3.873425736542913 -7.8390220336841594 0 -7.8390220336841594 -43.0567189083431 0 0 0 0 -42.002335988350097 -37.158892389323 0 -37.158892389323 -60.094336391241086 0 0 0 0 7.4341940096901453 -12.38054821190417 0 -12.38054821190417 -56.687214604769451 0 0 0 0 8.103122465019851 -4.6994895930224629 0 -4.6994895930224629 -32.904559390513896 0 0 0 0 -42.32706670837797 58.600650316504471 0 58.600650316504471 -56.969271240912803 0 0 0 0 -4.7638823413491309 -14.600593713603985 0 -14.600593713603985 -10.559533072539125 0 0 0 0 -0.14355311239356938 -0.36422169561306106 0 -0.36422169561306106 -1.1343881057121372 0 0 0 0 -15.176530597588169 9.2641555936115765 0 9.2641555936115765 -20.705311976083976 0 0 0 0 -0.34306791534049808 16.261578857340282 0 16.261578857340282 -23.146019361062827 0 0 0 0 -3.0334814739417197 -6.710150069093288 0 -6.710150069093288 -3.8299209768447326 0 0 0 0 -4.1867764127228959 -3.3222872726660722 0 -3.3222872726660722 -1.0744648353920994 0 0 0 0 -7.3463969287616919 -5.4038505423168317 0 -5.4038505423168317 4.1200785142284531 0 0 0 0 -16.614039999908073 -15.692326984314604 0 -15.692326984314604 0.3919820310779869 0 0 0 0 127.89526725127234 -36.855512492875278 0 -36.855512492875278 -142.87719746063885 0 0 0 0 -2.8382605863196204 -6.1642666317229668 0 -6.1642666317229668 -5.0627432577293803 0 0 0 0 -4.2053437020995545 -1.8234767564118783 0 -1.8234767564118783 -3.0752758038779575 0 0 0 0 -4.9492708601877595 -3.2235208683189107 0 -3.2235208683189107 -1.0743888607891696 0 0 0 0 -4.1276220567324344 -6.0265068334820171 0 -6.0265068334820171 -2.8376744456600136 0 0 0 0 8.1683062175998202 -5.4218179294512083 0 -5.4218179294512083 -46.821764761947634 0 0 0 0 -105.58100421737697 50.283791728837286 0 50.283791728837286 23.417362157370917 0 0 0 0 -0.59091839629491005 -8.3996195032186733 0 -8.3996195032186733 -24.554469477416205 0 0 0 0 7.2697072780877079 -1.7516761436572779 0 -1.7516761436572779 -29.760107116722793 0 0 0 0 -2.9280570823607377 -19.302907945044353 0 -19.302907945044353 -29.301421180386569 0 0 0 0 -1.246042707178276 -6.0501815009620259 0 -6.0501815009620259 -11.826246032463132 0 0 0 0 -3.0043285732704135 -3.5562430742174911 0 -3.5562430742174911 -13.467550769845275 0 0 0 0 1.3697604551555287 -0.92411658405762864 0 -0.92411658405762864 -17.874815546215359 0 0 0 0 -3.3026868545098296 -2.1206878592752219 0 -2.1206878592752219 -8.8945867810089112 0 0 0 0 -1.7368415090626286 9.4414817742851938 0 9.4414817742851938 -31.96635209341548 0 0 0 0 -0.37781057816349684 0.25983881491058725 0 0.25983881491058725 0.17720508003531332 0 0 0 0 -13.841888601546088 14.790931191507298 0 14.790931191507298 23.770828119519365 0 0 0 0 0.65736505094400854 30.649420187471151 0 30.649420187471151 -23.29235116050404 0 0 0 0 -19.879359156019518 9.3655505640399497 0 9.3655505640399497 53.980452408903147 0 0 0 0 -0.043812458619535199 -0.085908564897092532 0 -0.085908564897092532 -0.96160309022354262 0 0 0 0 5.1987279821767061 0.038571778409277613 0 0.038571778409277613 -6.906099199689379 0 0 0 0 -0.4443387185137917 -1.2938156703949222 0 -1.2938156703949222 -3.1301828841151007 0 0 0 0 -3.2460819003631087 1.7650768203144764 0 1.7650768203144764 1.9068331797825522 0 0 0 0 -10.889683197245404 14.444592897613802 0 14.444592897613802 -20.89501267844264 0 0 0 0 -7.927741237284522 10.405106230824686 0 10.405106230824686 -22.62416018712247 0 0 0 0 0.35128251981379677 -0.50830082015636791 0 -0.50830082015636791 -1.3749752903780794 0 0 0 0 1.876715190642841 -111.75643189952251 0 -111.75643189952251 58.276792588605531 0 0 0 0 33.548318301544555 4.8902140893972046 0 4.8902140893972046 -5.951170610724148 0 0 0 0 -0.67180203557625529 -2.1113687132712862 0 -2.1113687132712862 -4.8780428571261538 0 0 0 0 -10.989385303737436 40.432636507362417 0 40.432636507362417 -43.962932656651901 0 0 0 0 -16.201376019122449 36.14446577716933 0 36.14446577716933 -30.803199054682409 0 0 0 0 -4.6772253664369146 19.206244568587863 0 19.206244568587863 -54.286129226083176 0 0 0 0 -90.776172600278187 176.28455601706537 0 176.28455601706537 -274.70855250005025 0 0 0 0 -203.20752438535703 29.629549509614208 0 29.629549509614208 82.15965409861019 0 0 0 0 1.5673534670290792 28.116592003457754 0 28.116592003457754 -54.387953748382643 0 0 0 0 5.1493260315485259 4.9450449489891071 0 4.9450449489891071 -44.919664048182312 0 0 0 0 -5.5671641834178445 10.535700807314242 0 10.535700807314242 -43.082601988313399 0 0 0 0 26.564269064467226 -8.041354301807587 0 -8.041354301807587 -165.09247432562779 0 0 0 0 6.7299708008526977 33.124958549777148 0 33.124958549777148 -131.45312551350071 0 0 0 0 -9.331204906442963 -19.94935927187089 0 -19.94935927187089 -80.94006376801417 0 0 0 0 27.943966722762525 -3.235842220129598 0 -3.235842220129598 -151.55539557082648 0 0 0 0 12.75847473248291 8.9775543070986714 0 8.9775543070986714 -134.57727872239184 0 0 0 0 14.165085804868568 11.576799256594768 0 11.576799256594768 -240.83680010732951 0 0 0 0 2.8798769284970263 -10.073191544373572 0 -10.073191544373572 -122.35311716259821 0 0 0 0 0.052447152153955123 -0.20908265777704571 0 -0.20908265777704571 -0.71286201305839114 0 0 0 0 -5.6785821591552974 -27.246905800070067 0 -27.246905800070067 -113.27529639741806 0 0 0 0 -0.40352206088277853 -0.65430838444490291 0 -0.65430838444490291 -2.2958435021942023 0 0 0 0 -6.6034875490142895 -21.659429759492127 0 -21.659429759492127 -88.659770499360093 0 0 0 0 4.3611365052641986 -2.2407281524135669 0 -2.2407281524135669 -97.316252873726626 0 0 0 0 18.138108613138229 -5.4569045220923726 0 -5.4569045220923726 -0.57000882260217622 0 0 0 0 -0.71225556103937127 -0.77704544720129576 0 -0.77704544720129576 -0.79252237102447509 0 0 0 0 8.6994422034904346 5.3510655497630069 0 5.3510655497630069 -5.1613693621857237 0 0 0 0 -0.39432766120869367 -0.25727257017794258 0 -0.25727257017794258 -0.26152804659759354 0 0 0 0 -13.89185798615874 -70.797103888852689 0 -70.797103888852689 -21.31427909213744 0 0 0 0 -12.506218660235021 -105.97230453022968 0 -105.97230453022968 -184.68920585494925 0 0 0 0 -0.8739697878360646 -1.438449084574664 0 -1.438449084574664 -2.7757085766171983 0 0 0 0 44.850387110089287 -77.588994282506974 0 -77.588994282506974 -310.70136844363719 0 0 0 0 18.045650555634438 -40.750037068263737 0 -40.750037068263737 -204.21586941490568 0 0 0 0 21.456243256589232 -23.681229403288398 0 -23.681229403288398 -137.65639024100983 0 0 0 0 -30.413396814888983 -57.244416870926216 0 -57.244416870926216 -56.528471099536546 0 0 0 0 -2.986175894111966 4.8367271662129951 0 4.8367271662129951 -11.333841373210817 0 0 0 0 1.731279001060102 18.950158629683301 0 18.950158629683301 2.8981286037978862 0 0 0 0 -14.646597521673584 4.8893741163278719 0 4.8893741163278719 2.1274201483574871 0 0 0 0 4.9629520391163169 -21.310113495058431 0 -21.310113495058431 -62.784556344525981 0 0 0 0 3.5104688506503408 10.249636842610016 0 10.249636842610016 1.149534823216527 0 0 0 0 30.729306653437561 -6.406180322444925 0 -6.406180322444925 -11.393046465141197 0 0 0 0 25.354932636169451 15.263430021239401 0 15.263430021239401 -6.1576597072989898 0 0 0 0 -1.586291995853935 -3.9336355139062995 0 -3.9336355139062995 -5.9901175288781729 0 0 0 0 -279.09930468347989 43.405233284976021 0 43.405233284976021 34.966604732856467 0 0 0 0 -21.283626349247925 167.0925173350347 0 167.0925173350347 -353.16321162299027 0 0 0 0 -30.147717914133409 -82.695382066630373 0 -82.695382066630373 -189.19766760000857 0 0 0 0 -143.28958992669004 175.14043923960435 0 175.14043923960435 -212.61472893020618 0 0 0 0 -7.8824615427529352 40.50208886940618 0 40.50208886940618 -346.03090999500273 0 0 0 0 -4.3070593464051399 8.636547498914922 0 8.636547498914922 -150.18803815999854 0 0 0 0 -54.596931171291999 65.170978711385942 0 65.170978711385942 -85.794560285945408 0 0 0 0 -61.693247542262725 -49.159067881095325 0 -49.159067881095325 -22.723943015074838 0 0 0 0 -48.197401137542727 101.8184816124442 0 101.8184816124442 -113.49939475763313 0 0 0 0 -3.0785585152842714 68.894942088885273 0 68.894942088885273 -98.693426302001171 0 0 0 0 -26.269131181977173 104.02911842557933 0 104.02911842557933 -62.147032095607756 0 0 0 0 -60.978903194989016 66.022248706252867 0 66.022248706252867 -91.78208802520021 0 0 0 0 -58.225384334543378 77.698151075279384 0 77.698151075279384 -83.564169028935794 0 0 0 0 -17.824887613338888 41.150865698124107 0 41.150865698124107 -100.08261584402726 0 0 0 0 -18.506644169964943 53.875817119810335 0 53.875817119810335 -81.135220787704384 0 0 0 0 -10.982962984144024 25.300693134606263 0 25.300693134606263 -84.853304743882518 0 0 0 0 -10.010519760220802 -3.0115740725296973 0 -3.0115740725296973 -63.828158828989217 0 0 0 0 -9.8629102335606262 32.013788458918725 0 32.013788458918725 -58.488050158114675 0 0 0 0 -16.627554888147074 37.442305336859135 0 37.442305336859135 -110.76026792387165 0 0 0 0 -14.382110422702908 -3.3378817189368419 0 -3.3378817189368419 -90.674115613060621 0 0 0 0 -26.155526713802828 67.395435236648154 0 67.395435236648154 -182.41153612624657 0 0 0 0 -18.161900472023945 10.744445389716475 0 10.744445389716475 -137.94374150865588 0 0 0 0 -48.268476103301737 -44.229539620228024 0 -44.229539620228024 -94.925336052930106 0 0 0 0 -27.554160578761895 -12.783986284860759 0 -12.783986284860759 -66.76177362458111 0 0 0 0 -12.841985374027558 4.065311997912886 0 4.065311997912886 -80.337886064211489 0 0 0 0 -28.817871347397613 -24.355078981825955 0 -24.355078981825955 -53.725522423953407 0 0 0 0 -20.106934751682672 -23.258420008354051 0 -23.258420008354051 -28.966981066443623 0 0 0 0 -17.404385136683516 -19.804440881775463 0 -19.804440881775463 -51.983190175015807 0 0 0 0 -20.754763735609686 -12.969573470907108 0 -12.969573470907108 -44.811857464720561 0 0 0 0 -27.366500741263053 -28.049151500086737 0 -28.049151500086737 -32.102355132948105 0 0 0 0 -51.260290759519876 -21.616842929445738 0 -21.616842929445738 -47.249282297535501 0 0 0 0 -26.980899038854517 -16.696587799241797 0 -16.696587799241797 -29.221874451788608 0 0 0 0 -69.379580777795127 33.811557012566482 0 33.811557012566482 -52.626086151483833 0 0 0 0 -18.130965333125232 12.786504754769339 0 12.786504754769339 -58.306234136401599 0 0 0 0 -4.6109164699807934 89.422116260814164 0 89.422116260814164 -108.3387228816382 0 0 0 0 -113.49475042715221 39.455156772209193 0 39.455156772209193 58.823128072246618 0 0 0 0 -0.22906890344012121 -0.96041148149656586 0 -0.96041148149656586 -2.9944481014103488 0 0 0 0 72.370282549851254 96.924726336684216 0 96.924726336684216 -446.70276616171031 0 0 0 0 -30.470478845360731 -92.412778321244787 0 -92.412778321244787 -34.830272819450329 0 0 0 0 -82.816650676207246 -34.306562384578683 0 -34.306562384578683 58.771174298814003 0 0 0 0 -51.640552021793383 -24.402183209875147 0 -24.402183209875147 -56.699983480279116 0 0 0 0 -41.553905897631864 5.5912483534964394 0 5.5912483534964394 -25.594686660544539 0 0 0 0 -81.093311730664482 -27.058710653770504 0 -27.058710653770504 -48.790389541631157 0 0 0 0 7.2073976249236011 5.298675037018711 0 5.298675037018711 -8.4489766855867856 0 0 0 0 8.5043213579101575 -2.4221342419850771 0 -2.4221342419850771 -3.4752256230003695 0 0 0 0 -5.8804705509920154 4.3403730757534049 0 4.3403730757534049 -44.604242365033315 0 0 0 0 -5.2960997893584931 23.560123674174292 0 23.560123674174292 -77.224970415135431 0 0 0 0 0.10834679316252638 0.057429572269283469 0 0.057429572269283469 0.020616966361209688 0 0 0 0 10.486520734301507 19.628468880247965 0 19.628468880247965 14.774069433898603 0 0 0 0 -4.5589091847921281 1.5459332663540408 0 1.5459332663540408 -21.293545399580125 0 0 0 0 10.791289828464187 35.851832623813834 0 35.851832623813834 -39.582200770716554 0 0 0 0 -3.7283272292449965 34.771566770572917 0 34.771566770572917 -74.072441223797796 0 0 0 0 -5.0546199289601645 29.626036119560922 0 29.626036119560922 -39.260626149973177 0 0 0 0 -7.6689697806767754 8.6976846112543171 0 8.6976846112543171 -37.729215092915183 0 0 0 0 -15.070636070127875 -22.336867244739551 0 -22.336867244739551 -38.585049241158231 0 0 0 0 -18.561665971437833 -27.849372616549317 0 -27.849372616549317 -34.327903148456244 0 0 0 0 -20.153661055189787 -29.526451242080839 0 -29.526451242080839 -17.099288979530456 0 0 0 0 -7.2811913489306335 -11.441265140843825 0 -11.441265140843825 -24.148445450459576 0 0 0 0 -11.294244635406983 -10.921215724718763 0 -10.921215724718763 10.261756178487303 0 0 0 0 21.164848600976597 16.221934245415014 0 16.221934245415014 -13.037047353217076 0 0 0 0 32.067168310096235 -1.0568481449747651 0 -1.0568481449747651 -7.3329959869324739 0 0 0 0 -0.089300141485068707 -33.479506212017895 0 -33.479506212017895 -7.088616513784018 0 0 0 0 27.865762065357956 13.806862323455334 0 13.806862323455334 -9.5931859965876356 0 0 0 0 7.7911908951373334 3.4716906747617031 0 3.4716906747617031 0.98159420827892063 0 0 0 0 5.7723130583445936 18.458913248656245 0 18.458913248656245 29.752398416894721 0 0 0 0 0.37095274745750295 -0.069288464396068505 0 -0.069288464396068505 0.059040124009562156 0 0 0 0 7.2702336339041267 -7.7177534481952534 0 -7.7177534481952534 1.8333660628577491 0 0 0 0 0.62272499889638766 0.5520304922683863 0 0.5520304922683863 -1.9834108848608594 0 0 0 0 2.060986927784711 -8.3471637636157539 0 -8.3471637636157539 -24.337548033783605 0 0 0 0 -0.73649905108766234 -20.795636009931968 0 -20.795636009931968 -59.20282891673196 0 0 0 0 -1.312036563176207 9.0864459135200377 0 9.0864459135200377 -0.79461071437503961 0 0 0 0 17.343917923121353 -6.7883541873147806 0 -6.7883541873147806 -27.779594906995044 0 0 0 0 -24.722191020726882 -2.221107065902288 0 -2.221107065902288 -25.729171354624214 0 0 0 0 1.313336393484974 -28.279134168038581 0 -28.279134168038581 -106.23692766441536 0 0 0 0 -33.599250665170658 -55.852229977188529 0 -55.852229977188529 -55.190223740663896 0 0 0 0 -3.1380329715263997 -24.210296953559009 0 -24.210296953559009 -23.800339466072728 0 0 0 0 -24.757705133078048 -29.559881680848321 0 -29.559881680848321 -21.772879661836669 0 0 0 0 -13.840522868708149 -39.007002545264641 0 -39.007002545264641 -40.580305438781579 0 0 0 0 1.7606547221230358 -9.2293744092419274 0 -9.2293744092419274 -48.238416611661705 0 0 0 0 1.243163189382102 -10.644917959486975 0 -10.644917959486975 -9.3568737683090148 0 0 0 0 -1.1030490581223376 4.0177948892660424 0 4.0177948892660424 -14.129494360122635 0 0 0 0 -6.09806274503228 2.1924096471798293 0 2.1924096471798293 -13.096123116813828 0 0 0 0 -30.042448405953564 -20.578478279152932 0 -20.578478279152932 -15.795423550393025 0 0 0 0 -0.51822994076612838 -0.22662624092896166 0 -0.22662624092896166 -0.12891195696105839 0 0 0 0 -11.868304107433119 2.8690078175018243 0 2.8690078175018243 14.05008307621415 0 0 0 0 -24.04297412848689 -34.870834716505101 0 -34.870834716505101 -38.394051705824495 0 0 0 0 -8.5028420640230706 -21.720602023331594 0 -21.720602023331594 -27.278329690107967 0 0 0 0 -7.3157118562176038 -21.629681620060637 0 -21.629681620060637 -46.011761606459913 0 0 0 0 -5.4070252056861818 5.8012691177448232 0 5.8012691177448232 -14.24143177327278 0 0 0 0 3.092699776721588 7.0745735133737071 0 7.0745735133737071 -1.3690952339329669 0 0 0 0 -0.54515669500734343 0.61092929651071026 0 0.61092929651071026 -2.8979706544105781 0 0 0 0 -12.573570784155208 3.0796498208037519 0 3.0796498208037519 10.91673497793272 0 0 0 0 -9.4591037519721795 10.642790164826692 0 10.642790164826692 -19.650239049407901 0 0 0 0 -4.2165682353777356 4.7837579052384172 0 4.7837579052384172 -21.141520216742606 0 0 0 0 -10.728632499109153 12.61399311355126 0 12.61399311355126 -24.299316839998937 0 0 0 0 -53.585913306454358 0.55254909008772302 0 0.55254909008772302 45.624423540866701 0 0 0 0 -0.15490899385129242 0.49228171866554771 0 0.49228171866554771 -0.88293184209930331 0 0 0 0 -17.298649990854983 4.6348505727128213 0 4.6348505727128213 -21.065503486969192 0 0 0 0 -0.61596246228168638 -7.0777187267742647 0 -7.0777187267742647 -36.582998062876868 0 0 0 0 -16.856390594160985 -16.058100459345951 0 -16.058100459345951 -1.3751233090479218 0 0 0 0 -10.745137908594643 -15.764568600780422 0 -15.764568600780422 -29.269499256412018 0 0 0 0 -14.954405445974999 -23.916026132403204 0 -23.916026132403204 -24.135313888775272 0 0 0 0 -17.665755095564691 -10.620298390858352 0 -10.620298390858352 -8.504086728033144 0 0 0 0 -16.364311389954878 -20.456661845661984 0 -20.456661845661984 -27.98127140578481 0 0 0 0 -12.940052637363806 -32.745299357824933 0 -32.745299357824933 -31.858906603969899 0 0 0 0 -8.9678034691219182 -14.64761469416726 0 -14.64761469416726 -18.748488820308012 0 0 0 0 -1.6928647845770683 -6.6238119488762095 0 -6.6238119488762095 -18.517647079449034 0 0 0 0 -10.807651557471218 0.4781138095067945 0 0.4781138095067945 1.2008570214698011 0 0 0 0 -10.911474294854969 -9.0186939700207631 0 -9.0186939700207631 -12.116991913037054 0 0 0 0 -4.8798682244671454 -1.9947448689467819 0 -1.9947448689467819 1.7103148476617207 0 0 0 0 -2.026308570826127 -0.67779233226529989 0 -0.67779233226529989 -0.68870184055489592 0 0 0 0 -1.1841226341294373 -5.4478081826161997 0 -5.4478081826161997 1.4695564329531408 0 0 0 0 -5.3550604161093815 -7.2065710559400031 0 -7.2065710559400031 12.623173161083741 0 0 0 0 3.7837118590474574 -2.8756102716670284 0 -2.8756102716670284 -4.3831237881449852 0 0 0 0 -1.4064304747538778 -0.57705839937871062 0 -0.57705839937871062 -0.12662857721494625 0 0 0 0 -3.293008535525928 0.18882164018032199 0 0.18882164018032199 -4.2035956085579187 0 0 0 0 0.62825105315073415 -3.5637123883466302 0 -3.5637123883466302 -13.738242307153087 0 0 0 0 0.087616671877412955 -5.1264644171224063 0 -5.1264644171224063 -3.9465788558218264 0 0 0 0 -0.91483627577764537 -0.49556526765354647 0 -0.49556526765354647 -1.3416429707449424 0 0 0 0 1.6776079953693852 -2.6548279187031767 0 -2.6548279187031767 -1.6406915309748911 0 0 0 0 -0.59726889297590458 -0.67791283791660728 0 -0.67791283791660728 -0.34095884117659736 0 0 0 0 -7.0327218380004979 -4.430514546978884 0 -4.430514546978884 -1.8426645718291184 0 0 0 0 -2.2214618416160996 -2.7698679197779761 0 -2.7698679197779761 -1.3953488911390766 0 0 0 0 -6.609974155601094 0.58160570831569203 0 0.58160570831569203 -4.2806342201679399 0 0 0 0 1.7876374287183978 1.6767217569766331 0 1.6767217569766331 -17.027116835455672 0 0 0 0 -6.6171761609859914 -2.6858141246830201 0 -2.6858141246830201 3.753163211009678 0 0 0 0 -1.9643469365034321 0.64288295445430776 0 0.64288295445430776 -5.1679204365727855 0 0 0 0 -5.0172901265698329 -3.2490468275284456 0 -3.2490468275284456 -8.0346365374025481 0 0 0 0 -2.5275932382836572 -1.3170255315149006 0 -1.3170255315149006 -17.261974374734564 0 0 0 0 -1.4258889086646604 -2.0753557778016329 0 -2.0753557778016329 -17.946368846489349 0 0 0 0 -2.1321398854236548 0.91314086149827745 0 0.91314086149827745 -18.714831738123394 0 0 0 0 -1.4010022562173106 3.242148139594633 0 3.242148139594633 -28.742991571027233 0 0 0 0 2.6455333242553252 3.012374336089124 0 3.012374336089124 -28.861236155652705 0 0 0 0 1.6376969746435179 5.3278931775903402 0 5.3278931775903402 -34.115901762481371 0 0 0 0 2.4528757189027601 1.3577960178872672 0 1.3577960178872672 -35.300051402258759 0 0 0 0 -3.2516212628140693 -2.4429070048267931 0 -2.4429070048267931 -29.055036468136677 0 0 0 0 -0.043933575954963278 0.043870050450178777 0 0.043870050450178777 -0.027190850982574233 0 0 0 0 -5.5660042962608145 -9.734713940095844 0 -9.734713940095844 -16.673626654890541 0 0 0 0 -0.85194373540014112 -0.21293157774380234 0 -0.21293157774380234 -27.200401121484902 0 0 0 0 0.88650518115548493 -2.9822393245690364 0 -2.9822393245690364 -24.498572954969859 0 0 0 0 1.9552131908408796 6.8328557993652339 0 6.8328557993652339 -10.774426447145743 0 0 0 0 -3.0418807071241645 4.1755223210120676 0 4.1755223210120676 -17.112397955089818 0 0 0 0 -10.368528420203461 3.6801933376251554 0 3.6801933376251554 -28.000905293537471 0 0 0 0 1.3323978305630817 1.7883349474218448 0 1.7883349474218448 -27.746512130701376 0 0 0 0 -4.3520445112798143 1.3806820140089258 0 1.3806820140089258 -27.171104081891826 0 0 0 0 0.073641317616761626 0.34688693765019707 0 0.34688693765019707 -49.007884806848779 0 0 0 0 -5.1905859978217563 -6.3863578353684716 0 -6.3863578353684716 -35.883445881627722 0 0 0 0 -7.7023294599493966 -8.9143354105453909 0 -8.9143354105453909 -28.604468872257257 0 0 0 0 -10.836493715209031 -1.6231157622842147 0 -1.6231157622842147 -23.71970193388006 0 0 0 0 -0.17713623168254289 0.033806120757725822 0 0.033806120757725822 -0.058697874673973915 0 0 0 0 -2.8242199475425878 1.3817337600562496 0 1.3817337600562496 -29.144479018497975 0 0 0 0 -0.55731238549591322 -0.017143519101027849 0 -0.017143519101027849 -0.074888940477378707 0 0 0 0 -1.2041157480755942 -0.31258305983578794 0 -0.31258305983578794 -28.575546367811512 0 0 0 0 0.91680922027782685 -0.37954727569717761 0 -0.37954727569717761 -33.311152085387221 0 0 0 0 -0.81871726961503555 -1.5695921221836215 0 -1.5695921221836215 -30.263559705989792 0 0 0 0 -1.3636680928190117 0.61648602830484833 0 0.61648602830484833 -34.951359835540643 0 0 0 0 8.3175931777337837 -2.2025802942871451 0 -2.2025802942871451 -41.825019107524099 0 0 0 0 15.179075344938951 4.5040974806247505 0 4.5040974806247505 -46.557358163498066 0 0 0 0 -2.7356054517562143 14.55860835434396 0 14.55860835434396 -42.864832820572701 0 0 0 0 -1.018893927021864 -2.5384156749160525 0 -2.5384156749160525 -36.898300009384911 0 0 0 0 -4.721206830010253 -3.2132259639249128 0 -3.2132259639249128 -30.886185928831765 0 0 0 0 -12.872114128150258 -11.334544032410577 0 -11.334544032410577 -36.563913728969055 0 0 0 0 1.594835248526465 1.0353061892119513 0 1.0353061892119513 -34.86805076483779 0 0 0 0 -1.6045682040877978 3.7006363589896409 0 3.7006363589896409 -29.169548280057825 0 0 0 0 -1.3325903282801619 4.1738442925843628 0 4.1738442925843628 -28.609741253227639 0 0 0 0 -3.0472420706174717 6.67307456033177 0 6.67307456033177 -25.859589617248275 0 0 0 0 -0.60597847370843283 -0.50591422110619533 0 -0.50591422110619533 -21.878998684359431 0 0 0 0 -3.1717626282327842 7.3357910318188715 0 7.3357910318188715 -33.650774428893783 0 0 0 0 -1.4109966461878685 -2.1006511923560538 0 -2.1006511923560538 -38.409399771922381 0 0 0 0 -1.5853400606163177 2.4410794671623535 0 2.4410794671623535 -23.822053750359373 0 0 0 0 -3.3873186937645414 -4.6512322298635809 0 -4.6512322298635809 -25.038868056457886 0 0 0 0 0.92083449894391833 3.5630676726568709 0 3.5630676726568709 -29.304317192241115 0 0 0 0 1.2188376975436199 5.8096428239848592 0 5.8096428239848592 -28.099005181317352 0 0 0 0 3.3627767229081655 -4.1904369364456215 0 -4.1904369364456215 -17.464106322194539 0 0 0 0 -1.1265843661287249 2.4688528149125659 0 2.4688528149125659 -18.415801622884828 0 0 0 0 4.2772294601979866 -7.9588665505903009 0 -7.9588665505903009 -11.062684157094054 0 0 0 0 14.787599524031748 1.9185223277833927 0 1.9185223277833927 -15.173308795923731 0 0 0 0 -1.2122821670214989 -1.0619214290254604 0 -1.0619214290254604 -5.5226126755105724 0 0 0 0 -2.5813244045820483 -6.3059213166822019 0 -6.3059213166822019 -15.400270874268244 0 0 0 0 -5.9592057986737927 -11.492057289050535 0 -11.492057289050535 -14.014778118221329 0 0 0 0 -6.6023708131236845 -6.8194815291662962 0 -6.8194815291662962 -12.877684726006009 0 0 0 0 -2.4850312228305143 -0.21927635493830167 0 -0.21927635493830167 -13.355563373715995 0 0 0 0 -5.4115864702126828 -8.1559419574223284 0 -8.1559419574223284 -18.310509802294291 0 0 0 0 -6.8685595625403266 -4.2094448728059888 0 -4.2094448728059888 -19.329052644570766 0 0 0 0 -6.6616413124142753 -7.4022812857322151 0 -7.4022812857322151 -16.676216487710917 0 0 0 0 -4.4308692522391766 -8.8861712824173082 0 -8.8861712824173082 -16.021087600421197 0 0 0 0 -0.005388748025871859 0.031005701202351688 0 0.031005701202351688 -0.080584491119468638 0 0 0 0 -5.5352940793324876 -9.1004537846982885 0 -9.1004537846982885 -15.966151533511038 0 0 0 0 -10.788064892350803 -10.891387435925935 0 -10.891387435925935 -19.197015063031358 0 0 0 0 5.0759937847948322 0.42863975514160302 0 0.42863975514160302 -1.0868558439069602 0 0 0 0 0.23052479239214563 5.6814915475945327 0 5.6814915475945327 1.0448080133546682 0 0 0 0 -5.0082990268044796 -14.353098951349693 0 -14.353098951349693 -20.343177625157296 0 0 0 0 0.45894637651648162 -0.04254862721009367 0 -0.04254862721009367 -0.17632852489741069 0 0 0 0 -2.7518154316017558 -1.4109234390230085 0 -1.4109234390230085 -0.55100288029461808 0 0 0 0 -7.8727743184793155 -4.8735614307034325 0 -4.8735614307034325 -9.5455824041646338 0 0 0 0 -5.8671826346928526 -8.0418584831475073 0 -8.0418584831475073 -18.946949122322621 0 0 0 0 -2.9784798362729816 -4.6431507730304702 0 -4.6431507730304702 -12.116543770310273 0 0 0 0 -3.1014990251883319 -15.179941606221291 0 -15.179941606221291 -23.703832442879047 0 0 0 0 0.023748906895609601 0.042051941797645043 0 0.042051941797645043 -0.07722500602987914 0 0 0 0 -9.8476511238094417 -12.147610013238591 0 -12.147610013238591 -12.975662305221704 0 0 0 0 -7.3129183733301488 -13.771703179874748 0 -13.771703179874748 -16.975624115105347 0 0 0 0 -7.8637108339627275 -10.451010720990439 0 -10.451010720990439 -14.833699947692367 0 0 0 0 1.0173709337688024 -4.421165924477009 0 -4.421165924477009 -12.647840682194214 0 0 0 0 -5.9678888511125479 -11.772834481951577 0 -11.772834481951577 -14.486898725379433 0 0 0 0 -1.9590434392430325 -10.348997295025583 0 -10.348997295025583 -17.244746981861681 0 0 0 0 -2.7804981917444138 -9.6768995989741597 0 -9.6768995989741597 -13.329337693037814 0 0 0 0 0.25159576974158426 -9.3456537102824768 0 -9.3456537102824768 -16.251710643118713 0 0 0 0 -0.21756605620771552 -0.97980352162903728 0 -0.97980352162903728 -16.203267984723425 0 0 0 0 0.089804743041278723 0.060592394083892387 0 0.060592394083892387 -0.10089464027468509 0 0 0 0 -0.90325182069346965 -2.1965026346369996 0 -2.1965026346369996 -15.779194082902904 0 0 0 0 -0.97645133834362241 -2.2186248069128851 0 -2.2186248069128851 -11.788994328981062 0 0 0 0 -2.1143614514104172 -5.1910635868516692 0 -5.1910635868516692 -22.26583494919123 0 0 0 0 -6.2330124805845344 -6.102784336730565 0 -6.102784336730565 -14.06069804632989 0 0 0 0 -2.9573369695608562 -4.1974902482224934 0 -4.1974902482224934 -21.663049531653996 0 0 0 0 0.63137415872934355 -0.58002507597024078 0 -0.58002507597024078 -29.690787239796919 0 0 0 0 0.733056170683696 -3.4051482619313092 0 -3.4051482619313092 -27.115795259267543 0 0 0 0 -1.5943381492058961 -6.2362238508248993 0 -6.2362238508248993 -20.427489633862024 0 0 0 0 -2.2088853906638519 -2.7779329863101339 0 -2.7779329863101339 -25.34440947250323 0 0 0 0 -1.9793574456118677 -4.8158928775983441 0 -4.8158928775983441 -23.059896558854462 0 0 0 0 -5.6745606362048875 -3.3149148750044333 0 -3.3149148750044333 -19.957624749171373 0 0 0 0 -5.0931918217632983 -4.2536225607341294 0 -4.2536225607341294 -14.345533140701718 0 0 0 0 0.051533083300661087 0.038827209207582314 0 0.038827209207582314 -0.10178913193258587 0 0 0 0 6.8000790933299413 -15.73778466534759 0 -15.73778466534759 -34.100715056540139 0 0 0 0 -7.9476184097711666 -6.1591584367815813 0 -6.1591584367815813 -16.807094620895441 0 0 0 0 -3.7742755852543723 -6.4955565973991725 0 -6.4955565973991725 -15.907969734464132 0 0 0 0 -2.1849359262155303 -6.1897807283367001 0 -6.1897807283367001 -16.854664114158936 0 0 0 0 -14.187220186200989 -3.9940583291204348 0 -3.9940583291204348 -6.8962373360154743 0 0 0 0 8.7144470553293445 -2.603305089733567 0 -2.603305089733567 -8.1194278793664125 0 0 0 0 0.68198284307260337 -2.5725812399959977 0 -2.5725812399959977 -2.2711670939788746 0 0 0 0 3.4681243328102482 -6.1747392602037507 0 -6.1747392602037507 -8.3482049498848028 0 0 0 0 6.3267558843630241 5.3622913387071094 0 5.3622913387071094 3.8260588091325189 0 0 0 0 0.20667797289827794 0.0058007305965279699 0 0.0058007305965279699 -0.13368096571951327 0 0 0 0 -6.5250726306412616 -17.559119825225025 0 -17.559119825225025 -33.373334445784167 0 0 0 0 3.1986197987336027 -1.0773667154844588 0 -1.0773667154844588 -4.1308867499401458 0 0 0 0 0.48307524145008074 -2.9876289665830882 0 -2.9876289665830882 -0.24097485527545359 0 0 0 0 -0.95815046870677634 -4.2819467130570956 0 -4.2819467130570956 -2.4797577937606547 0 0 0 0 -4.6124475791116595 -3.2306792896404204 0 -3.2306792896404204 3.9619017415225244 0 0 0 0 -7.8955286655640862 -9.5511627173541456 0 -9.5511627173541456 -2.5426653134677508 0 0 0 0 -3.3629826418197695 -3.5331036164925536 0 -3.5331036164925536 -7.2920429047153448 0 0 0 0 -1.268487275097641 -5.8408774417948734 0 -5.8408774417948734 -7.2312912576262534 0 0 0 0 -2.2462547905947758 -0.1138781413774268 0 -0.1138781413774268 -9.1064818787417607 0 0 0 0 -8.6714467805296067 -8.697700081255789 0 -8.697700081255789 -9.5527684852781931 0 0 0 0 -5.9630431036935398 -6.1027601965723051 0 -6.1027601965723051 -14.087944571079788 0 0 0 0 -5.9620058908136571 -6.1758427825170656 0 -6.1758427825170656 -9.2017079542829379 0 0 0 0 -7.8199349789450352 -9.559786548520151 0 -9.559786548520151 -9.9757001256230069 0 0 0 0 -7.8169571564746434 -9.4112751065135853 0 -9.4112751065135853 -10.187627031346778 0 0 0 0 -6.9730172435127784 -7.4690228833060246 0 -7.4690228833060246 -9.92021756140457 0 0 0 0 -9.0566985773917565 -7.2398264173443749 0 -7.2398264173443749 -7.102216280511584 0 0 0 0 -7.138882897239597 -6.4007944475233671 0 -6.4007944475233671 -9.2216012950193544 0 0 0 0 -9.4174512445272711 -6.9724219168183481 0 -6.9724219168183481 -11.301244976664748 0 0 0 0 -10.799734238488952 -7.0626949614525074 0 -7.0626949614525074 -8.9387086995648133 0 0 0 0 -8.9354076445437727 -7.2631440536183618 0 -7.2631440536183618 -11.910257389707112 0 0 0 0 -11.148287111183464 -9.6035066674730842 0 -9.6035066674730842 -13.154602988065108 0 0 0 0 -9.081629148349819 -7.7169634643689733 0 -7.7169634643689733 -16.801155227929485 0 0 0 0 -11.970320755862073 -6.8698964196696579 0 -6.8698964196696579 -11.211141289268198 0 0 0 0 -9.9428447606867394 -8.8925878431264209 0 -8.8925878431264209 -10.006151735483172 0 0 0 0 -8.2168228188329522 -7.8574787677134736 0 -7.8574787677134736 -13.221574869247888 0 0 0 0 -10.223756227900083 -8.9638233994137408 0 -8.9638233994137408 -13.559783472303252 0 0 0 0 -6.1885887602983871 -7.1727991103848581 0 -7.1727991103848581 -20.349711365182884 0 0 0 0 -7.1299301836359064 -7.7263810510321491 0 -7.7263810510321491 -20.622128275614614 0 0 0 0 -6.6814274403137972 -7.9921673582871335 0 -7.9921673582871335 -27.804235686708125 0 0 0 0 -11.895715226550493 -10.340078681509112 0 -10.340078681509112 -18.295956277281221 0 0 0 0 -10.592820273605561 -8.6463363278439829 0 -8.6463363278439829 -21.44951602688343 0 0 0 0 -7.3317879269671664 -8.7310149915956572 0 -8.7310149915956572 -28.26702502835542 0 0 0 0 -15.991097434250349 -13.29099551373065 0 -13.29099551373065 -24.305114754219176 0 0 0 0 -7.2292285782255661 -9.4441686874415609 0 -9.4441686874415609 -36.179724593408537 0 0 0 0 -11.838146441521928 -15.200040612929115 0 -15.200040612929115 -40.934999773399795 0 0 0 0 -3.0379062225172788 -5.7351789803360589 0 -5.7351789803360589 -38.428591021454849 0 0 0 0 -2.6144951179365137 -4.5053853886188335 0 -4.5053853886188335 -28.920598587163113 0 0 0 0 -3.2461747747046275 -5.3412191619727309 0 -5.3412191619727309 -29.536375976331328 0 0 0 0 -14.188577538533366 -15.498557706180691 0 -15.498557706180691 -40.815359231266484 0 0 0 0 -21.057841054870327 -3.7135202875433606 0 -3.7135202875433606 -23.616501132996746 0 0 0 0 -12.05629632648612 -9.2598430883854235 0 -9.2598430883854235 -43.0278380588461 0 0 0 0 -13.945693282696254 -7.9491661924985237 0 -7.9491661924985237 -24.463272645584766 0 0 0 0 -21.288828399682235 -17.692238305806313 0 -17.692238305806313 -32.663527547043486 0 0 0 0 -17.238012173063456 -11.216229202957038 0 -11.216229202957038 -19.293826438060933 0 0 0 0 -15.252882741853938 -9.2946768510755646 0 -9.2946768510755646 -14.439696786839704 0 0 0 0 -13.33479620606882 -5.6105329928416268 0 -5.6105329928416268 -14.623110521757553 0 0 0 0 -10.635603852817013 -3.4846322495950517 0 -3.4846322495950517 -13.507448018699279 0 0 0 0 -11.806354688722593 -6.6036586576601621 0 -6.6036586576601621 -22.796606772851192 0 0 0 0 -17.478504785802329 -3.812647798561386 0 -3.812647798561386 -13.14905228106727 0 0 0 0 -14.733868306023581 -5.0120828214876383 0 -5.0120828214876383 -11.201334180681442 0 0 0 0 -5.6986526364382257 0.84485353772197413 0 0.84485353772197413 -11.055899785755173 0 0 0 0 -5.7524617333122592 0.40692535904145188 0 0.40692535904145188 -7.7488298151074559 0 0 0 0 -12.323520518580267 -1.1119996053907926 0 -1.1119996053907926 -6.7665269769186125 0 0 0 0 -14.072361556508653 -3.4061307967376706 0 -3.4061307967376706 -8.2450949852282065 0 0 0 0 -8.8895069039566135 -2.0184150007144126 0 -2.0184150007144126 -8.9910246523540991 0 0 0 0 -10.023185616653464 -1.7877320563566172 0 -1.7877320563566172 -6.564285386721167 0 0 0 0 -9.3795044366714819 -1.7949425789065572 0 -1.7949425789065572 -6.5312366227262828 0 0 0 0 -8.5544124346401134 0.3067810281918355 0 0.3067810281918355 -4.8239901286378881 0 0 0 0 -8.8030989446623238 1.5329363343628302 0 1.5329363343628302 -4.9204031593071704 0 0 0 0 -5.5168715148851106 0.36240884040671517 0 0.36240884040671517 -5.1037969313692884 0 0 0 0 -13.418335372151118 -6.1220168864642801 0 -6.1220168864642801 -9.692264257437273 0 0 0 0 -10.786819546435453 -7.6587388961561373 0 -7.6587388961561373 -14.405150671212539 0 0 0 0 -12.342198693481942 -6.8181286107928827 0 -6.8181286107928827 -13.647744916963347 0 0 0 0 -10.965934914894468 -4.4177038078632904 0 -4.4177038078632904 -8.0618259572074749 0 0 0 0 -9.84326672059467 -1.2423460203435752 0 -1.2423460203435752 -7.1586713943343057 0 0 0 0 -9.6421789022240887 -4.5016771026712377 0 -4.5016771026712377 -9.7547075796630338 0 0 0 0 -11.352225493448273 -5.5096834912683335 0 -5.5096834912683335 -8.2387817123380955 0 0 0 0 -8.7429232493353481 -5.5321060746828152 0 -5.5321060746828152 -8.4149530750355552 0 0 0 0 -9.0302640357296333 -3.9610939694498484 0 -3.9610939694498484 -6.1800296792644076 0 0 0 0 -5.6245215197878906 -2.026457205933184 0 -2.026457205933184 -6.3877019507870045 0 0 0 0 -7.96301963099625 -2.7734244108487474 0 -2.7734244108487474 -6.4813986989192927 0 0 0 0 -8.2407498204286611 -2.3723731596727475 0 -2.3723731596727475 -6.9224640955253562 0 0 0 0 -7.568023119602401 -0.29397139747925394 0 -0.29397139747925394 -5.9727314059600758 0 0 0 0 -6.8131634563069596 -1.4925655140141316 0 -1.4925655140141316 -4.4835837954378803 0 0 0 0 -3.7167236892341862 -1.9334214762711781 0 -1.9334214762711781 -4.9980618021709233 0 0 0 0 -6.6240880770078547 -0.74158541182623594 0 -0.74158541182623594 -5.4461043677110865 0 0 0 0 -5.0579783883081859 -1.0376471775462051 0 -1.0376471775462051 -4.0957938972424017 0 0 0 0 -5.9325111337072656 -2.5766122283284858 0 -2.5766122283284858 -3.3172895761599648 0 0 0 0 -5.3602907954306964 -2.1901834143709493 0 -2.1901834143709493 -4.9888073714719212 0 0 0 0 -6.9016135519110691 -4.7303414163452544 0 -4.7303414163452544 -5.9762897033269837 0 0 0 0 -5.401100051176229 1.506349484941893 0 1.506349484941893 -4.5043941868716502 0 0 0 0 -6.4478014011654636 2.2948319165225257 0 2.2948319165225257 -4.3446548438332684 0 0 0 0 -3.6416235230066718 3.2541372927398697 0 3.2541372927398697 -4.4332766701372748 0 0 0 0 -6.176689963924531 2.4359707273533786 0 2.4359707273533786 -3.4212564301233215 0 0 0 0 -7.4639108841405175 0.91312546926928917 0 0.91312546926928917 -4.1551992001550389 0 0 0 0 -7.2397131580801215 0.88784237455547554 0 0.88784237455547554 -5.4705205135287542 0 0 0 0 -7.8957866808028285 0.72915340129111428 0 0.72915340129111428 -4.8601295523549197 0 0 0 0 -7.27919327552749 -0.20979828238341725 0 -0.20979828238341725 -6.1397927584498575 0 0 0 0 -5.1677142552753423 -0.17506727372892783 0 -0.17506727372892783 -6.0146645865952451 0 0 0 0 -6.4141992470468381 1.5900645251695096 0 1.5900645251695096 -6.2654102945052728 0 0 0 0 -6.9597520384463678 1.548886105811107 0 1.548886105811107 -5.1527179693894141 0 0 0 0 -7.0891971066713211 1.5660817828693325 0 1.5660817828693325 -4.7835111091590079 0 0 0 0 -8.7284345936050158 2.4591070175256391 0 2.4591070175256391 -4.6951018049003324 0 0 0 0 -5.9600750788457617 1.8139810694992775 0 1.8139810694992775 -6.0548147846911888 0 0 0 0 -3.2473021248152918 1.3184450153676153 0 1.3184450153676153 -6.2542569582474243 0 0 0 0 -6.7455907124409862 4.8026392165802463 0 4.8026392165802463 -8.3118209930980811 0 0 0 0 -4.593181695707699 0.21637970921801752 0 0.21637970921801752 -6.9671486311999615 0 0 0 0 -4.1191396489602994 -3.1526041378883747 0 -3.1526041378883747 0.023720165590930264 0 0 0 0 3.9911658369714473 0.84076259907669737 0 0.84076259907669737 -10.517676185318123 0 0 0 0 0.63455523045621476 -3.8692463301376847 0 -3.8692463301376847 -5.1234405884033549 0 0 0 0 -7.8028809390279719 6.5347929896024652 0 6.5347929896024652 -4.1111079820948362 0 0 0 0 -0.30757939950253449 0.10290434643274526 0 0.10290434643274526 0.14453114702074643 0 0 0 0 -4.760838864724974 3.6649506225330697 0 3.6649506225330697 -2.6071327723202558 0 0 0 0 -4.553691284220406 3.4882124171481337 0 3.4882124171481337 -4.3820839962281752 0 0 0 0 -4.1099212437982828 2.9367428563200519 0 2.9367428563200519 -3.7456568732195592 0 0 0 0 -1.8583359253721028 4.9440026725578718 0 4.9440026725578718 -2.9351952388606151 0 0 0 0 -1.006736290464346 3.9717207309822697 0 3.9717207309822697 -4.0131275802777964 0 0 0 0 -0.16549542125186889 5.9656482233718862 0 5.9656482233718862 -0.74793883148959139 0 0 0 0 0.16793725780058821 5.1399961908437035 0 5.1399961908437035 -4.1926591337141872 0 0 0 0 -3.2532130753712636 2.592976181749691 0 2.592976181749691 -3.3336057282217553 0 0 0 0 -1.4841268286081117 4.9043254163552774 0 4.9043254163552774 -2.66686163185841 0 0 0 0 1.1671935193224954 2.2932540520778275 0 2.2932540520778275 -0.4109399325443519 0 0 0 0 8.1693497894262919 2.6010578709265246 0 2.6010578709265246 -3.9341629305454262 0 0 0 0 12.55699186559329 5.0388489359088453 0 5.0388489359088453 -5.0132369304137683 0 0 0 0 2.6544022153350113 8.1298291699222318 0 8.1298291699222318 -5.897989263496811 0 0 0 0 21.281871318533362 -0.74093199857088621 0 -0.74093199857088621 -11.461380410728452 0 0 0 0 0.51278415346771578 0.79565285933591046 0 0.79565285933591046 -5.0188576501372921 0 0 0 0 9.8554635811726712 9.0061657761161769 0 9.0061657761161769 -3.861921683046603 0 0 0 0 0.21712733761179298 0.61570780613648068 0 0.61570780613648068 0.037339968001255386 0 0 0 0 3.3635327127366281 7.6336023474050307 0 7.6336023474050307 0.078184344025657992 0 0 0 0 -1.1562394069893003 4.3476450594016569 0 4.3476450594016569 -5.1616907472817388 0 0 0 0 -4.0917899550510697 3.5007221998403111 0 3.5007221998403111 -3.5071389105105482 0 0 0 0 -6.1406688209208369 0.26272958332992857 0 0.26272958332992857 -4.3682023952187592 0 0 0 0 -0.84460505636127436 1.4698306112622959 0 1.4698306112622959 -2.9107361581390023 0 0 0 0 1.057370544911322 5.3030457417992238 0 5.3030457417992238 -3.3874255648552207 0 0 0 0 2.0570185458688002 2.1216952358035996 0 2.1216952358035996 -4.4930589747182239 0 0 0 0 15.778304728566724 -15.483589073816802 0 -15.483589073816802 -23.762575584290062 0 0 0 0 3.8116698234813668 -1.938244467091863 0 -1.938244467091863 -15.463805714573482 0 0 0 0 20.363437885397609 -3.4928173889495611 0 -3.4928173889495611 -14.271295073636793 0 0 0 0 17.359031434145066 -2.8801718399836318 0 -2.8801718399836318 -8.1634094338305658 0 0 0 0 46.011974277120991 1.0523600013851464 0 1.0523600013851464 -12.591807272485312 0 0 0 0 30.51557286758586 2.2547344707973025 0 2.2547344707973025 1.5398059712615577 0 0 0 0 33.747407619228163 -12.31012527599637 0 -12.31012527599637 -16.754230317254041 0 0 0 0 1.4319595833963206 -3.3545258569192811 0 -3.3545258569192811 -10.074324994641927 0 0 0 0 1.6504873840640357 -5.7038773446297455 0 -5.7038773446297455 2.6235997858484552 0 0 0 0 0.21682993563096031 -0.53763583547928029 0 -0.53763583547928029 -0.23473736844187343 0 0 0 0 72.860426968513707 20.857123633615629 0 20.857123633615629 -7.7239679341196279 0 0 0 0 46.013119103601781 -19.780865523868215 0 -19.780865523868215 -7.6442909330990005 0 0 0 0 8.9207463136925185 20.444783520539204 0 20.444783520539204 16.910128664113927 0 0 0 0 7.6455050371197331 20.547703468211694 0 20.547703468211694 -11.944406526346668 0 0 0 0 51.136670451945974 -10.144238301573751 0 -10.144238301573751 -11.588457168993045 0 0 0 0 8.3533543230738445 5.4976563241939402 0 5.4976563241939402 -28.10609103517163 0 0 0 0 0.94731339227777767 31.493025436975586 0 31.493025436975586 -23.370554841422859 0 0 0 0 2.5300317963813654 32.597570659801931 0 32.597570659801931 -57.558118650068536 0 0 0 0 4.3322486953324244 17.710559669368195 0 17.710559669368195 -34.570966658064208 0 0 0 0 -8.3742847935353097 2.4062665705032487 0 2.4062665705032487 -10.242655991546599 0 0 0 0 -5.8367443744359093 0.16227372601588286 0 0.16227372601588286 -5.3856597936216986 0 0 0 0 2.5261368118333856 1.260621484122737 0 1.260621484122737 -11.76696205778353 0 0 0 0 2.6651289985783819 -0.048083184933602752 0 -0.048083184933602752 -1.9666586290024952 0 0 0 0 19.036646469120626 5.1352862776784605 0 5.1352862776784605 -13.491692298496673 0 0 0 0 22.413506912198955 -18.130640527735977 0 -18.130640527735977 3.8188083450932027 0 0 0 0 0.2138651548993388 0.1140972737172492 0 0.1140972737172492 -4.4853704585266172 0 0 0 0 -12.419357545559706 -14.887764061014423 0 -14.887764061014423 -3.2023206481321296 0 0 0 0 -2.5561068144451724 10.760245263576962 0 10.760245263576962 -2.5402118771789901 0 0 0 0 -7.2564813282014029 -7.4904767408706903 0 -7.4904767408706903 -20.497454146984637 0 0 0 0 -13.749593089099307 -5.7029203900956418 0 -5.7029203900956418 -20.836083536018123 0 0 0 0 -14.151947824254067 -32.049828777605256 0 -32.049828777605256 -56.512656862962103 0 0 0 0 9.0770533774696958 -20.43316178970872 0 -20.43316178970872 -68.769467251855531 0 0 0 0 -0.04506124869902705 -0.097512022600917403 0 -0.097512022600917403 -1.6998960903873481 0 0 0 0 -30.108116376903496 -50.431503752503431 0 -50.431503752503431 -53.883512761609836 0 0 0 0 15.442598941990298 -23.519333515892868 0 -23.519333515892868 -139.35511476034026 0 0 0 0 -54.828087271267123 57.206377129671637 0 57.206377129671637 -66.215921828359569 0 0 0 0 13.931244604250026 -20.81220881429681 0 -20.81220881429681 -63.560431955814238 0 0 0 0 13.04654473743074 -17.583182851422862 0 -17.583182851422862 -66.757531713170465 0 0 0 0 18.737816225679296 35.259966461868771 0 35.259966461868771 -69.709245004985519 0 0 0 0 21.24474646087188 38.207275392405336 0 38.207275392405336 -68.896441968407089 0 0 0 0 1.6346911166850266 44.709186260845584 0 44.709186260845584 -58.359278954114416 0 0 0 0 -17.731009220305339 -57.384689453914234 0 -57.384689453914234 -79.898777770610423 0 0 0 0 22.842650320438139 30.938958591875235 0 30.938958591875235 -118.31596468091084 0 0 0 0 4.9702508618075854 -0.67069800268200197 0 -0.67069800268200197 -24.903224386906004 0 0 0 0 15.178476079570316 28.734454124474269 0 28.734454124474269 -81.58399879954186 0 0 0 0 0.19715493489663916 0.1037163441558473 0 0.1037163441558473 -0.0050602391561458404 0 0 0 0 1.8732081948126051 -8.2350028024466155 0 -8.2350028024466155 -9.7835534009473122 0 0 0 0 3.7113854205034045 -5.792452470365788 0 -5.792452470365788 -12.78423676665625 0 0 0 0 8.5865827106946426 -9.7454105127580988 0 -9.7454105127580988 -16.750748005806599 0 0 0 0 5.0887465633932152 -9.2533143025129903 0 -9.2533143025129903 -7.8009186055041937 0 0 0 0 3.2518645197283718 -12.878083796756982 0 -12.878083796756982 -11.735160364894909 0 0 0 0 10.254247602009585 -13.577603698937537 0 -13.577603698937537 -13.08661610146919 0 0 0 0 -26.52274482101069 2.1663015980077489 0 2.1663015980077489 46.672329953871667 0 0 0 0 -3.2403016606458728 0.48157967416212522 0 0.48157967416212522 -1.3563319506423372 0 0 0 0 0.29244192981144579 -15.006765070445908 0 -15.006765070445908 -9.6999776958714392 0 0 0 0 -11.28911171571167 -15.528717724762828 0 -15.528717724762828 16.137017361157632 0 0 0 0 -1.7538124423255681 -9.3083977954620423 0 -9.3083977954620423 2.7296379534709558 0 0 0 0 -4.0362959953199606 -12.718486476860562 0 -12.718486476860562 17.1820352905861 0 0 0 0 -5.6397145540835893 -2.4137397553244817 0 -2.4137397553244817 -0.91301828857985701 0 0 0 0 0.9723420986475162 -12.590073121395108 0 -12.590073121395108 -8.282039935781313 0 0 0 0 -6.3742430999186581 -6.4192433477569466 0 -6.4192433477569466 23.701772330343374 0 0 0 0 -0.81436315615164911 -1.3001995926835264 0 -1.3001995926835264 -1.1581120930440871 0 0 0 0 -3.1752890056823162 -2.9198522769879673 0 -2.9198522769879673 -9.5438604514065446 0 0 0 0 -2.4704481658048918 1.3195651787021827 0 1.3195651787021827 -0.48252118713772596 0 0 0 0 -13.702231556898965 38.169258119376536 0 38.169258119376536 23.738198963949799 0 0 0 0 -81.936465564329296 -11.597580753899365 0 -11.597580753899365 -1.7006248209381738 0 0 0 0 13.99778845581659 16.0169304467654 0 16.0169304467654 -41.569001207823021 0 0 0 0 -34.810189140152943 -39.991825849528141 0 -39.991825849528141 15.036495947265394 0 0 0 0 -3.7949039118441243 -2.7729668364080293 0 -2.7729668364080293 -1.0724799705369357 0 0 0 0 -4.3380291990881688 -2.3810933162112633 0 -2.3810933162112633 -8.3244674834572834 0 0 0 0 -4.2551135031881131 -2.5378705421289851 0 -2.5378705421289851 -6.2153816673680922 0 0 0 0 -3.8741931582707991 -1.408672953483574 0 -1.408672953483574 -8.3838192279090435 0 0 0 0 -3.3216219993110769 -2.6646107611061325 0 -2.6646107611061325 -9.1182829820418192 0 0 0 0 -3.5841445156311806 -3.0647595999812438 0 -3.0647595999812438 -7.8158342349024679 0 0 0 0 -1.6382900081480454 0.95016360259385024 0 0.95016360259385024 -0.55042875042928152 0 0 0 0 -0.58369500028965149 -4.8562960048034256 0 -4.8562960048034256 -15.611542744250983 0 0 0 0 -0.67354755988566239 -2.3029496610197384 0 -2.3029496610197384 -9.3815345924954272 0 0 0 0 -6.2037136903728651 -5.0462145590026921 0 -5.0462145590026921 -9.7263794251789477 0 0 0 0 -5.0208681458543651 -6.5918962920650301 0 -6.5918962920650301 -9.5078424064267892 0 0 0 0 -3.9156398227512454 -4.6699970395302444 0 -4.6699970395302444 -3.6961111140317371 0 0 0 0 -3.6326103603952191 -3.9358342322773296 0 -3.9358342322773296 -6.3532669243777491 0 0 0 0 -7.9083180953476813 -4.8852272296990122 0 -4.8852272296990122 -4.9203006350467149 0 0 0 0 -4.4041345651074835 -5.0233929574797003 0 -5.0233929574797003 -11.241534401933677 0 0 0 0 -6.4810004785450275 -0.24725099928582495 0 -0.24725099928582495 -7.8240533872140077 0 0 0 0 -6.3295697172260361 -2.5807020828360692 0 -2.5807020828360692 -11.659270491809366 0 0 0 0 -5.2278043789779076 3.3711415718917124 0 3.3711415718917124 -15.746242841194544 0 0 0 0 -4.8772401237591794 4.1263478927685355 0 4.1263478927685355 -21.320103578259477 0 0 0 0 -6.3867461117063158 7.6417070852548932 0 7.6417070852548932 -25.040140411460015 0 0 0 0 -17.304099980067917 7.0643861696862587 0 7.0643861696862587 -15.478197188300328 0 0 0 0 -15.114601094632917 4.0749879307495576 0 4.0749879307495576 -11.991635077707883 0 0 0 0 -5.3219737758972769 10.965634222166955 0 10.965634222166955 -25.974482387551689 0 0 0 0 -9.9909100313583394 9.4165562234557001 0 9.4165562234557001 -26.190140709270054 0 0 0 0 -6.3631557075243563 -3.1891134891657202 0 -3.1891134891657202 -11.703727139369903 0 0 0 0 -12.890008872160195 -4.857464830556637 0 -4.857464830556637 -9.0933743830864842 0 0 0 0 -26.301025571510763 6.9587631024924121 0 6.9587631024924121 -15.893366403027358 0 0 0 0 -0.51224894452215031 0.39722026473227245 0 0.39722026473227245 -0.31720020558197071 0 0 0 0 50.859613433029693 12.693775247692429 0 12.693775247692429 -121.34500737852886 0 0 0 0 -14.079068651430589 -5.2234677699407257 0 -5.2234677699407257 -7.3796136668461259 0 0 0 0 5.8978916345880634 15.615438611259378 0 15.615438611259378 -58.965399247204004 0 0 0 0 -24.779766252971957 28.122395561126524 0 28.122395561126524 -40.442410288058454 0 0 0 0 -69.6524076837959 -27.484563591574442 0 -27.484563591574442 -22.545499787283916 0 0 0 0 -0.80593892406079704 -1.3720914536415876 0 -1.3720914536415876 -40.121677574548812 0 0 0 0 -0.84415009428864685 0.02115839389781371 0 0.02115839389781371 -0.069186445849922507 0 0 0 0 -1.9643106096904717 -1.1343820540014349 0 -1.1343820540014349 -36.89909083522798 0 0 0 0 -0.88029292225451172 -0.7838053931700415 0 -0.7838053931700415 -39.50571843992293 0 0 0 0 -2.3950876340686875 -2.2256394344753971 0 -2.2256394344753971 -38.645944424497429 0 0 0 0 -2.3238155915826155 -1.063892575721411 0 -1.063892575721411 -50.245041735617633 0 0 0 0 -0.47021783329559363 0.14973113515359593 0 0.14973113515359593 -0.081580317726356544 0 0 0 0 -4.2079725512543487 -12.426969759137137 0 -12.426969759137137 -70.443360369070433 0 0 0 0 -23.93651206294571 -22.344192953140919 0 -22.344192953140919 -51.553527613117694 0 0 0 0 -33.279373924348917 2.174438075386206 0 2.174438075386206 -51.899177424174923 0 0 0 0 10.120958631054833 -7.9061300298562855 0 -7.9061300298562855 -82.944671811181252 0 0 0 0 8.2871322206482159 12.85707446196318 0 12.85707446196318 -27.941956874517018 0 0 0 0 -31.169293872485255 -17.672902233166951 0 -17.672902233166951 -47.238316854586174 0 0 0 0 -0.80550165047648647 8.492726335525731 0 8.492726335525731 -60.204167950070826 0 0 0 0 
</DataArray>
<DataArray type="Float64" Name="cross_section_updated" format="ascii">
1 1 1 1 1 1 1 1 1 1 0.0094534325322231452 1 0.0096991565953836786 1 1 1 1 1 1 1 0.0094015845315303243 1 0.0098604215810190188 1 1 1 1 0.0097051609316495119 1 1 1 1 1 1 1 1 1 1 1 1 1 1 1 1 1 1 1 1 1 1 1 1 1 1 1 1 1 1 0.010106847540318795 1 1 1 0.0101335115858497 1 1 1 1 1 1 1 1 1 1 1 1 1 1 1 1 1 1 0.0096568585233928854 1 1 1 1 1 1 1 1 1 1 1 0.010116474903289817 0.0091008675774255296 1 1 1 1 1 1 1 1 1 1 1 1 1 1 1 0.0099617728721737887 1 1 1 1 1 1 0.0099596918447088321 1 1 1 1 1 1 1 1 1 1 1 1 1 1 1 0.0099618494938292414 1 1 1 1 1 1 1 1 1 1 1 1 1 0.010026664045530905 1 1 1 1 0.010176386624267656 1 1 0.009835663253579886 1 0.0087281274952999387 0.010148402559332682 1 1 1 1 1 0.0090196671524021606 1 1 1 1 1 1 1 1 1 1 1 1 1 1 0.0099756469661984142 1 1 1 1 1 1 1 0.009844271287186273 1 1 0.0096748767081090425 1 1 1 1 1 1 1 1 1 1 1 1 1 1 1 1 1 1 1 0.0099067045149499738 1 1 1 1 0.0098242857487808206 1 1 1 1 1 1 1 1 0.0099184589226343611 1 1 1 0.0098306054209227715 1 1 1 1 1 1 1 1 1 1 1 0.009929463616050526 1 0.0098072891510668728 1 1 1 1 1 1 1 0.010011928098397953 1 0.0095975749321856388 1 1 1 0.0096447610637011467 1 0.0098646246599685804 1 1 1 1 1 1 0.0096026858252239097 1 1 1 1 1 0.010173147641144865 1 1 0.009633814066562784 1 1 1 1 1 1 1 0.0097829096582511266 1 1 1 1 1 1 1 1 1 1 1 1 1 1 1 1 1 1 1 1 0.0095877279030513393 1 1 0.0096822241232645719 1 1 1 1 1 1 1 1 1 1 1 1 1 1 1 1 1 1 1 1 1 1 1 1 1 1 1 1 1 1 1 1 1 1 1 1 1 1 1 1 1 1 1 1 1 1 1 1 1 1 1 1 1 1 1 1 1 1 1 1 1 1 1 0.0092864656379402465 1 1 1 1 1 1 1 1 1 0.0098220373403683035 0.009765922134606848 1 1 0.0099149103937746733 1 1 1 0.0099514107027524369 1 1 1 1 1 1 0.0099514812677960335 1 1 1 1 1 1 1 1 1 1 1 1 1 1 1 1 1 0.0099433833235900021 1 0.0096141554445104555 1 1 1 1 1 1 1 0.0097630723951181008 0.0099750410021301004 1 1 1 1 0.0099999880639774288 1 1 1 1 1 1 0.01007727874536278 1 1 1 1 1 1 1 1 1 1 1 1 0.0095729595531487167 1 1 1 1 0.0088685917660117578 1 1 1 1 1 1 1 1 1 1 1 1 1 0.010068998187550554 1 0.009097547944324616 1 1 1 1 1 1 1 1 1 1 1 1 1 1 0.0083271073156175861 1 1 1 1 1 1 1 1 1 1 1 1 1 1 1 1 1 1 1 1 1 1 1 1 1 1 1 1 1 1 1 1 1 1 1 1 1 1 1 1 1 1 0.010073981964742681 1 1 1 1 1 0.010203043101904938 1 1 0.0098920603552682587 1 1 0.010027589783508551 1 1 1 0.010214621962004381 1 1 0.010499064216223989 1 1 1 1 1 1 1 1 1 1 1 1 1 1 1 1 1 1 1 1 0.010000582386600038 0.0099974685419263395 1 1 1 1 0.0098055155190890295 1 1 1 0.010000994111001906 1 1 1 1 0.010003087210941874 1 1 0.0099818585490456836 1 1 0.0098855728930914537 1 1 1 0.010018114592132164 1 1 1 1 1 1 1 1 1 1 1 1 1 1 1 1 1 1 1 1 1 1 1 1 1 1 1 1 0.0098207384650530229 1 0.010052050741364187 1 0.010061057187352068 1 1 1 1 0.009830072914204532 1 1 1 1 1 1 0.010018046690248524 1 1 1 0.010197855238286908 1 1 0.0090589792447246815 0.0099430384009602298 1 1 1 1 0.010077473379569272 1 1 1 0.0096906935297577258 1 1 1 0.0099992000533086142 1 0.0094557502801749481 1 1 1 1 0.0095725578701519494 1 1 1 1 1 1 1 1 0.0090375836164696029 1 1 1 1 1 0.0099361376031128629 1 1 1 1 1 1 1 1 1 1 1 1 0.0098228696116259406 1 1 1 1 1 1 1 1 1 1 1 1 1 1 0.0099699328317726169 1 1 0.0099474087161408823 1 1 1 1 1 0.010278991333468714 1 1 0.010013269164927126 1 1 1 1 1 1 0.0099720908280702993 1 1 1 1 1 1 0.0093947547894103305 1 1 0.010774510416404282 1 1 0.010515149246955926 0.0099184082778058357 1 1 0.0096037302229302658 1 1 0.0099804322935971475 1 0.0099766693363243265 0.009796140087551997 0.0099944021997494577 1 1 1 1 1 0.0099816188804948257 1 1 1 0.010016044985631998 1 0.010124077120815644 1 1 0.010020468338874917 1 1 1 1 1 1 1 1 1 1 1 1 1 1 1 0.010084957276450418 1 0.0091599626438263592 1 1 0.010195252610410972 1 1 0.0093999453407728507 1 0.0096831321009729788 1 1 1 1 1 0.0097186195428166679 0.0099907052551104249 1 1 1 1 0.009410478616091917 1 1 1 1 1 1 1 1 1 0.0092394685281724925 1 1 1 1 1 1 1 0.0091526889437590683 1 1 0.0099977637222757459 1 1 1 0.0099891295829729453 0.010219812784468124 1 1 0.0089879190714767052 1 1 1 0.010056515149917677 1 0.0092779680584980026 1 1 1 0.009135640278012596 1 1 0.0091359229208493424 1 1 1 1 1 1 1 1 1 0.0096726303288556751 1 1 1 1 1 1 1 1 1 1 1 1 1 1 1 1 0.0099725041436553776 1 0.0099442209860360186 1 1 1 1 1 1 1 1 1 1 1 1 1 1 1 1 1 1 1 1 1 1 0.0098904570889665547 0.0098513871325187127 1 1 1 1 1 1 1 1 1 1 1 1 1 1 1 1 1 1 1 0.0099976124823173175 1 1 1 1 1 1 1 1 1 1 1 1 1 1 1 1 1 1 1 1 1 1 1 1 1 1 1 1 1 1 0.0086408721918412017 1 1 1 0.0088551254031075215 0.0099067497915571925 1 1 1 1 1 1 1 1 1 1 1 1 1 0.0099691315782702971 1 1 1 1 1 1 1 0.009916359445698391 1 1 1 1 1 1 1 1 1 1 1 1 0.010726074161926403 1 1 1 1 1 1 1 1 1 1 1 0.010145227210729701 1 1 1 1 1 1 1 1 1 1 1 1 1 1 0.009892149685229135 1 1 1 1 1 1 1 1 1 1 0.009910604220805903 0.0092629274906216655 1 1 1 1 1 1 0.0091004103339979783 1 1 1 1 1 1 1 1 1 1 1 1 0.0096280304825260756 1 1 1 1 1 1 1 0.0094623635184946566 1 1 1 1 1 1 1 1 1 1 1 1 0.0099100867687124759 1 1 1 1 1 1 1 1 1 1 1 1 1 0.0096155958824344391 1 1 1 1 1 1 1 1 1 1 1 1 1 1 1 1 1 0.0098891131612367251 1 1 1 1 1 1 1 1 1 1 1 1 1 1 1 1 1 1 1 1 1 1 1 1 1 1 1 1 1 1 1 1 1 1 1 1 1 1 1 1 1 1 1 1 1 1 1 1 1 1 1 1 1 1 1 1 1 1 1 1 0.0090595971823518567 1 1 1 1 1 1 1 1 1 1 1 0.0093171671621394073 1 1 1 0.0091824623360355368 1 1 1 1 0.010235328361227123 1 1 1 1 1 1 0.010429733951143494 1 1 1 1 1 0.010643637486740954 1 0.0094742909519521835 1 1 0.0099483940754415759 1 1 1 1 1 1 1 1 1 1 1 1 1 1 0.0096445903319585732 1 1 1 1 1 1 0.0095479148817141958 1 1 1 1 1 0.0099962950230603337 1 1 1 1 0.00997494624191924 1 0.010469310612572837 1 1 1 1 1 1 0.0099910065065669015 0.01037093975102504 1 1 0.010136677832335822 0.010189137181129168 0.010015196313533141 1 1 1 0.0098177562184959249 1 1 0.010017937980811969 1 0.0099802408387648887 1 1 1 0.010045808634590791 1 1 1 0.01010064075057999 1 1 1 1 0.01000458214589077 1 1 1 1 1 1 1 1 1 1 1 1 1 1 1 1 1 1 1 1 1 1 1 1 1 1 1 1 1 1 1 1 1 1 1 1 1 1 1 1 1 1 0.01000026847644672 1 1 1 1 1 1 1 1 0.01007053744484855 0.010043028120218706 0.0099295907381467784 1 1 1 1 0.0099546697818493658 1 1 0.010148408811296292 1 1 1 1 1 0.0099967565384782922 1 1 0.0098529821580153106 1 1 1 1 1 0.0086443957196632414 1 0.010421239753471707 1 1 0.0090405274512271542 1 1 1 1 1 1 1 1 1 1 1 1 1 1 0.0096190353558781687 0.0092133973014115363 0.0088045279296010883 1 1 0.0098661228241930712 1 1 1 1 1 0.010061995568581538 0.0099938967283337218 1 1 1 1 0.0099661952467233351 1 0.0088952953055255555 1 1 1 0.01001674589617611 0.0098722782539928701 1 1 1 1 0.010042309496183982 0.010820329242312245 1 1 1 1 1 1 1 1 1 1 1 1 1 1 1 1 1 1 1 0.01002142078648688 1 1 1 1 1 1 1 1 1 1 1 1 1 1 1 0.010257139544724981 1 0.010000434616175564 1 1 1 1 1 1 0.0099886225520691933 1 0.010297126977171445 1 1 1 1 0.010306592624946685 1 0.0098988356135016296 0.0099801709289078309 1 0.010027229166598496 1 1 1 1 1 1 1 0.010147483542913399 1 1 1 1 1 0.009983610887301396 0.0099529044508882957 1 0.0099673354420996198 1 1 1 1 1 1 1 1 1 1 1 1 1 1 1 1 1 1 1 0.010132795290550512 1 1 1 1 1 1 1 1 1 1 1 1 1 1 1 1 1 1 1 1 1 1 1 1 1 1 1 0.0099866499443056096 1 1 0.0099999779630888519 1 1 1 0.010267947869352999 1 1 1 1 1 0.010036294499875359 1 1 0.0099949573856981423 1 1 1 1 1 1 1 1 1 1 1 1 1 1 1 1 1 1 1 1 1 1 1 1 1 1 1 1 0.0099758545090789866 1 1 1 0.0099857516558640516 1 1 1 0.0099335265775934711 0.010044413012948164 1 1 1 0.009843248760366477 1 1 1 1 1 1 1 1 1 1 0.010012305992510996 1 0.010297646338002101 1 1 1 1 1 1 0.0099231842681934655 1 0.0098154403753373948 1 0.010513155815345912 1 1 1 1 1 0.010585001740806153 0.0098150798345995986 1 1 1 1 1 1 1 1 1 1 1 1 1 1 1 1 1 1 1 1 1 1 1 1 1 1 1 1 1 0.01004653048237919 1 1 1 0.010154832782961958 1 1 1 1 1 1 1 1 1 1 1 1 1 1 0.009954693370606546 1 1 1 0.0098321197940937563 1 1 1 1 1 1 1 1 1 1 1 1 1 1 1 0.009896440156433442 1 1 1 1 1 1 1 1 1 1 1 1 1 1 1 1 1 1 1 1 1 1 1 1 1 1 1 0.0097030892040918873 1 1 1 1 1 1 1 1 1 1 1 1 1 1 1 0.01024512538512317 1 0.0095734853529562229 1 1 1 0.0098827135335019869 0.010001231230161592 0.0096226127444159256 1 1 1 1 1 1 1 1 1 1 1 1 1 1 1 1 1 1 1 1 1 1 1 1 1 1 1 0.0098814783446116612 1 1 1 1 1 1 1 1 0.0099954367646551447 1 1 1 0.0099033041488510512 1 1 1 0.0097424049547400228 1 1 1 1 1 1 1 1 0.010000221221295496 0.010487631949200601 1 1 1 0.01029587737773003 1 1 1 1 0.0099979111579686451 1 1 0.0089211799833151216 1 1 0.0093116731567743725 1 0.010036613036182473 1 1 1 1 1 1 1 1 1 1 1 1 1 1 0.010033956115441504 1 1 0.010175978206327471 1 0.0086772427489874016 0.0099334042745742486 1 1 1 0.0098853603383612255 1 1 1 1 1 0.0099989768638269975 0.0099486315472710387 1 0.0099015146309918908 1 1 0.0099356796376603163 1 1 1 1 1 1 1 1 1 1 1 1 1 0.010005030489890536 0.0099810599057645992 1 1 1 1 1 1 1 1 0.010101967225582735 1 1 1 1 1 0.010000495448382017 1 1 1 1 0.0099989012545557785 1 1 1 1 1 1 1 0.0099327358150727383 0.0096891370574550047 1 1 1 1 1 1 1 1 1 0.0083985946378539525 1 1 1 0.0083895131818920998 1 1 1 1 1 1 1 1 1 1 1 1 1 1 1 1 1 1 1 1 0.0096929248674006811 1 1 1 1 1 0.0099059133581810947 1 0.0085607202779402897 1 1 1 1 1 1 1 1 1 0.0097790320305512542 1 1 1 1 1 1 1 0.0098370956436323789 1 1 0.0099650608599989761 1 1 1 0.0098587870394500846 1 1 0.0097623943006503733 1 1 1 1 1 1 1 1 1 1 1 1 1 1 1 1 1 1 1 1 1 1 1 1 1 1 1 1 1 0.009932372507645627 1 1 1 1 1 1 1 1 1 1 1 1 1 1 1 1 1 1 1 1 1 1 1 1 1 1 1 1 1 1 1 0.0099468212603853433 1 1 1 1 1 1 1 1 1 1 1 1 1 1 1 1 1 1 1 1 1 1 1 1 0.0099386626020078299 1 1 1 1 1 1 1 1 1 0.010000549806986635 1 1 1 0.010026717046724859 1 1 0.0099911406472130166 1 1 0.0098055863582665499 1 1 1 0.0099731811187211399 1 1 1 1 0.0096882397749365242 1 1 1 1 1 1 1 1 1 0.0097531295395240185 1 0.0099041131925172617 1 1 1 1 0.0099679618895604713 1 1 1 0.010051958062724384 1 0.010025790822986162 1 1 1 1 1 1 1 1 1 1 1 1 1 1 1 1 1 1 1 1 1 1 1 1 1 1 1 1 1 1 1 1 1 1 1 0.0099438005893678124 0.0099468349112247275 1 1 1 1 1 1 1 1 1 1 1 1 0.0099430758590223454 1 1 1 1 1 1 1 0.0099890189592655269 0.0097003582773777242 1 1 1 1 0.0099746658572982729 1 1 1 1 1 1 1 1 1 1 1 1 1 1 1 1 0.0095224049687043736 1 1 1 1 0.0095639076457888772 1 1 0.010148495433990261 1 0.010243706031519317 1 1 1 0.0090446844968843434 1 0.0092791066291350345 1 1 1 1 1 1 1 0.0097311110460356811 1 1 1 0.0098857586624840673 1 1 1 1 1 1 1 1 1 1 1 1 1 0.009939981905376016 1 0.0098549980018089248 1 1 0.0098549355326928243 1 1 1 1 1 1 1 1 1 1 1 1 0.0099399194362599103 1 1 1 1 1 1 1 1 1 1 1 1 1 1 1 1 1 1 1 0.0095767297730168267 1 1 1 1 1 1 0.0099053882754144666 1 1 1 0.0089359165912303133 1 1 1 1 1 1 1 1 1 1 1 1 1 1 1 1 1 1 1 0.01002501171661422 1 1 1 1 1 1 1 1 1 1 1 1 1 1 1 1 1 1 1 1 1 1 1 1 0.0097067311440403644 1 1 1 1 1 1 0.0092507681065011633 1 1 1 1 0.0098313565815053832 1 1 1 1 0.0097566027230062569 0.0099638856789096841 0.0099550246846238644 1 1 1 1 1 1 0.0095589658057713793 1 1 1 0.0097661729262481841 1 1 1 1 0.0098784554798834242 1 1 0.0098722701485752812 0.0093954283324800478 1 1 1 1 0.0099863720943866446 1 1 0.0099392843405173448 1 1 1 1 1 1 1 1 1 1 1 1 1 1 0.009257460817154969 1 0.0096862217578613415 1 0.010009736993011286 1 0.0094262165653296748 1 1 1 1 1 1 0.0093562335280693854 1 1 1 1 0.0095054969859091343 1 1 1 1 1 0.0099522670504201896 1 0.010136757509429887 1 1 1 1 1 1 1 1 1 0.010034437094004025 1 1 1 1 1 1 1 1 1 1 1 1 1 1 1 1 0.010321488698189319 1 1 1 1 1 1 1 1 1 1 1 1 1 1 1 1 1 1 1 1 1 1 1 1 1 0.0087668328957299126 1 1 0.0099351233385141062 1 1 1 1 0.0099279989292649119 1 0.0098318084088376747 1 1 1 1 1 1 1 1 1 1 1 1 0.0097442305673356121 1 1 1 0.0093226270616868084 1 1 1 1 0.0096770887645307203 1 1 1 1 1 1 1 1 0.0087920773031868911 1 1 1 1 1 1 1 1 1 1 1 1 1 1 1 1 1 1 1 1 1 1 1 1 1 1 1 1 1 1 1 1 0.0086000533656941467 1 1 0.0094319489102646405 1 1 1 1 1 1 1 1 1 1 1 1 0.0096545879031866098 1 0.0098458016577732087 1 1 1 0.0081211122471754674 1 1 1 1 0.010033262473694409 0.0097463940855038542 1 0.010097430849904216 0.0091263581526352857 1 1 0.0099353386659054958 1 1 1 1 1 1 1 1 1 1 1 1 0.0098717602104230404 1 1 1 1 1 1 1 1 1 1 1 1 1 1 1 0.0097574560329398569 1 1 1 1 1 0.0098954458962163885 1 1 0.0099604532239719358 1 0.0099623792708275014 1 1 1 1 1 1 1 1 1 1 1 0.0091179789252236552 1 1 1 1 0.0093898069238260006 1 1 0.0096863362396626459 1 1 1 1 1 1 0.0099531942425370862 1 0.0098971778912266897 0.0097991120230727126 1 1 1 0.0097750886140126874 0.010052426466197362 1 1 1 1 1 0.0096519238291509143 1 1 1 1 1 1 1 1 1 1 1 1 1 0.0098600750429210047 1 0.010028335072159951 1 1 1 1 1 1 1 0.0096615777377163353 1 1 0.0098281672003754685 1 1 1 1 1 1 0.010177452433201152 1 0.0095940603215438312 1 1 1 1 1 1 1 1 0.0096877632015163265 1 1 1 0.0098015026947953325 1 1 1 1 1 1 1 1 1 1 1 1 0.0098102842084379863 1 1 1 0.0095356119916363436 1 0.0098076122002799977 1 1 1 1 1 0.0097954240360430458 0.009893875990341236 1 1 1 1 1 1 1 1 1 1 1 1 1 1 1 1 1 1 1 1 1 1 1 1 1 1 1 1 1 1 1 1 1 1 1 1 1 1 1 1 1 1 1 1 1 1 1 1 0.0095836053663897174 1 0.0098146323969115819 1 1 1 1 1 1 0.0095243607899840356 1 1 1 1 1 1 1 1 1 1 1 1 1 1 1 1 1 1 1 1 1 1 1 1 1 1 1 0.0099821823168354008 1 1 1 1 0.0099819218213340749 1 1 0.010017961686314572 0.0097559171241523475 1 1 1 1 0.010024155298861623 1 1 0.0099953170034797149 1 1 0.010015036297974464 1 1 1 1 1 1 1 1 1 0.0096596141397332583 1 1 1 1 1 1 1 1 1 1 1 1 1 1 1 1 1 1 1 1 1 1 1 1 1 0.0098512627281048294 1 1 1 1 0.010004303714624043 1 0.0098363562785531763 1 1 1 1 1 1 1 1 1 1 1 1 1 0.0097302646125943769 1 0.0099060184731833735 1 1 1 1 1 1 1 1 1 1 1 1 1 1 1 1 1 1 1 1 1 1 0.0099365752314866176 1 1 1 1 1 1 1 1 1 1 1 1 1 1 1 1 1 1 1 1 1 1 1 1 1 1 0.010124926543481991 1 1 1 1 1 1 1 1 1 1 1 1 1 1 1 1 1 1 1 1 1 1 1 1 1 1 1 1 1 1 0.0098736437551367896 1 1 1 1 1 1 1 1 1 1 1 1 1 1 1 1 1 1 1 0.0096589305749931742 1 1 1 1 1 1 1 1 1 1 1 1 1 1 1 1 1 1 1 1 1 1 1 1 0.0098844270174815053 1 0.0097115491836370065 1 1 1 1 1 1 1 1 1 1 1 1 1 0.0099170049630148624 1 1 0.0099043378746047402 1 0.0099999517117596859 1 0.009999750808441718 1 1 1 1 1 1 1 1 1 1 1 0.0097191541750560329 1 1 1 1 1 0.0099048566444569879 1 1 0.0098924744752050472 1 1 1 1 1 1 0.0098927745450012386 1 1 1 0.0095710347055754236 1 1 1 1 1 1 1 1 0.0098184142007502612 1 1 1 1 1 1 1 1 1 1 0.0098061530182696477 1 1 1 1 1 0.0096250538243792347 1 1 1 0.0091211207892802383 1 1 1 0.0099495642130331113 1 1 1 0.0089650559288307757 0.009997513895278521 1 1 1 0.0099368667730228705 1 1 0.0098165490831085556 1 1 0.010036506406806193 1 1 1 1 1 1 1 1 1 1 0.009963895348395823 1 1 0.0096522161194059382 1 1 1 1 0.0099937382441243373 1 0.0099417695144409252 1 1 1 1 0.0090675935572139977 1 1 1 1 1 1 1 0.0092335093708399742 1 1 1 1 0.0099556976856650485 1 1 0.0099751868143189461 1 1 0.0081115299667694745 1 1 1 1 1 1 1 1 1 1 1 1 1 1 1 1 1 1 1 1 1 1 0.0099865837449408107 1 1 1 1 0.0092540492855918283 1 1 1 1 1 1 0.0093780743287085987 1 1 1 1 1 1 1 1 0.0097227335378696038 1 0.0098790204020958085 1 1 1 1 1 1 1 1 1 1 1 1 1 1 1 1 1 1 1 1 1 0.0082190665014612203 1 1 1 1 1 1 1 0.0083064384189613372 1 1 1 0.0097579504812750958 1 1 0.0098081976252941093 0.0091188445757774683 1 1 1 1 1 1 1 1 1 0.0090704065629440608 1 1 1 1 1 1 1 1 1 1 1 1 1 1 1 1 1 1 1 1 1 1 1 1 1 1 1 1 1 1 0.0081446817094583106 1 1 1 1 1 1 1 1 1 1 0.010121147963843167 1 1 1 1 1 1 1 1 1 1 1 1 1 0.0091409729646409043 1 1 1 1 1 1 1 1 1 1 1 1 0.010399668891280691 1 0.0090658394724332375 1 1 1 0.010190337011202106 0.010147703613822563 1 1 1 1 1 1 1 1 0.0093004280641387181 1 1 1 0.0094035971559474872 1 1 1 1 1 1 1 1 1 1 1 1 1 1 1 1 1 1 1 1 1 1 0.0085582826742042761 0.0082150804745990506 1 1 1 1 1 0.0086597162997793554 1 1 1 1 1 1 0.0099887712709135698 1 1 1 1 1 1 1 1 1 1 1 1 1 1 1 1 1 1 1 1 1 1 1 1 1 1 1 1 1 1 1 1 1 0.0067303390681900856 1 1 1 1 1 1 1 1 1 1 1 1 0.009838869955097895 1 1 0.0094621305741710675 1 1 0.0097609258060955308 1 0.0099670391460563723 1 1 1 0.0094449663578663398 0.0074725164702118888 1 1 1 1 1 1 0.0099054428681085594 1 1 1 1 1 1 1 0.010003068043262599 0.010011511630909903 1 0.0099331873282022289 1 1 1 0.0098327623367547457 1 1 1 1 1 1 1 1 1 1 1 0.0099066097230612795 0.0099411984532408199 1 1 1 1 1 0.00986375970104518 1 1 1 1 1 1 1 1 0.0098110351331780928 0.0099213709086714789 1 1 1 1 0.0099607564089077717 1 1 1 0.0097528321022201572 1 1 1 1 1 1 1 0.010012064326028415 1 1 1 1 1 1 1 1 1 1 1 0.0098405919599398491 1 1 0.0099515361748366837 1 1 0.0093977818081541417 1 0.0096770381743514922 1 1 0.0096553336137436344 1 0.0086067701416870993 1 0.010023928164086206 1 1 0.009672445612991477 1 1 0.0097855403267735931 1 1 1 1 0.010354258807838076 1 1 1 1 0.010564083017768967 1 1 1 1 1 0.010014189705091912 1 1 1 1 1 1 1 1 0.010068291951253017 1 1 1 1 1 1 1 1 0.0098611442915494743 1 1 1 1 1 1 1 1 1 1 1 1 1 1 1 1 1 1 1 1 0.0099561252905680051 1 1 1 1 1 1 1 1 1 1 1 0.0097474250933343373 1 1 1 1 1 1 1 1 1 1 1 1 1 0.0097015427680205591 1 1 1 1 1 0.0098605760971489393 1 1 0.0099800991293784273 1 1 1 1 1 1 0.009214384700731805 1 1 0.0099880814553182339 1 0.010008197648775516 1 1 0.0098566707032704814 0.0093775687404253072 1 1 1 1 1 1 1 1 1 1 1 1 1 1 1 0.0097451681542270394 1 1 1 1 1 1 1 1 1 1 1 1 1 1 1 1 1 1 1 1 0.0099664091900333682 1 1 1 1 1 1 1 1 1 1 1 1 1 1 1 1 1 0.0098408374749987156 1 1 1 1 1 1 1 1 1 1 1 0.0099441134322131985 1 1 1 1 1 1 1 1 1 1 1 1 1 1 0.0099777884125378281 1 1 1 1 1 1 0.0099441976025712014 1 1 1 1 1 1 1 1 1 1 1 1 1 1 1 1 1 1 1 1 1 1 1 1 1 1 1 1 1 1 1 1 1 1 1 1 1 1 1 1 1 1 1 1 1 1 1 1 1 1 0.010102583249942908 1 1 1 1 0.010091133557596535 1 0.010031985848219582 1 1 1 1 1 0.009893420673275654 1 1 1 1 1 1 1 1 1 1 1 1 1 1 1 1 1 1 0.0099493072410624557 1 1 1 1 0.010086490109425188 1 1 1 1 0.010263967841648989 1 1 0.010210926209105482 0.0094533195912633924 1 0.0097172616577819691 1 1 1 1 1 0.0099758243344169606 1 1 0.010010999754360659 1 1 1 1 1 1 1 1 1 1 1 1 1 1 1 1 1 1 0.0062180905317322076 1 1 1 1 1 1 1 1 1 1 1 1 1 0.0059942693306425758 1 1 0.0095017236587016628 0.0099117843425517958 1 1 1 0.010222215608608722 1 0.0085913110289398877 1 0.00995429937396425 0.0082114397388626317 1 1 1 1 0.008708435696354707 1 1 1 0.010043435540565955 1 1 1 1 1 1 1 1 1 1 1 1 1 1 1 1 1 1 1 0.0082916144789654672 0.00846827178378101 1 1 0.0082476457165641497 1 0.0085896861934341585 1 0.0099207096662550526 1 1 1 1 1 1 1 1 1 1 1 1 1 0.010159019650351705 0.010189928432173825 1 1 1 0.010061197520607107 1 1 0.010015824359257628 1 1 1 0.0097475196768360816 1 1 1 1 1 0.010142556768274916 1 1 1 1 0.010245220229953316 0.010021917153132949 1 1 1 1 1 1 1 1 1 1 1 0.010006394866051455 1 1 1 1 1 1 1 1 1 1 1 1 1 1 1 1 1 1 1 0.00998258044921424 1 1 1 1 0.0087160179207562416 1 1 1 1 0.0089251665006650216 0.0099620111712757867 1 1 1 1 1 1 0.0098824068672737422 1 1 1 1 1 1 0.009836612433936593 1 1 1 1 0.0099604735074082171 0.0091496902553323406 1 1 1 1 1 1 1 1 0.0098923762482979634 1 1 1 1 1 0.009698937240592934 1 1 1 1 0.0099454911054827309 1 1 1 1 1 1 1 1 1 1 1 1 1 1 1 1 1 1 1 1 1 1 1 1 1 1 1 1 1 1 1 1 1 1 1 1 0.010062461026378464 1 1 1 0.0099520083154891227 1 0.010009382881754824 1 1 1 0.0099976728006008885 1 1 1 0.0100011347122299 1 1 1 1 1 1 0.009558829502135293 1 1 1 1 1 1 1 1 1 1 1 1 1 1 1 1 1 1 1 1 1 1 1 1 1 1 1 1 1 1 1 1 1 1 1 1 1 1 1 1 1 1 1 1 1 1 1 1 1 1 1 1 1 1 1 1 1 1 1 1 1 1 1 1 1 1 1 1 1 1 1 1 1 1 1 1 1 1 1 1 1 1 1 1 1 1 1 1 1 1 1 1 1 1 1 1 1 1 1 1 1 1 1 0.009999384143737907 1 1 1 1 1 0.0099993840604609262 1 1 1 1 1 1 1 1 1 1 1 1 1 1 1 1 1 1 1 1 1 1 1 1 1 1 0.0092149018160605414 1 1 1 0.010051870775118077 1 1 1 1 1 0.010144395605484783 1 1 1 1 1 1 1 1 1 1 1 1 1 1 1 1 1 1 1 1 1 0.0099988882763005216 1 1 1 0.01021449262198963 1 1 0.0090208462600544978 1 1 1 1 0.010194753267602039 1 1 1 1 1 1 1 1 1 1 1 1 0.010043086526626969 1 0.010071151037885384 1 1 1 1 1 1 1 1 1 1 1 1 1 1 0.0097701482429943063 1 1 1 1 1 1 1 0.0093159755313230574 1 1 0.0088358156788447533 1 1 1 1 1 1 1 1 1 1 1 1 1 1 1 1 1 1 0.010039772958635602 0.010063828653571383 1 1 1 1 1 1 1 1 1 1 1 1 1 1 1 1 1 1 1 1 0.0099450122242944507 1 0.010181058044356192 1 1 1 1 1 1 1 1 0.010017957399976117 1 1 1 1 1 1 0.010090275061954477 1 1 0.009974139671610224 1 1 1 1 1 1 0.010268849354693889 0.0083313602311730975 0.010120378572290503 0.0093532454082319132 1 1 0.0096828843828496297 1 1 1 1 1 1 1 1 1 1 1 1 1 1 1 1 1 1 1 0.0099820748909263315 1 1 1 1 1 1 1 1 1 1 1 1 1 1 1 1 1 1 1 1 1 1 1 1 1 1 0.0098062711562030089 0.0096608221742845429 0.0097471513466511703 1 1 1 0.010010411139399893 1 1 1 1 1 1 1 1 1 1 1 1 1 1 1 1 1 1 1 1 1 1 1 1 1 1 1 1 1 1 1 1 1 1 1 1 1 1 1 0.0098025797478063833 1 1 1 1 0.0094752691700999651 0.0092408928065048721 1 0.010100620214973741 1 1 0.009762774957128191 1 1 0.0098301750652057401 1 1 1 1 1 1 0.0099201306639820561 1 1 1 1 1 1 1 0.010004927035907236 1 0.010008887337464609 1 0.010117168939333664 0.0099893231410892215 1 1 1 1 1 1 1 1 1 1 1 1 0.010276543627364005 1 1 1 1 1 1 1 1 1 1 1 0.0099866812205159621 1 1 1 1 1 1 1 1 1 1 1 1 1 1 1 1 0.0085506826528261165 1 1 1 1 1 1 1 1 1 1 1 0.0099790802507114026 1 1 1 1 1 1 0.0095384229289963793 1 1 0.0099739242300274835 0.009998257620648628 1 1 0.0099480896551596629 1 1 1 1 1 0.0099469296566733704 1 1 1 0.0095206592340181719 1 0.0099821851124637217 1 1 1 1 0.0090067911867975671 1 1 1 0.010450488208967153 1 1 0.0085644512523038781 1 1 1 1 1 1 0.010144032098737731 1 1 1 1 1 0.0096043114845139593 1 0.0096712727660754928 1 1 0.010067069157455146 0.0099068177416023334 1 1 1 1 1 1 0.0097922906162393776 1 1 1 1 1 1 1 1 1 1 1 1 1 1 1 1 0.010015098018832602 1 1 1 1 1 0.0098478703285171092 1 1 0.0099393805079214265 1 1 1 1 0.01013235404019938 1 1 1 1 0.009803963993631622 1 1 1 1 1 1 1 1 0.0094437081150280256 1 1 1 1 1 1 0.0086971904362110521 1 1 0.0084873129225003785 1 1 1 0.01012237973678384 1 1 1 0.0083796923092291867 0.010035715192121269 1 1 1 1 1 1 1 1 0.0085464991703283564 1 1 0.010085243451205397 1 1 1 1 1 1 1 1 1 1 0.0097534370217248131 1 1 1 1 1 1 1 0.0093825711722969763 1 1 1 1 0.0083742005387345414 1 1 1 0.0086176661621907499 1 1 1 1 0.0087973712320775325 0.0094999318336089402 0.010196670841648261 1 0.010319329454303553 1 0.0087300689851985483 1 1 1 0.0079867689822375049 1 0.0085106057499750153 1 0.010504095549530015 0.0091655688635776198 0.010253389378329187 0.0090245783688371207 1 1 1 1 0.008355329201342316 1 0.0099928705169341405 1 1 1 0.0084040061150008442 1 0.0086633960681537833 1 0.0098815002347565316 1 1 0.0083102681125158118 1 1 1 1 1 1 0.0099629129749241162 1 1 1 1 1 1 1 1 1 1 1 1 1 1 1 1 0.01069355962355047 1 1 1 0.0096725177452311375 1 0.0084782952381594577 0.0081969071774495705 1 1 0.01001231060911765 1 1 0.0082600458072499966 1 1 1 1 1 1 1 0.009408819559778462 1 1 1 1 1 1 1 0.0099909506143369617 1 1 1 0.0096926577625096634 0.0094874678408578411 1 1 1 1 1 1 1 0.0095081717590657835 1 0.0097697629125129987 0.0098128345960213758 1 0.010120486629130952 0.0099176133306604405 1 0.010064375963215383 0.010114430086694477 1 1 1 0.010505901403901664 1 1 1 1 1 1 1 1 1 1 1 1 1 1 1 1 0.009777080949661383 1 1 0.0099538326306264028 1 1 1 1 1 1 1 1 1 1 1 1 1 1 1 1 1 1 1 1 1 1 1 1 1 1 1 1 1 1 1 1 1 1 1 1 1 1 1 1 1 1 1 1 0.0093358796259354771 1 1 0.0099934617442645722 1 1 1 1 1 1 1 1 1 1 1 1 1 1 1 1 1 1 1 1 1 1 1 1 1 1 1 0.0099734379039578096 0.0093704826464668656 1 0.010057231900337294 1 1 1 1 1 1 1 1 1 1 1 1 1 1 1 1 1 1 1 1 1 1 1 1 1 1 1 0.0098008005844120328 1 1 1 1 1 1 0.010006239581832178 1 0.0094684806574580442 1 1 0.0093532223776416727 1 1 1 1 1 1 1 1 1 1 1 1 1 1 1 0.0099748051593591628 1 1 1 1 1 1 1 1 1 1 1 1 1 1 1 1 1 1 1 1 1 1 1 1 1 1 1 1 1 1 1 1 1 1 1 1 1 1 1 1 1 1 1 1 1 1 1 1 1 1 1 1 1 1 1 1 1 1 1 1 1 1 1 1 1 1 1 0.010043467804742717 1 1 0.0099485230440534908 1 1 0.0098932638350211384 0.0096528291020628459 1 0.0098202557261601563 1 0.0099146309247937527 1 1 1 1 1 1 0.0098863062066403707 1 1 1 1 1 1 1 1 0.009811027631964786 1 1 1 0.010464221697993379 1 1 1 1 1 1 1 1 1 1 1 0.0096780583101380539 0.0097769861089454287 1 1 1 1 1 0.010250567303995584 0.010116036177421144 1 1 1 1 1 1 1 1 1 0.0097297562711613581 1 1 1 0.0099984944738137332 1 0.0096014974990188268 1 1 1 1 1 1 1 1 1 1 1 1 1 1 1 1 1 1 1 1 0.0099008498910364458 1 1 1 1 1 1 1 1 1 1 1 0.0098346291988673906 1 1 1 1 1 1 0.01022592872314417 0.010217469394494834 1 1 1 0.0099307545690041892 1 1 1 1 1 1 0.010296411872170131 1 1 1 1 1 1 1 1 1 1 1 1 1 1 1 1 1 1 1 1 1 1 1 1 1 1 1 1 0.0095174495952857312 1 1 1 1 1 1 0.0093750685769191308 1 1 1 1 1 1 1 1 1 1 1 1 1 1 1 1 1 1 1 1 1 1 1 1 1 1 1 1 1 1 1 1 1 1 1 1 1 1 1 1 1 1 1 0.0099619922914626867 1 0.0092428450409115515 1 1 1 1 0.009883470127641748 1 1 0.0090198577683506739 1 1 1 1 1 1 1 1 1 0.0090855952181173264 1 1 0.0095991181354111183 0.0090813599984694744 0.0086764453424421004 1 1 1 0.0098305240200296535 1 1 1 1 1 1 1 1 1 1 1 1 0.009508659115179131 1 1 1 0.0093944331660668831 0.009013483243966976 0.0084141007624350325 1 1 1 0.010006341175778645 1 0.010016958554137565 1 1 1 1 1 0.0090674074982872374 1 1 1 1 1 1 0.008360963984003331 1 1 1 1 1 1 1 1 1 1 1 1 1 1 1 0.0096546704178448427 0.0099812265178576658 1 1 0.0099935114668276547 1 1 1 1 1 1 0.0086218991797170144 1 1 1 1 1 0.0083492385716054402 1 1 1 1 1 0.010013354725033275 1 1 1 1 0.0084285155785049862 1 1 0.009859641435877111 1 1 1 1 0.0086570493482956579 1 1 1 1 1 1 1 1 0.0086406054739913279 1 1 1 1 1 1 0.010410875830267029 1 1 1 1 1 1 0.0087998130101389332 1 1 1 1 0.0086725873596234879 1 1 1 0.0099863900143482235 0.01047177343357034 1 1 1 0.010014058747823093 1 0.0087967707780403307 0.0085164230595009636 0.010056462828669618 1 1 1 1 1 1 1 1 1 1 1 1 1 1 1 1 1 1 0.0085423186935895644 0.0087390812172696859 1 1 1 0.008515627127479811 0.0087086625605457234 1 1 1 0.0083650318926161635 1 1 1 1 1 1 1 1 1 1 1 1 1 1 1 1 1 1 1 1 1 1 1 1 1 1 1 1 1 0.010202141706916482 1 1 1 1 1 1 1 0.010224762740654271 1 1 1 1 1 0.0098959903769897002 1 0.010070313874650905 1 1 1 0.0099876178414245679 1 1 0.010437154742265255 1 1 1 1 0.010064403546920772 1 1 1 1 1 1 1 0.008701341056829532 0.0099374027355884978 1 1 1 1 0.0097909961413730554 1 0.0088075055897587715 1 1 1 0.0086508433337703656 1 1 1 1 0.0095644181821136036 1 1 1 1 0.0092563805045704547 1 0.0090144304141823138 0.008297782827324178 1 1 1 1 0.010255587723901434 1 0.00905646780385699 0.0092620526892628549 0.010292248437035925 0.01000344415700379 0.0095646060109521765 1 1 1 0.010012553225101282 1 1 0.0094761384821757805 0.010000255227354709 1 1 0.0086650164893427549 1 1 1 1 1 0.010004574305786376 0.0099988471467313891 1 1 1 0.0098641014973699578 1 1 0.0099863056367445018 1 1 1 1 1 1 1 1 1 1 1 1 1 1 1 1 1 1 1 1 1 1 1 1 0.0092435541477180506 1 1 1 1 1 0.0099235993738745268 1 0.009955621478187078 1 1 1 1 1 0.0092304967493933229 1 1 1 1 1 1 1 1 1 1 1 1 1 1 1 1 1 1 1 1 1 1 1 1 1 1 1 1 1 1 1 1 1 1 1 1 1 1 0.0096848141282514788 1 1 0.0090027770309834172 1 1 1 0.0091738562806547401 1 0.0085306143387556561 1 0.0099612940803649758 0.0090978366982585948 1 0.0099977169396079767 1 0.0095927037044432634 1 1 1 0.0076648635785764047 1 1 1 1 1 1 0.0097763218061453095 1 1 1 1 1 0.0084606180143754397 1 1 0.008449901771520045 1 1 1 1 1 0.008623916595124648 1 0.0084687432640788984 1 1 1 0.0083208717854459067 1 1 1 1 0.0093336338658558254 1 1 1 1 0.0092225031517596257 1 1 0.010144769836992109 1 0.010013043986611334 1 1 1 1 1 1 1 1 0.010072818308702828 1 1 1 1 0.010016556684639613 1 1 1 1 1 1 1 1 1 1 1 0.0099210547076518125 1 1 1 1 1 1 1 1 1 1 1 1 0.0098249293375150155 1 1 1 1 1 0.0087809834483430615 1 0.010016634938111588 1 1 0.010306020663187813 1 1 0.0084701084342601925 0.0087785313948547574 1 1 1 1 1 1 1 1 1 1 0.0099507268076963109 1 1 1 0.0099825022353745019 1 1 1 1 1 1 0.0097890930147914341 1 1 1 1 1 1 1 1 1 1 1 1 1 1 1 1 1 1 1 1 1 1 1 1 1 1 1 1 1 1 1 1 0.0099135552583881799 1 1 1 1 1 1 1 0.0099822066571259426 1 1 0.0099785637381781742 1 1 1 1 1 1 1 1 1 1 1 1 1 0.010045792434884218 1 1 1 1 1 1 1 1 1 1 1 1 1 1 1 1 1 1 1 1 0.0099861719586033532 1 1 1 0.0097588051343030745 1 1 1 1 1 1 0.0097844094468967722 1 1 1 0.0099563357199404703 1 1 1 1 1 1 1 1 1 1 1 1 1 1 1 1 1 1 1 1 0.009921897701656926 1 1 1 1 0.0100016224472425 1 1 1 1 1 1 1 1 1 1 1 1 1 1 1 1 1 1 1 0.009446408115864377 1 1 1 1 1 1 1 0.0099797767527945551 1 1 1 1 1 1 1 1 1 1 1 1 1 1 1 0.0099917271445849488 1 1 1 1 1 1 1 0.010005560730246305 1 1 0.010126422431815553 0.0089625357834690576 1 1 0.0099898947905514863 0.0098632691098569803 1 1 1 0.0098612606542378273 1 1 1 0.0093718365079119362 1 1 1 1 1 1 1 1 1 0.0095372059510090146 1 1 1 1 1 1 0.010004191581958677 1 1 1 1 1 1 1 1 0.010010196901331668 0.0099996602433171742 0.009833700584545307 1 1 0.00983972528486491 1 1 1 1 1 1 1 1 1 1 1 1 1 1 0.009620739801248418 1 1 1 1 0.0096103519251565222 0.0090424329325761166 0.0099144255631890953 1 1 1 0.0099758578582613017 1 1 1 1 1 1 1 1 1 1 1 1 1 1 1 1 1 1 1 1 0.0095680880363557628 0.0097593333331452703 1 1 0.0099242851919026098 0.0099666040700961932 1 1 1 1 1 1 1 1 0.0099576811218064169 1 1 0.0099260825245244821 1 1 1 1 1 1 1 1 1 1 1 1 1 1 1 1 1 1 1 0.0099756421020205932 1 1 1 1 1 1 0.0099591147465147977 1 1 1 1 1 1 1 1 1 1 1 1 1 1 1 1 1 1 1 1 1 1 1 1 1 1 1 1 1 1 1 1 1 1 1 1 1 1 1 1 1 1 1 1 1 1 1 1 1 1 0.0096780073373888085 1 1 1 0.0099976335195370511 1 1 1 1 0.0097843808391630711 1 0.0099989685988920024 1 1 1 0.0098535180946985393 0.0097905445950869467 1 1 1 1 0.0099249328967179039 1 1 0.0099986583059042122 1 1 1 1 1 1 0.0097088037446954028 1 0.0099200226062978736 1 1 1 1 1 1 1 1 1 1 0.0099357705071722868 1 0.0099727250380160625 1 1 1 1 1 1 1 1 0.0098713315259970243 1 1 1 1 1 0.0098489079219693017 1 1 1 0.0098226255638918687 1 1 1 1 1 0.0099437425892585692 1 1 1 1 1 1 1 1 0.0097899185773901963 1 1 1 1 1 1 1 1 0.0099618844964302917 1 1 0.0098318940704773122 0.0098602514546894289 1 1 0.0099863664794935351 0.010002758492829373 1 0.0096913163406364619 1 1 1 1 1 1 1 1 1 1 1 1 1 1 1 1 1 1 1 1 1 1 1 1 1 1 1 1 1 1 1 0.010001483640170098 1 1 1 1 1 1 1 1 1 1 1 1 1 1 1 1 0.009719064895999786 1 1 1 1 1 1 1 1 0.0097246567491985902 1 1 1 1 1 1 1 1 1 1 1 1 0.0099925573071790973 1 1 1 1 1 1 1 1 1 1 1 1 1 1 1 1 1 1 1 1 1 1 1 1 0.0099886115872259706 1 0.009981185515591972 1 1 1 1 1 1 1 1 1 1 0.0098750404779638229 1 1 1 1 1 0.0099602640894201691 1 1 1 1 1 1 1 1 1 1 1 1 1 1 1 1 1 1 1 1 1 0.0098756791690798301 1 1 1 1 1 1 1 1 1 1 1 1 1 0.0096797907373818784 0.010031662532167085 1 1 1 0.0098785147303321538 1 1 1 0.010002960521221405 1 1 0.010001114756241951 1 1 1 1 1 1 1 0.0098977766679462093 1 1 1 1 1 1 0.0097221534084593313 0.010054812145849547 1 0.010086064912525845 1 1 1 1 1 1 1 1 0.0098050074331655929 1 1 1 1 1 1 1 1 1 1 1 1 1 1 0.0098130848127731939 1 1 1 1 0.0099279789096415258 1 1 1 1 1 1 1 1 1 1 1 1 1 1 1 1 1 1 1 0.0099903083378639242 1 1 1 1 1 0.0099635025503825719 1 1 1 1 1 1 0.0097911926989997407 1 1 1 1 1 1 1 1 1 0.0099394500963866077 1 1 1 0.0098816349793200663 0.0098121851499367967 1 1 1 1 1 0.0099813942517340184 1 1 1 1 1 1 1 1 1 1 1 1 1 1 1 1 1 1 1 1 1 1 1 1 0.010194049535386128 0.0094625514208873801 1 1 1 0.010025366529377071 1 1 1 1 1 1 1 1 1 1 1 1 1 1 0.0095272585923831914 1 1 1 1 1 0.010081606167920976 1 1 1 0.010017447287640011 1 1 1 1 1 1 1 1 1 1 1 1 1 1 1 1 1 1 1 1 0.0099627214018599992 1 1 1 1 1 1 1 1 1 1 0.0099089439179015186 1 1 1 1 1 1 1 1 1 1 1 1 1 1 1 1 1 0.0096383978979597412 1 0.009851787996801406 1 1 1 1 1 1 1 1 1 0.0099354737044239222 1 1 1 1 1 1 1 1 1 1 1 1 1 1 1 1 1 1 1 1 1 1 1 1 1 1 1 1 1 1 1 1 1 0.0095923475579703568 1 1 1 1 1 1 1 1 1 1 0.0095667732454161776 1 1 1 1 1 0.0098003339933702954 1 1 1 1 1 0.0097702424508807981 1 1 1 1 0.0089122910276500412 1 1 1 1 1 1 1 1 1 1 1 1 1 1 1 0.009667662569351065 1 1 1 1 1 1 1 0.0098121961989680526 1 1 1 1 0.0099992085346767012 1 1 1 1 1 1 1 1 0.0098550424486043686 1 1 1 1 1 1 1 1 1 1 0.0099813668939251476 1 1 1 1 1 1 1 1 0.0092963704919009349 1 1 1 0.010020608485007534 0.0099864642897346673 1 1 0.0084981443004483077 1 1 1 1 1 1 1 1 1 1 0.0084983744751405809 1 1 1 0.0086038559698071761 1 1 1 1 1 1 1 1 1 1 1 0.0097981970860814265 1 1 1 1 1 1 1 1 1 1 1 1 1 1 1 1 1 1 1 0.0099041215493512746 1 1 1 1 1 1 1 1 1 1 1 1 1 1 1 1 1 0.0097087220812060761 1 1 1 1 0.00985357532359688 1 1 1 1 0.0097576968729481527 1 1 1 1 1 1 1 1 1 1 1 0.0098922315724411028 1 1 1 0.010006815587306948 1 1 1 1 1 1 1 0.010006817066084504 1 1 1 1 1 1 1 1 1 1 0.0099038654129384174 1 0.009983913183659078 1 1 1 1 0.0097813303770026543 0.010002721817162642 1 1 1 1 1 1 1 1 1 1 1 1 1 1 1 1 1 1 1 1 1 0.0099781402008596882 1 1 1 1 1 0.010035017601728745 1 1 1 1 1 0.0098497596303238812 1 1 1 0.0097619398338847693 1 1 1 1 1 1 1 1 1 1 1 1 1 1 1 1 0.0094548350627571397 1 1 1 1 1 1 1 1 1 0.0097469793400603438 1 0.0095562037189560224 1 1 1 0.0095893966473992159 0.0073770816479627743 1 0.0082753258020493107 1 1 1 1 1 1 1 1 0.0099739449201974081 1 1 1 1 0.0089527404954213921 1 1 1 0.0082396004133861878 1 1 0.0097300211150787609 1 1 0.010122303337218464 1 1 1 1 1 1 0.0088513065571823955 1 1 1 1 0.010106682838422101 0.008543074007635874 1 1 1 1 1 1 1 1 1 0.0089357806197822715 1 1 1 1 0.010015013373010449 0.0095646592479071736 1 1 1 1 0.0085173510668258099 1 1 0.0097060527367655563 1 0.0082671814049132021 1 1 1 1 0.0096963223113003608 1 1 1 1 0.0086163929116724811 1 1 1 1 1 1 1 1 1 1 1 1 1 1 1 1 1 1 1 1 0.0099292103817415212 1 1 1 1 1 1 1 0.0076888111875831455 1 1 1 1 0.0077869458389004682 1 1 1 1 1 1 1 1 1 1 1 1 1 1 1 1 1 1 1 1 1 1 1 1 1 1 1 1 1 1 1 1 1 1 1 1 1 1 1 1 1 1 1 1 1 1 1 1 1 1 1 1 1 1 1 1 1 0.0096650631463983724 1 1 1 1 0.01021768836102591 1 1 1 1 1 0.0081460530526679866 1 1 1 1 1 1 1 1 1 1 1 1 0.0079478373891085068 1 1 1 1 0.0097730021714344736 1 1 0.0097171243479709218 1 1 1 1 0.0089146428354949202 1 1 1 1 1 0.010003064979010247 1 1 1 1 0.0093126009659513058 1 0.010123432141919079 1 1 1 0.0081137548342851799 1 1 1 1 0.010002864023873735 1 0.0099929222786260784 1 1 0.0083803973776586417 0.010001695097699732 1 1 0.010001115826931042 1 1 1 1 1 1 1 0.0099433006382741232 1 1 1 0.0078492203408671787 1 0.0099292737438278836 1 1 1 1 1 1 0.0093706493194027213 1 0.010002538455179649 0.0096189424990653308 1 1 1 1 1 1 1 1 1 1 1 1 0.0099750640600312045 1 1 1 1 0.0099994207292313092 1 1 1 1 1 1 1 1 1 1 0.009858101400847679 1 1 1 1 1 1 0.0096602400806697856 1 1 1 1 1 1 1 1 1 1 0.0085141826463701782 1 1 0.0081751557484829387 1 1 1 1 1 1 1 1 0.009638060604347333 1 1 1 1 0.0097806885797735981 1 1 1 0.0099826740254730182 1 0.0097552264056227911 1 1 1 0.0089697856686930394 0.0099989828370038499 1 1 0.0094432721926902968 1 1 0.0099353047781872011 1 1 1 1 0.009959845196130036 0.0093745518225456636 1 0.0096973357462178129 1 1 1 1 0.0098000017927636976 1 1 1 1 0.0098968611400982003 1 1 1 1 0.0098809461859824567 1 1 1 1 0.0099946744912163387 1 1 1 1 0.0097632121083209723 0.0098042155690515973 0.0099563585357598967 1 0.010000096251397498 1 0.0096414744193158292 1 1 0.0098374899632613731 1 1 1 1 1 1 0.0098762037253589917 1 1 1 1 1 1 0.0097881827759633624 1 1 1 1 1 1 1 1 1 1 1 1 1 1 1 0.0096124280706274545 1 1 1 0.0099405117305190228 1 1 1 1 1 0.009691042127599343 1 1 0.0080299308747454577 1 1 1 1 1 1 1 0.007973476721607772 1 1 1 1 1 1 1 1 1 1 1 1 1 1 1 1 0.0099077192971033859 1 1 1 1 1 0.0097743970621224033 1 1 1 1 1 1 1 1 1 1 1 1 0.0082729018300686467 1 1 1 0.0098657408861753584 1 1 0.0099568831807015663 1 0.0098676528550990308 1 1 1 1 0.0096984629767107589 0.0099532858676533702 0.0096667655697331607 1 1 1 1 1 1 1 1 1 1 1 1 1 1 1 1 0.0098710464717673037 1 1 1 1 1 1 1 1 1 1 1 1 1 1 1 1 1 1 1 1 1 1 1 0.0099598757127730714 1 0.0099121613281765494 1 0.0098591042517796254 1 1 1 1 1 1 1 0.0099151059696932376 1 1 1 1 0.009798239307781207 1 0.0096173793196548847 1 1 1 1 1 1 1 1 1 1 1 1 1 1 0.0097051930642162148 1 1 0.0088527359449936845 1 1 1 1 1 1 1 1 1 1 1 1 1 1 1 1 1 1 0.0097981743506351197 1 1 1 1 1 0.01001439703096762 1 1 0.0099678219417146732 1 1 0.0099358792663624337 1 1 1 1 1 1 1 1 1 1 1 1 1 0.010378444659868756 1 1 1 1 1 1 1 1 1 1 1 1 1 1 1 1 1 1 1 1 1 1 1 1 1 1 1 1 1 1 1 1 1 1 1 1 1 1 1 1 1 1 1 1 1 1 1 1 1 1 1 0.0098465363623067553 1 1 1 1 1 1 1 1 1 1 1 1 1 1 1 1 1 1 1 1 1 1 1 1 1 1 1 1 1 1 1 1 1 1 1 1 1 1 1 1 1 0.0097452751118697403 1 1 0.009061085670152064 1 1 0.010035746614713148 1 1 1 1 1 0.0099136422850176383 1 1 1 1 0.0099968680866528124 1 0.0099120880082186058 1 1 1 1 1 0.0099641359290963006 1 1 1 1 1 1 1 1 1 1 1 1 1 1 1 1 1 1 1 1 1 1 1 1 1 1 1 1 1 1 1 1 1 0.0097282743736835774 1 0.0099151637907901012 1 1 0.0098022440475609603 1 1 1 1 1 0.0099686012456662934 1 1 1 1 1 1 0.010000295749935696 1 1 1 1 1 1 1 1 1 1 1 0.010000139963886795 1 0.0099970948277656926 1 1 1 0.0099998442139510955 1 1 1 1 0.0099929490834197391 1 1 0.0099947977842812057 1 1 1 1 1 1 1 0.010053799216726653 1 1 1 0.01008039740832993 1 1 1 1 1 0.0099989435286271591 1 1 1 1 1 1 1 1 1 1 1 1 1 1 1 1 1 1 1 1 1 1 1 1 1 1 1 1 1 1 1 0.0099498342289711054 1 1 0.010000273167243941 1 1 1 1 0.0094558362527322783 1 1 0.0098801957778924688 0.010391239972226452 1 1 1 0.0098603578695835564 1 1 1 1 1 1 0.009643257234624154 1 1 1 1 1 1 1 1 1 1 1 1 1 1 1 1 1 1 1 1 1 1 1 1 1 1 0.0096119473917458779 0.0095177829224944322 1 1 1 1 1 0.01002908998351343 1 1 0.0098261548952075263 1 1 1 1 1 0.0098142350209287736 1 1 1 0.0097776397496170779 1 1 1 1 1 1 1 1 1 1 1 1 1 1 1 0.0098960242007682317 1 0.0098067123840697244 1 1 1 1 1 1 0.0098572647564767676 1 1 0.0099739841120421707 1 1 1 1 1 1 1 1 1 1 1 1 1 1 1 1 1 1 1 1 1 1 1 1 1 1 0.0096905294440972102 1 1 0.010027965318270812 1 1 1 1 0.010009168823055501 1 1 1 1 1 1 1 1 1 1 1 1 1 1 1 1 1 1 1 1 1 1 1 1 1 1 1 1 1 1 1 1 1 1 1 1 1 1 1 1 0.0091548358448384284 1 1 1 1 0.010059750044942022 1 1 0.01020109216544773 1 0.0090265306344251093 1 1 1 1 1 1 1 0.010179482292606783 1 1 1 1 1 1 1 1 1 0.0099873021490177842 1 1 1 1 1 1 1 0.0097362081042045162 1 1 1 1 0.0096233715408310661 1 1 1 1 1 1 1 1 1 1 0.0098492294379904262 1 1 1 1 1 1 1 1 1 1 1 0.0099938676435622452 1 0.0097251645294209633 1 1 1 1 1 1 1 1 1 1 1 1 1 1 1 1 1 1 1 1 1 1 1 1 0.01000173490854476 1 1 1 1 1 1 0.010124612093867271 1 0.0092145797743176158 1 1 1 0.0090572092548501428 1 1 1 0.0089176861765257812 1 1 1 1 1 1 1 1 0.010006515825209752 1 1 1 0.010017994840007004 1 1 0.010051697438143896 1 1 1 1 1 1 1 1 1 1 1 1 0.0099898402549131321 1 1 1 0.0096283413371023342 1 1 1 1 1 1 1 0.009647276044809262 1 1 1 1 1 1 1 1 1 1 0.010225886490851287 1 1 1 1 1 0.010487240847829421 0.0099603100380879824 1 0.0098894912617372537 1 1 1 0.0098928366667538487 1 1 1 1 1 1 1 1 1 0.0098949310864473294 1 1 1 1 1 0.0099441278927825654 1 1 1 1 1 1 1 1 0.0095022470726538917 1 1 1 0.0097573149475275976 1 1 0.0098099277334778266 1 1 1 0.010156071944246007 1 1 1 1 1 1 1 1 1 1 1 1 1 1 1 1 1 1 1 0.0097417702390623397 1 1 0.0099044710163150133 1 1 1 1 1 1 1 1 1 1 1 1 1 1 1 1 1 1 0.0098853835791377319 1 1 1 1 0.0095892953140357569 1 1 1 1 1 1 1 1 1 1 0.0099952920546316597 1 1 1 1 1 1 0.0094713041053829869 1 1 1 1 1 1 1 1 1 1 1 1 1 1 1 1 1 1 1 1 1 0.0099312159338202123 1 1 1 1 1 1 0.0095690069377967861 1 1 0.0099962891253694598 1 0.01018696450412972 1 1 0.010125430555441663 1 0.010013281477954944 1 1 1 0.0097690709834144761 1 1 0.0099143480398910678 0.010116446642978158 1 1 1 0.0098967023344353738 1 1 1 0.010029926344751857 1 1 0.010011357716581517 1 1 1 0.010101830176627729 1 1 1 1 1 1 1 1 1 1 1 1 1 1 1 1 1 1 1 1 1 1 1 1 0.0099194848649625279 1 0.0094627077248531991 1 1 1 0.0095364273541265112 1 1 0.0097922500291529983 1 1 1 1 1 1 1 1 1 1 1 0.010023934513066478 1 1 1 1 0.0095481720754030559 0.009997695192181303 1 1 0.0097253079099420478 1 1 1 1 0.010003540568681777 1 1 1 1 1 1 1 0.010015090637199917 1 1 0.0093354262191133013 1 1 1 0.01006940843713942 1 1 1 0.010013588112034042 1 1 1 1 1 1 1 1 1 1 1 1 1 1 1 1 1 1 1 0.010225703065390763 1 1 1 1 0.0099384606596767747 1 1 0.010002924022928301 1 1 1 0.0099556135605920835 1 1 0.01000584011265144 1 1 0.010064042138705334 1 1 0.0099901644044621419 1 1 1 1 1 1 1 1 1 1 1 1 1 1 1 1 1 0.0099953306019730306 0.0099539812514703677 0.0099171440712955729 1 0.010007177231337335 0.010132161672605682 1 1 1 0.010335685375095431 1 1 1 1 1 0.010002381024050454 1 0.0090921930329745416 1 1 1 1 0.0090289507301152122 1 1 1 1 1 1 1 1 1 1 1 1 1 1 1 1 1 1 0.010045819952332554 1 1 1 1 0.0099926545926961839 1 1 0.0099926668904372819 1 1 1 1 1 1 1 0.0090049513440052052 0.0090121345865835471 1 1 1 0.0096522420121275109 1 0.010180240055646838 1 1 1 1 1 1 1 1 1 1 0.0098110053574107913 1 1 1 1 1 1 1 1 1 1 0.0098516099814238076 1 1 1 1 0.0099263976402708433 1 1 1 1 0.0099348448411036312 1 1 1 1 0.0097922314839174671 1 1 1 0.0097002427360019551 1 1 1 0.0099778484964129239 0.0086919632219892833 1 0.0095756189383204588 1 0.0087665908077153368 1 1 1 1 1 1 1 1 0.010067585440404862 1 1 0.0098812642883962069 1 1 1 0.0085526997567365523 1 1 1 0.0083983999658102937 1 1 1 1 1 1 1 1 1 1 1 0.009897991021500168 1 1 1 0.0095907753211874596 1 1 1 0.0099636218251905589 1 1 1 0.0097848714938980307 1 1 1 1 1 1 1 1 1 1 1 0.010002801442440536 1 1 1 1 0.010003583974828542 1 1 1 1 1 1 1 0.010000780953082352 1 1 1 1 1 1 0.0099491752337747905 1 1 1 1 1 1 1 1 1 1 0.0098499319467469336 1 1 0.0099447316351554526 1 1 1 1 1 1 0.0098434407812613457 1 0.010039308510534148 1 1 1 1 0.0099880187000447925 1 1 1 1 1 0.010034561308449083 1 1 1 1 1 1 1 1 1 1 1 1 1 1 0.0099137782504030905 1 1 1 1 1 1 1 1 1 1 1 1 1 1 1 1 1 1 1 1 1 1 1 1 1 0.0099668266647128471 0.0094930076825690164 1 1 1 1 0.0097535125266872639 0.0095978360127943942 1 1 1 1 0.0099917216227702436 1 1 1 1 1 1 1 1 1 1 1 1 1 1 1 0.0096553965309876463 1 1 0.010002047078109842 1 1 1 1 1 1 1 1 1 1 1 1 1 1 1 1 1 1 1 0.0096194656982400602 1 1 1 1 1 1 1 1 1 1 0.01025954432558847 1 1 1 1 1 1 1 0.0095694153801846767 1 1 1 1 1 1 0.010113666874191334 1 1 1 0.010028868828588574 1 1 1 1 1 1 1 1 0.0099745706018825805 1 1 1 1 1 1 1 1 1 1 1 1 1 1 1 1 1 1 1 1 1 1 1 1 1 1 1 0.0099611090190710339 1 1 1 1 1 1 1 0.0099377743761660583 1 1 1 1 0.0099375796875987455 1 1 1 1 1 1 1 1 0.0099747652904498916 1 1 0.010249251902063805 1 1 1 0.0096055847695754194 1 1 1 0.0099595114806940565 1 1 1 0.0099694015388605978 1 1 1 1 1 1 1 1 1 1 1 1 1 1 1 1 1 1 1 1 1 1 1 1 1 1 1 1 1 1 1 1 1 1 1 0.0099035307879008876 1 1 1 0.0097737408524828963 1 1 0.0097794511627339997 1 1 1 1 0.0098584418799497718 1 0.0099802331257869727 1 0.0097859838934161066 1 1 1 1 1 1 0.0097798054552818113 1 1 1 0.0099435306846655212 0.009850728646458742 1 0.010028465290583806 1 0.0097212410223210342 1 0.0097350995926290401 1 0.0099965489902589244 0.0099262364132264719 1 1 1 0.0099642634101126497 0.0097434135454912731 1 0.0099997455818797102 1 0.0098951998250529777 1 0.0099933444360872318 0.0099713785230623724 1 1 1 1 1 1 1 1 1 1 1 1 1 1 0.0097506232344883575 0.0099620888692027783 1 0.0099860907872583778 1 1 1 1 1 1 1 0.0095427157648889441 1 1 1 1 1 1 1 1 1 1 1 1 1 1 1 1 1 1 1 1 1 1 1 1 1 1 1 1 1 1 0.010054429096698134 1 1 0.0099974051110324445 1 1 1 0.009882497755146798 0.0099001969846294786 1 1 1 1 1 1 1 1 1 1 1 1 1 1 1 0.0099623953308024746 1 1 1 1 1 1 1 1 1 1 1 1 1 1 1 0.010011722631701076 1 0.0085465208397578745 1 1 0.0087723962221446204 1 1 1 0.009845277801280505 1 1 1 1 1 1 1 1 1 1 1 0.010562217607872012 1 1 1 1 0.010318043068043889 1 1 1 1 1 0.010098693012557268 1 1 1 1 1 1 1 1 1 1 0.009915502460329087 1 1 0.01000978118731808 1 1 1 1 1 1 0.0099925945023042924 1 1 1 1 0.010041814132851561 1 1 1 0.0096100413276608218 1 1 1 0.0099974883797172079 1 1 0.0092280323436041856 1 1 1 0.0094489661346741464 1 1 1 1 1 0.0095277667370544245 1 1 1 1 1 1 1 1 1 1 1 1 1 1 1 0.0099514179983188639 1 1 0.0098505648831423969 1 0.009917446141722356 0.0097414385467355976 1 1 1 0.0095369548913461083 0.0098248542374356849 1 1 1 0.0099998677626785687 1 1 1 1 1 0.0093782689968002087 0.0097851542593082683 1 0.0092062508953353987 0.0098867280276856949 1 1 1 1 1 1 0.010002928784888848 1 1 1 1 1 1 1 1 0.010003102614083917 1 1 1 1 0.0092654623732586414 1 1 1 1 1 0.0096610064007243476 1 0.01000044985086203 1 1 1 0.01000680302742467 1 1 1 1 1 1 1 1 0.010238096623039625 1 1 1 1 1 1 1 1 0.0099485403641414206 1 1 1 1 1 1 1 1 1 1 1 1 1 1 1 1 1 1 1 1 1 1 1 1 1 1 1 1 1 1 1 1 1 1 1 1 1 1 1 1 1 1 1 1 1 1 1 1 1 1 1 1 1 1 1 1 1 1 1 1 1 1 1 1 1 1 1 1 1 1 1 1 1 1 1 1 1 1 1 1 1 1 1 1 1 1 1 1 1 1 1 1 1 1 1 1 1 1 1 1 1 1 1 1 1 1 1 1 1 1 1 1 1 1 1 1 1 1 0.010111899098385346 1 1 1 1 1 0.0089813989727309182 0.0099978960803342384 1 1 1 1 1 1 1 0.0099959862016604107 0.010086082425067542 1 1 1 1 1 1 0.0097158372501811759 1 1 0.0090603598910198192 1 1 1 1 1 1 1 1 1 1 1 1 1 0.008890108512888649 1 1 1 1 0.0098894750214792142 0.0093221323195980012 1 1 1 1 1 1 0.0086111998467877666 1 0.0098903126413094726 1 1 1 1 1 1 0.0099655213142169526 1 1 1 1 1 0.0090804202333125746 1 1 1 1 0.0096856391146563359 1 1 1 1 1 1 1 1 1 1 1 1 1 1 1 1 1 1 1 1 1 1 0.010079236452853982 1 1 1 1 1 1 1 1 1 1 1 1 1 1 1 1 1 1 1 1 1 1 1 1 1 1 1 1 1 1 1 1 1 1 1 1 1 1 1 1 1 1 1 1 1 1 1 1 1 1 1 1 1 1 1 1 0.0099985993756590702 1 1 1 0.0095934044450955522 1 1 1 1 1 0.010358998249004648 1 1 1 1 1 0.010186657611135724 1 0.0099254714311626281 1 1 1 1 1 1 0.010055091736876869 1 1 1 1 1 1 1 1 1 1 0.0098138690126468205 1 1 1 1 1 1 1 1 1 1 1 1 1 1 1 1 1 0.0097902195715225127 1 1 1 1 1 1 1 0.0098947896703048092 1 1 1 1 1 1 1 0.0095376621743166155 1 1 0.0098053938911107155 1 1 1 1 1 1 0.0098435524626691844 1 1 1 1 1 1 1 1 1 1 1 1 1 1 1 1 1 1 1 1 1 1 1 1 1 1 1 1 1 1 1 1 1 1 1 1 1 1 1 1 1 1 1 0.0099317537709467038 1 1 1 1 1 1 0.0098608995334469908 1 1 1 1 0.0099291457625002855 1 1 1 1 1 0.0099988132856259938 1 1 1 1 1 1 1 0.0099847034561363623 1 1 1 1 1 0.0094577366900937369 1 1 1 1 1 1 1 1 1 1 1 1 1 1 1 1 1 1 1 1 1 0.0098784488081456404 1 1 1 0.0094683496604741988 1 1 1 1 1 0.0093985622755334512 1 1 1 1 1 1 1 1 1 1 1 0.0099697931272966344 1 1 1 0.0099918918225854313 1 0.0096393820081686465 1 1 1 0.010019244908241609 1 1 0.0094305365149762246 1 1 1 1 1 1 1 1 1 1 1 1 1 1 1 0.0099886380786172943 1 1 1 1 1 0.0098511770422382051 1 0.0099406464768490438 1 1 0.0096586543727062938 1 1 1 1 1 1 1 1 1 1 1 0.0091940669101972933 1 1 1 1 1 1 1 1 1 1 1 1 1 1 1 1 1 1 1 1 1 1 1 1 1 1 1 1 1 1 1 1 1 1 1 1 0.0096826022722713914 1 1 1 1 1 1 1 1 1 1 0.01000995183098714 1 1 1 1 1 1 1 1 1 1 1 1 1 1 1 1 1 0.010038521113889125 1 1 1 1 1 1 1 1 1 1 1 1 1 1 1 1 1 0.0099411131696333557 1 1 1 1 1 1 0.0096955105508720052 1 1 1 1 1 0.0098947763350406611 1 1 1 1 1 1 1 1 1 1 1 1 1 0.0097768714278928769 1 1 1 0.0098424173472016468 1 1 1 1 1 0.0099924721577962471 1 0.0096772464013839266 1 1 1 1 1 1 1 1 1 1 1 1 1 0.0099954163005392289 1 1 1 1 1 1 1 1 1 1 1 1 0.009982579319259369 1 0.009944209136737471 1 1 1 1 1 1 1 1 1 1 1 1 1 1 1 1 1 1 1 1 1 1 1 1 1 1 1 1 1 1 1 1 1 1 0.0099962271633783576 1 1 1 1 1 0.010030358305216609 1 1 1 1 1 0.0099980031565169471 1 1 1 1 1 1 1 1 1 0.010002038788577611 1 1 1 1 1 1 1 1 1 1 1 1 0.010000262795439021 1 1 1 1 1 1 1 1 1 0.010009707556154653 1 1 1 1 1 1 1 1 1 1 1 1 1 1 1 1 1 1 1 1 1 1 1 1 1 1 1 1 1 1 1 1 1 1 1 1 1 1 1 1 1 1 1 1 1 1 1 1 1 1 1 1 1 1 1 1 1 1 1 1 1 1 1 1 1 1 1 1 1 1 1 1 1 1 1 1 1 1 1 1 1 1 1 1 1 1 1 1 1 1 1 1 1 1 1 1 1 1 1 1 1 0.0099990494280367166 1 1 1 1 1 1 1 1 1 1 1 1 1 1 0.0095749573966574658 1 0.01000287632625001 1 1 1 1 1 1 1 1 1 1 1 1 1 1 1 1 0.010036053758749424 1 1 1 1 1 1 1 1 1 1 1 1 1 1 1 0.0095513267002267435 1 1 1 1 1 1 0.0098301544063430519 1 1 1 1 1 1 1 1 1 1 1 1 0.010023997333752544 1 1 1 1 1 1 1 0.0096692210500931471 1 1 1 1 0.009362899091965575 1 1 0.010004752626039106 1 0.0096889719705766236 1 1 1 1 0.0095266689245628085 1 1 1 1 1 0.0097851757622719679 1 1 1 1 1 1 1 1 1 1 1 1 1 1 1 1 1 1 1 1 0.00992373400827847 1 1 1 1 1 1 0.0099158832246282191 1 1 1 1 0.0099542534071501172 1 1 1 1 1 1 1 
</DataArray>
</CellData>
</Piece>
</UnstructuredGrid>
</VTKFile>
