<?xml version="1.0"?>
<VTKFile type="UnstructuredGrid" version="0.1" byte_order="LittleEndian">
<UnstructuredGrid>
<Piece NumberOfPoints="30213" NumberOfCells="10548">
<Points>
<DataArray type="Float64" NumberOfComponents="3" format="ascii">
-0.5 -0.5 0 -0.45858193638586953 -0.49504955461797517 0 -0.44946655267028662 -0.49999999999999728 0 -0.5 -0.5 0 -0.47929096819293382 -0.47927828299753938 0 -0.45858193638586953 -0.49504955461797517 0 -0.5 -0.5 0 -0.47929096819293382 -0.47927828299753938 0 -0.49999999999999861 -0.46350701137710421 0 -0.47929096819293382 -0.47927828299753938 0 -0.49999999999999861 -0.46350701137710421 0 -0.47929096819293382 -0.47927828299753938 0 -0.46259520264281989 -0.47513842296917441 0 -0.47985826332737203 -0.45416439828180899 0 -0.47929096819293382 -0.47927828299753938 0 -0.45858193638586953 -0.49504955461797517 0 -0.46259520264281989 -0.47513842296917441 0 -0.44352824103889771 -0.4793354489760982 0 -0.45634837946784229 -0.45920470148177772 0 -0.47929096819293382 -0.47927828299753938 0 -0.45858193638586953 -0.49504955461797517 0 -0.46259520264281989 -0.47513842296917441 0 -0.45858193638586953 -0.49504955461797517 0 -0.46259520264281989 -0.47513842296917441 0 -0.44352824103889771 -0.4793354489760982 0 -0.44352824103889771 -0.4793354489760982 0 -0.43758992940750657 -0.45867089795219962 0 -0.45858193638586953 -0.49504955461797517 0 -0.44352824103889771 -0.4793354489760982 0 -0.44946655267028662 -0.49999999999999728 0 -0.44352824103889771 -0.4793354489760982 0 -0.44946655267028662 -0.49999999999999728 0 -0.44352824103889771 -0.4793354489760982 0 -0.44946655267028662 -0.49999999999999728 0 -0.43567531076101701 -0.4999999999999995 0 -0.43758992940750657 -0.45867089795219962 0 -0.45634837946784229 -0.45920470148177772 0 -0.46203875063193472 -0.44132219408239182 0 -0.43758992940750657 -0.45867089795219962 0 -0.46203875063193472 -0.44132219408239182 0 -0.43758992940750657 -0.45867089795219962 0 -0.46203875063193472 -0.44132219408239182 0 -0.43171907702726747 -0.43824109633586461 0 -0.44352824103889771 -0.4793354489760982 0 -0.43758992940750657 -0.45867089795219962 0 -0.45634837946784229 -0.45920470148177772 0 -0.46259520264281989 -0.47513842296917441 0 -0.45634837946784229 -0.45920470148177772 0 -0.47985826332737203 -0.45416439828180899 0 -0.45634837946784229 -0.45920470148177772 0 -0.46203875063193472 -0.44132219408239182 0 -0.47985826332737203 -0.45416439828180899 0 -0.46203875063193472 -0.44132219408239182 0 -0.48209614645391807 -0.44026952142698311 0 -0.47985826332737203 -0.45416439828180899 0 -0.47929096819293382 -0.47927828299753938 0 -0.47985826332737203 -0.45416439828180899 0 -0.49999999999999861 -0.46350701137710421 0 -0.48209614645391807 -0.44026952142698311 0 -0.47985826332737203 -0.45416439828180899 0 -0.5 -0.44161800313114358 0 -0.47985826332737203 -0.45416439828180899 0 -0.49999999999999861 -0.46350701137710421 0 -0.5 -0.44161800313114358 0 -0.5 -0.44161800313114358 0 -0.48648757185636549 -0.4239734902125879 0 -0.5 -0.41972899488518312 0 -0.48209614645391807 -0.44026952142698311 0 -0.5 -0.44161800313114358 0 -0.48648757185636549 -0.4239734902125879 0 -0.48648757185636549 -0.4239734902125879 0 -0.5 -0.41972899488518312 0 -0.49035791759395492 -0.41138909828302722 0 -0.5 -0.41972899488518312 0 -0.49035791759395492 -0.41138909828302722 0 -0.49999999999999939 -0.3978399866392226 0 -0.48648757185636549 -0.4239734902125879 0 -0.49035791759395492 -0.41138909828302722 0 -0.47941528393892091 -0.40375665849347531 0 -0.48648757185636549 -0.4239734902125879 0 -0.47941528393892091 -0.40375665849347531 0 -0.46640036527088818 -0.41856012727791397 0 -0.46203875063193472 -0.44132219408239182 0 -0.48209614645391807 -0.44026952142698311 0 -0.48648757185636549 -0.4239734902125879 0 -0.46203875063193472 -0.44132219408239182 0 -0.48648757185636549 -0.4239734902125879 0 -0.46203875063193472 -0.44132219408239182 0 -0.48648757185636549 -0.4239734902125879 0 -0.46640036527088818 -0.41856012727791397 0 -0.48463546452293871 -0.37519354313071163 0 -0.49999999999999939 -0.3978399866392226 0 -0.5 -0.3726929103767872 0 -0.48463546452293871 -0.37519354313071163 0 -0.49999999999999939 -0.3978399866392226 0 -0.49035791759395492 -0.41138909828302722 0 -0.49999999999999939 -0.3978399866392226 0 -0.47941528393892091 -0.40375665849347531 0 -0.48463546452293871 -0.37519354313071163 0 -0.49999999999999939 -0.3978399866392226 0 -0.47941528393892091 -0.40375665849347531 0 -0.48463546452293871 -0.37519354313071163 0 -0.47941528393892091 -0.40375665849347531 0 -0.46349689164547808 -0.37822119677520832 0 -0.46349689164547808 -0.37822119677520832 0 -0.45822785114093317 -0.40062133832212038 0 -0.44446391451040829 -0.38070603820386711 0 -0.47941528393892091 -0.40375665849347531 0 -0.46349689164547808 -0.37822119677520832 0 -0.45822785114093317 -0.40062133832212038 0 -0.45822785114093317 -0.40062133832212038 0 -0.43810554710717808 -0.40155168374247863 0 -0.44446391451040829 -0.38070603820386711 0 -0.43810554710717808 -0.40155168374247863 0 -0.44446391451040829 -0.38070603820386711 0 -0.43161353309829442 -0.38767170527319961 0 -0.46203875063193472 -0.44132219408239182 0 -0.46640036527088818 -0.41856012727791397 0 -0.44678479724064207 -0.42084560413766919 0 -0.47941528393892091 -0.40375665849347531 0 -0.45822785114093317 -0.40062133832212038 0 -0.46640036527088818 -0.41856012727791397 0 -0.45822785114093317 -0.40062133832212038 0 -0.46640036527088818 -0.41856012727791397 0 -0.44678479724064207 -0.42084560413766919 0 -0.45822785114093317 -0.40062133832212038 0 -0.43810554710717808 -0.40155168374247863 0 -0.44678479724064207 -0.42084560413766919 0 -0.46203875063193472 -0.44132219408239182 0 -0.44678479724064207 -0.42084560413766919 0 -0.43171907702726747 -0.43824109633586461 0 -0.42584822464702698 -0.41781129471952999 0 -0.41955507658974811 -0.42006134240176413 0 -0.43171907702726747 -0.43824109633586461 0 -0.42584822464702698 -0.41781129471952999 0 -0.43171907702726747 -0.43824109633586461 0 -0.44678479724064207 -0.42084560413766919 0 -0.42584822464702698 -0.41781129471952999 0 -0.43171907702726747 -0.43824109633586461 0 -0.42584822464702698 -0.41781129471952999 0 -0.41997737226678727 -0.39738149310319532 0 -0.43810554710717808 -0.40155168374247863 0 -0.44678479724064207 -0.42084560413766919 0 -0.42584822464702698 -0.41781129471952999 0 -0.42584822464702698 -0.41781129471952999 0 -0.41955507658974811 -0.42006134240176413 0 -0.41997737226678727 -0.39738149310319532 0 -0.41955507658974811 -0.42006134240176413 0 -0.41997737226678727 -0.39738149310319532 0 -0.41955507658974811 -0.42006134240176413 0 -0.40958390772456182 -0.40820187982514899 0 -0.41997737226678727 -0.39738149310319532 0 -0.41955507658974811 -0.42006134240176413 0 -0.40958390772456182 -0.40820187982514899 0 -0.40503406341772402 -0.42057186992168533 0 -0.41955507658974811 -0.42006134240176413 0 -0.41345375505944482 -0.43639815219283262 0 -0.43171907702726747 -0.43824109633586461 0 -0.41955507658974811 -0.42006134240176413 0 -0.41345375505944482 -0.43639815219283262 0 -0.40503406341772402 -0.42057186992168533 0 -0.43161353309829442 -0.38767170527319961 0 -0.42032112832424651 -0.37891969961936839 0 -0.4331242049343027 -0.36992399405912962 0 -0.44446391451040829 -0.38070603820386711 0 -0.43161353309829442 -0.38767170527319961 0 -0.4331242049343027 -0.36992399405912962 0 -0.43161353309829442 -0.38767170527319961 0 -0.41997737226678727 -0.39738149310319532 0 -0.42032112832424651 -0.37891969961936839 0 -0.43810554710717808 -0.40155168374247863 0 -0.43161353309829442 -0.38767170527319961 0 -0.41997737226678727 -0.39738149310319532 0 -0.43810554710717808 -0.40155168374247863 0 -0.42584822464702698 -0.41781129471952999 0 -0.41997737226678727 -0.39738149310319532 0 -0.40958390772456182 -0.40820187982514899 0 -0.40640417614742869 -0.39250767375121509 0 -0.41997737226678727 -0.39738149310319532 0 -0.40640417614742869 -0.39250767375121509 0 -0.41997737226678727 -0.39738149310319532 0 -0.41723507549227662 -0.38783865750662871 0 -0.41997737226678727 -0.39738149310319532 0 -0.41723507549227662 -0.38783865750662871 0 -0.41997737226678727 -0.39738149310319532 0 -0.42032112832424651 -0.37891969961936839 0 -0.41997737226678727 -0.39738149310319532 0 -0.41723507549227662 -0.38783865750662871 0 -0.42032112832424651 -0.37891969961936839 0 -0.40640417614742869 -0.39250767375121509 0 -0.41723507549227662 -0.38783865750662871 0 -0.41200391583912688 -0.38124139818414993 0 -0.40640417614742869 -0.39250767375121509 0 -0.41200391583912688 -0.38124139818414993 0 -0.40214679274244342 -0.37737468703117089 0 -0.41200391583912688 -0.38124139818414993 0 -0.40214679274244342 -0.37737468703117089 0 -0.41391240648923938 -0.36956627301236622 0 -0.41200391583912688 -0.38124139818414993 0 -0.42032112832424651 -0.37891969961936839 0 -0.41391240648923938 -0.36956627301236622 0 -0.41723507549227662 -0.38783865750662871 0 -0.41200391583912688 -0.38124139818414993 0 -0.42032112832424651 -0.37891969961936839 0 -0.40640417614742869 -0.39250767375121509 0 -0.40214679274244342 -0.37737468703117089 0 -0.38711554451442509 -0.38852428951493773 0 -0.40214679274244342 -0.37737468703117089 0 -0.38711554451442509 -0.38852428951493773 0 -0.38857530826680958 -0.36568059869350178 0 -0.40958390772456182 -0.40820187982514899 0 -0.40640417614742869 -0.39250767375121509 0 -0.39624944417912272 -0.40701852024572438 0 -0.40640417614742869 -0.39250767375121509 0 -0.38711554451442509 -0.38852428951493773 0 -0.39624944417912272 -0.40701852024572438 0 -0.38711554451442509 -0.38852428951493773 0 -0.39624944417912272 -0.40701852024572438 0 -0.37683162500655948 -0.40942847475355781 0 -0.38711554451442509 -0.38852428951493773 0 -0.38857530826680958 -0.36568059869350178 0 -0.36872528977584679 -0.37499285316289349 0 -0.38711554451442509 -0.38852428951493773 0 -0.36872528977584679 -0.37499285316289349 0 -0.39569651949875451 -0.43323238492402338 0 -0.40503406341772402 -0.42057186992168533 0 -0.38904050316440641 -0.42050682744641421 0 -0.41345375505944482 -0.43639815219283262 0 -0.39569651949875451 -0.43323238492402338 0 -0.40503406341772402 -0.42057186992168533 0 -0.40503406341772402 -0.42057186992168533 0 -0.39624944417912272 -0.40701852024572438 0 -0.38904050316440641 -0.42050682744641421 0 -0.40958390772456182 -0.40820187982514899 0 -0.40503406341772402 -0.42057186992168533 0 -0.39624944417912272 -0.40701852024572438 0 -0.38904050316440641 -0.42050682744641421 0 -0.37683162500655948 -0.40942847475355781 0 -0.37485224571084158 -0.43445899852372039 0 -0.39624944417912272 -0.40701852024572438 0 -0.38904050316440641 -0.42050682744641421 0 -0.37683162500655948 -0.40942847475355781 0 -0.39569651949875451 -0.43323238492402338 0 -0.38904050316440641 -0.42050682744641421 0 -0.37485224571084158 -0.43445899852372039 0 -0.39408109637919891 -0.4551793967641295 0 -0.37485224571084158 -0.43445899852372039 0 -0.39408109637919891 -0.4551793967641295 0 -0.37296796718052999 -0.46156648724241978 0 -0.37485224571084158 -0.43445899852372039 0 -0.39569651949875451 -0.43323238492402338 0 -0.39408109637919891 -0.4551793967641295 0 -0.37485224571084158 -0.43445899852372039 0 -0.41345375505944482 -0.43639815219283262 0 -0.39569651949875451 -0.43323238492402338 0 -0.39408109637919891 -0.4551793967641295 0 -0.39408109637919891 -0.4551793967641295 0 -0.3987135013669168 -0.47371491534216043 0 -0.4133099470475563 -0.4758997950045385 0 -0.39408109637919891 -0.4551793967641295 0 -0.4133099470475563 -0.4758997950045385 0 -0.39408109637919891 -0.4551793967641295 0 -0.38735936795866921 -0.47881972342998991 0 -0.37296796718052999 -0.46156648724241978 0 -0.38735936795866921 -0.47881972342998991 0 -0.38487081386873673 -0.5 0 -0.39834151574266508 -0.48652128385752708 0 -0.38735936795866921 -0.47881972342998991 0 -0.38487081386873673 -0.5 0 -0.37342391850394668 -0.48962091311957218 0 -0.38487081386873673 -0.5 0 -0.39834151574266508 -0.48652128385752708 0 -0.41027306231487692 -0.5 0 -0.39408109637919891 -0.4551793967641295 0 -0.38735936795866921 -0.47881972342998991 0 -0.3987135013669168 -0.47371491534216043 0 -0.38735936795866921 -0.47881972342998991 0 -0.39834151574266508 -0.48652128385752708 0 -0.3987135013669168 -0.47371491534216043 0 -0.39834151574266508 -0.48652128385752708 0 -0.3987135013669168 -0.47371491534216043 0 -0.4133099470475563 -0.4758997950045385 0 -0.39834151574266508 -0.48652128385752708 0 -0.4133099470475563 -0.4758997950045385 0 -0.39834151574266508 -0.48652128385752708 0 -0.4133099470475563 -0.4758997950045385 0 -0.41049170728583517 -0.48778610906701109 0 -0.4133099470475563 -0.4758997950045385 0 -0.41049170728583517 -0.48778610906701109 0 -0.42449262890428668 -0.48794989750226903 0 -0.4133099470475563 -0.4758997950045385 0 -0.42449262890428668 -0.48794989750226903 0 -0.39834151574266508 -0.48652128385752708 0 -0.41027306231487692 -0.5 0 -0.41049170728583517 -0.48778610906701109 0 -0.41027306231487692 -0.5 0 -0.41049170728583517 -0.48778610906701109 0 -0.42449262890428668 -0.48794989750226903 0 -0.44352824103889771 -0.4793354489760982 0 -0.42449262890428668 -0.48794989750226903 0 -0.43567531076101701 -0.4999999999999995 0 -0.41027306231487692 -0.5 0 -0.42449262890428668 -0.48794989750226903 0 -0.43567531076101701 -0.4999999999999995 0 -0.42449262890428668 -0.48794989750226903 0 -0.43567531076101701 -0.4999999999999995 0 -0.44352824103889771 -0.4793354489760982 0 -0.4133099470475563 -0.4758997950045385 0 -0.42449262890428668 -0.48794989750226903 0 -0.44352824103889771 -0.4793354489760982 0 -0.43758992940750657 -0.45867089795219962 0 -0.4133099470475563 -0.4758997950045385 0 -0.43758992940750657 -0.45867089795219962 0 -0.4133099470475563 -0.4758997950045385 0 -0.4160654247590056 -0.45406013416324759 0 -0.43758992940750657 -0.45867089795219962 0 -0.4133099470475563 -0.4758997950045385 0 -0.43758992940750657 -0.45867089795219962 0 -0.43171907702726747 -0.43824109633586461 0 -0.43758992940750657 -0.45867089795219962 0 -0.43171907702726747 -0.43824109633586461 0 -0.4160654247590056 -0.45406013416324759 0 -0.41345375505944482 -0.43639815219283262 0 -0.39408109637919891 -0.4551793967641295 0 -0.4160654247590056 -0.45406013416324759 0 -0.41345375505944482 -0.43639815219283262 0 -0.43171907702726747 -0.43824109633586461 0 -0.4160654247590056 -0.45406013416324759 0 -0.39408109637919891 -0.4551793967641295 0 -0.4133099470475563 -0.4758997950045385 0 -0.4160654247590056 -0.45406013416324759 0 -0.45540603302393468 -0.2531222969012123 0 -0.4369958025791012 -0.26562869093227948 0 -0.43671774811853581 -0.2462955089460456 0 -0.45722236565678293 -0.28103846613282307 0 -0.45540603302393468 -0.2531222969012123 0 -0.4369958025791012 -0.26562869093227948 0 -0.45722236565678293 -0.28103846613282307 0 -0.44089100749532162 -0.28505667658249101 0 -0.4369958025791012 -0.26562869093227948 0 -0.45722236565678293 -0.28103846613282307 0 -0.4369958025791012 -0.26562869093227948 0 -0.45540603302393468 -0.2531222969012123 0 -0.47455237031219483 -0.26169705396472459 0 -0.47567343178643012 -0.23696598380135181 0 -0.45722236565678293 -0.28103846613282307 0 -0.45540603302393468 -0.2531222969012123 0 -0.47455237031219483 -0.26169705396472459 0 -0.49999999999999639 -0.27427093258491553 0 -0.4860175487955356 -0.27132994029943341 0 -0.5 -0.24619626171738199 0 -0.47455237031219483 -0.26169705396472459 0 -0.4860175487955356 -0.27132994029943341 0 -0.5 -0.24619626171738199 0 -0.49999999999999639 -0.27427093258491553 0 -0.48872446436722949 -0.28535958695914038 0 -0.49999999999999639 -0.27427093258491553 0 -0.4860175487955356 -0.27132994029943341 0 -0.48872446436722949 -0.28535958695914038 0 -0.45722236565678293 -0.28103846613282307 0 -0.47455237031219483 -0.26169705396472459 0 -0.47679313557324138 -0.27917465773789768 0 -0.47455237031219483 -0.26169705396472459 0 -0.4860175487955356 -0.27132994029943341 0 -0.47679313557324138 -0.27917465773789768 0 -0.4860175487955356 -0.27132994029943341 0 -0.47679313557324138 -0.27917465773789768 0 -0.48872446436722949 -0.28535958695914038 0 -0.47679313557324138 -0.27917465773789768 0 -0.47744892873446421 -0.29644824133336711 0 -0.48872446436722949 -0.28535958695914038 0 -0.45722236565678293 -0.28103846613282307 0 -0.47679313557324138 -0.27917465773789768 0 -0.47744892873446421 -0.29644824133336711 0 -0.47744892873446421 -0.29644824133336711 0 -0.48872446436722949 -0.28535958695914038 0 -0.49999999999999639 -0.27427093258491553 0 -0.48872446436722949 -0.28535958695914038 0 -0.5 -0.29394994750133241 0 -0.47744892873446421 -0.29644824133336711 0 -0.48872446436722949 -0.28535958695914038 0 -0.5 -0.29394994750133241 0 -0.47744892873446421 -0.29644824133336711 0 -0.5 -0.29394994750133241 0 -0.49999999999999911 -0.31362896241774929 0 -0.47744892873446421 -0.29644824133336711 0 -0.48098469279461459 -0.3145688467110993 0 -0.49999999999999911 -0.31362896241774929 0 -0.47744892873446421 -0.29644824133336711 0 -0.49999999999999911 -0.31362896241774929 0 -0.47744892873446421 -0.29644824133336711 0 -0.46358190822706952 -0.31008542918987891 0 -0.48098469279461459 -0.3145688467110993 0 -0.47744892873446421 -0.29644824133336711 0 -0.46358190822706952 -0.31008542918987891 0 -0.46358190822706952 -0.31008542918987891 0 -0.45201119348549551 -0.30011779660937571 0 -0.44971488771967499 -0.32372261704639088 0 -0.46358190822706952 -0.31008542918987891 0 -0.46256609902595303 -0.29692248331636117 0 -0.45201119348549551 -0.30011779660937571 0 -0.47744892873446421 -0.29644824133336711 0 -0.46358190822706952 -0.31008542918987891 0 -0.46256609902595303 -0.29692248331636117 0 -0.45722236565678293 -0.28103846613282307 0 -0.47744892873446421 -0.29644824133336711 0 -0.46256609902595303 -0.29692248331636117 0 -0.45722236565678293 -0.28103846613282307 0 -0.47744892873446421 -0.29644824133336711 0 -0.45722236565678293 -0.28103846613282307 0 -0.46256609902595303 -0.29692248331636117 0 -0.45201119348549551 -0.30011779660937571 0 -0.44089100749532162 -0.28505667658249101 0 -0.45201119348549551 -0.30011779660937571 0 -0.43596993304377318 -0.30346334268956793 0 -0.45722236565678293 -0.28103846613282307 0 -0.44089100749532162 -0.28505667658249101 0 -0.45201119348549551 -0.30011779660937571 0 -0.45201119348549551 -0.30011779660937571 0 -0.44971488771967499 -0.32372261704639088 0 -0.43596993304377318 -0.30346334268956793 0 -0.44971488771967499 -0.32372261704639088 0 -0.43305272272028872 -0.32052958043614271 0 -0.43596993304377318 -0.30346334268956793 0 -0.44971488771967499 -0.32372261704639088 0 -0.43526733625305031 -0.33793071411467712 0 -0.43305272272028872 -0.32052958043614271 0 -0.44971488771967499 -0.32372261704639088 0 -0.43596993304377318 -0.30346334268956793 0 -0.44971488771967499 -0.32372261704639088 0 -0.43526733625305031 -0.33793071411467712 0 -0.44971488771967499 -0.32372261704639088 0 -0.4594929083827774 -0.33813485833429507 0 -0.43526733625305031 -0.33793071411467712 0 -0.44971488771967499 -0.32372261704639088 0 -0.4594929083827774 -0.33813485833429507 0 -0.46668851702680147 -0.32543345322996592 0 -0.4594929083827774 -0.33813485833429507 0 -0.46668851702680147 -0.32543345322996592 0 -0.47520810754489862 -0.34090316547162253 0 -0.44971488771967499 -0.32372261704639088 0 -0.4594929083827774 -0.33813485833429507 0 -0.46358190822706952 -0.31008542918987891 0 -0.44971488771967499 -0.32372261704639088 0 -0.46668851702680147 -0.32543345322996592 0 -0.46358190822706952 -0.31008542918987891 0 -0.44971488771967499 -0.32372261704639088 0 -0.46358190822706952 -0.31008542918987891 0 -0.46668851702680147 -0.32543345322996592 0 -0.48098469279461459 -0.3145688467110993 0 -0.46668851702680147 -0.32543345322996592 0 -0.48098469279461459 -0.3145688467110993 0 -0.47983318992937102 -0.32899935199820601 0 -0.48098469279461459 -0.3145688467110993 0 -0.48978973832358857 -0.32450048389647818 0 -0.47983318992937102 -0.32899935199820601 0 -0.48098469279461459 -0.3145688467110993 0 -0.49999999999999911 -0.31362896241774929 0 -0.48978973832358857 -0.32450048389647818 0 -0.49999999999999911 -0.31362896241774929 0 -0.48978973832358857 -0.32450048389647818 0 -0.5 -0.33058739826605071 0 -0.5 -0.33058739826605071 0 -0.48826332827671648 -0.33703342611919701 0 -0.50000000000000322 -0.34754583411435203 0 -0.48978973832358857 -0.32450048389647818 0 -0.5 -0.33058739826605071 0 -0.48826332827671648 -0.33703342611919701 0 -0.48978973832358857 -0.32450048389647818 0 -0.48826332827671648 -0.33703342611919701 0 -0.47983318992937102 -0.32899935199820601 0 -0.48826332827671648 -0.33703342611919701 0 -0.47520810754489862 -0.34090316547162253 0 -0.48463546452293987 -0.35004646686828211 0 -0.48826332827671648 -0.33703342611919701 0 -0.47983318992937102 -0.32899935199820601 0 -0.47520810754489862 -0.34090316547162253 0 -0.46668851702680147 -0.32543345322996592 0 -0.47983318992937102 -0.32899935199820601 0 -0.47520810754489862 -0.34090316547162253 0 -0.46927092904587497 -0.35254709962220238 0 -0.48463546452293987 -0.35004646686828211 0 -0.48906337540297412 -0.36108182429693059 0 -0.47520810754489862 -0.34090316547162253 0 -0.46927092904587497 -0.35254709962220238 0 -0.48463546452293987 -0.35004646686828211 0 -0.46927092904587497 -0.35254709962220238 0 -0.48463546452293987 -0.35004646686828211 0 -0.48826332827671648 -0.33703342611919701 0 -0.48463546452293987 -0.35004646686828211 0 -0.50000000000000322 -0.34754583411435203 0 -0.48463546452293987 -0.35004646686828211 0 -0.50000000000000322 -0.34754583411435203 0 -0.48906337540297412 -0.36108182429693059 0 -0.48463546452293987 -0.35004646686828211 0 -0.50000000000000322 -0.34754583411435203 0 -0.50000000000000322 -0.34754583411435203 0 -0.5 -0.3726929103767872 0 -0.48906337540297412 -0.36108182429693059 0 -0.48463546452293871 -0.37519354313071163 0 -0.5 -0.3726929103767872 0 -0.48906337540297412 -0.36108182429693059 0 -0.48463546452293871 -0.37519354313071163 0 -0.46927092904587497 -0.35254709962220238 0 -0.48906337540297412 -0.36108182429693059 0 -0.48463546452293871 -0.37519354313071163 0 -0.46349689164547808 -0.37822119677520832 0 -0.46927092904587497 -0.35254709962220238 0 -0.48463546452293871 -0.37519354313071163 0 -0.46927092904587497 -0.35254709962220238 0 -0.46349689164547808 -0.37822119677520832 0 -0.46927092904587497 -0.35254709962220238 0 -0.44496790671379022 -0.35650250287887508 0 -0.46927092904587497 -0.35254709962220238 0 -0.44496790671379022 -0.35650250287887508 0 -0.4594929083827774 -0.33813485833429507 0 -0.46927092904587497 -0.35254709962220238 0 -0.44496790671379022 -0.35650250287887508 0 -0.4594929083827774 -0.33813485833429507 0 -0.47520810754489862 -0.34090316547162253 0 -0.46927092904587497 -0.35254709962220238 0 -0.4594929083827774 -0.33813485833429507 0 -0.46927092904587497 -0.35254709962220238 0 -0.4594929083827774 -0.33813485833429507 0 -0.44496790671379022 -0.35650250287887508 0 -0.43526733625305031 -0.33793071411467712 0 -0.46349689164547808 -0.37822119677520832 0 -0.44446391451040829 -0.38070603820386711 0 -0.44496790671379022 -0.35650250287887508 0 -0.44446391451040829 -0.38070603820386711 0 -0.44496790671379022 -0.35650250287887508 0 -0.4331242049343027 -0.36992399405912962 0 -0.44496790671379022 -0.35650250287887508 0 -0.4331242049343027 -0.36992399405912962 0 -0.42066488438170441 -0.36045790613554168 0 -0.42032112832424651 -0.37891969961936839 0 -0.4331242049343027 -0.36992399405912962 0 -0.42066488438170441 -0.36045790613554168 0 -0.44496790671379022 -0.35650250287887508 0 -0.42066488438170441 -0.36045790613554168 0 -0.44496790671379022 -0.35650250287887508 0 -0.42081978478642579 -0.35213881118296347 0 -0.42066488438170441 -0.36045790613554168 0 -0.44496790671379022 -0.35650250287887508 0 -0.42081978478642579 -0.35213881118296347 0 -0.43526733625305031 -0.33793071411467712 0 -0.42081978478642579 -0.35213881118296347 0 -0.43526733625305031 -0.33793071411467712 0 -0.42081978478642579 -0.35213881118296347 0 -0.42066488438170441 -0.36045790613554168 0 -0.42081978478642579 -0.35213881118296347 0 -0.41785319434510859 -0.35505623321461038 0 -0.42066488438170441 -0.36045790613554168 0 -0.42081978478642579 -0.35213881118296347 0 -0.41785319434510859 -0.35505623321461038 0 -0.42081978478642579 -0.35213881118296347 0 -0.41785319434510859 -0.35505623321461038 0 -0.413932202482581 -0.34810215463481559 0 -0.40743416984122788 -0.35136670726317698 0 -0.413932202482581 -0.34810215463481559 0 -0.40711686359181881 -0.34000546381794799 0 -0.41785319434510859 -0.35505623321461038 0 -0.40743416984122788 -0.35136670726317698 0 -0.413932202482581 -0.34810215463481559 0 -0.41785319434510859 -0.35505623321461038 0 -0.40743416984122788 -0.35136670726317698 0 -0.40462009632425677 -0.3630692524145202 0 -0.42066488438170441 -0.36045790613554168 0 -0.41391240648923938 -0.36956627301236622 0 -0.40462009632425677 -0.3630692524145202 0 -0.41785319434510859 -0.35505623321461038 0 -0.42066488438170441 -0.36045790613554168 0 -0.40462009632425677 -0.3630692524145202 0 -0.42032112832424651 -0.37891969961936839 0 -0.42066488438170441 -0.36045790613554168 0 -0.42066488438170441 -0.36045790613554168 0 -0.40462009632425677 -0.3630692524145202 0 -0.42032112832424651 -0.37891969961936839 0 -0.42066488438170441 -0.36045790613554168 0 -0.41391240648923938 -0.36956627301236622 0 -0.40214679274244342 -0.37737468703117089 0 -0.41391240648923938 -0.36956627301236622 0 -0.40462009632425677 -0.3630692524145202 0 -0.40462009632425677 -0.3630692524145202 0 -0.38857530826680958 -0.36568059869350178 0 -0.40462009632425677 -0.3630692524145202 0 -0.38857530826680958 -0.36568059869350178 0 -0.38771921000108672 -0.3544921291760248 0 -0.40214679274244342 -0.37737468703117089 0 -0.40462009632425677 -0.3630692524145202 0 -0.38857530826680958 -0.36568059869350178 0 -0.38857530826680958 -0.36568059869350178 0 -0.37256351072374799 -0.35584559064551141 0 -0.36872528977584679 -0.37499285316289349 0 -0.38382977031941801 -0.34262075737958392 0 -0.37311565519961942 -0.33666320947462558 0 -0.37256351072374799 -0.35584559064551141 0 -0.38857530826680958 -0.36568059869350178 0 -0.38771921000108672 -0.3544921291760248 0 -0.37256351072374799 -0.35584559064551141 0 -0.38771921000108672 -0.3544921291760248 0 -0.38382977031941801 -0.34262075737958392 0 -0.37256351072374799 -0.35584559064551141 0 -0.38771921000108672 -0.3544921291760248 0 -0.39696910499078669 -0.3473289358502118 0 -0.38382977031941801 -0.34262075737958392 0 -0.40743416984122788 -0.35136670726317698 0 -0.40462009632425677 -0.3630692524145202 0 -0.39696910499078669 -0.3473289358502118 0 -0.40462009632425677 -0.3630692524145202 0 -0.38771921000108672 -0.3544921291760248 0 -0.39696910499078669 -0.3473289358502118 0 -0.40743416984122788 -0.35136670726317698 0 -0.39696910499078669 -0.3473289358502118 0 -0.40711686359181881 -0.34000546381794799 0 -0.39600615451372778 -0.33405354940137377 0 -0.40820653926868938 -0.32434603331370299 0 -0.40711686359181881 -0.34000546381794799 0 -0.39696910499078669 -0.3473289358502118 0 -0.39600615451372778 -0.33405354940137377 0 -0.40711686359181881 -0.34000546381794799 0 -0.39696910499078669 -0.3473289358502118 0 -0.39600615451372778 -0.33405354940137377 0 -0.38382977031941801 -0.34262075737958392 0 -0.39600615451372778 -0.33405354940137377 0 -0.38382977031941801 -0.34262075737958392 0 -0.38342869460024909 -0.32758979070449101 0 -0.38382977031941801 -0.34262075737958392 0 -0.38342869460024909 -0.32758979070449101 0 -0.37311565519961942 -0.33666320947462558 0 -0.38342869460024909 -0.32758979070449101 0 -0.36870267080942459 -0.31988299957371608 0 -0.37311565519961942 -0.33666320947462558 0 -0.38342869460024909 -0.32758979070449101 0 -0.38433900000461452 -0.31299973826461719 0 -0.36870267080942459 -0.31988299957371608 0 -0.38342869460024909 -0.32758979070449101 0 -0.38433900000461452 -0.31299973826461719 0 -0.39581152844373563 -0.32096613969425808 0 -0.38433900000461452 -0.31299973826461719 0 -0.39581152844373563 -0.32096613969425808 0 -0.39656962912762439 -0.3094774219528848 0 -0.39600615451372778 -0.33405354940137377 0 -0.38342869460024909 -0.32758979070449101 0 -0.39581152844373563 -0.32096613969425808 0 -0.39600615451372778 -0.33405354940137377 0 -0.39581152844373563 -0.32096613969425808 0 -0.40820653926868938 -0.32434603331370299 0 -0.39581152844373563 -0.32096613969425808 0 -0.40820653926868938 -0.32434603331370299 0 -0.40695564380043309 -0.31164486047306261 0 -0.39581152844373563 -0.32096613969425808 0 -0.40695564380043309 -0.31164486047306261 0 -0.39656962912762439 -0.3094774219528848 0 -0.42122425387732948 -0.33041635810951803 0 -0.42162872296823312 -0.30869390503607241 0 -0.40820653926868938 -0.32434603331370299 0 -0.42162872296823312 -0.30869390503607241 0 -0.40695564380043309 -0.31164486047306261 0 -0.40820653926868938 -0.32434603331370299 0 -0.42122425387732948 -0.33041635810951803 0 -0.42162872296823312 -0.30869390503607241 0 -0.40820653926868938 -0.32434603331370299 0 -0.42122425387732948 -0.33041635810951803 0 -0.40711686359181881 -0.34000546381794799 0 -0.42081978478642579 -0.35213881118296347 0 -0.42122425387732948 -0.33041635810951803 0 -0.413932202482581 -0.34810215463481559 0 -0.42122425387732948 -0.33041635810951803 0 -0.40711686359181881 -0.34000546381794799 0 -0.42081978478642579 -0.35213881118296347 0 -0.413932202482581 -0.34810215463481559 0 -0.42122425387732948 -0.33041635810951803 0 -0.42081978478642579 -0.35213881118296347 0 -0.42122425387732948 -0.33041635810951803 0 -0.43526733625305031 -0.33793071411467712 0 -0.42122425387732948 -0.33041635810951803 0 -0.43526733625305031 -0.33793071411467712 0 -0.43305272272028872 -0.32052958043614271 0 -0.42122425387732948 -0.33041635810951803 0 -0.43305272272028872 -0.32052958043614271 0 -0.42162872296823312 -0.30869390503607241 0 -0.43305272272028872 -0.32052958043614271 0 -0.43596993304377318 -0.30346334268956793 0 -0.42162872296823312 -0.30869390503607241 0 -0.43596993304377318 -0.30346334268956793 0 -0.42203319205913659 -0.28697145196262669 0 -0.42162872296823312 -0.30869390503607241 0 -0.43596993304377318 -0.30346334268956793 0 -0.43244155345297602 -0.28732270882188671 0 -0.42222497836786987 -0.28320406833274581 0 -0.43596993304377318 -0.30346334268956793 0 -0.42203319205913659 -0.28697145196262669 0 -0.42222497836786987 -0.28320406833274581 0 -0.43596993304377318 -0.30346334268956793 0 -0.42222497836786987 -0.28320406833274581 0 -0.44089100749532162 -0.28505667658249101 0 -0.43596993304377318 -0.30346334268956793 0 -0.43244155345297602 -0.28732270882188671 0 -0.44089100749532162 -0.28505667658249101 0 -0.43244155345297602 -0.28732270882188671 0 -0.43068029490493948 -0.27756674768274209 0 -0.43244155345297602 -0.28732270882188671 0 -0.42222497836786987 -0.28320406833274581 0 -0.43068029490493948 -0.27756674768274209 0 -0.42203319205913659 -0.28697145196262669 0 -0.4171295856555487 -0.29123813497021728 0 -0.42162872296823312 -0.30869390503607241 0 -0.4171295856555487 -0.29123813497021728 0 -0.41215637931009402 -0.28863194716311558 0 -0.41313122711392802 -0.29614600539022029 0 -0.4171295856555487 -0.29123813497021728 0 -0.4144539541383041 -0.28187187103766842 0 -0.41215637931009402 -0.28863194716311558 0 -0.4171295856555487 -0.29123813497021728 0 -0.41896042755521479 -0.28582138157581449 0 -0.4144539541383041 -0.28187187103766842 0 -0.42222497836786987 -0.28320406833274581 0 -0.41896042755521479 -0.28582138157581449 0 -0.4144539541383041 -0.28187187103766842 0 -0.42203319205913659 -0.28697145196262669 0 -0.4171295856555487 -0.29123813497021728 0 -0.41896042755521479 -0.28582138157581449 0 -0.42203319205913659 -0.28697145196262669 0 -0.42222497836786987 -0.28320406833274581 0 -0.41896042755521479 -0.28582138157581449 0 -0.41215637931009402 -0.28863194716311558 0 -0.40708266031748608 -0.28159552216748668 0 -0.40726587111186019 -0.29142333590965769 0 -0.4144539541383041 -0.28187187103766842 0 -0.41215637931009402 -0.28863194716311558 0 -0.40708266031748608 -0.28159552216748668 0 -0.41215637931009402 -0.28863194716311558 0 -0.41313122711392802 -0.29614600539022029 0 -0.40726587111186019 -0.29142333590965769 0 -0.40726587111186019 -0.29142333590965769 0 -0.40844090888373191 -0.29737230959764521 0 -0.40372079973323072 -0.29749546985036318 0 -0.41313122711392802 -0.29614600539022029 0 -0.40726587111186019 -0.29142333590965769 0 -0.40844090888373191 -0.29737230959764521 0 -0.4171295856555487 -0.29123813497021728 0 -0.41313122711392802 -0.29614600539022029 0 -0.42162872296823312 -0.30869390503607241 0 -0.42203319205913659 -0.28697145196262669 0 -0.42162872296823312 -0.30869390503607241 0 -0.40844090888373191 -0.29737230959764521 0 -0.41111812806770781 -0.3033707427495127 0 -0.4042630042413482 -0.30334756472367719 0 -0.41313122711392802 -0.29614600539022029 0 -0.40844090888373191 -0.29737230959764521 0 -0.41111812806770781 -0.3033707427495127 0 -0.41313122711392802 -0.29614600539022029 0 -0.41111812806770781 -0.3033707427495127 0 -0.42162872296823312 -0.30869390503607241 0 -0.41111812806770781 -0.3033707427495127 0 -0.40695564380043309 -0.31164486047306261 0 -0.4042630042413482 -0.30334756472367719 0 -0.41111812806770781 -0.3033707427495127 0 -0.42162872296823312 -0.30869390503607241 0 -0.40695564380043309 -0.31164486047306261 0 -0.40695564380043309 -0.31164486047306261 0 -0.4042630042413482 -0.30334756472367719 0 -0.39656962912762439 -0.3094774219528848 0 -0.4042630042413482 -0.30334756472367719 0 -0.39820926705398962 -0.30174991093426279 0 -0.39656962912762439 -0.3094774219528848 0 -0.40844090888373191 -0.29737230959764521 0 -0.40372079973323072 -0.29749546985036318 0 -0.4042630042413482 -0.30334756472367719 0 -0.40372079973323072 -0.29749546985036318 0 -0.4042630042413482 -0.30334756472367719 0 -0.39820926705398962 -0.30174991093426279 0 -0.40372079973323072 -0.29749546985036318 0 -0.39820926705398962 -0.30174991093426279 0 -0.39835955707199278 -0.29680879195588289 0 -0.39820926705398962 -0.30174991093426279 0 -0.3934949953895962 -0.29650912992801148 0 -0.39835955707199278 -0.29680879195588289 0 -0.39820926705398962 -0.30174991093426279 0 -0.39059182407556892 -0.30352434935272399 0 -0.3934949953895962 -0.29650912992801148 0 -0.39820926705398962 -0.30174991093426279 0 -0.39656962912762439 -0.3094774219528848 0 -0.39059182407556892 -0.30352434935272399 0 -0.38433900000461452 -0.31299973826461719 0 -0.39656962912762439 -0.3094774219528848 0 -0.39059182407556892 -0.30352434935272399 0 -0.38433900000461452 -0.31299973826461719 0 -0.37788648869550201 -0.29909379095515021 0 -0.36870267080942459 -0.31988299957371608 0 -0.38433900000461452 -0.31299973826461719 0 -0.39059182407556892 -0.30352434935272399 0 -0.38293223810199389 -0.30122834682443422 0 -0.39059182407556892 -0.30352434935272399 0 -0.3867374360719964 -0.29793960450394852 0 -0.3934949953895962 -0.29650912992801148 0 -0.39059182407556892 -0.30352434935272399 0 -0.3867374360719964 -0.29793960450394852 0 -0.38293223810199389 -0.30122834682443422 0 -0.38433900000461452 -0.31299973826461719 0 -0.38293223810199389 -0.30122834682443422 0 -0.37788648869550201 -0.29909379095515021 0 -0.3867374360719964 -0.29793960450394852 0 -0.38293223810199389 -0.30122834682443422 0 -0.37788648869550201 -0.29909379095515021 0 -0.38293223810199389 -0.30122834682443422 0 -0.37788648869550201 -0.29909379095515021 0 -0.37788648869550201 -0.29909379095515021 0 -0.38806430372143152 -0.27605449265024889 0 -0.36998978819774048 -0.28183763392024008 0 -0.37788648869550201 -0.29909379095515021 0 -0.38806430372143152 -0.27605449265024889 0 -0.37788648869550201 -0.29909379095515021 0 -0.3888241457941366 -0.2904673781217485 0 -0.38806430372143152 -0.27605449265024889 0 -0.3867374360719964 -0.29793960450394852 0 -0.37788648869550201 -0.29909379095515021 0 -0.3888241457941366 -0.2904673781217485 0 -0.3867374360719964 -0.29793960450394852 0 -0.3888241457941366 -0.2904673781217485 0 -0.3934949953895962 -0.29650912992801148 0 -0.3888241457941366 -0.2904673781217485 0 -0.39814156123687239 -0.28813974135054798 0 -0.38806430372143152 -0.27605449265024889 0 -0.3888241457941366 -0.2904673781217485 0 -0.39814156123687239 -0.28813974135054798 0 -0.3934949953895962 -0.29650912992801148 0 -0.39814156123687239 -0.28813974135054798 0 -0.3934949953895962 -0.29650912992801148 0 -0.39835955707199278 -0.29680879195588289 0 -0.40726587111186019 -0.29142333590965769 0 -0.40372079973323072 -0.29749546985036318 0 -0.39814156123687239 -0.28813974135054798 0 -0.40372079973323072 -0.29749546985036318 0 -0.39814156123687239 -0.28813974135054798 0 -0.39835955707199278 -0.29680879195588289 0 -0.40708266031748608 -0.28159552216748668 0 -0.40726587111186019 -0.29142333590965769 0 -0.39814156123687239 -0.28813974135054798 0 -0.39898033300680591 -0.27356116971385508 0 -0.38806430372143152 -0.27605449265024889 0 -0.38924912100373782 -0.25894014718292357 0 -0.40708266031748608 -0.28159552216748668 0 -0.39898033300680591 -0.27356116971385508 0 -0.40848002369196668 -0.26294479397592369 0 -0.40708266031748608 -0.28159552216748668 0 -0.39814156123687239 -0.28813974135054798 0 -0.39898033300680591 -0.27356116971385508 0 -0.39814156123687239 -0.28813974135054798 0 -0.39898033300680591 -0.27356116971385508 0 -0.38806430372143152 -0.27605449265024889 0 -0.38806430372143152 -0.27605449265024889 0 -0.38924912100373782 -0.25894014718292357 0 -0.36697682855123132 -0.2579397511407564 0 -0.38924912100373782 -0.25894014718292357 0 -0.36697682855123132 -0.2579397511407564 0 -0.3767973705569283 -0.24112323216075551 0 -0.39898033300680591 -0.27356116971385508 0 -0.38924912100373782 -0.25894014718292357 0 -0.40848002369196668 -0.26294479397592369 0 -0.40848002369196668 -0.26294479397592369 0 -0.39473506901606342 -0.24268551961910159 0 -0.38924912100373782 -0.25894014718292357 0 -0.40848002369196668 -0.26294479397592369 0 -0.39473506901606342 -0.24268551961910159 0 -0.41676923950141981 -0.25021891573173599 0 -0.40848002369196668 -0.26294479397592369 0 -0.39473506901606342 -0.24268551961910159 0 -0.41676923950141981 -0.25021891573173599 0 -0.40848002369196668 -0.26294479397592369 0 -0.42235817069396903 -0.26832141728469971 0 -0.42222497836786987 -0.28320406833274581 0 -0.40848002369196668 -0.26294479397592369 0 -0.42222497836786987 -0.28320406833274581 0 -0.40848002369196668 -0.26294479397592369 0 -0.42235817069396903 -0.26832141728469971 0 -0.42222497836786987 -0.28320406833274581 0 -0.4144539541383041 -0.28187187103766842 0 -0.40848002369196668 -0.26294479397592369 0 -0.4144539541383041 -0.28187187103766842 0 -0.40708266031748608 -0.28159552216748668 0 -0.40848002369196668 -0.26294479397592369 0 -0.44089100749532162 -0.28505667658249101 0 -0.43068029490493948 -0.27756674768274209 0 -0.4369958025791012 -0.26562869093227948 0 -0.42222497836786987 -0.28320406833274581 0 -0.42235817069396903 -0.26832141728469971 0 -0.43068029490493948 -0.27756674768274209 0 -0.42235817069396903 -0.26832141728469971 0 -0.43068029490493948 -0.27756674768274209 0 -0.4369958025791012 -0.26562869093227948 0 -0.41676923950141981 -0.25021891573173599 0 -0.42235817069396903 -0.26832141728469971 0 -0.4369958025791012 -0.26562869093227948 0 -0.41676923950141981 -0.25021891573173599 0 -0.4369958025791012 -0.26562869093227948 0 -0.41676923950141981 -0.25021891573173599 0 -0.4369958025791012 -0.26562869093227948 0 -0.43671774811853581 -0.2462955089460456 0 -0.32144586109570311 -0.2560533286399938 0 -0.32632677128476378 -0.27728194725243788 0 -0.30054691257939542 -0.2663760254010798 0 -0.32632677128476378 -0.27728194725243788 0 -0.30054691257939542 -0.2663760254010798 0 -0.32632677128476378 -0.27728194725243788 0 -0.33974311574663402 -0.25738553055922281 0 -0.35373949187277282 -0.2696500498908409 0 -0.32144586109570311 -0.2560533286399938 0 -0.32632677128476378 -0.27728194725243788 0 -0.33974311574663402 -0.25738553055922281 0 -0.33974311574663402 -0.25738553055922281 0 -0.36697682855123132 -0.2579397511407564 0 -0.35373949187277282 -0.2696500498908409 0 -0.38806430372143152 -0.27605449265024889 0 -0.36697682855123132 -0.2579397511407564 0 -0.36998978819774048 -0.28183763392024008 0 -0.36697682855123132 -0.2579397511407564 0 -0.35373949187277282 -0.2696500498908409 0 -0.36998978819774048 -0.28183763392024008 0 -0.32632677128476378 -0.27728194725243788 0 -0.35373949187277282 -0.2696500498908409 0 -0.35210662999013198 -0.28818786910379601 0 -0.35373949187277282 -0.2696500498908409 0 -0.35210662999013198 -0.28818786910379601 0 -0.36998978819774048 -0.28183763392024008 0 -0.37788648869550201 -0.29909379095515021 0 -0.35210662999013198 -0.28818786910379601 0 -0.37788648869550201 -0.29909379095515021 0 -0.35210662999013198 -0.28818786910379601 0 -0.36998978819774048 -0.28183763392024008 0 -0.37788648869550201 -0.29909379095515021 0 -0.36051767235779919 -0.30542767532780379 0 -0.36870267080942459 -0.31988299957371608 0 -0.37788648869550201 -0.29909379095515021 0 -0.36870267080942459 -0.31988299957371608 0 -0.37788648869550201 -0.29909379095515021 0 -0.35210662999013198 -0.28818786910379601 0 -0.36051767235779919 -0.30542767532780379 0 -0.36051767235779919 -0.30542767532780379 0 -0.34644534461629051 -0.30915085074523652 0 -0.35258112996053842 -0.32151098948337931 0 -0.35210662999013198 -0.28818786910379601 0 -0.36051767235779919 -0.30542767532780379 0 -0.34644534461629051 -0.30915085074523652 0 -0.34644534461629051 -0.30915085074523652 0 -0.3299212036747573 -0.30489744040171912 0 -0.33788746548564869 -0.32154921755166038 0 -0.35210662999013198 -0.28818786910379601 0 -0.34644534461629051 -0.30915085074523652 0 -0.3299212036747573 -0.30489744040171912 0 -0.32632677128476378 -0.27728194725243788 0 -0.35210662999013198 -0.28818786910379601 0 -0.32632677128476378 -0.27728194725243788 0 -0.35210662999013198 -0.28818786910379601 0 -0.3299212036747573 -0.30489744040171912 0 -0.32632677128476378 -0.27728194725243788 0 -0.3299212036747573 -0.30489744040171912 0 -0.31213778502428557 -0.29909099471600031 0 -0.32632677128476378 -0.27728194725243788 0 -0.31213778502428557 -0.29909099471600031 0 -0.3071590778169353 -0.28334701425030068 0 -0.3299212036747573 -0.30489744040171912 0 -0.31165345630254471 -0.31242627531325989 0 -0.31213778502428557 -0.29909099471600031 0 -0.3299212036747573 -0.30489744040171912 0 -0.32379671618599642 -0.32494215653769332 0 -0.31165345630254471 -0.31242627531325989 0 -0.32379671618599642 -0.32494215653769332 0 -0.31692177349128781 -0.33687614442877689 0 -0.2991718660388526 -0.3201958703040288 0 -0.31692177349128781 -0.33687614442877689 0 -0.33028617729918952 -0.33460945771608619 0 -0.3336284042642782 -0.34916878061981299 0 -0.31692177349128781 -0.33687614442877689 0 -0.3336284042642782 -0.34916878061981299 0 -0.32379671618599642 -0.32494215653769332 0 -0.31692177349128781 -0.33687614442877689 0 -0.33028617729918952 -0.33460945771608619 0 -0.33028617729918952 -0.33460945771608619 0 -0.34241477357072042 -0.33238298550957701 0 -0.3336284042642782 -0.34916878061981299 0 -0.33028617729918952 -0.33460945771608619 0 -0.34241477357072042 -0.33238298550957701 0 -0.33788746548564869 -0.32154921755166038 0 -0.3299212036747573 -0.30489744040171912 0 -0.32379671618599642 -0.32494215653769332 0 -0.33788746548564869 -0.32154921755166038 0 -0.32379671618599642 -0.32494215653769332 0 -0.33028617729918952 -0.33460945771608619 0 -0.33788746548564869 -0.32154921755166038 0 -0.34644534461629051 -0.30915085074523652 0 -0.33788746548564869 -0.32154921755166038 0 -0.35258112996053842 -0.32151098948337931 0 -0.34241477357072042 -0.33238298550957701 0 -0.33788746548564869 -0.32154921755166038 0 -0.35258112996053842 -0.32151098948337931 0 -0.36051767235779919 -0.30542767532780379 0 -0.35258112996053842 -0.32151098948337931 0 -0.36870267080942459 -0.31988299957371608 0 -0.35258112996053842 -0.32151098948337931 0 -0.36870267080942459 -0.31988299957371608 0 -0.35951885292334718 -0.34067220819228211 0 -0.36870267080942459 -0.31988299957371608 0 -0.35951885292334718 -0.34067220819228211 0 -0.36870267080942459 -0.31988299957371608 0 -0.35951885292334718 -0.34067220819228211 0 -0.37311565519961942 -0.33666320947462558 0 -0.34241477357072042 -0.33238298550957701 0 -0.35951885292334718 -0.34067220819228211 0 -0.3336284042642782 -0.34916878061981299 0 -0.34241477357072042 -0.33238298550957701 0 -0.35258112996053842 -0.32151098948337931 0 -0.35951885292334718 -0.34067220819228211 0 -0.35951885292334718 -0.34067220819228211 0 -0.35033503503726948 -0.36146141681084792 0 -0.3336284042642782 -0.34916878061981299 0 -0.35951885292334718 -0.34067220819228211 0 -0.35033503503726948 -0.36146141681084792 0 -0.35951885292334718 -0.34067220819228211 0 -0.37311565519961942 -0.33666320947462558 0 -0.37256351072374799 -0.35584559064551141 0 -0.35951885292334718 -0.34067220819228211 0 -0.37256351072374799 -0.35584559064551141 0 -0.35033503503726948 -0.36146141681084792 0 -0.37256351072374799 -0.35584559064551141 0 -0.36872528977584679 -0.37499285316289349 0 -0.35033503503726948 -0.36146141681084792 0 -0.36872528977584679 -0.37499285316289349 0 -0.35033503503726948 -0.36146141681084792 0 -0.36872528977584679 -0.37499285316289349 0 -0.35033503503726948 -0.36146141681084792 0 -0.34336478970569861 -0.37723980942687502 0 -0.35033503503726948 -0.36146141681084792 0 -0.34336478970569861 -0.37723980942687502 0 -0.33244139342984769 -0.36559328719085599 0 -0.34336478970569861 -0.37723980942687502 0 -0.32264629524730598 -0.37820352580825489 0 -0.35033503503726948 -0.36146141681084792 0 -0.33244139342984769 -0.36559328719085599 0 -0.34336478970569861 -0.37723980942687502 0 -0.35033503503726948 -0.36146141681084792 0 -0.3336284042642782 -0.34916878061981299 0 -0.33244139342984769 -0.36559328719085599 0 -0.3336284042642782 -0.34916878061981299 0 -0.32085011908009381 -0.35549921302246312 0 -0.35033503503726948 -0.36146141681084792 0 -0.33244139342984769 -0.36559328719085599 0 -0.3336284042642782 -0.34916878061981299 0 -0.31692177349128781 -0.33687614442877689 0 -0.32085011908009381 -0.35549921302246312 0 -0.30981181557741921 -0.34823875756259681 0 -0.31692177349128781 -0.33687614442877689 0 -0.3336284042642782 -0.34916878061981299 0 -0.32085011908009381 -0.35549921302246312 0 -0.32085011908009381 -0.35549921302246312 0 -0.31423450996779162 -0.3574543260360627 0 -0.30981181557741921 -0.34823875756259681 0 -0.32085011908009381 -0.35549921302246312 0 -0.31423450996779162 -0.3574543260360627 0 -0.31672383545433058 -0.36277895997470022 0 -0.31423450996779162 -0.3574543260360627 0 -0.31672383545433058 -0.36277895997470022 0 -0.30955226975932282 -0.36330037358449058 0 -0.32085011908009381 -0.35549921302246312 0 -0.31672383545433058 -0.36277895997470022 0 -0.32252843281089499 -0.36809649093046409 0 -0.31420404816368902 -0.37437099744422703 0 -0.32252843281089499 -0.36809649093046409 0 -0.32264629524730598 -0.37820352580825489 0 -0.31672383545433058 -0.36277895997470022 0 -0.31420404816368902 -0.37437099744422703 0 -0.32252843281089499 -0.36809649093046409 0 -0.33244139342984769 -0.36559328719085599 0 -0.32252843281089499 -0.36809649093046409 0 -0.32264629524730598 -0.37820352580825489 0 -0.33244139342984769 -0.36559328719085599 0 -0.32085011908009381 -0.35549921302246312 0 -0.32252843281089499 -0.36809649093046409 0 -0.31672383545433058 -0.36277895997470022 0 -0.30955226975932282 -0.36330037358449058 0 -0.29756619856365712 -0.37908494683037158 0 -0.31672383545433058 -0.36277895997470022 0 -0.29756619856365712 -0.37908494683037158 0 -0.31672383545433058 -0.36277895997470022 0 -0.31420404816368902 -0.37437099744422703 0 -0.29756619856365712 -0.37908494683037158 0 -0.30955226975932282 -0.36330037358449058 0 -0.29641437970647772 -0.36750015320092372 0 -0.29756619856365712 -0.37908494683037158 0 -0.30955226975932282 -0.36330037358449058 0 -0.2940928203614625 -0.35624501427970701 0 -0.29641437970647772 -0.36750015320092372 0 -0.31423450996779162 -0.3574543260360627 0 -0.30955226975932282 -0.36330037358449058 0 -0.30981181557741921 -0.34823875756259681 0 -0.30955226975932282 -0.36330037358449058 0 -0.29204964282551632 -0.33937497882742679 0 -0.30955226975932282 -0.36330037358449058 0 -0.30981181557741921 -0.34823875756259681 0 -0.29204964282551632 -0.33937497882742679 0 -0.30955226975932282 -0.36330037358449058 0 -0.2940928203614625 -0.35624501427970701 0 -0.29204964282551632 -0.33937497882742679 0 -0.2940928203614625 -0.35624501427970701 0 -0.282288450051076 -0.35064429087169918 0 -0.29204964282551632 -0.33937497882742679 0 -0.2940928203614625 -0.35624501427970701 0 -0.282288450051076 -0.35064429087169918 0 -0.28631334655402618 -0.36263184310058721 0 -0.282288450051076 -0.35064429087169918 0 -0.28631334655402618 -0.36263184310058721 0 -0.27535508069817161 -0.36382584294562997 0 -0.28631334655402618 -0.36263184310058721 0 -0.28341600195294347 -0.37494391420497558 0 -0.27535508069817161 -0.36382584294562997 0 -0.2940928203614625 -0.35624501427970701 0 -0.28631334655402618 -0.36263184310058721 0 -0.29641437970647772 -0.36750015320092372 0 -0.29641437970647772 -0.36750015320092372 0 -0.28341600195294347 -0.37494391420497558 0 -0.29756619856365712 -0.37908494683037158 0 -0.28631334655402618 -0.36263184310058721 0 -0.29641437970647772 -0.36750015320092372 0 -0.28341600195294347 -0.37494391420497558 0 -0.28341600195294347 -0.37494391420497558 0 -0.27535508069817161 -0.36382584294562997 0 -0.27245943227174141 -0.37580640930438391 0 -0.27535508069817161 -0.36382584294562997 0 -0.26251805895263741 -0.37109191567945732 0 -0.26236278936197122 -0.35812461401415813 0 -0.27535508069817161 -0.36382584294562997 0 -0.26251805895263741 -0.37109191567945732 0 -0.27245943227174141 -0.37580640930438391 0 -0.26251805895263741 -0.37109191567945732 0 -0.24844509754671881 -0.38067795311205849 0 -0.2471238808729333 -0.36186225383658999 0 -0.26251805895263741 -0.37109191567945732 0 -0.26236278936197122 -0.35812461401415813 0 -0.2471238808729333 -0.36186225383658999 0 -0.2565318681264519 -0.34593743616912798 0 -0.26236278936197122 -0.35812461401415813 0 -0.2471238808729333 -0.36186225383658999 0 -0.2565318681264519 -0.34593743616912798 0 -0.26236278936197122 -0.35812461401415813 0 -0.26979294458908692 -0.35077954576507758 0 -0.2565318681264519 -0.34593743616912798 0 -0.26979294458908692 -0.35077954576507758 0 -0.27242653470776368 -0.33536554482477271 0 -0.27535508069817161 -0.36382584294562997 0 -0.26236278936197122 -0.35812461401415813 0 -0.26979294458908692 -0.35077954576507758 0 -0.282288450051076 -0.35064429087169918 0 -0.27535508069817161 -0.36382584294562997 0 -0.26979294458908692 -0.35077954576507758 0 -0.282288450051076 -0.35064429087169918 0 -0.26979294458908692 -0.35077954576507758 0 -0.27242653470776368 -0.33536554482477271 0 -0.27242653470776368 -0.33536554482477271 0 -0.27454701589170899 -0.31544958407036328 0 -0.29204964282551632 -0.33937497882742679 0 -0.2565318681264519 -0.34593743616912798 0 -0.26182882201817409 -0.32691712813971469 0 -0.24811306483497159 -0.32820725689031038 0 -0.2565318681264519 -0.34593743616912798 0 -0.27242653470776368 -0.33536554482477271 0 -0.26182882201817409 -0.32691712813971469 0 -0.26182882201817409 -0.32691712813971469 0 -0.25890466705203802 -0.31243461892270757 0 -0.24811306483497159 -0.32820725689031038 0 -0.26182882201817409 -0.32691712813971469 0 -0.27454701589170899 -0.31544958407036328 0 -0.25890466705203802 -0.31243461892270757 0 -0.25890466705203802 -0.31243461892270757 0 -0.24811306483497159 -0.32820725689031038 0 -0.2432623182123671 -0.30941965377505087 0 -0.27454701589170899 -0.31544958407036328 0 -0.25890466705203802 -0.31243461892270757 0 -0.27242653470776368 -0.33536554482477271 0 -0.26182882201817409 -0.32691712813971469 0 -0.27454701589170899 -0.31544958407036328 0 -0.27454701589170899 -0.31544958407036328 0 -0.29204964282551632 -0.33937497882742679 0 -0.27454701589170899 -0.31544958407036328 0 -0.29204964282551632 -0.33937497882742679 0 -0.2991718660388526 -0.3201958703040288 0 -0.27454701589170899 -0.31544958407036328 0 -0.2991718660388526 -0.3201958703040288 0 -0.29067769751485939 -0.3077671029064219 0 -0.27454701589170899 -0.31544958407036328 0 -0.2991718660388526 -0.3201958703040288 0 -0.282288450051076 -0.35064429087169918 0 -0.27242653470776368 -0.33536554482477271 0 -0.29204964282551632 -0.33937497882742679 0 -0.30981181557741921 -0.34823875756259681 0 -0.29204964282551632 -0.33937497882742679 0 -0.30458695985385548 -0.33841010272625988 0 -0.31692177349128781 -0.33687614442877689 0 -0.30458695985385548 -0.33841010272625988 0 -0.2991718660388526 -0.3201958703040288 0 -0.29204964282551632 -0.33937497882742679 0 -0.30458695985385548 -0.33841010272625988 0 -0.2991718660388526 -0.3201958703040288 0 -0.31692177349128781 -0.33687614442877689 0 -0.30981181557741921 -0.34823875756259681 0 -0.30458695985385548 -0.33841010272625988 0 -0.32379671618599642 -0.32494215653769332 0 -0.2991718660388526 -0.3201958703040288 0 -0.31165345630254471 -0.31242627531325989 0 -0.32379671618599642 -0.32494215653769332 0 -0.2991718660388526 -0.3201958703040288 0 -0.2991718660388526 -0.3201958703040288 0 -0.31165345630254471 -0.31242627531325989 0 -0.29067769751485939 -0.3077671029064219 0 -0.31165345630254471 -0.31242627531325989 0 -0.31213778502428557 -0.29909099471600031 0 -0.29067769751485939 -0.3077671029064219 0 -0.31213778502428557 -0.29909099471600031 0 -0.28962484237929659 -0.29063908963168511 0 -0.29067769751485939 -0.3077671029064219 0 -0.31213778502428557 -0.29909099471600031 0 -0.3071590778169353 -0.28334701425030068 0 -0.28962484237929659 -0.29063908963168511 0 -0.28962484237929659 -0.29063908963168511 0 -0.29067769751485939 -0.3077671029064219 0 -0.27678708293716497 -0.29858877172531822 0 -0.27454701589170899 -0.31544958407036328 0 -0.29067769751485939 -0.3077671029064219 0 -0.27678708293716497 -0.29858877172531822 0 -0.27454701589170899 -0.31544958407036328 0 -0.26047824755472959 -0.29621813741490199 0 -0.27454701589170899 -0.31544958407036328 0 -0.27678708293716497 -0.29858877172531822 0 -0.26047824755472959 -0.29621813741490199 0 -0.25890466705203802 -0.31243461892270757 0 -0.26047824755472959 -0.29621813741490199 0 -0.2432623182123671 -0.30941965377505087 0 -0.27454701589170899 -0.31544958407036328 0 -0.25890466705203802 -0.31243461892270757 0 -0.26047824755472959 -0.29621813741490199 0 -0.25890466705203802 -0.31243461892270757 0 -0.2432623182123671 -0.30941965377505087 0 -0.26047824755472959 -0.29621813741490199 0 -0.25919633776424078 -0.27571400894131493 0 -0.24640947921774939 -0.27698669075944121 0 -0.26047824755472959 -0.29621813741490199 0 -0.24640947921774939 -0.27698669075944121 0 -0.26047824755472959 -0.29621813741490199 0 -0.27349940340312112 -0.27912268812157731 0 -0.25919633776424078 -0.27571400894131493 0 -0.27678708293716497 -0.29858877172531822 0 -0.26047824755472959 -0.29621813741490199 0 -0.27349940340312112 -0.27912268812157731 0 -0.28962484237929659 -0.29063908963168511 0 -0.27678708293716497 -0.29858877172531822 0 -0.27349940340312112 -0.27912268812157731 0 -0.27349940340312112 -0.27912268812157731 0 -0.26170441846864229 -0.2620921107494269 0 -0.28055215674720962 -0.259307170174222 0 -0.27349940340312112 -0.27912268812157731 0 -0.25919633776424078 -0.27571400894131493 0 -0.26170441846864229 -0.2620921107494269 0 -0.25919633776424078 -0.27571400894131493 0 -0.25138033831998602 -0.26645247001797862 0 -0.24640947921774939 -0.27698669075944121 0 -0.25919633776424078 -0.27571400894131493 0 -0.25138033831998602 -0.26645247001797862 0 -0.26170441846864229 -0.2620921107494269 0 -0.26170441846864229 -0.2620921107494269 0 -0.27008861651860572 -0.24452686936845 0 -0.25652616337425588 -0.24696241029445379 0 -0.26170441846864229 -0.2620921107494269 0 -0.24905552470647371 -0.25623064153363512 0 -0.25652616337425588 -0.24696241029445379 0 -0.25138033831998602 -0.26645247001797862 0 -0.26170441846864229 -0.2620921107494269 0 -0.24905552470647371 -0.25623064153363512 0 -0.26170441846864229 -0.2620921107494269 0 -0.28055215674720962 -0.259307170174222 0 -0.27008861651860572 -0.24452686936845 0 -0.28055215674720962 -0.259307170174222 0 -0.30054691257939542 -0.2663760254010798 0 -0.28963298834919088 -0.24225856961697509 0 -0.27349940340312112 -0.27912268812157731 0 -0.28055215674720962 -0.259307170174222 0 -0.30054691257939542 -0.2663760254010798 0 -0.28962484237929659 -0.29063908963168511 0 -0.27349940340312112 -0.27912268812157731 0 -0.30054691257939542 -0.2663760254010798 0 -0.32632677128476378 -0.27728194725243788 0 -0.3071590778169353 -0.28334701425030068 0 -0.30054691257939542 -0.2663760254010798 0 -0.3071590778169353 -0.28334701425030068 0 -0.28962484237929659 -0.29063908963168511 0 -0.30054691257939542 -0.2663760254010798 0 -0.32144586109570311 -0.2560533286399938 0 -0.30054691257939542 -0.2663760254010798 0 -0.31050647450060431 -0.2410285869008367 0 -0.3332280491996773 -0.46505434301354792 0 -0.3382879842714378 -0.45227903052199919 0 -0.32438997831038041 -0.45762742341230372 0 -0.3332280491996773 -0.46505434301354792 0 -0.3382879842714378 -0.45227903052199919 0 -0.34885146730486249 -0.4661389191583023 0 -0.3382879842714378 -0.45227903052199919 0 -0.3200921258644106 -0.44353382793155532 0 -0.34268441404810329 -0.43235549530656853 0 -0.3382879842714378 -0.45227903052199919 0 -0.3200921258644106 -0.44353382793155532 0 -0.32438997831038041 -0.45762742341230372 0 -0.3200921258644106 -0.44353382793155532 0 -0.31437187140482981 -0.45681618200404639 0 -0.30820471371475139 -0.44934037367827823 0 -0.3200921258644106 -0.44353382793155532 0 -0.31437187140482981 -0.45681618200404639 0 -0.32438997831038041 -0.45762742341230372 0 -0.3332280491996773 -0.46505434301354792 0 -0.32438997831038041 -0.45762742341230372 0 -0.31797633053880647 -0.46871820730852592 0 -0.31437187140482981 -0.45681618200404639 0 -0.32438997831038041 -0.45762742341230372 0 -0.31797633053880647 -0.46871820730852592 0 -0.33663448557289938 -0.48050813466660852 0 -0.31127204438001438 -0.48135234028491769 0 -0.32265922886492171 -0.49046511873788162 0 -0.33663448557289938 -0.48050813466660852 0 -0.31127204438001438 -0.48135234028491769 0 -0.31797633053880647 -0.46871820730852592 0 -0.33663448557289938 -0.48050813466660852 0 -0.31127204438001438 -0.48135234028491769 0 -0.32265922886492171 -0.49046511873788162 0 -0.33406631697645661 -0.5 0 -0.30866406853031653 -0.5 0 -0.32265922886492171 -0.49046511873788162 0 -0.30866406853031653 -0.5 0 -0.31127204438001438 -0.48135234028491769 0 -0.33406631697645661 -0.5 0 -0.33663448557289938 -0.48050813466660852 0 -0.34767753583160349 -0.49053310563514552 0 -0.32265922886492171 -0.49046511873788162 0 -0.33406631697645661 -0.5 0 -0.33663448557289938 -0.48050813466660852 0 -0.3332280491996773 -0.46505434301354792 0 -0.31797633053880647 -0.46871820730852592 0 -0.33663448557289938 -0.48050813466660852 0 -0.3332280491996773 -0.46505434301354792 0 -0.33663448557289938 -0.48050813466660852 0 -0.34885146730486249 -0.4661389191583023 0 -0.33663448557289938 -0.48050813466660852 0 -0.36199692676578432 -0.47966392904829919 0 -0.33663448557289938 -0.48050813466660852 0 -0.36199692676578432 -0.47966392904829919 0 -0.34885146730486249 -0.4661389191583023 0 -0.33663448557289938 -0.48050813466660852 0 -0.34767753583160349 -0.49053310563514552 0 -0.36199692676578432 -0.47966392904829919 0 -0.34767753583160349 -0.49053310563514552 0 -0.35946856542259659 -0.5 0 -0.36199692676578432 -0.47966392904829919 0 -0.33406631697645661 -0.5 0 -0.34767753583160349 -0.49053310563514552 0 -0.35946856542259659 -0.5 0 -0.37342391850394668 -0.48962091311957218 0 -0.35946856542259659 -0.5 0 -0.36199692676578432 -0.47966392904829919 0 -0.38487081386873673 -0.5 0 -0.37342391850394668 -0.48962091311957218 0 -0.35946856542259659 -0.5 0 -0.36199692676578432 -0.47966392904829919 0 -0.37296796718052999 -0.46156648724241978 0 -0.34885146730486249 -0.4661389191583023 0 -0.38735936795866921 -0.47881972342998991 0 -0.36199692676578432 -0.47966392904829919 0 -0.38735936795866921 -0.47881972342998991 0 -0.36199692676578432 -0.47966392904829919 0 -0.37296796718052999 -0.46156648724241978 0 -0.38735936795866921 -0.47881972342998991 0 -0.37342391850394668 -0.48962091311957218 0 -0.36199692676578432 -0.47966392904829919 0 -0.37296796718052999 -0.46156648724241978 0 -0.34885146730486249 -0.4661389191583023 0 -0.35753160558366498 -0.44830214832858761 0 -0.35753160558366498 -0.44830214832858761 0 -0.37485224571084158 -0.43445899852372039 0 -0.34268441404810329 -0.43235549530656853 0 -0.3382879842714378 -0.45227903052199919 0 -0.34885146730486249 -0.4661389191583023 0 -0.35753160558366498 -0.44830214832858761 0 -0.3382879842714378 -0.45227903052199919 0 -0.35753160558366498 -0.44830214832858761 0 -0.34268441404810329 -0.43235549530656853 0 -0.37296796718052999 -0.46156648724241978 0 -0.35753160558366498 -0.44830214832858761 0 -0.37485224571084158 -0.43445899852372039 0 -0.37485224571084158 -0.43445899852372039 0 -0.3556233950424843 -0.41373860028331111 0 -0.37485224571084158 -0.43445899852372039 0 -0.3556233950424843 -0.41373860028331111 0 -0.34268441404810329 -0.43235549530656853 0 -0.37683162500655948 -0.40942847475355781 0 -0.37485224571084158 -0.43445899852372039 0 -0.3556233950424843 -0.41373860028331111 0 -0.38711554451442509 -0.38852428951493773 0 -0.36872528977584679 -0.37499285316289349 0 -0.35882973867619589 -0.39277696899403919 0 -0.38711554451442509 -0.38852428951493773 0 -0.37683162500655948 -0.40942847475355781 0 -0.35882973867619589 -0.39277696899403919 0 -0.37683162500655948 -0.40942847475355781 0 -0.3556233950424843 -0.41373860028331111 0 -0.35882973867619589 -0.39277696899403919 0 -0.3556233950424843 -0.41373860028331111 0 -0.33639454437412708 -0.39301820204290172 0 -0.3556233950424843 -0.41373860028331111 0 -0.35882973867619589 -0.39277696899403919 0 -0.33639454437412708 -0.39301820204290172 0 -0.36872528977584679 -0.37499285316289349 0 -0.35882973867619589 -0.39277696899403919 0 -0.34336478970569861 -0.37723980942687502 0 -0.35882973867619589 -0.39277696899403919 0 -0.34336478970569861 -0.37723980942687502 0 -0.33639454437412708 -0.39301820204290172 0 -0.34336478970569861 -0.37723980942687502 0 -0.33639454437412708 -0.39301820204290172 0 -0.32264629524730598 -0.37820352580825489 0 -0.34336478970569861 -0.37723980942687502 0 -0.33639454437412708 -0.39301820204290172 0 -0.33639454437412708 -0.39301820204290172 0 -0.32264629524730598 -0.37820352580825489 0 -0.33639454437412708 -0.39301820204290172 0 -0.32420176086600139 -0.39791773161129279 0 -0.32921656584835302 -0.40926683576833051 0 -0.3556233950424843 -0.41373860028331111 0 -0.33639454437412708 -0.39301820204290172 0 -0.32921656584835302 -0.40926683576833051 0 -0.33639454437412708 -0.39301820204290172 0 -0.32921656584835302 -0.40926683576833051 0 -0.32420176086600139 -0.39791773161129279 0 -0.3122092893334748 -0.41288173807033068 0 -0.30912561784154191 -0.40172072829335659 0 -0.31380792644858913 -0.3926012856927048 0 -0.32420176086600139 -0.39791773161129279 0 -0.30912561784154191 -0.40172072829335659 0 -0.33639454437412708 -0.39301820204290172 0 -0.32420176086600139 -0.39791773161129279 0 -0.32264629524730598 -0.37820352580825489 0 -0.31380792644858913 -0.3926012856927048 0 -0.32420176086600139 -0.39791773161129279 0 -0.32264629524730598 -0.37820352580825489 0 -0.31380792644858913 -0.3926012856927048 0 -0.32264629524730598 -0.37820352580825489 0 -0.31035204693408791 -0.38285013217488179 0 -0.31420404816368902 -0.37437099744422703 0 -0.32264629524730598 -0.37820352580825489 0 -0.31035204693408791 -0.38285013217488179 0 -0.34268441404810329 -0.43235549530656853 0 -0.32921656584835302 -0.40926683576833051 0 -0.32203858732257862 -0.42551546949375901 0 -0.3200921258644106 -0.44353382793155532 0 -0.34268441404810329 -0.43235549530656853 0 -0.32203858732257862 -0.42551546949375901 0 -0.3556233950424843 -0.41373860028331111 0 -0.34268441404810329 -0.43235549530656853 0 -0.32921656584835302 -0.40926683576833051 0 -0.32921656584835302 -0.40926683576833051 0 -0.32203858732257862 -0.42551546949375901 0 -0.32420176086600139 -0.39791773161129279 0 -0.32921656584835302 -0.40926683576833051 0 -0.3122092893334748 -0.41288173807033068 0 -0.32921656584835302 -0.40926683576833051 0 -0.32203858732257862 -0.42551546949375901 0 -0.3122092893334748 -0.41288173807033068 0 -0.32203858732257862 -0.42551546949375901 0 -0.30827710054172969 -0.42322984518891971 0 -0.3122092893334748 -0.41288173807033068 0 -0.32203858732257862 -0.42551546949375901 0 -0.30752489653300541 -0.43291667118157012 0 -0.30827710054172969 -0.42322984518891971 0 -0.3200921258644106 -0.44353382793155532 0 -0.32203858732257862 -0.42551546949375901 0 -0.30752489653300541 -0.43291667118157012 0 -0.30752489653300541 -0.43291667118157012 0 -0.30116182224770149 -0.42530737044491568 0 -0.29299899138645308 -0.43372149202771237 0 -0.30752489653300541 -0.43291667118157012 0 -0.29299899138645308 -0.43372149202771237 0 -0.30497982464674461 -0.4415926680772469 0 -0.30116182224770149 -0.42530737044491568 0 -0.30827710054172969 -0.42322984518891971 0 -0.30288306098899842 -0.41820744672695592 0 -0.30752489653300541 -0.43291667118157012 0 -0.30116182224770149 -0.42530737044491568 0 -0.30827710054172969 -0.42322984518891971 0 -0.3122092893334748 -0.41288173807033068 0 -0.30287031674607312 -0.41123780185957082 0 -0.30288306098899842 -0.41820744672695592 0 -0.30827710054172969 -0.42322984518891971 0 -0.3122092893334748 -0.41288173807033068 0 -0.30288306098899842 -0.41820744672695592 0 -0.3122092893334748 -0.41288173807033068 0 -0.30287031674607312 -0.41123780185957082 0 -0.30912561784154191 -0.40172072829335659 0 -0.30287031674607312 -0.41123780185957082 0 -0.29523776855471939 -0.4184826915805725 0 -0.29747654572298471 -0.40324389113343229 0 -0.30287031674607312 -0.41123780185957082 0 -0.30288306098899842 -0.41820744672695592 0 -0.29523776855471939 -0.4184826915805725 0 -0.30116182224770149 -0.42530737044491568 0 -0.30288306098899842 -0.41820744672695592 0 -0.29523776855471939 -0.4184826915805725 0 -0.28696648926496038 -0.41787348898359211 0 -0.27840856167298322 -0.39539093368604278 0 -0.29523776855471939 -0.4184826915805725 0 -0.29364750261086281 -0.41540942939496051 0 -0.28696648926496038 -0.41787348898359211 0 -0.29364750261086281 -0.41540942939496051 0 -0.28696648926496038 -0.41787348898359211 0 -0.29523776855471939 -0.4184826915805725 0 -0.29364750261086281 -0.41540942939496051 0 -0.29747654572298471 -0.40324389113343229 0 -0.29523776855471939 -0.4184826915805725 0 -0.29747654572298471 -0.40324389113343229 0 -0.29364750261086281 -0.41540942939496051 0 -0.28696648926496038 -0.41787348898359211 0 -0.29747654572298471 -0.40324389113343229 0 -0.28696648926496038 -0.41787348898359211 0 -0.29299899138645308 -0.43372149202771237 0 -0.28150973428600351 -0.43018631266622731 0 -0.27152160931622499 -0.43562026093742262 0 -0.29161589722637737 -0.44313587064644161 0 -0.29523776855471939 -0.4184826915805725 0 -0.28696648926496038 -0.41787348898359211 0 -0.29299899138645308 -0.43372149202771237 0 -0.28696648926496038 -0.41787348898359211 0 -0.28150973428600351 -0.43018631266622731 0 -0.29299899138645308 -0.43372149202771237 0 -0.28150973428600351 -0.43018631266622731 0 -0.29299899138645308 -0.43372149202771237 0 -0.29161589722637737 -0.44313587064644161 0 -0.30116182224770149 -0.42530737044491568 0 -0.29523776855471939 -0.4184826915805725 0 -0.29299899138645308 -0.43372149202771237 0 -0.29523776855471939 -0.4184826915805725 0 -0.29299899138645308 -0.43372149202771237 0 -0.31420404816368902 -0.37437099744422703 0 -0.29756619856365712 -0.37908494683037158 0 -0.31035204693408791 -0.38285013217488179 0 -0.31380792644858913 -0.3926012856927048 0 -0.31035204693408791 -0.38285013217488179 0 -0.30290863990902972 -0.39245282639985429 0 -0.29756619856365712 -0.37908494683037158 0 -0.30290863990902972 -0.39245282639985429 0 -0.29296739660339599 -0.39293965847140783 0 -0.29756619856365712 -0.37908494683037158 0 -0.31035204693408791 -0.38285013217488179 0 -0.30290863990902972 -0.39245282639985429 0 -0.30290863990902972 -0.39245282639985429 0 -0.29747654572298471 -0.40324389113343229 0 -0.29296739660339599 -0.39293965847140783 0 -0.31380792644858913 -0.3926012856927048 0 -0.30290863990902972 -0.39245282639985429 0 -0.30912561784154191 -0.40172072829335659 0 -0.30290863990902972 -0.39245282639985429 0 -0.30912561784154191 -0.40172072829335659 0 -0.29747654572298471 -0.40324389113343229 0 -0.30287031674607312 -0.41123780185957082 0 -0.30912561784154191 -0.40172072829335659 0 -0.29747654572298471 -0.40324389113343229 0 -0.29747654572298471 -0.40324389113343229 0 -0.29296739660339599 -0.39293965847140783 0 -0.27840856167298322 -0.39539093368604278 0 -0.28696648926496038 -0.41787348898359211 0 -0.29747654572298471 -0.40324389113343229 0 -0.27840856167298322 -0.39539093368604278 0 -0.28341600195294347 -0.37494391420497558 0 -0.29756619856365712 -0.37908494683037158 0 -0.27531437508186812 -0.38726218751613017 0 -0.29756619856365712 -0.37908494683037158 0 -0.27531437508186812 -0.38726218751613017 0 -0.27840856167298322 -0.39539093368604278 0 -0.29756619856365712 -0.37908494683037158 0 -0.27840856167298322 -0.39539093368604278 0 -0.29756619856365712 -0.37908494683037158 0 -0.29296739660339599 -0.39293965847140783 0 -0.27840856167298322 -0.39539093368604278 0 -0.26569364467308609 -0.38190818617572603 0 -0.27245943227174141 -0.37580640930438391 0 -0.27531437508186812 -0.38726218751613017 0 -0.26251805895263741 -0.37109191567945732 0 -0.26569364467308609 -0.38190818617572603 0 -0.27245943227174141 -0.37580640930438391 0 -0.28341600195294347 -0.37494391420497558 0 -0.27245943227174141 -0.37580640930438391 0 -0.27531437508186812 -0.38726218751613017 0 -0.26569364467308609 -0.38190818617572603 0 -0.27531437508186812 -0.38726218751613017 0 -0.26765484655968141 -0.39258204300699617 0 -0.26765484655968141 -0.39258204300699617 0 -0.27840856167298322 -0.39539093368604278 0 -0.26612714426651918 -0.40584423917156021 0 -0.27531437508186812 -0.38726218751613017 0 -0.26765484655968141 -0.39258204300699617 0 -0.27840856167298322 -0.39539093368604278 0 -0.27531437508186812 -0.38726218751613017 0 -0.27840856167298322 -0.39539093368604278 0 -0.27840856167298322 -0.39539093368604278 0 -0.26612714426651918 -0.40584423917156021 0 -0.26765484655968141 -0.39258204300699617 0 -0.26612714426651918 -0.40584423917156021 0 -0.2610278151739947 -0.39896314796757743 0 -0.26612714426651918 -0.40584423917156021 0 -0.2610278151739947 -0.39896314796757743 0 -0.25504109963533078 -0.40402814620274752 0 -0.2610278151739947 -0.39896314796757743 0 -0.25504109963533078 -0.40402814620274752 0 -0.25285090396253701 -0.39475094466033861 0 -0.26765484655968141 -0.39258204300699617 0 -0.2610278151739947 -0.39896314796757743 0 -0.25285090396253701 -0.39475094466033861 0 -0.26251805895263741 -0.37109191567945732 0 -0.26569364467308609 -0.38190818617572603 0 -0.24844509754671881 -0.38067795311205849 0 -0.26569364467308609 -0.38190818617572603 0 -0.26765484655968141 -0.39258204300699617 0 -0.24844509754671881 -0.38067795311205849 0 -0.26765484655968141 -0.39258204300699617 0 -0.24844509754671881 -0.38067795311205849 0 -0.26765484655968141 -0.39258204300699617 0 -0.25285090396253701 -0.39475094466033861 0 -0.24844509754671881 -0.38067795311205849 0 -0.28696648926496038 -0.41787348898359211 0 -0.28150973428600351 -0.43018631266622731 0 -0.26327906522417338 -0.4266097721364307 0 -0.28150973428600351 -0.43018631266622731 0 -0.27152160931622499 -0.43562026093742262 0 -0.26327906522417338 -0.4266097721364307 0 -0.28696648926496038 -0.41787348898359211 0 -0.26327906522417338 -0.4266097721364307 0 -0.27152160931622499 -0.43562026093742262 0 -0.26327906522417338 -0.4266097721364307 0 -0.27152160931622499 -0.43562026093742262 0 -0.27411318404307738 -0.4384532885551613 0 -0.28696648926496038 -0.41787348898359211 0 -0.27840856167298322 -0.39539093368604278 0 -0.26612714426651918 -0.40584423917156021 0 -0.28696648926496038 -0.41787348898359211 0 -0.26612714426651918 -0.40584423917156021 0 -0.26433169423644137 -0.41617606516100181 0 -0.28696648926496038 -0.41787348898359211 0 -0.26433169423644137 -0.41617606516100181 0 -0.26327906522417338 -0.4266097721364307 0 -0.26433169423644137 -0.41617606516100181 0 -0.25384572686005491 -0.4162975446570773 0 -0.26327906522417338 -0.4266097721364307 0 -0.25384572686005491 -0.4162975446570773 0 -0.26327906522417338 -0.4266097721364307 0 -0.26612714426651918 -0.40584423917156021 0 -0.25504109963533078 -0.40402814620274752 0 -0.25384572686005491 -0.4162975446570773 0 -0.26612714426651918 -0.40584423917156021 0 -0.25384572686005491 -0.4162975446570773 0 -0.26612714426651918 -0.40584423917156021 0 -0.26433169423644137 -0.41617606516100181 0 -0.25384572686005491 -0.4162975446570773 0 -0.27152160931622499 -0.43562026093742262 0 -0.25529929100837978 -0.42955283453633047 0 -0.26055414628044771 -0.44022337226383079 0 -0.27152160931622499 -0.43562026093742262 0 -0.25529929100837978 -0.42955283453633047 0 -0.27152160931622499 -0.43562026093742262 0 -0.25529929100837978 -0.42955283453633047 0 -0.26327906522417338 -0.4266097721364307 0 -0.25384572686005491 -0.4162975446570773 0 -0.25529929100837978 -0.42955283453633047 0 -0.24347028502184179 -0.42512858259777569 0 -0.25384572686005491 -0.4162975446570773 0 -0.25529929100837978 -0.42955283453633047 0 -0.26327906522417338 -0.4266097721364307 0 -0.25529929100837978 -0.42955283453633047 0 -0.26327906522417338 -0.4266097721364307 0 -0.25529929100837978 -0.42955283453633047 0 -0.26055414628044771 -0.44022337226383079 0 -0.24909065315093301 -0.44289399940493762 0 -0.2563182000039661 -0.45228002107411158 0 -0.26055414628044771 -0.44022337226383079 0 -0.24909065315093301 -0.44289399940493762 0 -0.2563182000039661 -0.45228002107411158 0 -0.26055414628044771 -0.44022337226383079 0 -0.26758654179419689 -0.4498249664376871 0 -0.2563182000039661 -0.45228002107411158 0 -0.26601391985650019 -0.46186128463556092 0 -0.26758654179419689 -0.4498249664376871 0 -0.2563182000039661 -0.45228002107411158 0 -0.25166177816199159 -0.46509659108163232 0 -0.26601391985650019 -0.46186128463556092 0 -0.25166177816199159 -0.46509659108163232 0 -0.26601391985650019 -0.46186128463556092 0 -0.26363194845042748 -0.47544423059129481 0 -0.27885437790298179 -0.45578390103582539 0 -0.28743885865527669 -0.47156793532321961 0 -0.27383253734626678 -0.46997056735115211 0 -0.26601391985650019 -0.46186128463556092 0 -0.27885437790298179 -0.45578390103582539 0 -0.27383253734626678 -0.46997056735115211 0 -0.26601391985650019 -0.46186128463556092 0 -0.27885437790298179 -0.45578390103582539 0 -0.26758654179419689 -0.4498249664376871 0 -0.27152160931622499 -0.43562026093742262 0 -0.27411318404307738 -0.4384532885551613 0 -0.29161589722637737 -0.44313587064644161 0 -0.26055414628044771 -0.44022337226383079 0 -0.26916055872108652 -0.44203996561465853 0 -0.26758654179419689 -0.4498249664376871 0 -0.27152160931622499 -0.43562026093742262 0 -0.26055414628044771 -0.44022337226383079 0 -0.26916055872108652 -0.44203996561465853 0 -0.26916055872108652 -0.44203996561465853 0 -0.27430987245245753 -0.44568384734687327 0 -0.27411318404307738 -0.4384532885551613 0 -0.27152160931622499 -0.43562026093742262 0 -0.26916055872108652 -0.44203996561465853 0 -0.27411318404307738 -0.4384532885551613 0 -0.26916055872108652 -0.44203996561465853 0 -0.26758654179419689 -0.4498249664376871 0 -0.27430987245245753 -0.44568384734687327 0 -0.27885437790298179 -0.45578390103582539 0 -0.26758654179419689 -0.4498249664376871 0 -0.27430987245245753 -0.44568384734687327 0 -0.27885437790298179 -0.45578390103582539 0 -0.27430987245245753 -0.44568384734687327 0 -0.28154292826089838 -0.44573454688118158 0 -0.27430987245245753 -0.44568384734687327 0 -0.27411318404307738 -0.4384532885551613 0 -0.28154292826089838 -0.44573454688118158 0 -0.27411318404307738 -0.4384532885551613 0 -0.29161589722637737 -0.44313587064644161 0 -0.28154292826089838 -0.44573454688118158 0 -0.27152160931622499 -0.43562026093742262 0 -0.29161589722637737 -0.44313587064644161 0 -0.29299899138645308 -0.43372149202771237 0 -0.29740702624587328 -0.44530185262498728 0 -0.29299899138645308 -0.43372149202771237 0 -0.29161589722637737 -0.44313587064644161 0 -0.29299899138645308 -0.43372149202771237 0 -0.29161589722637737 -0.44313587064644161 0 -0.29740702624587328 -0.44530185262498728 0 -0.29161589722637737 -0.44313587064644161 0 -0.29740702624587328 -0.44530185262498728 0 -0.27885437790298179 -0.45578390103582539 0 -0.29161589722637737 -0.44313587064644161 0 -0.28154292826089838 -0.44573454688118158 0 -0.30383176645052362 -0.46218030542456978 0 -0.29740702624587328 -0.44530185262498728 0 -0.28743885865527669 -0.47156793532321961 0 -0.29161589722637737 -0.44313587064644161 0 -0.29740702624587328 -0.44530185262498728 0 -0.28743885865527669 -0.47156793532321961 0 -0.29161589722637737 -0.44313587064644161 0 -0.28743885865527669 -0.47156793532321961 0 -0.27885437790298179 -0.45578390103582539 0 -0.29161589722637737 -0.44313587064644161 0 -0.28743885865527669 -0.47156793532321961 0 -0.30383176645052362 -0.46218030542456978 0 -0.29740702624587328 -0.44530185262498728 0 -0.31797633053880647 -0.46871820730852592 0 -0.30383176645052362 -0.46218030542456978 0 -0.30149645675424958 -0.47433017849598952 0 -0.31437187140482981 -0.45681618200404639 0 -0.31797633053880647 -0.46871820730852592 0 -0.30383176645052362 -0.46218030542456978 0 -0.31437187140482981 -0.45681618200404639 0 -0.30383176645052362 -0.46218030542456978 0 -0.30820471371475139 -0.44934037367827823 0 -0.30383176645052362 -0.46218030542456978 0 -0.30820471371475139 -0.44934037367827823 0 -0.29740702624587328 -0.44530185262498728 0 -0.3200921258644106 -0.44353382793155532 0 -0.30820471371475139 -0.44934037367827823 0 -0.30497982464674461 -0.4415926680772469 0 -0.3200921258644106 -0.44353382793155532 0 -0.30752489653300541 -0.43291667118157012 0 -0.30497982464674461 -0.4415926680772469 0 -0.29299899138645308 -0.43372149202771237 0 -0.30497982464674461 -0.4415926680772469 0 -0.29740702624587328 -0.44530185262498728 0 -0.30820471371475139 -0.44934037367827823 0 -0.29740702624587328 -0.44530185262498728 0 -0.30820471371475139 -0.44934037367827823 0 -0.30497982464674461 -0.4415926680772469 0 -0.29740702624587328 -0.44530185262498728 0 -0.30866406853031653 -0.5 0 -0.29814621416068632 -0.48551615039557577 0 -0.31127204438001438 -0.48135234028491769 0 -0.30383176645052362 -0.46218030542456978 0 -0.30149645675424958 -0.47433017849598952 0 -0.28743885865527669 -0.47156793532321961 0 -0.31797633053880647 -0.46871820730852592 0 -0.31127204438001438 -0.48135234028491769 0 -0.30149645675424958 -0.47433017849598952 0 -0.29814621416068632 -0.48551615039557577 0 -0.31127204438001438 -0.48135234028491769 0 -0.30149645675424958 -0.47433017849598952 0 -0.29814621416068632 -0.48551615039557577 0 -0.30149645675424958 -0.47433017849598952 0 -0.28743885865527669 -0.47156793532321961 0 -0.30866406853031653 -0.5 0 -0.29814621416068632 -0.48551615039557577 0 -0.28326182008417639 -0.49999999999999778 0 -0.28743885865527669 -0.47156793532321961 0 -0.28326182008417639 -0.49999999999999778 0 -0.27322358186614781 -0.48519548516985922 0 -0.28743885865527669 -0.47156793532321961 0 -0.28326182008417639 -0.49999999999999778 0 -0.29814621416068632 -0.48551615039557577 0 -0.28743885865527669 -0.47156793532321961 0 -0.28326182008417639 -0.49999999999999778 0 -0.28326182008417639 -0.49999999999999778 0 -0.27322358186614781 -0.48519548516985922 0 -0.25743809431630349 -0.5 0 -0.28743885865527669 -0.47156793532321961 0 -0.27322358186614781 -0.48519548516985922 0 -0.27383253734626678 -0.46997056735115211 0 -0.27322358186614781 -0.48519548516985922 0 -0.27383253734626678 -0.46997056735115211 0 -0.26363194845042748 -0.47544423059129481 0 -0.26601391985650019 -0.46186128463556092 0 -0.27383253734626678 -0.46997056735115211 0 -0.26363194845042748 -0.47544423059129481 0 -0.26363194845042748 -0.47544423059129481 0 -0.25092743635829939 -0.47802903816288211 0 -0.25942245428801869 -0.48698720692601932 0 -0.27322358186614781 -0.48519548516985922 0 -0.26363194845042748 -0.47544423059129481 0 -0.25942245428801869 -0.48698720692601932 0 -0.25166177816199159 -0.46509659108163232 0 -0.26363194845042748 -0.47544423059129481 0 -0.25092743635829939 -0.47802903816288211 0 -0.27322358186614781 -0.48519548516985922 0 -0.25942245428801869 -0.48698720692601932 0 -0.25743809431630349 -0.5 0 -0.25092743635829939 -0.47802903816288211 0 -0.25942245428801869 -0.48698720692601932 0 -0.24965118988782911 -0.4953944140851424 0 -0.25942245428801869 -0.48698720692601932 0 -0.25743809431630349 -0.5 0 -0.24965118988782911 -0.4953944140851424 0 -0.24965118988782911 -0.4953944140851424 0 -0.23161436854843059 -0.5 0 -0.2301505094366241 -0.4858795047294916 0 -0.25743809431630349 -0.5 0 -0.24965118988782911 -0.4953944140851424 0 -0.23161436854843059 -0.5 0 -0.25166177816199159 -0.46509659108163232 0 -0.25092743635829939 -0.47802903816288211 0 -0.23483470868434039 -0.47024208582686122 0 -0.24965118988782911 -0.4953944140851424 0 -0.23483470868434039 -0.47024208582686122 0 -0.25092743635829939 -0.47802903816288211 0 -0.24965118988782911 -0.4953944140851424 0 -0.23483470868434039 -0.47024208582686122 0 -0.24965118988782911 -0.4953944140851424 0 -0.23483470868434039 -0.47024208582686122 0 -0.2301505094366241 -0.4858795047294916 0 -0.23483470868434039 -0.47024208582686122 0 -0.2301505094366241 -0.4858795047294916 0 -0.21042106180261569 -0.47555830769413171 0 -0.2301505094366241 -0.4858795047294916 0 -0.2187025056644942 -0.48978666399546428 0 -0.21042106180261569 -0.47555830769413171 0 -0.23161436854843059 -0.5 0 -0.2301505094366241 -0.4858795047294916 0 -0.2187025056644942 -0.48978666399546428 0 -0.23824445561841651 -0.45272288619908341 0 -0.22525263911870841 -0.44063449788017628 0 -0.24027596506354379 -0.43509366620825252 0 -0.2563182000039661 -0.45228002107411158 0 -0.23824445561841651 -0.45272288619908341 0 -0.24909065315093301 -0.44289399940493762 0 -0.23824445561841651 -0.45272288619908341 0 -0.24909065315093301 -0.44289399940493762 0 -0.24027596506354379 -0.43509366620825252 0 -0.2563182000039661 -0.45228002107411158 0 -0.25166177816199159 -0.46509659108163232 0 -0.23824445561841651 -0.45272288619908341 0 -0.25166177816199159 -0.46509659108163232 0 -0.23483470868434039 -0.47024208582686122 0 -0.23824445561841651 -0.45272288619908341 0 -0.23483470868434039 -0.47024208582686122 0 -0.22044518275843231 -0.45974217764260777 0 -0.22001822748085051 -0.44508975756858082 0 -0.23483470868434039 -0.47024208582686122 0 -0.22044518275843231 -0.45974217764260777 0 -0.21042106180261569 -0.47555830769413171 0 -0.23483470868434039 -0.47024208582686122 0 -0.22001822748085051 -0.44508975756858082 0 -0.23483470868434039 -0.47024208582686122 0 -0.23824445561841651 -0.45272288619908341 0 -0.22001822748085051 -0.44508975756858082 0 -0.23824445561841651 -0.45272288619908341 0 -0.22001822748085051 -0.44508975756858082 0 -0.22525263911870841 -0.44063449788017628 0 -0.22044518275843231 -0.45974217764260777 0 -0.22001822748085051 -0.44508975756858082 0 -0.21650673306592311 -0.44807855948085801 0 -0.22001822748085051 -0.44508975756858082 0 -0.22525263911870841 -0.44063449788017628 0 -0.22001822748085051 -0.44508975756858082 0 -0.22525263911870841 -0.44063449788017628 0 -0.2175240408982618 -0.4434849227432619 0 -0.22525263911870841 -0.44063449788017628 0 -0.2175240408982618 -0.4434849227432619 0 -0.21794722499214189 -0.44157404194728628 0 -0.22525263911870841 -0.44063449788017628 0 -0.2175240408982618 -0.4434849227432619 0 -0.22525263911870841 -0.44063449788017628 0 -0.24027596506354379 -0.43509366620825252 0 -0.21094360675724669 -0.43893400633464441 0 -0.2059763348625103 -0.445517483374539 0 -0.20066781742961859 -0.4367474310834038 0 -0.21094360675724669 -0.43893400633464441 0 -0.21244529023832559 -0.44584758074224651 0 -0.2059763348625103 -0.445517483374539 0 -0.21094360675724669 -0.43893400633464441 0 -0.21794722499214189 -0.44157404194728628 0 -0.214472007686144 -0.4416711160785135 0 -0.22001822748085051 -0.44508975756858082 0 -0.2175240408982618 -0.4434849227432619 0 -0.2175240408982618 -0.4434849227432619 0 -0.21794722499214189 -0.44157404194728628 0 -0.2175240408982618 -0.4434849227432619 0 -0.21794722499214189 -0.44157404194728628 0 -0.214472007686144 -0.4416711160785135 0 -0.2175240408982618 -0.4434849227432619 0 -0.214472007686144 -0.4416711160785135 0 -0.21503711676685461 -0.44552689433677589 0 -0.214472007686144 -0.4416711160785135 0 -0.21244529023832559 -0.44584758074224651 0 -0.21503711676685461 -0.44552689433677589 0 -0.21094360675724669 -0.43893400633464441 0 -0.214472007686144 -0.4416711160785135 0 -0.21244529023832559 -0.44584758074224651 0 -0.21244529023832559 -0.44584758074224651 0 -0.21650673306592311 -0.44807855948085801 0 -0.20873965166624081 -0.45468949630636041 0 -0.21244529023832559 -0.44584758074224651 0 -0.21503711676685461 -0.44552689433677589 0 -0.21650673306592311 -0.44807855948085801 0 -0.2175240408982618 -0.4434849227432619 0 -0.21650673306592311 -0.44807855948085801 0 -0.2175240408982618 -0.4434849227432619 0 -0.21503711676685461 -0.44552689433677589 0 -0.21650673306592311 -0.44807855948085801 0 -0.22001822748085051 -0.44508975756858082 0 -0.2175240408982618 -0.4434849227432619 0 -0.21650673306592311 -0.44807855948085801 0 -0.22001822748085051 -0.44508975756858082 0 -0.21650673306592311 -0.44807855948085801 0 -0.21650673306592311 -0.44807855948085801 0 -0.20873965166624081 -0.45468949630636041 0 -0.2059763348625103 -0.445517483374539 0 -0.20873965166624081 -0.45468949630636041 0 -0.19607427948622691 -0.44861594499949931 0 -0.21244529023832559 -0.44584758074224651 0 -0.2059763348625103 -0.445517483374539 0 -0.20873965166624081 -0.45468949630636041 0 -0.21650673306592311 -0.44807855948085801 0 -0.20873965166624081 -0.45468949630636041 0 -0.21042106180261569 -0.47555830769413171 0 -0.22044518275843231 -0.45974217764260777 0 -0.21650673306592311 -0.44807855948085801 0 -0.21042106180261569 -0.47555830769413171 0 -0.21650673306592311 -0.44807855948085801 0 -0.21042106180261569 -0.47555830769413171 0 -0.20873965166624081 -0.45468949630636041 0 -0.20061943601421359 -0.46544537266451169 0 -0.21042106180261569 -0.47555830769413171 0 -0.20061943601421359 -0.46544537266451169 0 -0.1876917643638106 -0.46125765745692338 0 -0.19607427948622691 -0.44861594499949931 0 -0.20873965166624081 -0.45468949630636041 0 -0.20061943601421359 -0.46544537266451169 0 -0.19607427948622691 -0.44861594499949931 0 -0.19607427948622691 -0.44861594499949931 0 -0.17968802188311531 -0.44193962725879532 0 -0.1892240038252046 -0.43331721450988753 0 -0.1876917643638106 -0.46125765745692338 0 -0.19607427948622691 -0.44861594499949931 0 -0.17968802188311531 -0.44193962725879532 0 -0.19607427948622691 -0.44861594499949931 0 -0.20066781742961859 -0.4367474310834038 0 -0.1892240038252046 -0.43331721450988753 0 -0.2059763348625103 -0.445517483374539 0 -0.19607427948622691 -0.44861594499949931 0 -0.20066781742961859 -0.4367474310834038 0 -0.20579064278055781 -0.5 0 -0.2187025056644942 -0.48978666399546428 0 -0.21042106180261569 -0.47555830769413171 0 -0.23161436854843059 -0.5 0 -0.20579064278055781 -0.5 0 -0.2187025056644942 -0.48978666399546428 0 -0.20061943601421359 -0.46544537266451169 0 -0.1876917643638106 -0.46125765745692338 0 -0.19214088938670659 -0.48206188290836421 0 -0.20061943601421359 -0.46544537266451169 0 -0.21042106180261569 -0.47555830769413171 0 -0.19214088938670659 -0.48206188290836421 0 -0.20579064278055781 -0.5 0 -0.19214088938670659 -0.48206188290836421 0 -0.17996691701268491 -0.5 0 -0.20579064278055781 -0.5 0 -0.21042106180261569 -0.47555830769413171 0 -0.19214088938670659 -0.48206188290836421 0 -0.19214088938670659 -0.48206188290836421 0 -0.17996691701268491 -0.5 0 -0.16663030657577771 -0.47173344781207011 0 -0.17996691701268491 -0.5 0 -0.16663030657577771 -0.47173344781207011 0 -0.15414319124481199 -0.5 0 -0.1876917643638106 -0.46125765745692338 0 -0.19214088938670659 -0.48206188290836421 0 -0.16663030657577771 -0.47173344781207011 0 -0.19214088938670659 -0.48206188290836421 0 -0.16663030657577771 -0.47173344781207011 0 -0.1876917643638106 -0.46125765745692338 0 -0.16663030657577771 -0.47173344781207011 0 -0.17405526901547361 -0.45578433551119008 0 -0.1876917643638106 -0.46125765745692338 0 -0.17405526901547361 -0.45578433551119008 0 -0.17968802188311531 -0.44193962725879532 0 -0.17968802188311531 -0.44193962725879532 0 -0.16063550719365699 -0.44730480034170672 0 -0.1647631880675719 -0.4292780623349966 0 -0.17405526901547361 -0.45578433551119008 0 -0.17968802188311531 -0.44193962725879532 0 -0.16063550719365699 -0.44730480034170672 0 -0.16663030657577771 -0.47173344781207011 0 -0.17405526901547361 -0.45578433551119008 0 -0.16063550719365699 -0.44730480034170672 0 -0.16663030657577771 -0.47173344781207011 0 -0.14111972376484891 -0.46140501271577589 0 -0.16663030657577771 -0.47173344781207011 0 -0.16063550719365699 -0.44730480034170672 0 -0.14111972376484891 -0.46140501271577589 0 -0.16063550719365699 -0.44730480034170672 0 -0.14513320508203459 -0.44171393400226328 0 -0.1526485557465862 -0.42904433661746388 0 -0.16063550719365699 -0.44730480034170672 0 -0.14111972376484891 -0.46140501271577589 0 -0.14513320508203459 -0.44171393400226328 0 -0.14111972376484891 -0.46140501271577589 0 -0.14513320508203459 -0.44171393400226328 0 -0.13082934616647801 -0.44237513111678362 0 -0.14111972376484891 -0.46140501271577589 0 -0.13082934616647801 -0.44237513111678362 0 -0.11560914095392 -0.45107657761948178 0 -0.14111972376484891 -0.46140501271577589 0 -0.1264080347198821 -0.46483928958176107 0 -0.11560914095392 -0.45107657761948178 0 -0.14111972376484891 -0.46140501271577589 0 -0.11560914095392 -0.45107657761948178 0 -0.1264080347198821 -0.46483928958176107 0 -0.1403766216795293 -0.48140033601360688 0 -0.1207158978103602 -0.47883313214023238 0 -0.14111972376484891 -0.46140501271577589 0 -0.1264080347198821 -0.46483928958176107 0 -0.1403766216795293 -0.48140033601360688 0 -0.1403766216795293 -0.48140033601360688 0 -0.1283194654769394 -0.50000000000000155 0 -0.1207158978103602 -0.47883313214023238 0 -0.1403766216795293 -0.48140033601360688 0 -0.1283194654769394 -0.50000000000000155 0 -0.15414319124481199 -0.5 0 -0.16663030657577771 -0.47173344781207011 0 -0.1403766216795293 -0.48140033601360688 0 -0.15414319124481199 -0.5 0 -0.16663030657577771 -0.47173344781207011 0 -0.14111972376484891 -0.46140501271577589 0 -0.1403766216795293 -0.48140033601360688 0 -0.14318390740961601 -0.39945966675777428 0 -0.15372145273113799 -0.3919428196789666 0 -0.14107642478553131 -0.38386226571611798 0 -0.14318390740961601 -0.39945966675777428 0 -0.1380473749674733 -0.40607329449010238 0 -0.14258676614726259 -0.40879688708181589 0 -0.14318390740961601 -0.39945966675777428 0 -0.1493869209170868 -0.40445160069196878 0 -0.14258676614726259 -0.40879688708181589 0 -0.14318390740961601 -0.39945966675777428 0 -0.1493869209170868 -0.40445160069196878 0 -0.15372145273113799 -0.3919428196789666 0 -0.1493869209170868 -0.40445160069196878 0 -0.15372145273113799 -0.3919428196789666 0 -0.15907331894126089 -0.40331326144670349 0 -0.1493869209170868 -0.40445160069196878 0 -0.15379138732331771 -0.41061889896097042 0 -0.15907331894126089 -0.40331326144670349 0 -0.15372145273113799 -0.3919428196789666 0 -0.14107642478553131 -0.38386226571611798 0 -0.16162748812186339 -0.3715369760827652 0 -0.14107642478553131 -0.38386226571611798 0 -0.1254728502257636 -0.37859699181811141 0 -0.1240730681738034 -0.39141110973529591 0 -0.14107642478553131 -0.38386226571611798 0 -0.1254728502257636 -0.37859699181811141 0 -0.13208873459415571 -0.36815624444617862 0 -0.14318390740961601 -0.39945966675777428 0 -0.14107642478553131 -0.38386226571611798 0 -0.13363276589634421 -0.4035078790287977 0 -0.14107642478553131 -0.38386226571611798 0 -0.13363276589634421 -0.4035078790287977 0 -0.1240730681738034 -0.39141110973529591 0 -0.14107642478553131 -0.38386226571611798 0 -0.13363276589634421 -0.4035078790287977 0 -0.14318390740961601 -0.39945966675777428 0 -0.13363276589634421 -0.4035078790287977 0 -0.1380473749674733 -0.40607329449010238 0 -0.13363276589634421 -0.4035078790287977 0 -0.13641036220129529 -0.41522053635804002 0 -0.1246209534251322 -0.42729222832413971 0 -0.13363276589634421 -0.4035078790287977 0 -0.1246209534251322 -0.42729222832413971 0 -0.1204975607507127 -0.41417525473537542 0 -0.13363276589634421 -0.4035078790287977 0 -0.1246209534251322 -0.42729222832413971 0 -0.13641036220129529 -0.41522053635804002 0 -0.1403018309748211 -0.42700044130721299 0 -0.1431374973723317 -0.41584674232891072 0 -0.13363276589634421 -0.4035078790287977 0 -0.1380473749674733 -0.40607329449010238 0 -0.13641036220129529 -0.41522053635804002 0 -0.1380473749674733 -0.40607329449010238 0 -0.13641036220129529 -0.41522053635804002 0 -0.14258676614726259 -0.40879688708181589 0 -0.13082934616647801 -0.44237513111678362 0 -0.1403018309748211 -0.42700044130721299 0 -0.1246209534251322 -0.42729222832413971 0 -0.13641036220129529 -0.41522053635804002 0 -0.1403018309748211 -0.42700044130721299 0 -0.1246209534251322 -0.42729222832413971 0 -0.14513320508203459 -0.44171393400226328 0 -0.13082934616647801 -0.44237513111678362 0 -0.1403018309748211 -0.42700044130721299 0 -0.14513320508203459 -0.44171393400226328 0 -0.1403018309748211 -0.42700044130721299 0 -0.1526485557465862 -0.42904433661746388 0 -0.1403018309748211 -0.42700044130721299 0 -0.1526485557465862 -0.42904433661746388 0 -0.14992435983947769 -0.41824937580160682 0 -0.1493869209170868 -0.40445160069196878 0 -0.14764709371797771 -0.41144486189331131 0 -0.14258676614726259 -0.40879688708181589 0 -0.14764709371797771 -0.41144486189331131 0 -0.14258676614726259 -0.40879688708181589 0 -0.1431374973723317 -0.41584674232891072 0 -0.13641036220129529 -0.41522053635804002 0 -0.14258676614726259 -0.40879688708181589 0 -0.1431374973723317 -0.41584674232891072 0 -0.1403018309748211 -0.42700044130721299 0 -0.1431374973723317 -0.41584674232891072 0 -0.14992435983947769 -0.41824937580160682 0 -0.14764709371797771 -0.41144486189331131 0 -0.1431374973723317 -0.41584674232891072 0 -0.14992435983947769 -0.41824937580160682 0 -0.1526485557465862 -0.42904433661746388 0 -0.14992435983947769 -0.41824937580160682 0 -0.16190491642559129 -0.41601327504236452 0 -0.14992435983947769 -0.41824937580160682 0 -0.15379138732331771 -0.41061889896097042 0 -0.16190491642559129 -0.41601327504236452 0 -0.14764709371797771 -0.41144486189331131 0 -0.14992435983947769 -0.41824937580160682 0 -0.15379138732331771 -0.41061889896097042 0 -0.1493869209170868 -0.40445160069196878 0 -0.14764709371797771 -0.41144486189331131 0 -0.15379138732331771 -0.41061889896097042 0 -0.16190491642559129 -0.41601327504236452 0 -0.16860431271717261 -0.40757291887883362 0 -0.15907331894126089 -0.40331326144670349 0 -0.15379138732331771 -0.41061889896097042 0 -0.16190491642559129 -0.41601327504236452 0 -0.15907331894126089 -0.40331326144670349 0 -0.16190491642559129 -0.41601327504236452 0 -0.1647631880675719 -0.4292780623349966 0 -0.1743985100946788 -0.41732381133147961 0 -0.16190491642559129 -0.41601327504236452 0 -0.16860431271717261 -0.40757291887883362 0 -0.1743985100946788 -0.41732381133147961 0 -0.16063550719365699 -0.44730480034170672 0 -0.1526485557465862 -0.42904433661746388 0 -0.1647631880675719 -0.4292780623349966 0 -0.1526485557465862 -0.42904433661746388 0 -0.16190491642559129 -0.41601327504236452 0 -0.1647631880675719 -0.4292780623349966 0 -0.17968802188311531 -0.44193962725879532 0 -0.1647631880675719 -0.4292780623349966 0 -0.17772016287692211 -0.42912635945993322 0 -0.1647631880675719 -0.4292780623349966 0 -0.17772016287692211 -0.42912635945993322 0 -0.1743985100946788 -0.41732381133147961 0 -0.17772016287692211 -0.42912635945993322 0 -0.1849879023330018 -0.42305284241103142 0 -0.1743985100946788 -0.41732381133147961 0 -0.17772016287692211 -0.42912635945993322 0 -0.1849879023330018 -0.42305284241103142 0 -0.1892240038252046 -0.43331721450988753 0 -0.17968802188311531 -0.44193962725879532 0 -0.17772016287692211 -0.42912635945993322 0 -0.1892240038252046 -0.43331721450988753 0 -0.16860431271717261 -0.40757291887883362 0 -0.1743985100946788 -0.41732381133147961 0 -0.17815797823511501 -0.40287653554703751 0 -0.1743985100946788 -0.41732381133147961 0 -0.1861736666569323 -0.41209964249860348 0 -0.17815797823511501 -0.40287653554703751 0 -0.1849879023330018 -0.42305284241103142 0 -0.1743985100946788 -0.41732381133147961 0 -0.1861736666569323 -0.41209964249860348 0 -0.17815797823511501 -0.40287653554703751 0 -0.16765448027579291 -0.39157883604602178 0 -0.18248181593257781 -0.38548557241264048 0 -0.17815797823511501 -0.40287653554703751 0 -0.18248181593257781 -0.38548557241264048 0 -0.18930337551832579 -0.40096720487365373 0 -0.1861736666569323 -0.41209964249860348 0 -0.17815797823511501 -0.40287653554703751 0 -0.18930337551832579 -0.40096720487365373 0 -0.16860431271717261 -0.40757291887883362 0 -0.17815797823511501 -0.40287653554703751 0 -0.16765448027579291 -0.39157883604602178 0 -0.16860431271717261 -0.40757291887883362 0 -0.16765448027579291 -0.39157883604602178 0 -0.15907331894126089 -0.40331326144670349 0 -0.15372145273113799 -0.3919428196789666 0 -0.16765448027579291 -0.39157883604602178 0 -0.15907331894126089 -0.40331326144670349 0 -0.16765448027579291 -0.39157883604602178 0 -0.18248181593257781 -0.38548557241264048 0 -0.16162748812186339 -0.3715369760827652 0 -0.15372145273113799 -0.3919428196789666 0 -0.16765448027579291 -0.39157883604602178 0 -0.16162748812186339 -0.3715369760827652 0 -0.18248181593257781 -0.38548557241264048 0 -0.16162748812186339 -0.3715369760827652 0 -0.18248181593257781 -0.38548557241264048 0 -0.19775677636036171 -0.38629548037199157 0 -0.19510881715905309 -0.37348263457516639 0 -0.18248181593257781 -0.38548557241264048 0 -0.19775677636036171 -0.38629548037199157 0 -0.2033361437432922 -0.3994341687425158 0 -0.19775677636036171 -0.38629548037199157 0 -0.20347386267021261 -0.38217201080446528 0 -0.19510881715905309 -0.37348263457516639 0 -0.20347386267021261 -0.38217201080446528 0 -0.19510881715905309 -0.37348263457516639 0 -0.2029578887159102 -0.37294262769038838 0 -0.19775677636036171 -0.38629548037199157 0 -0.20438324229667279 -0.39090301532517002 0 -0.20347386267021261 -0.38217201080446528 0 -0.18248181593257781 -0.38548557241264048 0 -0.18930337551832579 -0.40096720487365373 0 -0.2033361437432922 -0.3994341687425158 0 -0.18248181593257781 -0.38548557241264048 0 -0.2033361437432922 -0.3994341687425158 0 -0.1861736666569323 -0.41209964249860348 0 -0.18930337551832579 -0.40096720487365373 0 -0.19636727302371179 -0.40494010516747109 0 -0.19636727302371179 -0.40494010516747109 0 -0.2033361437432922 -0.3994341687425158 0 -0.2038744718292522 -0.4072787537527871 0 -0.18930337551832579 -0.40096720487365373 0 -0.19636727302371179 -0.40494010516747109 0 -0.2033361437432922 -0.3994341687425158 0 -0.19775677636036171 -0.38629548037199157 0 -0.20438324229667279 -0.39090301532517002 0 -0.2033361437432922 -0.3994341687425158 0 -0.2033361437432922 -0.3994341687425158 0 -0.21754499660183771 -0.40145429329817522 0 -0.22419047155400729 -0.4133827650723898 0 -0.20438324229667279 -0.39090301532517002 0 -0.21092879385002161 -0.39595014681299889 0 -0.2033361437432922 -0.3994341687425158 0 -0.20438324229667279 -0.39090301532517002 0 -0.21092879385002161 -0.39595014681299889 0 -0.21103401278606471 -0.39062497441292032 0 -0.21092879385002161 -0.39595014681299889 0 -0.2033361437432922 -0.3994341687425158 0 -0.21754499660183771 -0.40145429329817522 0 -0.21092879385002161 -0.39595014681299889 0 -0.21103401278606471 -0.39062497441292032 0 -0.21909402146559859 -0.39252461485210838 0 -0.21092879385002161 -0.39595014681299889 0 -0.21754499660183771 -0.40145429329817522 0 -0.21909402146559859 -0.39252461485210838 0 -0.21103401278606471 -0.39062497441292032 0 -0.21081880191548871 -0.38068817570180141 0 -0.21909402146559859 -0.39252461485210838 0 -0.21081880191548871 -0.38068817570180141 0 -0.22211035571406951 -0.38160543951178572 0 -0.21909402146559859 -0.39252461485210838 0 -0.21081880191548871 -0.38068817570180141 0 -0.22211035571406951 -0.38160543951178572 0 -0.20624267014107669 -0.36425938693914001 0 -0.20347386267021261 -0.38217201080446528 0 -0.21081880191548871 -0.38068817570180141 0 -0.2029578887159102 -0.37294262769038838 0 -0.20438324229667279 -0.39090301532517002 0 -0.21103401278606471 -0.39062497441292032 0 -0.20347386267021261 -0.38217201080446528 0 -0.21103401278606471 -0.39062497441292032 0 -0.20347386267021261 -0.38217201080446528 0 -0.21081880191548871 -0.38068817570180141 0 -0.20066781742961859 -0.4367474310834038 0 -0.1892240038252046 -0.43331721450988753 0 -0.1940963187127327 -0.4222357182046293 0 -0.1849879023330018 -0.42305284241103142 0 -0.1892240038252046 -0.43331721450988753 0 -0.1940963187127327 -0.4222357182046293 0 -0.20066781742961859 -0.4367474310834038 0 -0.1940963187127327 -0.4222357182046293 0 -0.20715724900792731 -0.42325707355737852 0 -0.1861736666569323 -0.41209964249860348 0 -0.19636727302371179 -0.40494010516747109 0 -0.1940963187127327 -0.4222357182046293 0 -0.19636727302371179 -0.40494010516747109 0 -0.20715724900792731 -0.42325707355737852 0 -0.19636727302371179 -0.40494010516747109 0 -0.2038744718292522 -0.4072787537527871 0 -0.20715724900792731 -0.42325707355737852 0 -0.19636727302371179 -0.40494010516747109 0 -0.1940963187127327 -0.4222357182046293 0 -0.20715724900792731 -0.42325707355737852 0 -0.1849879023330018 -0.42305284241103142 0 -0.1861736666569323 -0.41209964249860348 0 -0.1940963187127327 -0.4222357182046293 0 -0.2038744718292522 -0.4072787537527871 0 -0.20958709138718501 -0.41225956698169108 0 -0.20715724900792731 -0.42325707355737852 0 -0.2033361437432922 -0.3994341687425158 0 -0.2162217153590846 -0.41138527340051029 0 -0.22419047155400729 -0.4133827650723898 0 -0.2033361437432922 -0.3994341687425158 0 -0.22419047155400729 -0.4133827650723898 0 -0.2033361437432922 -0.3994341687425158 0 -0.2038744718292522 -0.4072787537527871 0 -0.20958709138718501 -0.41225956698169108 0 -0.2033361437432922 -0.3994341687425158 0 -0.20958709138718501 -0.41225956698169108 0 -0.2136400460026342 -0.41204545626272898 0 -0.2033361437432922 -0.3994341687425158 0 -0.2162217153590846 -0.41138527340051029 0 -0.2136400460026342 -0.41204545626272898 0 -0.2162217153590846 -0.41138527340051029 0 -0.2136400460026342 -0.41204545626272898 0 -0.21757298824056451 -0.41699649656790772 0 -0.20958709138718501 -0.41225956698169108 0 -0.2136400460026342 -0.41204545626272898 0 -0.2141343561411673 -0.4189401776044207 0 -0.21757298824056451 -0.41699649656790772 0 -0.2168987468032596 -0.42580250175163908 0 -0.21976325099371349 -0.41637053667208251 0 -0.21757298824056451 -0.41699649656790772 0 -0.2141343561411673 -0.4189401776044207 0 -0.2168987468032596 -0.42580250175163908 0 -0.2162217153590846 -0.41138527340051029 0 -0.21757298824056451 -0.41699649656790772 0 -0.21976325099371349 -0.41637053667208251 0 -0.2136400460026342 -0.41204545626272898 0 -0.21757298824056451 -0.41699649656790772 0 -0.2141343561411673 -0.4189401776044207 0 -0.20958709138718501 -0.41225956698169108 0 -0.2141343561411673 -0.4189401776044207 0 -0.20715724900792731 -0.42325707355737852 0 -0.21094360675724669 -0.43893400633464441 0 -0.20066781742961859 -0.4367474310834038 0 -0.20715724900792731 -0.42325707355737852 0 -0.21794722499214189 -0.44157404194728628 0 -0.20715724900792731 -0.42325707355737852 0 -0.2168987468032596 -0.42580250175163908 0 -0.21094360675724669 -0.43893400633464441 0 -0.21794722499214189 -0.44157404194728628 0 -0.20715724900792731 -0.42325707355737852 0 -0.21794722499214189 -0.44157404194728628 0 -0.20715724900792731 -0.42325707355737852 0 -0.2141343561411673 -0.4189401776044207 0 -0.20715724900792731 -0.42325707355737852 0 -0.2168987468032596 -0.42580250175163908 0 -0.21794722499214189 -0.44157404194728628 0 -0.2248161991816823 -0.42269872205449288 0 -0.22419047155400729 -0.4133827650723898 0 -0.21794722499214189 -0.44157404194728628 0 -0.22419047155400729 -0.4133827650723898 0 -0.22525263911870841 -0.44063449788017628 0 -0.24347028502184179 -0.42512858259777569 0 -0.21794722499214189 -0.44157404194728628 0 -0.22547388670510921 -0.42927176463858979 0 -0.2248161991816823 -0.42269872205449288 0 -0.22525263911870841 -0.44063449788017628 0 -0.2305991551007513 -0.42246419615996061 0 -0.2363263140061389 -0.42245661441623727 0 -0.22525263911870841 -0.44063449788017628 0 -0.22547388670510921 -0.42927176463858979 0 -0.2305991551007513 -0.42246419615996061 0 -0.21794722499214189 -0.44157404194728628 0 -0.2168987468032596 -0.42580250175163908 0 -0.22419047155400729 -0.4133827650723898 0 -0.22525263911870841 -0.44063449788017628 0 -0.21794722499214189 -0.44157404194728628 0 -0.22547388670510921 -0.42927176463858979 0 -0.22547388670510921 -0.42927176463858979 0 -0.2248161991816823 -0.42269872205449288 0 -0.22736171540494221 -0.42268533224243332 0 -0.22547388670510921 -0.42927176463858979 0 -0.22736171540494221 -0.42268533224243332 0 -0.2305991551007513 -0.42246419615996061 0 -0.2305991551007513 -0.42246419615996061 0 -0.23331103741745171 -0.41541580149626339 0 -0.2363263140061389 -0.42245661441623727 0 -0.23331103741745171 -0.41541580149626339 0 -0.22946815887116079 -0.4159171128472306 0 -0.22896895582759819 -0.41326008120738722 0 -0.2305991551007513 -0.42246419615996061 0 -0.23331103741745171 -0.41541580149626339 0 -0.22946815887116079 -0.4159171128472306 0 -0.22946815887116079 -0.4159171128472306 0 -0.22706979952753839 -0.41558189375014021 0 -0.22896895582759819 -0.41326008120738722 0 -0.22706979952753839 -0.41558189375014021 0 -0.22626049216691449 -0.41364928323392958 0 -0.22896895582759819 -0.41326008120738722 0 -0.22946815887116079 -0.4159171128472306 0 -0.22706979952753839 -0.41558189375014021 0 -0.2274290577710382 -0.41845742487295079 0 -0.2305991551007513 -0.42246419615996061 0 -0.22946815887116079 -0.4159171128472306 0 -0.2274290577710382 -0.41845742487295079 0 -0.22736171540494221 -0.42268533224243332 0 -0.2305991551007513 -0.42246419615996061 0 -0.2274290577710382 -0.41845742487295079 0 -0.2248161991816823 -0.42269872205449288 0 -0.2274290577710382 -0.41845742487295079 0 -0.2252100621082869 -0.41706070154034541 0 -0.2168987468032596 -0.42580250175163908 0 -0.21976325099371349 -0.41637053667208251 0 -0.22419047155400729 -0.4133827650723898 0 -0.2248161991816823 -0.42269872205449288 0 -0.22736171540494221 -0.42268533224243332 0 -0.2274290577710382 -0.41845742487295079 0 -0.2248161991816823 -0.42269872205449288 0 -0.2252100621082869 -0.41706070154034541 0 -0.22419047155400729 -0.4133827650723898 0 -0.22706979952753839 -0.41558189375014021 0 -0.2274290577710382 -0.41845742487295079 0 -0.2252100621082869 -0.41706070154034541 0 -0.2252100621082869 -0.41706070154034541 0 -0.22626049216691449 -0.41364928323392958 0 -0.22419047155400729 -0.4133827650723898 0 -0.22706979952753839 -0.41558189375014021 0 -0.2252100621082869 -0.41706070154034541 0 -0.22626049216691449 -0.41364928323392958 0 -0.22626049216691449 -0.41364928323392958 0 -0.22642050725291141 -0.41180987779929118 0 -0.22419047155400729 -0.4133827650723898 0 -0.22642050725291141 -0.41180987779929118 0 -0.22419047155400729 -0.4133827650723898 0 -0.22711309576314809 -0.40925904557747511 0 -0.2162217153590846 -0.41138527340051029 0 -0.21976325099371349 -0.41637053667208251 0 -0.22419047155400729 -0.4133827650723898 0 -0.22642050725291141 -0.41180987779929118 0 -0.22896895582759819 -0.41326008120738722 0 -0.22855989353901721 -0.41111314215530897 0 -0.22642050725291141 -0.41180987779929118 0 -0.22711309576314809 -0.40925904557747511 0 -0.22855989353901721 -0.41111314215530897 0 -0.22711309576314809 -0.40925904557747511 0 -0.22855989353901721 -0.41111314215530897 0 -0.23173701531241109 -0.4101235640370825 0 -0.22626049216691449 -0.41364928323392958 0 -0.22642050725291141 -0.41180987779929118 0 -0.22896895582759819 -0.41326008120738722 0 -0.22896895582759819 -0.41326008120738722 0 -0.22855989353901721 -0.41111314215530897 0 -0.23173701531241109 -0.4101235640370825 0 -0.23331103741745171 -0.41541580149626339 0 -0.22896895582759819 -0.41326008120738722 0 -0.23173701531241109 -0.4101235640370825 0 -0.22711309576314809 -0.40925904557747511 0 -0.23173701531241109 -0.4101235640370825 0 -0.23297336156511481 -0.40383205391701082 0 -0.25384572686005491 -0.4162975446570773 0 -0.23859686606719749 -0.40927389107853551 0 -0.23797804128706221 -0.39895149208443142 0 -0.25504109963533078 -0.40402814620274752 0 -0.25384572686005491 -0.4162975446570773 0 -0.23797804128706221 -0.39895149208443142 0 -0.25384572686005491 -0.4162975446570773 0 -0.23797804128706221 -0.39895149208443142 0 -0.23173701531241109 -0.4101235640370825 0 -0.23859686606719749 -0.40927389107853551 0 -0.23297336156511481 -0.40383205391701082 0 -0.23331103741745171 -0.41541580149626339 0 -0.23173701531241109 -0.4101235640370825 0 -0.23859686606719749 -0.40927389107853551 0 -0.25384572686005491 -0.4162975446570773 0 -0.2411100458745371 -0.417714486849178 0 -0.24347028502184179 -0.42512858259777569 0 -0.25384572686005491 -0.4162975446570773 0 -0.24347028502184179 -0.42512858259777569 0 -0.25384572686005491 -0.4162975446570773 0 -0.23859686606719749 -0.40927389107853551 0 -0.2411100458745371 -0.417714486849178 0 -0.2411100458745371 -0.417714486849178 0 -0.2363263140061389 -0.42245661441623727 0 -0.24347028502184179 -0.42512858259777569 0 -0.23331103741745171 -0.41541580149626339 0 -0.23859686606719749 -0.40927389107853551 0 -0.2411100458745371 -0.417714486849178 0 -0.23331103741745171 -0.41541580149626339 0 -0.2411100458745371 -0.417714486849178 0 -0.2363263140061389 -0.42245661441623727 0 -0.22525263911870841 -0.44063449788017628 0 -0.24347028502184179 -0.42512858259777569 0 -0.24027596506354379 -0.43509366620825252 0 -0.22525263911870841 -0.44063449788017628 0 -0.2363263140061389 -0.42245661441623727 0 -0.24347028502184179 -0.42512858259777569 0 -0.2363263140061389 -0.42245661441623727 0 -0.24347028502184179 -0.42512858259777569 0 -0.25529929100837978 -0.42955283453633047 0 -0.24347028502184179 -0.42512858259777569 0 -0.25529929100837978 -0.42955283453633047 0 -0.24909065315093301 -0.44289399940493762 0 -0.24027596506354379 -0.43509366620825252 0 -0.25529929100837978 -0.42955283453633047 0 -0.24027596506354379 -0.43509366620825252 0 -0.25529929100837978 -0.42955283453633047 0 -0.24347028502184179 -0.42512858259777569 0 -0.24027596506354379 -0.43509366620825252 0 -0.22211035571406951 -0.38160543951178572 0 -0.23797804128706221 -0.39895149208443142 0 -0.22211035571406951 -0.38160543951178572 0 -0.23797804128706221 -0.39895149208443142 0 -0.23599668104387919 -0.38474757172596541 0 -0.22211035571406951 -0.38160543951178572 0 -0.23599668104387919 -0.38474757172596541 0 -0.22923534853375621 -0.3687738632171208 0 -0.22211035571406951 -0.38160543951178572 0 -0.21909402146559859 -0.39252461485210838 0 -0.22873972959464259 -0.39284066542471308 0 -0.22419047155400729 -0.4133827650723898 0 -0.22711309576314809 -0.40925904557747511 0 -0.22873972959464259 -0.39284066542471308 0 -0.22419047155400729 -0.4133827650723898 0 -0.2231348060328924 -0.40147379767564351 0 -0.22873972959464259 -0.39284066542471308 0 -0.22211035571406951 -0.38160543951178572 0 -0.22873972959464259 -0.39284066542471308 0 -0.23797804128706221 -0.39895149208443142 0 -0.22711309576314809 -0.40925904557747511 0 -0.23297336156511481 -0.40383205391701082 0 -0.22873972959464259 -0.39284066542471308 0 -0.22206402638108191 -0.39821746690729581 0 -0.2231348060328924 -0.40147379767564351 0 -0.22873972959464259 -0.39284066542471308 0 -0.22419047155400729 -0.4133827650723898 0 -0.22873972959464259 -0.39284066542471308 0 -0.21909402146559859 -0.39252461485210838 0 -0.22206402638108191 -0.39821746690729581 0 -0.22873972959464259 -0.39284066542471308 0 -0.21754499660183771 -0.40145429329817522 0 -0.21909402146559859 -0.39252461485210838 0 -0.22206402638108191 -0.39821746690729581 0 -0.21754499660183771 -0.40145429329817522 0 -0.22419047155400729 -0.4133827650723898 0 -0.2231348060328924 -0.40147379767564351 0 -0.21754499660183771 -0.40145429329817522 0 -0.22206402638108191 -0.39821746690729581 0 -0.2231348060328924 -0.40147379767564351 0 -0.23297336156511481 -0.40383205391701082 0 -0.22873972959464259 -0.39284066542471308 0 -0.23797804128706221 -0.39895149208443142 0 -0.23797804128706221 -0.39895149208443142 0 -0.2438176809600493 -0.38978199039569839 0 -0.23599668104387919 -0.38474757172596541 0 -0.25504109963533078 -0.40402814620274752 0 -0.25285090396253701 -0.39475094466033861 0 -0.23797804128706221 -0.39895149208443142 0 -0.23859686606719749 -0.40927389107853551 0 -0.23297336156511481 -0.40383205391701082 0 -0.23797804128706221 -0.39895149208443142 0 -0.25285090396253701 -0.39475094466033861 0 -0.23797804128706221 -0.39895149208443142 0 -0.2438176809600493 -0.38978199039569839 0 -0.25285090396253701 -0.39475094466033861 0 -0.2438176809600493 -0.38978199039569839 0 -0.24844509754671881 -0.38067795311205849 0 -0.23599668104387919 -0.38474757172596541 0 -0.24844509754671881 -0.38067795311205849 0 -0.22923534853375621 -0.3687738632171208 0 -0.2438176809600493 -0.38978199039569839 0 -0.23599668104387919 -0.38474757172596541 0 -0.24844509754671881 -0.38067795311205849 0 -0.24844509754671881 -0.38067795311205849 0 -0.2471238808729333 -0.36186225383658999 0 -0.22923534853375621 -0.3687738632171208 0 -0.24844509754671881 -0.38067795311205849 0 -0.22923534853375621 -0.3687738632171208 0 -0.2471238808729333 -0.36186225383658999 0 -0.22923534853375621 -0.3687738632171208 0 -0.23467608643063029 -0.35591139559462998 0 -0.22923534853375621 -0.3687738632171208 0 -0.21002559952079361 -0.35686977332218323 0 -0.22211035571406951 -0.38160543951178572 0 -0.22923534853375621 -0.3687738632171208 0 -0.20624267014107669 -0.36425938693914001 0 -0.22923534853375621 -0.3687738632171208 0 -0.2239898824603439 -0.35458406944727489 0 -0.21002559952079361 -0.35686977332218323 0 -0.22923534853375621 -0.3687738632171208 0 -0.2239898824603439 -0.35458406944727489 0 -0.23467608643063029 -0.35591139559462998 0 -0.2239898824603439 -0.35458406944727489 0 -0.2285459733168321 -0.34232144521097002 0 -0.2166821227012028 -0.34483970428045441 0 -0.2239898824603439 -0.35458406944727489 0 -0.23467608643063029 -0.35591139559462998 0 -0.2285459733168321 -0.34232144521097002 0 -0.23467608643063029 -0.35591139559462998 0 -0.24279169714789539 -0.34213077275920462 0 -0.2285459733168321 -0.34232144521097002 0 -0.2565318681264519 -0.34593743616912798 0 -0.2471238808729333 -0.36186225383658999 0 -0.24279169714789539 -0.34213077275920462 0 -0.2471238808729333 -0.36186225383658999 0 -0.23467608643063029 -0.35591139559462998 0 -0.24279169714789539 -0.34213077275920462 0 -0.24279169714789539 -0.34213077275920462 0 -0.23406460059063999 -0.32273088103140057 0 -0.2285459733168321 -0.34232144521097002 0 -0.2565318681264519 -0.34593743616912798 0 -0.24811306483497159 -0.32820725689031038 0 -0.24279169714789539 -0.34213077275920462 0 -0.24811306483497159 -0.32820725689031038 0 -0.24279169714789539 -0.34213077275920462 0 -0.23406460059063999 -0.32273088103140057 0 -0.24811306483497159 -0.32820725689031038 0 -0.23406460059063999 -0.32273088103140057 0 -0.2432623182123671 -0.30941965377505087 0 -0.23406460059063999 -0.32273088103140057 0 -0.2196097139177613 -0.3273703881205135 0 -0.223853379572095 -0.30416534011500268 0 -0.2196097139177613 -0.3273703881205135 0 -0.223853379572095 -0.30416534011500268 0 -0.2196097139177613 -0.3273703881205135 0 -0.2285459733168321 -0.34232144521097002 0 -0.2166821227012028 -0.34483970428045441 0 -0.23406460059063999 -0.32273088103140057 0 -0.2196097139177613 -0.3273703881205135 0 -0.2285459733168321 -0.34232144521097002 0 -0.2196097139177613 -0.3273703881205135 0 -0.20835868042385819 -0.33443302128478131 0 -0.2166821227012028 -0.34483970428045441 0 -0.20835868042385819 -0.33443302128478131 0 -0.2166821227012028 -0.34483970428045441 0 -0.20875823269260671 -0.34530509444791668 0 -0.20835868042385819 -0.33443302128478131 0 -0.20137420522894811 -0.34300720783797001 0 -0.20875823269260671 -0.34530509444791668 0 -0.20835868042385819 -0.33443302128478131 0 -0.20926533145133089 -0.31533021376755571 0 -0.1956695131006552 -0.32352324558958812 0 -0.2196097139177613 -0.3273703881205135 0 -0.20926533145133089 -0.31533021376755571 0 -0.223853379572095 -0.30416534011500268 0 -0.2196097139177613 -0.3273703881205135 0 -0.20835868042385819 -0.33443302128478131 0 -0.20926533145133089 -0.31533021376755571 0 -0.20926533145133089 -0.31533021376755571 0 -0.1956695131006552 -0.32352324558958812 0 -0.2005231756934788 -0.30208080775193108 0 -0.1956695131006552 -0.32352324558958812 0 -0.2005231756934788 -0.30208080775193108 0 -0.1956695131006552 -0.32352324558958812 0 -0.18568448282947569 -0.34178582604931118 0 -0.183202122517856 -0.3390721881799732 0 -0.1956695131006552 -0.32352324558958812 0 -0.19081585050783131 -0.34496568342724521 0 -0.18568448282947569 -0.34178582604931118 0 -0.1956695131006552 -0.32352324558958812 0 -0.19081585050783131 -0.34496568342724521 0 -0.1956695131006552 -0.32352324558958812 0 -0.20137420522894811 -0.34300720783797001 0 -0.19081585050783131 -0.34496568342724521 0 -0.20835868042385819 -0.33443302128478131 0 -0.1956695131006552 -0.32352324558958812 0 -0.20137420522894811 -0.34300720783797001 0 -0.19081585050783131 -0.34496568342724521 0 -0.18568448282947569 -0.34178582604931118 0 -0.19081585050783131 -0.34496568342724521 0 -0.21002559952079361 -0.35686977332218323 0 -0.19037498456808491 -0.34691333436649352 0 -0.20624267014107669 -0.36425938693914001 0 -0.21002559952079361 -0.35686977332218323 0 -0.19037498456808491 -0.34691333436649352 0 -0.19631831792547769 -0.36396622326150052 0 -0.18690722904326479 -0.36223313273631319 0 -0.19037498456808491 -0.34691333436649352 0 -0.20624267014107669 -0.36425938693914001 0 -0.19037498456808491 -0.34691333436649352 0 -0.19081585050783131 -0.34496568342724521 0 -0.18568448282947569 -0.34178582604931118 0 -0.19037498456808491 -0.34691333436649352 0 -0.18568448282947569 -0.34178582604931118 0 -0.20137420522894811 -0.34300720783797001 0 -0.19081585050783131 -0.34496568342724521 0 -0.21002559952079361 -0.35686977332218323 0 -0.19037498456808491 -0.34691333436649352 0 -0.19081585050783131 -0.34496568342724521 0 -0.21002559952079361 -0.35686977332218323 0 -0.19037498456808491 -0.34691333436649352 0 -0.19631831792547769 -0.36396622326150052 0 -0.20624267014107669 -0.36425938693914001 0 -0.19037498456808491 -0.34691333436649352 0 -0.19081585050783131 -0.34496568342724521 0 -0.19037498456808491 -0.34691333436649352 0 -0.18690722904326479 -0.36223313273631319 0 -0.19510881715905309 -0.37348263457516639 0 -0.19631831792547769 -0.36396622326150052 0 -0.18690722904326479 -0.36223313273631319 0 -0.18248181593257781 -0.38548557241264048 0 -0.19510881715905309 -0.37348263457516639 0 -0.18690722904326479 -0.36223313273631319 0 -0.19510881715905309 -0.37348263457516639 0 -0.2029578887159102 -0.37294262769038838 0 -0.19631831792547769 -0.36396622326150052 0 -0.2029578887159102 -0.37294262769038838 0 -0.19631831792547769 -0.36396622326150052 0 -0.20624267014107669 -0.36425938693914001 0 -0.22923534853375621 -0.3687738632171208 0 -0.20624267014107669 -0.36425938693914001 0 -0.21002559952079361 -0.35686977332218323 0 -0.22211035571406951 -0.38160543951178572 0 -0.20624267014107669 -0.36425938693914001 0 -0.21081880191548871 -0.38068817570180141 0 -0.2029578887159102 -0.37294262769038838 0 -0.20624267014107669 -0.36425938693914001 0 -0.2239898824603439 -0.35458406944727489 0 -0.2166821227012028 -0.34483970428045441 0 -0.21002559952079361 -0.35686977332218323 0 -0.2166821227012028 -0.34483970428045441 0 -0.20875823269260671 -0.34530509444791668 0 -0.21002559952079361 -0.35686977332218323 0 -0.20137420522894811 -0.34300720783797001 0 -0.20875823269260671 -0.34530509444791668 0 -0.21002559952079361 -0.35686977332218323 0 -0.22495618121018399 -0.26207964812671469 0 -0.23248403902798259 -0.25697150268612517 0 -0.2150788959845735 -0.25684973906357189 0 -0.23248403902798259 -0.25697150268612517 0 -0.2084423165344233 -0.2442297109220444 0 -0.23248403902798259 -0.25697150268612517 0 -0.22523528010301411 -0.2480424028876469 0 -0.23248403902798259 -0.25697150268612517 0 -0.2405359314428237 -0.26123889810607459 0 -0.24640947921774939 -0.27698669075944121 0 -0.23248403902798259 -0.25697150268612517 0 -0.24180708320988101 -0.25522574438811452 0 -0.24294271272773121 -0.246967672793176 0 -0.24180708320988101 -0.25522574438811452 0 -0.24905552470647371 -0.25623064153363512 0 -0.2405359314428237 -0.26123889810607459 0 -0.24905552470647371 -0.25623064153363512 0 -0.24294271272773121 -0.246967672793176 0 -0.25652616337425588 -0.24696241029445379 0 -0.24180708320988101 -0.25522574438811452 0 -0.24905552470647371 -0.25623064153363512 0 -0.24294271272773121 -0.246967672793176 0 -0.25138033831998602 -0.26645247001797862 0 -0.24905552470647371 -0.25623064153363512 0 -0.2405359314428237 -0.26123889810607459 0 -0.23248403902798259 -0.25697150268612517 0 -0.24180708320988101 -0.25522574438811452 0 -0.2405359314428237 -0.26123889810607459 0 -0.23248403902798259 -0.25697150268612517 0 -0.2405359314428237 -0.26123889810607459 0 -0.23248403902798259 -0.25697150268612517 0 -0.24640947921774939 -0.27698669075944121 0 -0.22809704522642871 -0.28096029210949203 0 -0.25138033831998602 -0.26645247001797862 0 -0.2405359314428237 -0.26123889810607459 0 -0.24640947921774939 -0.27698669075944121 0 -0.23248403902798259 -0.25697150268612517 0 -0.24640947921774939 -0.27698669075944121 0 -0.22495618121018399 -0.26207964812671469 0 -0.22809704522642871 -0.28096029210949203 0 -0.21435544616879151 -0.26811083439099792 0 -0.22495618121018399 -0.26207964812671469 0 -0.23248403902798259 -0.25697150268612517 0 -0.22809704522642871 -0.28096029210949203 0 -0.23248403902798259 -0.25697150268612517 0 -0.22809704522642871 -0.28096029210949203 0 -0.22809704522642871 -0.28096029210949203 0 -0.223853379572095 -0.30416534011500268 0 -0.22809704522642871 -0.28096029210949203 0 -0.2415770646381207 -0.29344076419812348 0 -0.223853379572095 -0.30416534011500268 0 -0.22809704522642871 -0.28096029210949203 0 -0.223853379572095 -0.30416534011500268 0 -0.21507174180044211 -0.29164294871773427 0 -0.26047824755472959 -0.29621813741490199 0 -0.24640947921774939 -0.27698669075944121 0 -0.2415770646381207 -0.29344076419812348 0 -0.24640947921774939 -0.27698669075944121 0 -0.22809704522642871 -0.28096029210949203 0 -0.2415770646381207 -0.29344076419812348 0 -0.26047824755472959 -0.29621813741490199 0 -0.2415770646381207 -0.29344076419812348 0 -0.2432623182123671 -0.30941965377505087 0 -0.2415770646381207 -0.29344076419812348 0 -0.2432623182123671 -0.30941965377505087 0 -0.223853379572095 -0.30416534011500268 0 -0.23406460059063999 -0.32273088103140057 0 -0.2432623182123671 -0.30941965377505087 0 -0.223853379572095 -0.30416534011500268 0 -0.223853379572095 -0.30416534011500268 0 -0.2005231756934788 -0.30208080775193108 0 -0.21507174180044211 -0.29164294871773427 0 -0.20926533145133089 -0.31533021376755571 0 -0.223853379572095 -0.30416534011500268 0 -0.2005231756934788 -0.30208080775193108 0 -0.1956695131006552 -0.32352324558958812 0 -0.2005231756934788 -0.30208080775193108 0 -0.18658001877482541 -0.30664562753471941 0 -0.2005231756934788 -0.30208080775193108 0 -0.1864869536070754 -0.28628204658941692 0 -0.18658001877482541 -0.30664562753471941 0 -0.2005231756934788 -0.30208080775193108 0 -0.20537683828630249 -0.2806383699142741 0 -0.1864869536070754 -0.28628204658941692 0 -0.2005231756934788 -0.30208080775193108 0 -0.20537683828630249 -0.2806383699142741 0 -0.2005231756934788 -0.30208080775193108 0 -0.21507174180044211 -0.29164294871773427 0 -0.20537683828630249 -0.2806383699142741 0 -0.22809704522642871 -0.28096029210949203 0 -0.21507174180044211 -0.29164294871773427 0 -0.20537683828630249 -0.2806383699142741 0 -0.22809704522642871 -0.28096029210949203 0 -0.20537683828630249 -0.2806383699142741 0 -0.21435544616879151 -0.26811083439099792 0 -0.20537683828630249 -0.2806383699142741 0 -0.21435544616879151 -0.26811083439099792 0 -0.1987791353539258 -0.26174948641475759 0 -0.20537683828630249 -0.2806383699142741 0 -0.1987791353539258 -0.26174948641475759 0 -0.1864869536070754 -0.28628204658941692 0 -0.1987791353539258 -0.26174948641475759 0 -0.18464749888115431 -0.25117866146288659 0 -0.2084423165344233 -0.2442297109220444 0 -0.1987791353539258 -0.26174948641475759 0 -0.2150788959845735 -0.25684973906357189 0 -0.2084423165344233 -0.2442297109220444 0 -0.23248403902798259 -0.25697150268612517 0 -0.2150788959845735 -0.25684973906357189 0 -0.2084423165344233 -0.2442297109220444 0 -0.21435544616879151 -0.26811083439099792 0 -0.1987791353539258 -0.26174948641475759 0 -0.2150788959845735 -0.25684973906357189 0 -0.22495618121018399 -0.26207964812671469 0 -0.21435544616879151 -0.26811083439099792 0 -0.2150788959845735 -0.25684973906357189 0 -0.17451067476644841 -0.26562477811855512 0 -0.15595395949789231 -0.26666278620458123 0 -0.16858055678937059 -0.24688773341995571 0 -0.15595395949789231 -0.26666278620458123 0 -0.14810028601662309 -0.24576510341654359 0 -0.16858055678937059 -0.24688773341995571 0 -0.18464749888115431 -0.25117866146288659 0 -0.17451067476644841 -0.26562477811855512 0 -0.16858055678937059 -0.24688773341995571 0 -0.1987791353539258 -0.26174948641475759 0 -0.18464749888115431 -0.25117866146288659 0 -0.17451067476644841 -0.26562477811855512 0 -0.17451067476644841 -0.26562477811855512 0 -0.16804406586175241 -0.28212562990072237 0 -0.1864869536070754 -0.28628204658941692 0 -0.1987791353539258 -0.26174948641475759 0 -0.17451067476644841 -0.26562477811855512 0 -0.1864869536070754 -0.28628204658941692 0 -0.16804406586175241 -0.28212562990072237 0 -0.15111215198085351 -0.2907372674514519 0 -0.15595395949789231 -0.26666278620458123 0 -0.17451067476644841 -0.26562477811855512 0 -0.16804406586175241 -0.28212562990072237 0 -0.15595395949789231 -0.26666278620458123 0 -0.16804406586175241 -0.28212562990072237 0 -0.17215658945649259 -0.30132127113960733 0 -0.15111215198085351 -0.2907372674514519 0 -0.16804406586175241 -0.28212562990072237 0 -0.1864869536070754 -0.28628204658941692 0 -0.17215658945649259 -0.30132127113960733 0 -0.18658001877482541 -0.30664562753471941 0 -0.17215658945649259 -0.30132127113960733 0 -0.17806386201642491 -0.32002076660305362 0 -0.1864869536070754 -0.28628204658941692 0 -0.18658001877482541 -0.30664562753471941 0 -0.17215658945649259 -0.30132127113960733 0 -0.17215658945649259 -0.30132127113960733 0 -0.17806386201642491 -0.32002076660305362 0 -0.16316201811532999 -0.31299928516034148 0 -0.17215658945649259 -0.30132127113960733 0 -0.15111215198085351 -0.2907372674514519 0 -0.16316201811532999 -0.31299928516034148 0 -0.15111215198085351 -0.2907372674514519 0 -0.16316201811532999 -0.31299928516034148 0 -0.14796569668188131 -0.3184118704226192 0 -0.12910630360808431 -0.30672489260927288 0 -0.15111215198085351 -0.2907372674514519 0 -0.14796569668188131 -0.3184118704226192 0 -0.1253183864756465 -0.28922289245519028 0 -0.15111215198085351 -0.2907372674514519 0 -0.1335741120428999 -0.27333228765380191 0 -0.12910630360808431 -0.30672489260927288 0 -0.1253183864756465 -0.28922289245519028 0 -0.15111215198085351 -0.2907372674514519 0 -0.15111215198085351 -0.2907372674514519 0 -0.1335741120428999 -0.27333228765380191 0 -0.15111215198085351 -0.2907372674514519 0 -0.15595395949789231 -0.26666278620458123 0 -0.1335741120428999 -0.27333228765380191 0 -0.1335741120428999 -0.27333228765380191 0 -0.14810028601662309 -0.24576510341654359 0 -0.12978142356864469 -0.244097016543221 0 -0.1335741120428999 -0.27333228765380191 0 -0.11603607210494681 -0.25592730785615109 0 -0.12978142356864469 -0.244097016543221 0 -0.15595395949789231 -0.26666278620458123 0 -0.1335741120428999 -0.27333228765380191 0 -0.14810028601662309 -0.24576510341654359 0 -0.1708148575266058 -0.35158096126926819 0 -0.1621071356059984 -0.35615892462160598 0 -0.17331291149335951 -0.36410289517030792 0 -0.1708148575266058 -0.35158096126926819 0 -0.16352660706424821 -0.34382011511497962 0 -0.1621071356059984 -0.35615892462160598 0 -0.1708148575266058 -0.35158096126926819 0 -0.16352660706424821 -0.34382011511497962 0 -0.17314344655071071 -0.34112024875869867 0 -0.16352660706424821 -0.34382011511497962 0 -0.1621071356059984 -0.35615892462160598 0 -0.15346823138804161 -0.34819731969574691 0 -0.1621071356059984 -0.35615892462160598 0 -0.16162748812186339 -0.3715369760827652 0 -0.1523167035304579 -0.35625116274503038 0 -0.1621071356059984 -0.35615892462160598 0 -0.16162748812186339 -0.3715369760827652 0 -0.17331291149335951 -0.36410289517030792 0 -0.18248181593257781 -0.38548557241264048 0 -0.16162748812186339 -0.3715369760827652 0 -0.17331291149335951 -0.36410289517030792 0 -0.18248181593257781 -0.38548557241264048 0 -0.17331291149335951 -0.36410289517030792 0 -0.18690722904326479 -0.36223313273631319 0 -0.17331291149335951 -0.36410289517030792 0 -0.18690722904326479 -0.36223313273631319 0 -0.1790819230089544 -0.35411810169712732 0 -0.18690722904326479 -0.36223313273631319 0 -0.1790819230089544 -0.35411810169712732 0 -0.18427068730888141 -0.34971200575910227 0 -0.19037498456808491 -0.34691333436649352 0 -0.18690722904326479 -0.36223313273631319 0 -0.18427068730888141 -0.34971200575910227 0 -0.1708148575266058 -0.35158096126926819 0 -0.17331291149335951 -0.36410289517030792 0 -0.1790819230089544 -0.35411810169712732 0 -0.1708148575266058 -0.35158096126926819 0 -0.1790819230089544 -0.35411810169712732 0 -0.1785990794449257 -0.34766342870670153 0 -0.1708148575266058 -0.35158096126926819 0 -0.1785990794449257 -0.34766342870670153 0 -0.17314344655071071 -0.34112024875869867 0 -0.1785990794449257 -0.34766342870670153 0 -0.18427068730888141 -0.34971200575910227 0 -0.18568448282947569 -0.34178582604931118 0 -0.19037498456808491 -0.34691333436649352 0 -0.18427068730888141 -0.34971200575910227 0 -0.18568448282947569 -0.34178582604931118 0 -0.1790819230089544 -0.35411810169712732 0 -0.1785990794449257 -0.34766342870670153 0 -0.18427068730888141 -0.34971200575910227 0 -0.183202122517856 -0.3390721881799732 0 -0.17806386201642491 -0.32002076660305362 0 -0.16682508975567831 -0.33009884823596553 0 -0.18568448282947569 -0.34178582604931118 0 -0.16682508975567831 -0.33009884823596553 0 -0.18568448282947569 -0.34178582604931118 0 -0.183202122517856 -0.3390721881799732 0 -0.16682508975567831 -0.33009884823596553 0 -0.18568448282947569 -0.34178582604931118 0 -0.17314344655071071 -0.34112024875869867 0 -0.16682508975567831 -0.33009884823596553 0 -0.18568448282947569 -0.34178582604931118 0 -0.183202122517856 -0.3390721881799732 0 -0.1785990794449257 -0.34766342870670153 0 -0.18568448282947569 -0.34178582604931118 0 -0.17314344655071071 -0.34112024875869867 0 -0.1956695131006552 -0.32352324558958812 0 -0.183202122517856 -0.3390721881799732 0 -0.17806386201642491 -0.32002076660305362 0 -0.1956695131006552 -0.32352324558958812 0 -0.18658001877482541 -0.30664562753471941 0 -0.17806386201642491 -0.32002076660305362 0 -0.16682508975567831 -0.33009884823596553 0 -0.14796569668188131 -0.3184118704226192 0 -0.16316201811532999 -0.31299928516034148 0 -0.16682508975567831 -0.33009884823596553 0 -0.14796569668188131 -0.3184118704226192 0 -0.17806386201642491 -0.32002076660305362 0 -0.16316201811532999 -0.31299928516034148 0 -0.16682508975567831 -0.33009884823596553 0 -0.16682508975567831 -0.33009884823596553 0 -0.1548008815584544 -0.33576438810859272 0 -0.14796569668188131 -0.3184118704226192 0 -0.16352660706424821 -0.34382011511497962 0 -0.17314344655071071 -0.34112024875869867 0 -0.16682508975567831 -0.33009884823596553 0 -0.16352660706424821 -0.34382011511497962 0 -0.1548008815584544 -0.33576438810859272 0 -0.15346823138804161 -0.34819731969574691 0 -0.16352660706424821 -0.34382011511497962 0 -0.16682508975567831 -0.33009884823596553 0 -0.1548008815584544 -0.33576438810859272 0 -0.1548008815584544 -0.33576438810859272 0 -0.1423737747007931 -0.33763373684248948 0 -0.14796569668188131 -0.3184118704226192 0 -0.1548008815584544 -0.33576438810859272 0 -0.1423737747007931 -0.33763373684248948 0 -0.15346823138804161 -0.34819731969574691 0 -0.12910630360808431 -0.30672489260927288 0 -0.14796569668188131 -0.3184118704226192 0 -0.13160973051704031 -0.32605280870839848 0 -0.12910630360808431 -0.30672489260927288 0 -0.13160973051704031 -0.32605280870839848 0 -0.11765123814695851 -0.31841909192022461 0 -0.1423737747007931 -0.33763373684248948 0 -0.14796569668188131 -0.3184118704226192 0 -0.13160973051704031 -0.32605280870839848 0 -0.12910630360808431 -0.30672489260927288 0 -0.14796569668188131 -0.3184118704226192 0 -0.1423737747007931 -0.33763373684248948 0 -0.13147075677848591 -0.33795655831943072 0 -0.1334249563422287 -0.34695744478621621 0 -0.1423737747007931 -0.33763373684248948 0 -0.13160973051704031 -0.32605280870839848 0 -0.13147075677848591 -0.33795655831943072 0 -0.13160973051704031 -0.32605280870839848 0 -0.13147075677848591 -0.33795655831943072 0 -0.1207119625778717 -0.32936961187661218 0 -0.13147075677848591 -0.33795655831943072 0 -0.12682902998755299 -0.3421513120057274 0 -0.1225015743290629 -0.3400514614942482 0 -0.13147075677848591 -0.33795655831943072 0 -0.12682902998755299 -0.3421513120057274 0 -0.1334249563422287 -0.34695744478621621 0 -0.1334249563422287 -0.34695744478621621 0 -0.140773160311149 -0.35758837975288987 0 -0.1199188325004347 -0.3436397834230146 0 -0.12656150897867879 -0.356272209440681 0 -0.140773160311149 -0.35758837975288987 0 -0.1199188325004347 -0.3436397834230146 0 -0.12682902998755299 -0.3421513120057274 0 -0.1334249563422287 -0.34695744478621621 0 -0.1199188325004347 -0.3436397834230146 0 -0.140773160311149 -0.35758837975288987 0 -0.1199188325004347 -0.3436397834230146 0 -0.1423737747007931 -0.33763373684248948 0 -0.1334249563422287 -0.34695744478621621 0 -0.1436075022252371 -0.34777421357214422 0 -0.1334249563422287 -0.34695744478621621 0 -0.1436075022252371 -0.34777421357214422 0 -0.140773160311149 -0.35758837975288987 0 -0.1423737747007931 -0.33763373684248948 0 -0.1436075022252371 -0.34777421357214422 0 -0.15346823138804161 -0.34819731969574691 0 -0.1436075022252371 -0.34777421357214422 0 -0.140773160311149 -0.35758837975288987 0 -0.1523167035304579 -0.35625116274503038 0 -0.1621071356059984 -0.35615892462160598 0 -0.1523167035304579 -0.35625116274503038 0 -0.15346823138804161 -0.34819731969574691 0 -0.1436075022252371 -0.34777421357214422 0 -0.1523167035304579 -0.35625116274503038 0 -0.15346823138804161 -0.34819731969574691 0 -0.16162748812186339 -0.3715369760827652 0 -0.140773160311149 -0.35758837975288987 0 -0.1523167035304579 -0.35625116274503038 0 -0.14107642478553131 -0.38386226571611798 0 -0.16162748812186339 -0.3715369760827652 0 -0.14852008367471861 -0.36421665240343848 0 -0.14107642478553131 -0.38386226571611798 0 -0.14852008367471861 -0.36421665240343848 0 -0.1403575712365471 -0.36591542807861349 0 -0.16162748812186339 -0.3715369760827652 0 -0.140773160311149 -0.35758837975288987 0 -0.14107642478553131 -0.38386226571611798 0 -0.14852008367471861 -0.36421665240343848 0 -0.16162748812186339 -0.3715369760827652 0 -0.140773160311149 -0.35758837975288987 0 -0.14852008367471861 -0.36421665240343848 0 -0.140773160311149 -0.35758837975288987 0 -0.14852008367471861 -0.36421665240343848 0 -0.1403575712365471 -0.36591542807861349 0 -0.14107642478553131 -0.38386226571611798 0 -0.1403575712365471 -0.36591542807861349 0 -0.13208873459415571 -0.36815624444617862 0 -0.140773160311149 -0.35758837975288987 0 -0.1403575712365471 -0.36591542807861349 0 -0.13208873459415571 -0.36815624444617862 0 -0.12656150897867879 -0.356272209440681 0 -0.140773160311149 -0.35758837975288987 0 -0.13208873459415571 -0.36815624444617862 0 -0.12656150897867879 -0.356272209440681 0 -0.13208873459415571 -0.36815624444617862 0 -0.1186265748277594 -0.36813560515636928 0 -0.1254728502257636 -0.37859699181811141 0 -0.13208873459415571 -0.36815624444617862 0 -0.1186265748277594 -0.36813560515636928 0 -0.1186265748277594 -0.36813560515636928 0 -0.1041796968115891 -0.37231377715865932 0 -0.1121708143485584 -0.38428656060801658 0 -0.12656150897867879 -0.356272209440681 0 -0.1186265748277594 -0.36813560515636928 0 -0.11785232074624349 -0.35898346445605989 0 -0.1186265748277594 -0.36813560515636928 0 -0.1117064256374718 -0.36238497166641997 0 -0.11785232074624349 -0.35898346445605989 0 -0.1186265748277594 -0.36813560515636928 0 -0.1117064256374718 -0.36238497166641997 0 -0.1041796968115891 -0.37231377715865932 0 -0.1117064256374718 -0.36238497166641997 0 -0.1041796968115891 -0.37231377715865932 0 -0.1040331799836675 -0.35759318551026931 0 -0.1041796968115891 -0.37231377715865932 0 -0.1040331799836675 -0.35759318551026931 0 -0.093404888554274715 -0.36242830580742591 0 -0.1041796968115891 -0.37231377715865932 0 -0.094717258379341751 -0.37407517400153117 0 -0.093404888554274715 -0.36242830580742591 0 -0.095546861799430699 -0.34378711740618789 0 -0.094123542964745177 -0.35129517618278577 0 -0.10319497146368831 -0.34720303098649968 0 -0.094123542964745177 -0.35129517618278577 0 -0.1040331799836675 -0.35759318551026931 0 -0.10319497146368831 -0.34720303098649968 0 -0.094123542964745177 -0.35129517618278577 0 -0.1040331799836675 -0.35759318551026931 0 -0.093404888554274715 -0.36242830580742591 0 -0.1040331799836675 -0.35759318551026931 0 -0.1088442981837954 -0.35088786194902383 0 -0.10319497146368831 -0.34720303098649968 0 -0.1040331799836675 -0.35759318551026931 0 -0.1088442981837954 -0.35088786194902383 0 -0.1138403558180993 -0.35489882605074208 0 -0.1088442981837954 -0.35088786194902383 0 -0.10319497146368831 -0.34720303098649968 0 -0.1112493567412378 -0.34518238283357278 0 -0.10319497146368831 -0.34720303098649968 0 -0.1112493567412378 -0.34518238283357278 0 -0.10683608572066609 -0.3407768325525008 0 -0.1088442981837954 -0.35088786194902383 0 -0.1112493567412378 -0.34518238283357278 0 -0.1155869691716159 -0.34815499320039428 0 -0.1088442981837954 -0.35088786194902383 0 -0.1155869691716159 -0.34815499320039428 0 -0.1138403558180993 -0.35489882605074208 0 -0.1155869691716159 -0.34815499320039428 0 -0.1199188325004347 -0.3436397834230146 0 -0.1150212682764498 -0.34330444153333323 0 -0.1112493567412378 -0.34518238283357278 0 -0.1155869691716159 -0.34815499320039428 0 -0.1150212682764498 -0.34330444153333323 0 -0.1117064256374718 -0.36238497166641997 0 -0.1040331799836675 -0.35759318551026931 0 -0.1138403558180993 -0.35489882605074208 0 -0.1138403558180993 -0.35489882605074208 0 -0.11785232074624349 -0.35898346445605989 0 -0.1193197294322559 -0.35216982345558351 0 -0.1155869691716159 -0.34815499320039428 0 -0.1138403558180993 -0.35489882605074208 0 -0.1193197294322559 -0.35216982345558351 0 -0.1117064256374718 -0.36238497166641997 0 -0.1138403558180993 -0.35489882605074208 0 -0.11785232074624349 -0.35898346445605989 0 -0.12656150897867879 -0.356272209440681 0 -0.11785232074624349 -0.35898346445605989 0 -0.1193197294322559 -0.35216982345558351 0 -0.1155869691716159 -0.34815499320039428 0 -0.1193197294322559 -0.35216982345558351 0 -0.1199188325004347 -0.3436397834230146 0 -0.12656150897867879 -0.356272209440681 0 -0.1193197294322559 -0.35216982345558351 0 -0.1199188325004347 -0.3436397834230146 0 -0.1225015743290629 -0.3400514614942482 0 -0.1207119625778717 -0.32936961187661218 0 -0.1003265131178117 -0.32436813894075822 0 -0.1225015743290629 -0.3400514614942482 0 -0.111213101769634 -0.33728072166225032 0 -0.1003265131178117 -0.32436813894075822 0 -0.1225015743290629 -0.3400514614942482 0 -0.1003265131178117 -0.32436813894075822 0 -0.12682902998755299 -0.3421513120057274 0 -0.1225015743290629 -0.3400514614942482 0 -0.1199188325004347 -0.3436397834230146 0 -0.1199188325004347 -0.3436397834230146 0 -0.11731522476860751 -0.34078724817399442 0 -0.1150212682764498 -0.34330444153333323 0 -0.1225015743290629 -0.3400514614942482 0 -0.1199188325004347 -0.3436397834230146 0 -0.11731522476860751 -0.34078724817399442 0 -0.13147075677848591 -0.33795655831943072 0 -0.1225015743290629 -0.3400514614942482 0 -0.1207119625778717 -0.32936961187661218 0 -0.111213101769634 -0.33728072166225032 0 -0.1118780088726901 -0.34152845185673181 0 -0.1141792176041128 -0.34053378971229109 0 -0.1225015743290629 -0.3400514614942482 0 -0.11731522476860751 -0.34078724817399442 0 -0.111213101769634 -0.33728072166225032 0 -0.111213101769634 -0.33728072166225032 0 -0.1118780088726901 -0.34152845185673181 0 -0.10683608572066609 -0.3407768325525008 0 -0.1112493567412378 -0.34518238283357278 0 -0.1118780088726901 -0.34152845185673181 0 -0.10683608572066609 -0.3407768325525008 0 -0.1112493567412378 -0.34518238283357278 0 -0.1118780088726901 -0.34152845185673181 0 -0.1150212682764498 -0.34330444153333323 0 -0.1118780088726901 -0.34152845185673181 0 -0.1141792176041128 -0.34053378971229109 0 -0.1150212682764498 -0.34330444153333323 0 -0.11731522476860751 -0.34078724817399442 0 -0.1141792176041128 -0.34053378971229109 0 -0.1150212682764498 -0.34330444153333323 0 -0.11731522476860751 -0.34078724817399442 0 -0.111213101769634 -0.33728072166225032 0 -0.1141792176041128 -0.34053378971229109 0 -0.1207119625778717 -0.32936961187661218 0 -0.11765123814695851 -0.31841909192022461 0 -0.1003265131178117 -0.32436813894075822 0 -0.13160973051704031 -0.32605280870839848 0 -0.1207119625778717 -0.32936961187661218 0 -0.11765123814695851 -0.31841909192022461 0 -0.1003265131178117 -0.32436813894075822 0 -0.1055630327801909 -0.30155452857922271 0 -0.11765123814695851 -0.31841909192022461 0 -0.1003265131178117 -0.32436813894075822 0 -0.1055630327801909 -0.30155452857922271 0 -0.1003265131178117 -0.32436813894075822 0 -0.09875956036999288 -0.33119478177770062 0 -0.10319497146368831 -0.34720303098649968 0 -0.10683608572066609 -0.3407768325525008 0 -0.1009204486509294 -0.33927863594012442 0 -0.10683608572066609 -0.3407768325525008 0 -0.10358793190409429 -0.33479854343024451 0 -0.1009204486509294 -0.33927863594012442 0 -0.111213101769634 -0.33728072166225032 0 -0.10683608572066609 -0.3407768325525008 0 -0.10358793190409429 -0.33479854343024451 0 -0.111213101769634 -0.33728072166225032 0 -0.1003265131178117 -0.32436813894075822 0 -0.10358793190409429 -0.33479854343024451 0 -0.1003265131178117 -0.32436813894075822 0 -0.09875956036999288 -0.33119478177770062 0 -0.089883501095625984 -0.32894684513927658 0 -0.09875956036999288 -0.33119478177770062 0 -0.093031703906374469 -0.33735429204710099 0 -0.089883501095625984 -0.32894684513927658 0 -0.10358793190409429 -0.33479854343024451 0 -0.09875956036999288 -0.33119478177770062 0 -0.1009204486509294 -0.33927863594012442 0 -0.1003265131178117 -0.32436813894075822 0 -0.10358793190409429 -0.33479854343024451 0 -0.09875956036999288 -0.33119478177770062 0 -0.095546861799430699 -0.34378711740618789 0 -0.1009204486509294 -0.33927863594012442 0 -0.093031703906374469 -0.33735429204710099 0 -0.095546861799430699 -0.34378711740618789 0 -0.10319497146368831 -0.34720303098649968 0 -0.1009204486509294 -0.33927863594012442 0 -0.09875956036999288 -0.33119478177770062 0 -0.1009204486509294 -0.33927863594012442 0 -0.093031703906374469 -0.33735429204710099 0 -0.095546861799430699 -0.34378711740618789 0 -0.093031703906374469 -0.33735429204710099 0 -0.086463642011416014 -0.34380445187442848 0 -0.093031703906374469 -0.33735429204710099 0 -0.08584649415022233 -0.334921990814813 0 -0.086463642011416014 -0.34380445187442848 0 -0.093031703906374469 -0.33735429204710099 0 -0.089883501095625984 -0.32894684513927658 0 -0.08584649415022233 -0.334921990814813 0 -0.08584649415022233 -0.334921990814813 0 -0.078163105799473914 -0.33671683420225151 0 -0.081690517938221283 -0.32778753081100742 0 -0.089883501095625984 -0.32894684513927658 0 -0.08584649415022233 -0.334921990814813 0 -0.081690517938221283 -0.32778753081100742 0 -0.08584649415022233 -0.334921990814813 0 -0.078163105799473914 -0.33671683420225151 0 -0.086463642011416014 -0.34380445187442848 0 -0.078163105799473914 -0.33671683420225151 0 -0.077614507333010674 -0.34978873559481499 0 -0.086463642011416014 -0.34380445187442848 0 -0.1003265131178117 -0.32436813894075822 0 -0.083644684026095734 -0.32143334728399442 0 -0.076528885654062878 -0.30753725563603218 0 -0.1003265131178117 -0.32436813894075822 0 -0.089883501095625984 -0.32894684513927658 0 -0.083644684026095734 -0.32143334728399442 0 -0.1003265131178117 -0.32436813894075822 0 -0.076528885654062878 -0.30753725563603218 0 -0.089883501095625984 -0.32894684513927658 0 -0.083644684026095734 -0.32143334728399442 0 -0.081690517938221283 -0.32778753081100742 0 -0.083644684026095734 -0.32143334728399442 0 -0.081690517938221283 -0.32778753081100742 0 -0.069794002324756965 -0.31852696589289559 0 -0.078163105799473914 -0.33671683420225151 0 -0.081690517938221283 -0.32778753081100742 0 -0.069794002324756965 -0.31852696589289559 0 -0.069794002324756965 -0.31852696589289559 0 -0.076528885654062878 -0.30753725563603218 0 -0.083644684026095734 -0.32143334728399442 0 -0.069794002324756965 -0.31852696589289559 0 -0.076528885654062878 -0.30753725563603218 0 -0.069794002324756965 -0.31852696589289559 0 -0.057582179281549788 -0.33845372488646602 0 -0.069794002324756965 -0.31852696589289559 0 -0.068294940215389358 -0.34593620344240078 0 -0.069794002324756965 -0.31852696589289559 0 -0.068294940215389358 -0.34593620344240078 0 -0.057582179281549788 -0.33845372488646602 0 -0.078163105799473914 -0.33671683420225151 0 -0.069794002324756965 -0.31852696589289559 0 -0.068294940215389358 -0.34593620344240078 0 -0.078163105799473914 -0.33671683420225151 0 -0.068294940215389358 -0.34593620344240078 0 -0.077614507333010674 -0.34978873559481499 0 -0.068294940215389358 -0.34593620344240078 0 -0.077614507333010674 -0.34978873559481499 0 -0.066862334441236931 -0.35954813339273778 0 -0.077614507333010674 -0.34978873559481499 0 -0.066862334441236931 -0.35954813339273778 0 -0.080645701800902594 -0.36086573745532569 0 -0.068294940215389358 -0.34593620344240078 0 -0.066862334441236931 -0.35954813339273778 0 -0.057716913806678059 -0.35378731856611501 0 -0.066862334441236931 -0.35954813339273778 0 -0.065030183681898598 -0.37258708183683531 0 -0.056325468411699643 -0.36702528685951719 0 -0.066862334441236931 -0.35954813339273778 0 -0.065030183681898598 -0.37258708183683531 0 -0.074724733945228813 -0.36937174723928951 0 -0.065030183681898598 -0.37258708183683531 0 -0.074724733945228813 -0.36937174723928951 0 -0.073216960568858194 -0.38218345114903102 0 -0.066862334441236931 -0.35954813339273778 0 -0.074724733945228813 -0.36937174723928951 0 -0.080645701800902594 -0.36086573745532569 0 -0.074724733945228813 -0.36937174723928951 0 -0.080645701800902594 -0.36086573745532569 0 -0.084541147489030938 -0.37470937631336032 0 -0.094717258379341751 -0.37407517400153117 0 -0.084541147489030938 -0.37470937631336032 0 -0.093404888554274715 -0.36242830580742591 0 -0.080645701800902594 -0.36086573745532569 0 -0.084541147489030938 -0.37470937631336032 0 -0.093404888554274715 -0.36242830580742591 0 -0.080645701800902594 -0.36086573745532569 0 -0.093404888554274715 -0.36242830580742591 0 -0.08645045653286984 -0.35363648138295622 0 -0.094123542964745177 -0.35129517618278577 0 -0.093404888554274715 -0.36242830580742591 0 -0.08645045653286984 -0.35363648138295622 0 -0.094123542964745177 -0.35129517618278577 0 -0.08645045653286984 -0.35363648138295622 0 -0.086463642011416014 -0.34380445187442848 0 -0.095546861799430699 -0.34378711740618789 0 -0.094123542964745177 -0.35129517618278577 0 -0.086463642011416014 -0.34380445187442848 0 -0.077614507333010674 -0.34978873559481499 0 -0.08645045653286984 -0.35363648138295622 0 -0.086463642011416014 -0.34380445187442848 0 -0.077614507333010674 -0.34978873559481499 0 -0.080645701800902594 -0.36086573745532569 0 -0.08645045653286984 -0.35363648138295622 0 -0.094957610330884179 -0.2630968525194749 0 -0.11603607210494681 -0.25592730785615109 0 -0.098079048774341149 -0.23810652346970809 0 -0.1335741120428999 -0.27333228765380191 0 -0.11603607210494681 -0.25592730785615109 0 -0.1335741120428999 -0.27333228765380191 0 -0.11603607210494681 -0.25592730785615109 0 -0.1107995524425696 -0.27874091821768721 0 -0.11603607210494681 -0.25592730785615109 0 -0.1107995524425696 -0.27874091821768721 0 -0.1253183864756465 -0.28922289245519028 0 -0.1335741120428999 -0.27333228765380191 0 -0.1107995524425696 -0.27874091821768721 0 -0.094957610330884179 -0.2630968525194749 0 -0.1107995524425696 -0.27874091821768721 0 -0.09136887835645946 -0.28697040789084127 0 -0.094957610330884179 -0.2630968525194749 0 -0.11603607210494681 -0.25592730785615109 0 -0.1107995524425696 -0.27874091821768721 0 -0.1107995524425696 -0.27874091821768721 0 -0.1055630327801909 -0.30155452857922271 0 -0.1107995524425696 -0.27874091821768721 0 -0.1055630327801909 -0.30155452857922271 0 -0.09136887835645946 -0.28697040789084127 0 -0.1253183864756465 -0.28922289245519028 0 -0.1107995524425696 -0.27874091821768721 0 -0.1055630327801909 -0.30155452857922271 0 -0.12910630360808431 -0.30672489260927288 0 -0.1253183864756465 -0.28922289245519028 0 -0.1055630327801909 -0.30155452857922271 0 -0.12910630360808431 -0.30672489260927288 0 -0.11765123814695851 -0.31841909192022461 0 -0.1055630327801909 -0.30155452857922271 0 -0.1055630327801909 -0.30155452857922271 0 -0.088761987638580231 -0.30242729080414071 0 -0.09136887835645946 -0.28697040789084127 0 -0.1003265131178117 -0.32436813894075822 0 -0.1055630327801909 -0.30155452857922271 0 -0.088761987638580231 -0.30242729080414071 0 -0.1003265131178117 -0.32436813894075822 0 -0.088761987638580231 -0.30242729080414071 0 -0.076528885654062878 -0.30753725563603218 0 -0.088761987638580231 -0.30242729080414071 0 -0.079156298360525693 -0.30324994983467152 0 -0.079995720356801608 -0.29321651625249318 0 -0.088761987638580231 -0.30242729080414071 0 -0.079156298360525693 -0.30324994983467152 0 -0.076528885654062878 -0.30753725563603218 0 -0.07062347620026832 -0.30336065200044632 0 -0.054963449275257252 -0.2922850905342721 0 -0.079156298360525693 -0.30324994983467152 0 -0.076528885654062878 -0.30753725563603218 0 -0.07062347620026832 -0.30336065200044632 0 -0.069794002324756965 -0.31852696589289559 0 -0.076528885654062878 -0.30753725563603218 0 -0.07062347620026832 -0.30336065200044632 0 -0.079156298360525693 -0.30324994983467152 0 -0.076528885654062878 -0.30753725563603218 0 -0.076528885654062878 -0.30753725563603218 0 -0.07062347620026832 -0.30336065200044632 0 -0.069794002324756965 -0.31852696589289559 0 -0.07062347620026832 -0.30336065200044632 0 -0.059890685074804308 -0.31101126070966773 0 -0.069794002324756965 -0.31852696589289559 0 -0.07062347620026832 -0.30336065200044632 0 -0.079156298360525693 -0.30324994983467152 0 -0.07062347620026832 -0.30336065200044632 0 -0.079995720356801608 -0.29321651625249318 0 -0.07062347620026832 -0.30336065200044632 0 -0.071831494641146923 -0.28127293181641588 0 -0.07062347620026832 -0.30336065200044632 0 -0.071831494641146923 -0.28127293181641588 0 -0.054963449275257252 -0.2922850905342721 0 -0.07062347620026832 -0.30336065200044632 0 -0.071831494641146923 -0.28127293181641588 0 -0.079995720356801608 -0.29321651625249318 0 -0.071831494641146923 -0.28127293181641588 0 -0.079995720356801608 -0.29321651625249318 0 -0.09136887835645946 -0.28697040789084127 0 -0.088761987638580231 -0.30242729080414071 0 -0.079995720356801608 -0.29321651625249318 0 -0.09136887835645946 -0.28697040789084127 0 -0.094957610330884179 -0.2630968525194749 0 -0.071831494641146923 -0.28127293181641588 0 -0.09136887835645946 -0.28697040789084127 0 -0.094957610330884179 -0.2630968525194749 0 -0.071831494641146923 -0.28127293181641588 0 -0.07303951308202547 -0.25918521163238561 0 -0.071831494641146923 -0.28127293181641588 0 -0.07303951308202547 -0.25918521163238561 0 -0.071831494641146923 -0.28127293181641588 0 -0.064605490399081589 -0.26469129099131411 0 -0.07303951308202547 -0.25918521163238561 0 -0.071831494641146923 -0.28127293181641588 0 -0.064605490399081589 -0.26469129099131411 0 -0.054963449275257252 -0.2922850905342721 0 -0.064605490399081589 -0.26469129099131411 0 -0.07303951308202547 -0.25918521163238561 0 -0.074247531522904406 -0.23709749144835529 0 -0.064605490399081589 -0.26469129099131411 0 -0.074247531522904406 -0.23709749144835529 0 -0.094957610330884179 -0.2630968525194749 0 -0.085254706571689862 -0.24920827118798741 0 -0.098079048774341149 -0.23810652346970809 0 -0.094957610330884179 -0.2630968525194749 0 -0.07303951308202547 -0.25918521163238561 0 -0.085254706571689862 -0.24920827118798741 0 -0.045824369193649003 -0.26482920365183799 0 -0.032283332528187388 -0.25215055097616063 0 -0.044323546347883352 -0.2472224278796166 0 -0.045824369193649003 -0.26482920365183799 0 -0.032283332528187388 -0.25215055097616063 0 -0.029798420075602731 -0.26634881997135451 0 -0.064605490399081589 -0.26469129099131411 0 -0.045824369193649003 -0.26482920365183799 0 -0.044323546347883352 -0.2472224278796166 0 -0.064605490399081589 -0.26469129099131411 0 -0.058096375251159592 -0.24033715372808259 0 -0.044323546347883352 -0.2472224278796166 0 -0.064605490399081589 -0.26469129099131411 0 -0.045824369193649003 -0.26482920365183799 0 -0.054963449275257252 -0.2922850905342721 0 -0.064605490399081589 -0.26469129099131411 0 -0.054963449275257252 -0.2922850905342721 0 -0.045824369193649003 -0.26482920365183799 0 -0.038541705050387169 -0.28067080414670081 0 -0.029798420075602731 -0.26634881997135451 0 -0.045824369193649003 -0.26482920365183799 0 -0.038541705050387169 -0.28067080414670081 0 -0.054963449275257252 -0.2922850905342721 0 -0.038541705050387169 -0.28067080414670081 0 -0.025933094004952788 -0.27542612542473088 0 -0.029798420075602731 -0.26634881997135451 0 -0.038541705050387169 -0.28067080414670081 0 -0.040343030028469777 -0.2967529636232461 0 -0.025922493590749 -0.29281876326491912 0 -0.038541705050387169 -0.28067080414670081 0 -0.040343030028469777 -0.2967529636232461 0 -0.054963449275257252 -0.2922850905342721 0 -0.038541705050387169 -0.28067080414670081 0 -0.054963449275257252 -0.2922850905342721 0 -0.054963449275257252 -0.2922850905342721 0 -0.046605008657650888 -0.31620545469079209 0 -0.054963449275257252 -0.2922850905342721 0 -0.059890685074804308 -0.31101126070966773 0 -0.046605008657650888 -0.31620545469079209 0 -0.07062347620026832 -0.30336065200044632 0 -0.054963449275257252 -0.2922850905342721 0 -0.059890685074804308 -0.31101126070966773 0 -0.040343030028469777 -0.2967529636232461 0 -0.054963449275257252 -0.2922850905342721 0 -0.046605008657650888 -0.31620545469079209 0 -0.040343030028469777 -0.2967529636232461 0 -0.033558158626634513 -0.30721313725494198 0 -0.046605008657650888 -0.31620545469079209 0 -0.040343030028469777 -0.2967529636232461 0 -0.033558158626634513 -0.30721313725494198 0 -0.025922493590749 -0.29281876326491912 0 -0.033558158626634513 -0.30721313725494198 0 -0.020094855586095198 -0.30907749277751589 0 -0.025922493590749 -0.29281876326491912 0 -0.015939553253148071 -0.29947558796390472 0 -0.020094855586095198 -0.30907749277751589 0 -0.025922493590749 -0.29281876326491912 0 -0.020094855586095198 -0.30907749277751589 0 -0.0065519152164444268 -0.3033245168890632 0 -0.0086149977727318812 -0.31435966777040242 0 -0.0065519152164444268 -0.3033245168890632 0 -5.9311289176037681e-06 -0.31236656648630162 0 0.0035997542519150211 -0.30175886436002369 0 -0.0065519152164444268 -0.3033245168890632 0 -0.0086149977727318812 -0.31435966777040242 0 -5.9311289176037681e-06 -0.31236656648630162 0 -0.0065519152164444268 -0.3033245168890632 0 -0.0001997628994672238 -0.29157893335398249 0 0.0035997542519150211 -0.30175886436002369 0 -0.015939553253148071 -0.29947558796390472 0 -0.020094855586095198 -0.30907749277751589 0 -0.0065519152164444268 -0.3033245168890632 0 -0.015939553253148071 -0.29947558796390472 0 -0.0065519152164444268 -0.3033245168890632 0 -0.01118894861930364 -0.2926815789241205 0 -0.0065519152164444268 -0.3033245168890632 0 -0.01118894861930364 -0.2926815789241205 0 -0.0001997628994672238 -0.29157893335398249 0 -0.01118894861930364 -0.2926815789241205 0 -0.0001997628994672238 -0.29157893335398249 0 -0.0068090150567823486 -0.28670200701390752 0 -0.0001997628994672238 -0.29157893335398249 0 -0.003350663523099567 -0.28093286320183891 0 0.0020885245221143561 -0.27710954205386301 0 -0.0001997628994672238 -0.29157893335398249 0 -0.0068090150567823486 -0.28670200701390752 0 -0.003350663523099567 -0.28093286320183891 0 -0.01118894861930364 -0.2926815789241205 0 -0.0068090150567823486 -0.28670200701390752 0 -0.016211669778486551 -0.27921958273129371 0 -0.0068090150567823486 -0.28670200701390752 0 -0.016211669778486551 -0.27921958273129371 0 -0.003350663523099567 -0.28093286320183891 0 -0.025922493590749 -0.29281876326491912 0 -0.025933094004952788 -0.27542612542473088 0 -0.016211669778486551 -0.27921958273129371 0 -0.038541705050387169 -0.28067080414670081 0 -0.025922493590749 -0.29281876326491912 0 -0.025933094004952788 -0.27542612542473088 0 -0.01118894861930364 -0.2926815789241205 0 -0.025922493590749 -0.29281876326491912 0 -0.016211669778486551 -0.27921958273129371 0 -0.025922493590749 -0.29281876326491912 0 -0.016211669778486551 -0.27921958273129371 0 -0.015939553253148071 -0.29947558796390472 0 -0.01118894861930364 -0.2926815789241205 0 -0.025922493590749 -0.29281876326491912 0 -0.025933094004952788 -0.27542612542473088 0 -0.029798420075602731 -0.26634881997135451 0 -0.017648579944192139 -0.26792680768334332 0 -0.025933094004952788 -0.27542612542473088 0 -0.017648579944192139 -0.26792680768334332 0 -0.016211669778486551 -0.27921958273129371 0 -0.016211669778486551 -0.27921958273129371 0 -0.003350663523099567 -0.28093286320183891 0 -0.0065008459662223399 -0.26562040219766958 0 -0.003350663523099567 -0.28093286320183891 0 -0.0065008459662223399 -0.26562040219766958 0 0.0020885245221143561 -0.27710954205386301 0 -0.003350663523099567 -0.28093286320183891 0 0.0020885245221143561 -0.27710954205386301 0 -0.0065008459662223399 -0.26562040219766958 0 0.0020885245221143561 -0.27710954205386301 0 -0.016211669778486551 -0.27921958273129371 0 -0.0065008459662223399 -0.26562040219766958 0 -0.017648579944192139 -0.26792680768334332 0 -0.016211669778486551 -0.27921958273129371 0 -0.0065008459662223399 -0.26562040219766958 0 -0.017648579944192139 -0.26792680768334332 0 -0.0065008459662223399 -0.26562040219766958 0 -0.021127768454421759 -0.25978693485800308 0 -0.0065008459662223399 -0.26562040219766958 0 -0.0079783989778275544 -0.25169792079002812 0 0.0095294292409746698 -0.2431713689579636 0 -0.0065008459662223399 -0.26562040219766958 0 -0.0079783989778275544 -0.25169792079002812 0 -0.020913906741365468 -0.2463414956437508 0 -0.0065008459662223399 -0.26562040219766958 0 -0.020913906741365468 -0.2463414956437508 0 -0.0065008459662223399 -0.26562040219766958 0 -0.021127768454421759 -0.25978693485800308 0 -0.020913906741365468 -0.2463414956437508 0 -0.029798420075602731 -0.26634881997135451 0 -0.017648579944192139 -0.26792680768334332 0 -0.021127768454421759 -0.25978693485800308 0 -0.032283332528187388 -0.25215055097616063 0 -0.029798420075602731 -0.26634881997135451 0 -0.021127768454421759 -0.25978693485800308 0 -0.032283332528187388 -0.25215055097616063 0 -0.021127768454421759 -0.25978693485800308 0 -0.020913906741365468 -0.2463414956437508 0 -0.04537035623834354 -0.35838048388003702 0 -0.044174159871890002 -0.34739502088090751 0 -0.035497535927623378 -0.3526200559098156 0 -0.044174159871890002 -0.34739502088090751 0 -0.035497535927623378 -0.3526200559098156 0 -0.038246568040043262 -0.34012581884731169 0 -0.035497535927623378 -0.3526200559098156 0 -0.038246568040043262 -0.34012581884731169 0 -0.025466680398351531 -0.34893616063201999 0 -0.035497535927623378 -0.3526200559098156 0 -0.035064840183835877 -0.36282721988644667 0 -0.026232935374239291 -0.36200109688232651 0 -0.04537035623834354 -0.35838048388003702 0 -0.035497535927623378 -0.3526200559098156 0 -0.035064840183835877 -0.36282721988644667 0 -0.04537035623834354 -0.35838048388003702 0 -0.033158533195137327 -0.37830724287360779 0 -0.04537035623834354 -0.35838048388003702 0 -0.035064840183835877 -0.36282721988644667 0 -0.033158533195137327 -0.37830724287360779 0 -0.04537035623834354 -0.35838048388003702 0 -0.042355185648555171 -0.36586037833266899 0 -0.033158533195137327 -0.37830724287360779 0 -0.035064840183835877 -0.36282721988644667 0 -0.026232935374239291 -0.36200109688232651 0 -0.033158533195137327 -0.37830724287360779 0 -0.04537035623834354 -0.35838048388003702 0 -0.042355185648555171 -0.36586037833266899 0 -0.048684047565986571 -0.36401946713473249 0 -0.042355185648555171 -0.36586037833266899 0 -0.048684047565986571 -0.36401946713473249 0 -0.050316021533047567 -0.37006392978745478 0 -0.04537035623834354 -0.35838048388003702 0 -0.048684047565986571 -0.36401946713473249 0 -0.054325961705631809 -0.36026136458966568 0 -0.048684047565986571 -0.36401946713473249 0 -0.054325961705631809 -0.36026136458966568 0 -0.056325468411699643 -0.36702528685951719 0 -0.048684047565986571 -0.36401946713473249 0 -0.050316021533047567 -0.37006392978745478 0 -0.056325468411699643 -0.36702528685951719 0 -0.042355185648555171 -0.36586037833266899 0 -0.050316021533047567 -0.37006392978745478 0 -0.048800927626862438 -0.37828251843802219 0 -0.050316021533047567 -0.37006392978745478 0 -0.055866435304266902 -0.37462987936771819 0 -0.048800927626862438 -0.37828251843802219 0 -0.050316021533047567 -0.37006392978745478 0 -0.055866435304266902 -0.37462987936771819 0 -0.056325468411699643 -0.36702528685951719 0 -0.065030183681898598 -0.37258708183683531 0 -0.055866435304266902 -0.37462987936771819 0 -0.056325468411699643 -0.36702528685951719 0 -0.066862334441236931 -0.35954813339273778 0 -0.054325961705631809 -0.36026136458966568 0 -0.056325468411699643 -0.36702528685951719 0 -0.04537035623834354 -0.35838048388003702 0 -0.057582179281549788 -0.33845372488646602 0 -0.066862334441236931 -0.35954813339273778 0 -0.054325961705631809 -0.36026136458966568 0 -0.057716913806678059 -0.35378731856611501 0 -0.04537035623834354 -0.35838048388003702 0 -0.044174159871890002 -0.34739502088090751 0 -0.057582179281549788 -0.33845372488646602 0 -0.04537035623834354 -0.35838048388003702 0 -0.057716913806678059 -0.35378731856611501 0 -0.057582179281549788 -0.33845372488646602 0 -0.04537035623834354 -0.35838048388003702 0 -0.054325961705631809 -0.36026136458966568 0 -0.057716913806678059 -0.35378731856611501 0 -0.068294940215389358 -0.34593620344240078 0 -0.057716913806678059 -0.35378731856611501 0 -0.057582179281549788 -0.33845372488646602 0 -0.057582179281549788 -0.33845372488646602 0 -0.057467488916089472 -0.32467814042992832 0 -0.038246568040043262 -0.34012581884731169 0 -0.057467488916089472 -0.32467814042992832 0 -0.046605008657650888 -0.31620545469079209 0 -0.038246568040043262 -0.34012581884731169 0 -0.069794002324756965 -0.31852696589289559 0 -0.057582179281549788 -0.33845372488646602 0 -0.057467488916089472 -0.32467814042992832 0 -0.069794002324756965 -0.31852696589289559 0 -0.059890685074804308 -0.31101126070966773 0 -0.057467488916089472 -0.32467814042992832 0 -0.059890685074804308 -0.31101126070966773 0 -0.057467488916089472 -0.32467814042992832 0 -0.046605008657650888 -0.31620545469079209 0 -0.033558158626634513 -0.30721313725494198 0 -0.046605008657650888 -0.31620545469079209 0 -0.029481390066711629 -0.32198354769400489 0 -0.046605008657650888 -0.31620545469079209 0 -0.038246568040043262 -0.34012581884731169 0 -0.029481390066711629 -0.32198354769400489 0 -0.044174159871890002 -0.34739502088090751 0 -0.057582179281549788 -0.33845372488646602 0 -0.038246568040043262 -0.34012581884731169 0 -0.046605008657650888 -0.31620545469079209 0 -0.038246568040043262 -0.34012581884731169 0 -0.038246568040043262 -0.34012581884731169 0 -0.02251215179798665 -0.33591018035802539 0 -0.029481390066711629 -0.32198354769400489 0 -0.038246568040043262 -0.34012581884731169 0 -0.02251215179798665 -0.33591018035802539 0 -0.025466680398351531 -0.34893616063201999 0 -0.02251215179798665 -0.33591018035802539 0 -0.01450825788358804 -0.34587869015237133 0 -0.025466680398351531 -0.34893616063201999 0 -0.033558158626634513 -0.30721313725494198 0 -0.020094855586095198 -0.30907749277751589 0 -0.029481390066711629 -0.32198354769400489 0 -0.02251215179798665 -0.33591018035802539 0 -0.029481390066711629 -0.32198354769400489 0 -0.0158715976918593 -0.32336920223544269 0 -0.020094855586095198 -0.30907749277751589 0 -0.029481390066711629 -0.32198354769400489 0 -0.0158715976918593 -0.32336920223544269 0 -0.020094855586095198 -0.30907749277751589 0 -0.0158715976918593 -0.32336920223544269 0 -0.0086149977727318812 -0.31435966777040242 0 -0.0158715976918593 -0.32336920223544269 0 -0.0086149977727318812 -0.31435966777040242 0 -0.0041781846208717921 -0.32265759814764838 0 -0.0158715976918593 -0.32336920223544269 0 -0.0041781846208717921 -0.32265759814764838 0 -0.0081765032875971699 -0.33225097969027928 0 -0.0041781846208717921 -0.32265759814764838 0 -0.0081765032875971699 -0.33225097969027928 0 -0.00050422992947994551 -0.32905922693348189 0 -0.0086149977727318812 -0.31435966777040242 0 -0.0041781846208717921 -0.32265759814764838 0 -5.9311289176037681e-06 -0.31236656648630162 0 -0.02251215179798665 -0.33591018035802539 0 -0.0081765032875971699 -0.33225097969027928 0 -0.01450825788358804 -0.34587869015237133 0 -0.0081765032875971699 -0.33225097969027928 0 -0.002908285929325368 -0.33749859650698749 0 -0.01450825788358804 -0.34587869015237133 0 -0.02251215179798665 -0.33591018035802539 0 -0.0158715976918593 -0.32336920223544269 0 -0.0081765032875971699 -0.33225097969027928 0 -0.0081765032875971699 -0.33225097969027928 0 -0.00050422992947994551 -0.32905922693348189 0 -0.002908285929325368 -0.33749859650698749 0 -0.002908285929325368 -0.33749859650698749 0 -0.0014969289215187439 -0.35035850517997769 0 -0.01450825788358804 -0.34587869015237133 0 -0.0014969289215187439 -0.35035850517997769 0 -0.01450825788358804 -0.34587869015237133 0 -0.0014969289215187439 -0.35035850517997769 0 -0.01450825788358804 -0.34587869015237133 0 -0.016066738103916681 -0.35610249839144831 0 -0.01450825788358804 -0.34587869015237133 0 -0.016066738103916681 -0.35610249839144831 0 -0.025466680398351531 -0.34893616063201999 0 -0.016066738103916681 -0.35610249839144831 0 -0.025466680398351531 -0.34893616063201999 0 -0.026232935374239291 -0.36200109688232651 0 -0.035497535927623378 -0.3526200559098156 0 -0.025466680398351531 -0.34893616063201999 0 -0.026232935374239291 -0.36200109688232651 0 -0.016066738103916681 -0.35610249839144831 0 -0.026232935374239291 -0.36200109688232651 0 -0.012628887941885819 -0.37333803911054592 0 -0.026232935374239291 -0.36200109688232651 0 -0.012628887941885819 -0.37333803911054592 0 -0.033158533195137327 -0.37830724287360779 0 -0.0014969289215187439 -0.35035850517997769 0 -0.016066738103916681 -0.35610249839144831 0 -0.012628887941885819 -0.37333803911054592 0 -0.0014969289215187439 -0.35035850517997769 0 -0.012628887941885819 -0.37333803911054592 0 0.0044250660384099003 -0.36745488184495573 0 -0.0014969289215187439 -0.35035850517997769 0 -0.012628887941885819 -0.37333803911054592 0 -0.012628887941885819 -0.37333803911054592 0 0.0034525236969518698 -0.38184759442032512 0 0.0044250660384099003 -0.36745488184495573 0 -0.012628887941885819 -0.37333803911054592 0 -0.0067425754456081639 -0.39069410610154642 0 -0.02376084696225263 -0.39631757304111381 0 -0.012628887941885819 -0.37333803911054592 0 -0.0067425754456081639 -0.39069410610154642 0 0.0034525236969518698 -0.38184759442032512 0 -0.0067425754456081639 -0.39069410610154642 0 -0.011096506347694679 -0.40392014882932192 0 -0.02376084696225263 -0.39631757304111381 0 -0.011096506347694679 -0.40392014882932192 0 -0.0012591713889099571 -0.4124205754594602 0 0.00086455765575302746 -0.4009210970433339 0 -0.0067425754456081639 -0.39069410610154642 0 -0.011096506347694679 -0.40392014882932192 0 0.00086455765575302746 -0.4009210970433339 0 -0.0067425754456081639 -0.39069410610154642 0 0.00086455765575302746 -0.4009210970433339 0 0.0048063767630042971 -0.39138561965762242 0 -0.011096506347694679 -0.40392014882932192 0 -0.02376084696225263 -0.39631757304111381 0 -0.0198766542443919 -0.41238528011152992 0 -0.012628887941885819 -0.37333803911054592 0 -0.02376084696225263 -0.39631757304111381 0 -0.012628887941885819 -0.37333803911054592 0 -0.02376084696225263 -0.39631757304111381 0 -0.033158533195137327 -0.37830724287360779 0 -0.02376084696225263 -0.39631757304111381 0 -0.033158533195137327 -0.37830724287360779 0 -0.043257766839042172 -0.3918377694232168 0 -0.042355185648555171 -0.36586037833266899 0 -0.043257766839042172 -0.3918377694232168 0 -0.048800927626862438 -0.37828251843802219 0 -0.042355185648555171 -0.36586037833266899 0 -0.043257766839042172 -0.3918377694232168 0 -0.042355185648555171 -0.36586037833266899 0 -0.033158533195137327 -0.37830724287360779 0 -0.043257766839042172 -0.3918377694232168 0 -0.043257766839042172 -0.3918377694232168 0 -0.044160348029529228 -0.41781516051376438 0 -0.02376084696225263 -0.39631757304111381 0 -0.036760342623882267 -0.40595402798807251 0 -0.043257766839042172 -0.3918377694232168 0 -0.036760342623882267 -0.40595402798807251 0 -0.043257766839042172 -0.3918377694232168 0 -0.044160348029529228 -0.41781516051376438 0 -0.043257766839042172 -0.3918377694232168 0 -0.056656378193397861 -0.40088131971707242 0 -0.058859575267826231 -0.38519057991676148 0 -0.043257766839042172 -0.3918377694232168 0 -0.056656378193397861 -0.40088131971707242 0 -0.044160348029529228 -0.41781516051376438 0 -0.056656378193397861 -0.40088131971707242 0 -0.058859575267826231 -0.38519057991676148 0 -0.068291426303286204 -0.3961884548762884 0 -0.065030183681898598 -0.37258708183683531 0 -0.055866435304266902 -0.37462987936771819 0 -0.058859575267826231 -0.38519057991676148 0 -0.055866435304266902 -0.37462987936771819 0 -0.058859575267826231 -0.38519057991676148 0 -0.048800927626862438 -0.37828251843802219 0 -0.043257766839042172 -0.3918377694232168 0 -0.058859575267826231 -0.38519057991676148 0 -0.048800927626862438 -0.37828251843802219 0 -0.059778667945751179 -0.4295138196138415 0 -0.044160348029529228 -0.41781516051376438 0 -0.044898360973241368 -0.4390560760909592 0 -0.059778667945751179 -0.4295138196138415 0 -0.044898360973241368 -0.4390560760909592 0 -0.057051029656487687 -0.44213175899149387 0 -0.059778667945751179 -0.4295138196138415 0 -0.044160348029529228 -0.41781516051376438 0 -0.066528452496233098 -0.41423834014252331 0 -0.044160348029529228 -0.41781516051376438 0 -0.066528452496233098 -0.41423834014252331 0 -0.056656378193397861 -0.40088131971707242 0 -0.044160348029529228 -0.41781516051376438 0 -0.066528452496233098 -0.41423834014252331 0 -0.044160348029529228 -0.41781516051376438 0 -0.034892805982619721 -0.41929710697168182 0 -0.044160348029529228 -0.41781516051376438 0 -0.03942361573747679 -0.42144435023613969 0 -0.034892805982619721 -0.41929710697168182 0 -0.02376084696225263 -0.39631757304111381 0 -0.036760342623882267 -0.40595402798807251 0 -0.034892805982619721 -0.41929710697168182 0 -0.036760342623882267 -0.40595402798807251 0 -0.044160348029529228 -0.41781516051376438 0 -0.034892805982619721 -0.41929710697168182 0 -0.03942361573747679 -0.42144435023613969 0 -0.034892805982619721 -0.41929710697168182 0 -0.036153064966486889 -0.4218986404509284 0 -0.034892805982619721 -0.41929710697168182 0 -0.036153064966486889 -0.4218986404509284 0 -0.034892805982619721 -0.41929710697168182 0 -0.033901986791507521 -0.42219463841010618 0 -0.030049680900962421 -0.42354241353526417 0 -0.034892805982619721 -0.41929710697168182 0 -0.033901986791507521 -0.42219463841010618 0 -0.036153064966486889 -0.4218986404509284 0 -0.044160348029529228 -0.41781516051376438 0 -0.03984733595051624 -0.42642788893401778 0 -0.044898360973241368 -0.4390560760909592 0 -0.03459609334103457 -0.42428975903838329 0 -0.033901986791507521 -0.42219463841010618 0 -0.030049680900962421 -0.42354241353526417 0 -0.044160348029529228 -0.41781516051376438 0 -0.044898360973241368 -0.4390560760909592 0 -0.03459609334103457 -0.42428975903838329 0 -0.033028398095699782 -0.42738521386159972 0 -0.030049680900962421 -0.42354241353526417 0 -0.03459609334103457 -0.42428975903838329 0 -0.033901986791507521 -0.42219463841010618 0 -0.036153064966486889 -0.4218986404509284 0 -0.03459609334103457 -0.42428975903838329 0 -0.033028398095699782 -0.42738521386159972 0 -0.03984733595051624 -0.42642788893401778 0 -0.033028398095699782 -0.42738521386159972 0 -0.03984733595051624 -0.42642788893401778 0 -0.035169271838949523 -0.43351610976192612 0 -0.03459609334103457 -0.42428975903838329 0 -0.036153064966486889 -0.4218986404509284 0 -0.03984733595051624 -0.42642788893401778 0 -0.03942361573747679 -0.42144435023613969 0 -0.036153064966486889 -0.4218986404509284 0 -0.03984733595051624 -0.42642788893401778 0 -0.044160348029529228 -0.41781516051376438 0 -0.03942361573747679 -0.42144435023613969 0 -0.03984733595051624 -0.42642788893401778 0 -0.03984733595051624 -0.42642788893401778 0 -0.035169271838949523 -0.43351610976192612 0 -0.044898360973241368 -0.4390560760909592 0 -0.035169271838949523 -0.43351610976192612 0 -0.029606229116903832 -0.43383654357136231 0 -0.033005643017075058 -0.44274940665531698 0 -0.035169271838949523 -0.43351610976192612 0 -0.029606229116903832 -0.43383654357136231 0 -0.030557621564023849 -0.4304869395992279 0 -0.033028398095699782 -0.42738521386159972 0 -0.035169271838949523 -0.43351610976192612 0 -0.030557621564023849 -0.4304869395992279 0 -0.034892805982619721 -0.41929710697168182 0 -0.023129991299035261 -0.42509502878109467 0 -0.007764678382879947 -0.42363508918992521 0 -0.023922585784294188 -0.43267531309919383 0 -0.01374469013453624 -0.43239940952779748 0 -0.033005643017075058 -0.44274940665531698 0 -0.029606229116903832 -0.43383654357136231 0 -0.023922585784294188 -0.43267531309919383 0 -0.033005643017075058 -0.44274940665531698 0 -0.029606229116903832 -0.43383654357136231 0 -0.023922585784294188 -0.43267531309919383 0 -0.026819983885029111 -0.43001961950197459 0 -0.023922585784294188 -0.43267531309919383 0 -0.026819983885029111 -0.43001961950197459 0 -0.022926286247836939 -0.42874072649724182 0 -0.029606229116903832 -0.43383654357136231 0 -0.026819983885029111 -0.43001961950197459 0 -0.030557621564023849 -0.4304869395992279 0 -0.029002153858660749 -0.42748895256876318 0 -0.030049680900962421 -0.42354241353526417 0 -0.025431712205402929 -0.42669513476986848 0 -0.034892805982619721 -0.41929710697168182 0 -0.030049680900962421 -0.42354241353526417 0 -0.023129991299035261 -0.42509502878109467 0 -0.033028398095699782 -0.42738521386159972 0 -0.030557621564023849 -0.4304869395992279 0 -0.029002153858660749 -0.42748895256876318 0 -0.033028398095699782 -0.42738521386159972 0 -0.029002153858660749 -0.42748895256876318 0 -0.030049680900962421 -0.42354241353526417 0 -0.026819983885029111 -0.43001961950197459 0 -0.030557621564023849 -0.4304869395992279 0 -0.029002153858660749 -0.42748895256876318 0 -0.030049680900962421 -0.42354241353526417 0 -0.025431712205402929 -0.42669513476986848 0 -0.023129991299035261 -0.42509502878109467 0 -0.026819983885029111 -0.43001961950197459 0 -0.029002153858660749 -0.42748895256876318 0 -0.025431712205402929 -0.42669513476986848 0 -0.025431712205402929 -0.42669513476986848 0 -0.022926286247836939 -0.42874072649724182 0 -0.023129991299035261 -0.42509502878109467 0 -0.026819983885029111 -0.43001961950197459 0 -0.025431712205402929 -0.42669513476986848 0 -0.022926286247836939 -0.42874072649724182 0 -0.022926286247836939 -0.42874072649724182 0 -0.023129991299035261 -0.42509502878109467 0 -0.01771478407450966 -0.42865970172258677 0 -0.023129991299035261 -0.42509502878109467 0 -0.01771478407450966 -0.42865970172258677 0 -0.007764678382879947 -0.42363508918992521 0 -0.023922585784294188 -0.43267531309919383 0 -0.01771478407450966 -0.42865970172258677 0 -0.01374469013453624 -0.43239940952779748 0 -0.023922585784294188 -0.43267531309919383 0 -0.022926286247836939 -0.42874072649724182 0 -0.01771478407450966 -0.42865970172258677 0 -0.034892805982619721 -0.41929710697168182 0 -0.007764678382879947 -0.42363508918992521 0 -0.02376084696225263 -0.39631757304111381 0 -0.034892805982619721 -0.41929710697168182 0 -0.0198766542443919 -0.41238528011152992 0 -0.02376084696225263 -0.39631757304111381 0 -0.034892805982619721 -0.41929710697168182 0 -0.034892805982619721 -0.41929710697168182 0 -0.0198766542443919 -0.41238528011152992 0 -0.007764678382879947 -0.42363508918992521 0 -0.011096506347694679 -0.40392014882932192 0 -0.0198766542443919 -0.41238528011152992 0 -0.009999252590969121 -0.41309027339755933 0 -0.0198766542443919 -0.41238528011152992 0 -0.009999252590969121 -0.41309027339755933 0 -0.007764678382879947 -0.42363508918992521 0 -0.0012591713889099571 -0.4124205754594602 0 -0.007764678382879947 -0.42363508918992521 0 0.0055162627480025237 -0.42204941240027782 0 -0.009999252590969121 -0.41309027339755933 0 -0.0012591713889099571 -0.4124205754594602 0 -0.007764678382879947 -0.42363508918992521 0 -0.011096506347694679 -0.40392014882932192 0 -0.009999252590969121 -0.41309027339755933 0 -0.0012591713889099571 -0.4124205754594602 0 -0.01374469013453624 -0.43239940952779748 0 0.0055162627480025237 -0.42204941240027782 0 -0.0081655997390583726 -0.43239112205441432 0 -0.01374469013453624 -0.43239940952779748 0 0.0055162627480025237 -0.42204941240027782 0 -0.01374469013453624 -0.43239940952779748 0 -0.007764678382879947 -0.42363508918992521 0 0.0055162627480025237 -0.42204941240027782 0 -0.01374469013453624 -0.43239940952779748 0 -0.01094675755610741 -0.43804161334453628 0 -0.017941527997629301 -0.44144895223608649 0 -0.0081655997390583726 -0.43239112205441432 0 -0.01374469013453624 -0.43239940952779748 0 -0.01094675755610741 -0.43804161334453628 0 -0.0081655997390583726 -0.43239112205441432 0 -0.0049935051577852142 -0.43766129595670861 0 -0.01094675755610741 -0.43804161334453628 0 -0.01771478407450966 -0.42865970172258677 0 -0.01374469013453624 -0.43239940952779748 0 -0.007764678382879947 -0.42363508918992521 0 -0.0081655997390583726 -0.43239112205441432 0 0.0012858825624279221 -0.43243677009768711 0 0.0055162627480025237 -0.42204941240027782 0 -0.0081655997390583726 -0.43239112205441432 0 0.0055162627480025237 -0.42204941240027782 0 -0.0081655997390583726 -0.43239112205441432 0 -0.0049935051577852142 -0.43766129595670861 0 0.0012858825624279221 -0.43243677009768711 0 -0.0049935051577852142 -0.43766129595670861 0 0.0012858825624279221 -0.43243677009768711 0 0.002520803108117585 -0.44016184106386741 0 -0.0049935051577852142 -0.43766129595670861 0 -0.0096618541643057922 -0.4452751332230378 0 0.002520803108117585 -0.44016184106386741 0 -0.0096618541643057922 -0.4452751332230378 0 -0.013367933825525501 -0.457718950194684 0 0.0028077999786123601 -0.45433988706049089 0 -0.0049935051577852142 -0.43766129595670861 0 -0.01094675755610741 -0.43804161334453628 0 -0.0096618541643057922 -0.4452751332230378 0 -0.01094675755610741 -0.43804161334453628 0 -0.0096618541643057922 -0.4452751332230378 0 -0.017941527997629301 -0.44144895223608649 0 -0.0096618541643057922 -0.4452751332230378 0 -0.013367933825525501 -0.457718950194684 0 -0.02234869511612202 -0.44877919842974417 0 -0.0096618541643057922 -0.4452751332230378 0 0.002520803108117585 -0.44016184106386741 0 0.0028077999786123601 -0.45433988706049089 0 -0.0049027206756070661 -0.46690035482721132 0 -0.013367933825525501 -0.457718950194684 0 0.0028077999786123601 -0.45433988706049089 0 -0.0049027206756070661 -0.46690035482721132 0 -0.013367933825525501 -0.457718950194684 0 -0.01707822014331464 -0.47039157403821291 0 -0.013367933825525501 -0.457718950194684 0 -0.02816019355695688 -0.45955674050940021 0 -0.02234869511612202 -0.44877919842974417 0 -0.013367933825525501 -0.457718950194684 0 -0.02816019355695688 -0.45955674050940021 0 -0.01707822014331464 -0.47039157403821291 0 -0.01374469013453624 -0.43239940952779748 0 -0.017941527997629301 -0.44144895223608649 0 -0.033005643017075058 -0.44274940665531698 0 -0.01374469013453624 -0.43239940952779748 0 -0.033005643017075058 -0.44274940665531698 0 -0.02816019355695688 -0.45955674050940021 0 -0.02234869511612202 -0.44877919842974417 0 -0.033005643017075058 -0.44274940665531698 0 -0.017941527997629301 -0.44144895223608649 0 -0.02234869511612202 -0.44877919842974417 0 -0.033005643017075058 -0.44274940665531698 0 -0.0096618541643057922 -0.4452751332230378 0 -0.017941527997629301 -0.44144895223608649 0 -0.02234869511612202 -0.44877919842974417 0 -0.007051701975383606 -0.48324500904034501 0 -0.02119460486973862 -0.5 0 0.0055866102820615327 -0.5 0 -0.0049027206756070661 -0.46690035482721132 0 -0.007051701975383606 -0.48324500904034501 0 -0.01707822014331464 -0.47039157403821291 0 -0.0049027206756070661 -0.46690035482721132 0 -0.007051701975383606 -0.48324500904034501 0 0.010176452587576049 -0.46880635380232327 0 -0.007051701975383606 -0.48324500904034501 0 -0.01707822014331464 -0.47039157403821291 0 -0.033118167479146143 -0.48298828127153881 0 -0.02816019355695688 -0.45955674050940021 0 -0.01707822014331464 -0.47039157403821291 0 -0.033118167479146143 -0.48298828127153881 0 -0.007051701975383606 -0.48324500904034501 0 -0.033118167479146143 -0.48298828127153881 0 -0.007051701975383606 -0.48324500904034501 0 -0.02119460486973862 -0.5 0 -0.033118167479146143 -0.48298828127153881 0 -0.033118167479146143 -0.48298828127153881 0 -0.059184632982908637 -0.48273155350273261 0 -0.047975820021538829 -0.5 0 -0.02119460486973862 -0.5 0 -0.033118167479146143 -0.48298828127153881 0 -0.047975820021538829 -0.5 0 -0.033118167479146143 -0.48298828127153881 0 -0.059184632982908637 -0.48273155350273261 0 -0.045636373916953583 -0.46029699166815391 0 -0.033118167479146143 -0.48298828127153881 0 -0.059184632982908637 -0.48273155350273261 0 -0.059184632982908637 -0.48273155350273261 0 -0.045636373916953583 -0.46029699166815391 0 -0.064879310145882829 -0.4663493459592592 0 -0.059184632982908637 -0.48273155350273261 0 -0.047975820021538829 -0.5 0 -0.074757035173339037 -0.5 0 -0.044898360973241368 -0.4390560760909592 0 -0.045636373916953583 -0.46029699166815391 0 -0.044898360973241368 -0.4390560760909592 0 -0.033005643017075058 -0.44274940665531698 0 -0.045636373916953583 -0.46029699166815391 0 -0.035169271838949523 -0.43351610976192612 0 -0.044898360973241368 -0.4390560760909592 0 -0.033005643017075058 -0.44274940665531698 0 -0.02816019355695688 -0.45955674050940021 0 -0.033118167479146143 -0.48298828127153881 0 -0.045636373916953583 -0.46029699166815391 0 -0.02816019355695688 -0.45955674050940021 0 -0.033005643017075058 -0.44274940665531698 0 -0.045636373916953583 -0.46029699166815391 0 -0.045636373916953583 -0.46029699166815391 0 -0.063477343987731888 -0.45227240964938642 0 -0.064879310145882829 -0.4663493459592592 0 -0.045636373916953583 -0.46029699166815391 0 -0.057051029656487687 -0.44213175899149387 0 -0.063477343987731888 -0.45227240964938642 0 -0.044898360973241368 -0.4390560760909592 0 -0.045636373916953583 -0.46029699166815391 0 -0.057051029656487687 -0.44213175899149387 0 -0.057051029656487687 -0.44213175899149387 0 -0.072954326043246059 -0.44046712364751778 0 -0.063477343987731888 -0.45227240964938642 0 -0.072954326043246059 -0.44046712364751778 0 -0.063477343987731888 -0.45227240964938642 0 -0.076089347917636482 -0.45356915722577951 0 -0.064879310145882829 -0.4663493459592592 0 -0.076089347917636482 -0.45356915722577951 0 -0.080988249622641478 -0.46592117871547439 0 -0.063477343987731888 -0.45227240964938642 0 -0.064879310145882829 -0.4663493459592592 0 -0.076089347917636482 -0.45356915722577951 0 -0.076089347917636482 -0.45356915722577951 0 -0.080988249622641478 -0.46592117871547439 0 -0.090809988430568048 -0.4586396415644588 0 -0.080988249622641478 -0.46592117871547439 0 -0.092409252116776155 -0.46807772700192551 0 -0.090809988430568048 -0.4586396415644588 0 -0.090809988430568048 -0.4586396415644588 0 -0.08680723358104192 -0.44597222692230187 0 -0.098042310961642398 -0.45006492427097122 0 -0.08680723358104192 -0.44597222692230187 0 -0.096970756129259664 -0.44112660523503971 0 -0.087582481857188796 -0.43604945839231718 0 -0.072954326043246059 -0.44046712364751778 0 -0.08680723358104192 -0.44597222692230187 0 -0.087582481857188796 -0.43604945839231718 0 -0.072954326043246059 -0.44046712364751778 0 -0.076089347917636482 -0.45356915722577951 0 -0.08680723358104192 -0.44597222692230187 0 -0.076089347917636482 -0.45356915722577951 0 -0.090809988430568048 -0.4586396415644588 0 -0.08680723358104192 -0.44597222692230187 0 -0.059184632982908637 -0.48273155350273261 0 -0.074757035173339037 -0.5 0 -0.08139072142876852 -0.48087009553278021 0 -0.064879310145882829 -0.4663493459592592 0 -0.080988249622641478 -0.46592117871547439 0 -0.08139072142876852 -0.48087009553278021 0 -0.059184632982908637 -0.48273155350273261 0 -0.064879310145882829 -0.4663493459592592 0 -0.08139072142876852 -0.48087009553278021 0 -0.092409252116776155 -0.46807772700192551 0 -0.08139072142876852 -0.48087009553278021 0 -0.098099826464549622 -0.47746667830522488 0 -0.080988249622641478 -0.46592117871547439 0 -0.092409252116776155 -0.46807772700192551 0 -0.08139072142876852 -0.48087009553278021 0 -0.08139072142876852 -0.48087009553278021 0 -0.1015382503251392 -0.5 0 -0.098099826464549622 -0.47746667830522488 0 -0.074757035173339037 -0.5 0 -0.08139072142876852 -0.48087009553278021 0 -0.1015382503251392 -0.5 0 -0.1015382503251392 -0.5 0 -0.098099826464549622 -0.47746667830522488 0 -0.1094420409806215 -0.48659681172346608 0 -0.098099826464549622 -0.47746667830522488 0 -0.107983360330518 -0.47468078166630079 0 -0.1094420409806215 -0.48659681172346608 0 -0.092409252116776155 -0.46807772700192551 0 -0.098099826464549622 -0.47746667830522488 0 -0.1023595732779405 -0.46755469094442648 0 -0.098099826464549622 -0.47746667830522488 0 -0.107983360330518 -0.47468078166630079 0 -0.1023595732779405 -0.46755469094442648 0 -0.107983360330518 -0.47468078166630079 0 -0.1207158978103602 -0.47883313214023238 0 -0.11126750384920139 -0.4625352063628263 0 -0.107983360330518 -0.47468078166630079 0 -0.1207158978103602 -0.47883313214023238 0 -0.1094420409806215 -0.48659681172346608 0 -0.1283194654769394 -0.50000000000000155 0 -0.1207158978103602 -0.47883313214023238 0 -0.1283194654769394 -0.50000000000000155 0 -0.1015382503251392 -0.5 0 -0.1094420409806215 -0.48659681172346608 0 -0.1283194654769394 -0.50000000000000155 0 -0.1207158978103602 -0.47883313214023238 0 -0.1094420409806215 -0.48659681172346608 0 -0.1053156212063068 -0.446909054226794 0 -0.10460740746027131 -0.45279235054291739 0 -0.098042310961642398 -0.45006492427097122 0 -0.1053156212063068 -0.446909054226794 0 -0.10460740746027131 -0.45279235054291739 0 -0.1109637033804666 -0.4516849012186262 0 -0.1053156212063068 -0.446909054226794 0 -0.1042152782096701 -0.43761144547187592 0 -0.096970756129259664 -0.44112660523503971 0 -0.1053156212063068 -0.446909054226794 0 -0.1042152782096701 -0.43761144547187592 0 -0.1122541843833622 -0.43922584981092311 0 -0.08680723358104192 -0.44597222692230187 0 -0.096970756129259664 -0.44112660523503971 0 -0.098042310961642398 -0.45006492427097122 0 -0.1053156212063068 -0.446909054226794 0 -0.096970756129259664 -0.44112660523503971 0 -0.098042310961642398 -0.45006492427097122 0 -0.10460740746027131 -0.45279235054291739 0 -0.098042310961642398 -0.45006492427097122 0 -0.10080715347618879 -0.45801407694918839 0 -0.090809988430568048 -0.4586396415644588 0 -0.098042310961642398 -0.45006492427097122 0 -0.10080715347618879 -0.45801407694918839 0 -0.092409252116776155 -0.46807772700192551 0 -0.090809988430568048 -0.4586396415644588 0 -0.10080715347618879 -0.45801407694918839 0 -0.092409252116776155 -0.46807772700192551 0 -0.10080715347618879 -0.45801407694918839 0 -0.1023595732779405 -0.46755469094442648 0 -0.10080715347618879 -0.45801407694918839 0 -0.1023595732779405 -0.46755469094442648 0 -0.1055856197200206 -0.46134819257636223 0 -0.107983360330518 -0.47468078166630079 0 -0.1023595732779405 -0.46755469094442648 0 -0.11126750384920139 -0.4625352063628263 0 -0.1023595732779405 -0.46755469094442648 0 -0.1055856197200206 -0.46134819257636223 0 -0.11126750384920139 -0.4625352063628263 0 -0.10460740746027131 -0.45279235054291739 0 -0.10080715347618879 -0.45801407694918839 0 -0.10790824827675199 -0.45728879604900741 0 -0.10080715347618879 -0.45801407694918839 0 -0.1055856197200206 -0.46134819257636223 0 -0.10790824827675199 -0.45728879604900741 0 -0.1055856197200206 -0.46134819257636223 0 -0.10790824827675199 -0.45728879604900741 0 -0.11126750384920139 -0.4625352063628263 0 -0.10460740746027131 -0.45279235054291739 0 -0.10790824827675199 -0.45728879604900741 0 -0.1109637033804666 -0.4516849012186262 0 -0.1207158978103602 -0.47883313214023238 0 -0.1131123301437796 -0.45766626428046381 0 -0.11126750384920139 -0.4625352063628263 0 -0.1264080347198821 -0.46483928958176107 0 -0.1207158978103602 -0.47883313214023238 0 -0.1131123301437796 -0.45766626428046381 0 -0.10790824827675199 -0.45728879604900741 0 -0.1131123301437796 -0.45766626428046381 0 -0.1109637033804666 -0.4516849012186262 0 -0.1207158978103602 -0.47883313214023238 0 -0.1131123301437796 -0.45766626428046381 0 -0.1131123301437796 -0.45766626428046381 0 -0.1109637033804666 -0.4516849012186262 0 -0.1131123301437796 -0.45766626428046381 0 -0.11560914095392 -0.45107657761948178 0 -0.1109637033804666 -0.4516849012186262 0 -0.1131123301437796 -0.45766626428046381 0 -0.11126750384920139 -0.4625352063628263 0 -0.10790824827675199 -0.45728879604900741 0 -0.1131123301437796 -0.45766626428046381 0 -0.11126750384920139 -0.4625352063628263 0 -0.1131123301437796 -0.45766626428046381 0 -0.11560914095392 -0.45107657761948178 0 -0.1264080347198821 -0.46483928958176107 0 -0.1131123301437796 -0.45766626428046381 0 -0.11560914095392 -0.45107657761948178 0 -0.13082934616647801 -0.44237513111678362 0 -0.11560914095392 -0.45107657761948178 0 -0.1246209534251322 -0.42729222832413971 0 -0.11560914095392 -0.45107657761948178 0 -0.1122541843833622 -0.43922584981092311 0 -0.1246209534251322 -0.42729222832413971 0 -0.11560914095392 -0.45107657761948178 0 -0.1246209534251322 -0.42729222832413971 0 -0.1053156212063068 -0.446909054226794 0 -0.11560914095392 -0.45107657761948178 0 -0.1053156212063068 -0.446909054226794 0 -0.11560914095392 -0.45107657761948178 0 -0.1109637033804666 -0.4516849012186262 0 -0.1053156212063068 -0.446909054226794 0 -0.11560914095392 -0.45107657761948178 0 -0.1122541843833622 -0.43922584981092311 0 -0.1246209534251322 -0.42729222832413971 0 -0.1096271882664656 -0.43160602387774749 0 -0.1072873703100676 -0.42012352797013047 0 -0.1122541843833622 -0.43922584981092311 0 -0.1246209534251322 -0.42729222832413971 0 -0.1096271882664656 -0.43160602387774749 0 -0.1042152782096701 -0.43761144547187592 0 -0.1122541843833622 -0.43922584981092311 0 -0.1096271882664656 -0.43160602387774749 0 -0.1042152782096701 -0.43761144547187592 0 -0.1096271882664656 -0.43160602387774749 0 -0.09690864106295613 -0.42918969420887559 0 -0.1096271882664656 -0.43160602387774749 0 -0.09690864106295613 -0.42918969420887559 0 -0.1072873703100676 -0.42012352797013047 0 -0.1042152782096701 -0.43761144547187592 0 -0.096970756129259664 -0.44112660523503971 0 -0.09690864106295613 -0.42918969420887559 0 -0.096970756129259664 -0.44112660523503971 0 -0.09690864106295613 -0.42918969420887559 0 -0.087582481857188796 -0.43604945839231718 0 -0.09690864106295613 -0.42918969420887559 0 -0.1072873703100676 -0.42012352797013047 0 -0.088896556962936898 -0.41066151977128162 0 -0.1072873703100676 -0.42012352797013047 0 -0.1112646614296406 -0.40708469940003988 0 -0.088896556962936898 -0.41066151977128162 0 -0.1112646614296406 -0.40708469940003988 0 -0.088896556962936898 -0.41066151977128162 0 -0.1246209534251322 -0.42729222832413971 0 -0.1072873703100676 -0.42012352797013047 0 -0.1204975607507127 -0.41417525473537542 0 -0.13363276589634421 -0.4035078790287977 0 -0.1112646614296406 -0.40708469940003988 0 -0.1204975607507127 -0.41417525473537542 0 -0.1072873703100676 -0.42012352797013047 0 -0.1112646614296406 -0.40708469940003988 0 -0.1204975607507127 -0.41417525473537542 0 -0.1112646614296406 -0.40708469940003988 0 -0.1240730681738034 -0.39141110973529591 0 -0.1121708143485584 -0.38428656060801658 0 -0.13363276589634421 -0.4035078790287977 0 -0.1112646614296406 -0.40708469940003988 0 -0.13363276589634421 -0.4035078790287977 0 -0.1112646614296406 -0.40708469940003988 0 -0.1240730681738034 -0.39141110973529591 0 -0.1254728502257636 -0.37859699181811141 0 -0.1186265748277594 -0.36813560515636928 0 -0.1121708143485584 -0.38428656060801658 0 -0.1254728502257636 -0.37859699181811141 0 -0.1240730681738034 -0.39141110973529591 0 -0.1121708143485584 -0.38428656060801658 0 -0.1041796968115891 -0.37231377715865932 0 -0.1121708143485584 -0.38428656060801658 0 -0.096743300662472276 -0.38684923672667942 0 -0.1041796968115891 -0.37231377715865932 0 -0.094717258379341751 -0.37407517400153117 0 -0.096743300662472276 -0.38684923672667942 0 -0.1112646614296406 -0.40708469940003988 0 -0.1121708143485584 -0.38428656060801658 0 -0.096743300662472276 -0.38684923672667942 0 -0.1112646614296406 -0.40708469940003988 0 -0.085675813625831834 -0.39641919767624678 0 -0.088896556962936898 -0.41066151977128162 0 -0.1112646614296406 -0.40708469940003988 0 -0.096743300662472276 -0.38684923672667942 0 -0.085675813625831834 -0.39641919767624678 0 -0.084541147489030938 -0.37470937631336032 0 -0.085675813625831834 -0.39641919767624678 0 -0.073216960568858194 -0.38218345114903102 0 -0.084541147489030938 -0.37470937631336032 0 -0.096743300662472276 -0.38684923672667942 0 -0.085675813625831834 -0.39641919767624678 0 -0.094717258379341751 -0.37407517400153117 0 -0.084541147489030938 -0.37470937631336032 0 -0.096743300662472276 -0.38684923672667942 0 -0.074724733945228813 -0.36937174723928951 0 -0.084541147489030938 -0.37470937631336032 0 -0.073216960568858194 -0.38218345114903102 0 -0.058859575267826231 -0.38519057991676148 0 -0.073216960568858194 -0.38218345114903102 0 -0.068291426303286204 -0.3961884548762884 0 -0.065030183681898598 -0.37258708183683531 0 -0.058859575267826231 -0.38519057991676148 0 -0.073216960568858194 -0.38218345114903102 0 -0.085675813625831834 -0.39641919767624678 0 -0.073216960568858194 -0.38218345114903102 0 -0.068291426303286204 -0.3961884548762884 0 -0.085675813625831834 -0.39641919767624678 0 -0.068291426303286204 -0.3961884548762884 0 -0.066528452496233098 -0.41423834014252331 0 -0.056656378193397861 -0.40088131971707242 0 -0.068291426303286204 -0.3961884548762884 0 -0.066528452496233098 -0.41423834014252331 0 -0.066528452496233098 -0.41423834014252331 0 -0.088896556962936898 -0.41066151977128162 0 -0.059778667945751179 -0.4295138196138415 0 -0.066528452496233098 -0.41423834014252331 0 -0.079134348270550242 -0.42671288171172639 0 -0.059778667945751179 -0.4295138196138415 0 -0.072954326043246059 -0.44046712364751778 0 -0.079134348270550242 -0.42671288171172639 0 -0.059778667945751179 -0.4295138196138415 0 -0.057051029656487687 -0.44213175899149387 0 -0.072954326043246059 -0.44046712364751778 0 -0.09690864106295613 -0.42918969420887559 0 -0.079134348270550242 -0.42671288171172639 0 -0.088896556962936898 -0.41066151977128162 0 -0.09690864106295613 -0.42918969420887559 0 -0.079134348270550242 -0.42671288171172639 0 -0.087582481857188796 -0.43604945839231718 0 -0.072954326043246059 -0.44046712364751778 0 -0.079134348270550242 -0.42671288171172639 0 -0.087582481857188796 -0.43604945839231718 0 -0.085675813625831834 -0.39641919767624678 0 -0.066528452496233098 -0.41423834014252331 0 -0.088896556962936898 -0.41066151977128162 0 -0.066528452496233098 -0.41423834014252331 0 -0.079134348270550242 -0.42671288171172639 0 -0.088896556962936898 -0.41066151977128162 0 -0.09187578666093496 -0.081198502856243054 0 -0.065713651042146007 -0.085732225355633046 0 -0.087387193317419704 -0.096626012552065821 0 -0.09187578666093496 -0.081198502856243054 0 -0.072416624756126036 -0.071862579431547793 0 -0.079639852527184141 -0.059148153673286442 0 -0.09187578666093496 -0.081198502856243054 0 -0.079639852527184141 -0.059148153673286442 0 -0.09187578666093496 -0.081198502856243054 0 -0.10064817839509731 -0.055729620347379979 0 -0.079639852527184141 -0.059148153673286442 0 -0.072416624756126036 -0.071862579431547793 0 -0.065713651042146007 -0.085732225355633046 0 -0.056674679628205007 -0.06288511060093005 0 -0.072416624756126036 -0.071862579431547793 0 -0.079639852527184141 -0.059148153673286442 0 -0.056674679628205007 -0.06288511060093005 0 -0.09187578666093496 -0.081198502856243054 0 -0.072416624756126036 -0.071862579431547793 0 -0.065713651042146007 -0.085732225355633046 0 -0.074335042877658464 -0.10936427727092909 0 -0.070514576021606726 -0.1145267827158299 0 -0.056519296825689971 -0.09988645904640546 0 -0.074335042877658464 -0.10936427727092909 0 -0.056519296825689971 -0.09988645904640546 0 -0.065713651042146007 -0.085732225355633046 0 -0.074335042877658464 -0.10936427727092909 0 -0.065713651042146007 -0.085732225355633046 0 -0.074335042877658464 -0.10936427727092909 0 -0.082898784665822262 -0.1050825619312499 0 -0.065713651042146007 -0.085732225355633046 0 -0.074335042877658464 -0.10936427727092909 0 -0.056519296825689971 -0.09988645904640546 0 -0.070514576021606726 -0.1145267827158299 0 -0.061987945118678008 -0.1237802624065155 0 -0.075372229765933635 -0.12512645953002011 0 -0.070514576021606726 -0.1145267827158299 0 -0.061987945118678008 -0.1237802624065155 0 -0.05859385093190507 -0.1134386561181167 0 -0.074335042877658464 -0.10936427727092909 0 -0.070514576021606726 -0.1145267827158299 0 -0.082950019801275893 -0.1139473682653975 0 -0.070514576021606726 -0.1145267827158299 0 -0.082950019801275893 -0.1139473682653975 0 -0.075372229765933635 -0.12512645953002011 0 -0.082950019801275893 -0.1139473682653975 0 -0.090362837873872032 -0.13188504197233511 0 -0.075372229765933635 -0.12512645953002011 0 -0.082950019801275893 -0.1139473682653975 0 -0.095920180122398654 -0.11179978750606639 0 -0.1017553112166327 -0.1180909995633217 0 -0.074335042877658464 -0.10936427727092909 0 -0.082950019801275893 -0.1139473682653975 0 -0.082898784665822262 -0.1050825619312499 0 -0.074335042877658464 -0.10936427727092909 0 -0.082950019801275893 -0.1139473682653975 0 -0.082950019801275893 -0.1139473682653975 0 -0.090653579740320567 -0.10614091645879579 0 -0.095920180122398654 -0.11179978750606639 0 -0.065713651042146007 -0.085732225355633046 0 -0.082898784665822262 -0.1050825619312499 0 -0.087387193317419704 -0.096626012552065821 0 -0.082950019801275893 -0.1139473682653975 0 -0.082898784665822262 -0.1050825619312499 0 -0.090653579740320567 -0.10614091645879579 0 -0.082898784665822262 -0.1050825619312499 0 -0.090653579740320567 -0.10614091645879579 0 -0.087387193317419704 -0.096626012552065821 0 -0.090653579740320567 -0.10614091645879579 0 -0.087387193317419704 -0.096626012552065821 0 -0.10411172079468629 -0.1032488520391992 0 -0.090653579740320567 -0.10614091645879579 0 -0.10411172079468629 -0.1032488520391992 0 -0.095920180122398654 -0.11179978750606639 0 -0.082950019801275893 -0.1139473682653975 0 -0.1017553112166327 -0.1180909995633217 0 -0.1093807427768583 -0.12800827748439661 0 -0.10411172079468629 -0.1032488520391992 0 -0.1017553112166327 -0.1180909995633217 0 -0.1113586020809627 -0.12536269336486261 0 -0.082950019801275893 -0.1139473682653975 0 -0.1093807427768583 -0.12800827748439661 0 -0.082950019801275893 -0.1139473682653975 0 -0.090362837873872032 -0.13188504197233511 0 -0.1093807427768583 -0.12800827748439661 0 -0.10411172079468629 -0.1032488520391992 0 -0.095920180122398654 -0.11179978750606639 0 -0.1017553112166327 -0.1180909995633217 0 -0.1017553112166327 -0.1180909995633217 0 -0.1093807427768583 -0.12800827748439661 0 -0.1113586020809627 -0.12536269336486261 0 -0.10411172079468629 -0.1032488520391992 0 -0.1113586020809627 -0.12536269336486261 0 -0.1303847750182198 -0.10773643821383649 0 -0.1113586020809627 -0.12536269336486261 0 -0.12603337572644699 -0.1368673298976614 0 -0.1303847750182198 -0.10773643821383649 0 -0.10411172079468629 -0.1032488520391992 0 -0.1195403803683202 -0.092073109965608288 0 -0.1303847750182198 -0.10773643821383649 0 -0.1195403803683202 -0.092073109965608288 0 -0.1129817940210827 -0.074186643230661917 0 -0.1347361743099933 -0.078605546530011824 0 -0.09187578666093496 -0.081198502856243054 0 -0.087387193317419704 -0.096626012552065821 0 -0.10411172079468629 -0.1032488520391992 0 -0.09187578666093496 -0.081198502856243054 0 -0.10411172079468629 -0.1032488520391992 0 -0.09187578666093496 -0.081198502856243054 0 -0.10411172079468629 -0.1032488520391992 0 -0.1195403803683202 -0.092073109965608288 0 -0.09187578666093496 -0.081198502856243054 0 -0.1195403803683202 -0.092073109965608288 0 -0.1129817940210827 -0.074186643230661917 0 -0.09187578666093496 -0.081198502856243054 0 -0.1129817940210827 -0.074186643230661917 0 -0.10064817839509731 -0.055729620347379979 0 -0.1129817940210827 -0.074186643230661917 0 -0.1162910760231937 -0.060659668857786703 0 -0.10064817839509731 -0.055729620347379979 0 -0.1129817940210827 -0.074186643230661917 0 -0.12376213601859951 -0.066982849024258689 0 -0.1347361743099933 -0.078605546530011824 0 -0.1129817940210827 -0.074186643230661917 0 -0.12376213601859951 -0.066982849024258689 0 -0.1162910760231937 -0.060659668857786703 0 -0.12376213601859951 -0.066982849024258689 0 -0.1162910760231937 -0.060659668857786703 0 -0.12240676741817839 -0.054088144665157413 0 -0.1216565042630109 -0.052311087021476903 0 -0.10064817839509731 -0.055729620347379979 0 -0.1162910760231937 -0.060659668857786703 0 -0.12240676741817839 -0.054088144665157413 0 -0.1216565042630109 -0.052311087021476903 0 -0.1162910760231937 -0.060659668857786703 0 -0.1216565042630109 -0.052311087021476903 0 -0.10064817839509731 -0.055729620347379979 0 -0.12240676741817839 -0.054088144665157413 0 -0.1216565042630109 -0.052311087021476903 0 -0.1216565042630109 -0.052311087021476903 0 -0.11153965868919791 -0.028348537837174979 0 -0.1216565042630109 -0.052311087021476903 0 -0.10064817839509731 -0.055729620347379979 0 -0.11153965868919791 -0.028348537837174979 0 -0.1216565042630109 -0.052311087021476903 0 -0.11153965868919791 -0.028348537837174979 0 -0.1280472677748169 -0.031270983682370253 0 -0.10064817839509731 -0.055729620347379979 0 -0.11153965868919791 -0.028348537837174979 0 -0.089904844829133315 -0.033708432802493103 0 -0.12470345280778559 -0.0046060833266749566 0 -0.11153965868919791 -0.028348537837174979 0 -0.1014228131153851 -0.0043859886528729566 0 -0.12470345280778559 -0.0046060833266749566 0 -0.1014228131153851 -0.0043859886528729566 0 -0.11011813711497111 0.0083671370953676306 0 -0.12470345280778559 -0.0046060833266749566 0 -0.11153965868919791 -0.028348537837174979 0 -0.1280472677748169 -0.031270983682370253 0 -0.11153965868919791 -0.028348537837174979 0 -0.1014228131153851 -0.0043859886528729566 0 -0.11153965868919791 -0.028348537837174979 0 -0.09604622353530376 -0.019880859677410889 0 -0.1014228131153851 -0.0043859886528729566 0 -0.11153965868919791 -0.028348537837174979 0 -0.09604622353530376 -0.019880859677410889 0 -0.089904844829133315 -0.033708432802493103 0 -0.1014228131153851 -0.0043859886528729566 0 -0.081317577507498739 -0.01308047941710251 0 -0.084275503061411641 0.0039398238969450472 0 -0.081317577507498739 -0.01308047941710251 0 -0.084275503061411641 0.0039398238969450472 0 -0.071365404289364456 0.00062721705378197237 0 -0.09604622353530376 -0.019880859677410889 0 -0.1014228131153851 -0.0043859886528729566 0 -0.081317577507498739 -0.01308047941710251 0 -0.09604622353530376 -0.019880859677410889 0 -0.081317577507498739 -0.01308047941710251 0 -0.089904844829133315 -0.033708432802493103 0 -0.081317577507498739 -0.01308047941710251 0 -0.071091193552826115 -0.0235403881706381 0 -0.089904844829133315 -0.033708432802493103 0 -0.071091193552826115 -0.0235403881706381 0 -0.068108283006370063 -0.038367138363627172 0 -0.056576713485556547 -0.017586123053967569 0 -0.071091193552826115 -0.0235403881706381 0 -0.067552156544132533 -0.012035518828365861 0 -0.056576713485556547 -0.017586123053967569 0 -0.081317577507498739 -0.01308047941710251 0 -0.071091193552826115 -0.0235403881706381 0 -0.067552156544132533 -0.012035518828365861 0 -0.081317577507498739 -0.01308047941710251 0 -0.067552156544132533 -0.012035518828365861 0 -0.071365404289364456 0.00062721705378197237 0 -0.067552156544132533 -0.012035518828365861 0 -0.057409893885416799 -0.0065978205539030804 0 -0.071365404289364456 0.00062721705378197237 0 -0.10064817839509731 -0.055729620347379979 0 -0.079639852527184141 -0.059148153673286442 0 -0.10064817839509731 -0.055729620347379979 0 -0.079639852527184141 -0.059148153673286442 0 -0.080892804037922816 -0.044862887073672093 0 -0.089904844829133315 -0.033708432802493103 0 -0.080892804037922816 -0.044862887073672093 0 -0.068108283006370063 -0.038367138363627172 0 -0.10064817839509731 -0.055729620347379979 0 -0.089904844829133315 -0.033708432802493103 0 -0.080892804037922816 -0.044862887073672093 0 -0.071091193552826115 -0.0235403881706381 0 -0.089904844829133315 -0.033708432802493103 0 -0.068108283006370063 -0.038367138363627172 0 -0.079639852527184141 -0.059148153673286442 0 -0.056674679628205007 -0.06288511060093005 0 -0.079639852527184141 -0.059148153673286442 0 -0.064205824520309679 -0.051710541580700278 0 -0.056674679628205007 -0.06288511060093005 0 -0.079639852527184141 -0.059148153673286442 0 -0.068108283006370063 -0.038367138363627172 0 -0.064205824520309679 -0.051710541580700278 0 -0.079639852527184141 -0.059148153673286442 0 -0.068108283006370063 -0.038367138363627172 0 -0.079639852527184141 -0.059148153673286442 0 -0.080892804037922816 -0.044862887073672093 0 -0.068108283006370063 -0.038367138363627172 0 -0.05002651177101565 -0.054688976992587603 0 -0.039851728054663103 -0.056954225057831528 0 -0.056674679628205007 -0.06288511060093005 0 -0.05002651177101565 -0.054688976992587603 0 -0.050978605326457253 -0.048487580476806798 0 -0.056674679628205007 -0.06288511060093005 0 -0.050978605326457253 -0.048487580476806798 0 -0.056674679628205007 -0.06288511060093005 0 -0.05002651177101565 -0.054688976992587603 0 -0.050978605326457253 -0.048487580476806798 0 -0.041786838318551303 -0.050159009323511902 0 -0.05002651177101565 -0.054688976992587603 0 -0.050978605326457253 -0.048487580476806798 0 -0.064205824520309679 -0.051710541580700278 0 -0.050978605326457253 -0.048487580476806798 0 -0.056674679628205007 -0.06288511060093005 0 -0.050978605326457253 -0.048487580476806798 0 -0.054194249605936218 -0.0275427005153548 0 -0.068108283006370063 -0.038367138363627172 0 -0.064205824520309679 -0.051710541580700278 0 -0.050978605326457253 -0.048487580476806798 0 -0.068108283006370063 -0.038367138363627172 0 -0.050978605326457253 -0.048487580476806798 0 -0.054194249605936218 -0.0275427005153548 0 -0.050978605326457253 -0.048487580476806798 0 -0.045186325036601312 -0.033846877855525287 0 -0.054194249605936218 -0.0275427005153548 0 -0.050978605326457253 -0.048487580476806798 0 -0.045186325036601312 -0.033846877855525287 0 -0.050978605326457253 -0.048487580476806798 0 -0.038238062178047663 -0.040912545744748723 0 -0.041786838318551303 -0.050159009323511902 0 -0.050978605326457253 -0.048487580476806798 0 -0.045186325036601312 -0.033846877855525287 0 -0.038238062178047663 -0.040912545744748723 0 -0.045186325036601312 -0.033846877855525287 0 -0.038238062178047663 -0.040912545744748723 0 -0.036483723815629643 -0.028324295721285409 0 -0.038238062178047663 -0.040912545744748723 0 -0.036483723815629643 -0.028324295721285409 0 -0.02680073896870909 -0.02942936250966189 0 -0.038238062178047663 -0.040912545744748723 0 -0.032213099571377683 -0.048780318305047338 0 -0.02427818865719196 -0.043175177334062703 0 -0.038238062178047663 -0.040912545744748723 0 -0.032213099571377683 -0.048780318305047338 0 -0.041786838318551303 -0.050159009323511902 0 -0.039851728054663103 -0.056954225057831528 0 -0.029359549618589512 -0.067329904670974702 0 -0.056674679628205007 -0.06288511060093005 0 -0.032213099571377683 -0.048780318305047338 0 -0.039851728054663103 -0.056954225057831528 0 -0.02886493270646532 -0.056566080972933412 0 -0.032213099571377683 -0.048780318305047338 0 -0.039851728054663103 -0.056954225057831528 0 -0.041786838318551303 -0.050159009323511902 0 -0.039851728054663103 -0.056954225057831528 0 -0.02886493270646532 -0.056566080972933412 0 -0.029359549618589512 -0.067329904670974702 0 -0.05002651177101565 -0.054688976992587603 0 -0.039851728054663103 -0.056954225057831528 0 -0.041786838318551303 -0.050159009323511902 0 -0.057409893885416799 -0.0065978205539030804 0 -0.055147189569754992 -0.0021387397046248322 0 -0.04605894116109862 -0.0095540874935492476 0 -0.067552156544132533 -0.012035518828365861 0 -0.057409893885416799 -0.0065978205539030804 0 -0.056576713485556547 -0.017586123053967569 0 -0.057409893885416799 -0.0065978205539030804 0 -0.048448690887159397 -0.01934953233051534 0 -0.04605894116109862 -0.0095540874935492476 0 -0.057409893885416799 -0.0065978205539030804 0 -0.054194249605936218 -0.0275427005153548 0 -0.068108283006370063 -0.038367138363627172 0 -0.056576713485556547 -0.017586123053967569 0 -0.054194249605936218 -0.0275427005153548 0 -0.057409893885416799 -0.0065978205539030804 0 -0.056576713485556547 -0.017586123053967569 0 -0.054194249605936218 -0.0275427005153548 0 -0.057409893885416799 -0.0065978205539030804 0 -0.048448690887159397 -0.01934953233051534 0 -0.054194249605936218 -0.0275427005153548 0 -0.068108283006370063 -0.038367138363627172 0 -0.056576713485556547 -0.017586123053967569 0 -0.045186325036601312 -0.033846877855525287 0 -0.048448690887159397 -0.01934953233051534 0 -0.054194249605936218 -0.0275427005153548 0 -0.045186325036601312 -0.033846877855525287 0 -0.039394044746744072 -0.0192061752342443 0 -0.045186325036601312 -0.033846877855525287 0 -0.036483723815629643 -0.028324295721285409 0 -0.039394044746744072 -0.0192061752342443 0 -0.045186325036601312 -0.033846877855525287 0 -0.048448690887159397 -0.01934953233051534 0 -0.039394044746744072 -0.0192061752342443 0 -0.036483723815629643 -0.028324295721285409 0 -0.039394044746744072 -0.0192061752342443 0 -0.029523556575541211 -0.017125276443708572 0 -0.039394044746744072 -0.0192061752342443 0 -0.036110107418424152 -0.012308076070809901 0 -0.029523556575541211 -0.017125276443708572 0 -0.048448690887159397 -0.01934953233051534 0 -0.039394044746744072 -0.0192061752342443 0 -0.04605894116109862 -0.0095540874935492476 0 -0.04605894116109862 -0.0095540874935492476 0 -0.036110107418424152 -0.012308076070809901 0 -0.029463887190312722 -0.0033467651117375062 0 -0.055147189569754992 -0.0021387397046248322 0 -0.04605894116109862 -0.0095540874935492476 0 -0.029463887190312722 -0.0033467651117375062 0 -0.055147189569754992 -0.0021387397046248322 0 -0.029463887190312722 -0.0033467651117375062 0 -0.039394044746744072 -0.0192061752342443 0 -0.04605894116109862 -0.0095540874935492476 0 -0.036110107418424152 -0.012308076070809901 0 -0.036110107418424152 -0.012308076070809901 0 -0.029463887190312722 -0.0033467651117375062 0 -0.029523556575541211 -0.017125276443708572 0 -0.029463887190312722 -0.0033467651117375062 0 -0.01858831943490822 -0.010925015614601271 0 -0.0037805848108704472 -0.0045547905188501802 0 -0.029463887190312722 -0.0033467651117375062 0 -0.0037805848108704472 -0.0045547905188501802 0 -0.029463887190312722 -0.0033467651117375062 0 -0.01858831943490822 -0.010925015614601271 0 -0.029523556575541211 -0.017125276443708572 0 -0.01858831943490822 -0.010925015614601271 0 -0.017347577700434609 -0.01937195198580487 0 -0.029523556575541211 -0.017125276443708572 0 -0.017347577700434609 -0.01937195198580487 0 -0.029523556575541211 -0.017125276443708572 0 -0.02680073896870909 -0.02942936250966189 0 -0.036483723815629643 -0.028324295721285409 0 -0.029523556575541211 -0.017125276443708572 0 -0.02680073896870909 -0.02942936250966189 0 -0.017347577700434609 -0.01937195198580487 0 -0.02680073896870909 -0.02942936250966189 0 -0.01696027679802644 -0.031424342846260549 0 -0.017347577700434609 -0.01937195198580487 0 -0.001564206153295278 -0.01656327972664837 0 -0.0099288418183203914 -0.0120216093890079 0 -0.017347577700434609 -0.01937195198580487 0 -0.0046318109277885136 -0.02826267259872681 0 -0.001564206153295278 -0.01656327972664837 0 -0.017347577700434609 -0.01937195198580487 0 -0.0046318109277885136 -0.02826267259872681 0 -0.01696027679802644 -0.031424342846260549 0 -0.029463887190312722 -0.0033467651117375062 0 -0.0037805848108704472 -0.0045547905188501802 0 -0.0055700370245055711 0.0049628098732567346 0 -0.01858831943490822 -0.010925015614601271 0 -0.017347577700434609 -0.01937195198580487 0 -0.0099288418183203914 -0.0120216093890079 0 -0.01858831943490822 -0.010925015614601271 0 -0.0099288418183203914 -0.0120216093890079 0 -0.0037805848108704472 -0.0045547905188501802 0 -0.001564206153295278 -0.01656327972664837 0 -0.0099288418183203914 -0.0120216093890079 0 -0.0016118125342605861 -0.01082199789130114 0 -0.0099288418183203914 -0.0120216093890079 0 -0.0016118125342605861 -0.01082199789130114 0 -0.0037805848108704472 -0.0045547905188501802 0 -0.02886493270646532 -0.056566080972933412 0 -0.02427818865719196 -0.043175177334062703 0 -0.01555411667276726 -0.055711885858077882 0 -0.02886493270646532 -0.056566080972933412 0 -0.01555411667276726 -0.055711885858077882 0 -0.029359549618589512 -0.067329904670974702 0 -0.032213099571377683 -0.048780318305047338 0 -0.02886493270646532 -0.056566080972933412 0 -0.02427818865719196 -0.043175177334062703 0 -0.02427818865719196 -0.043175177334062703 0 -0.0101854543166134 -0.039425701308933032 0 -0.01555411667276726 -0.055711885858077882 0 -0.038238062178047663 -0.040912545744748723 0 -0.02680073896870909 -0.02942936250966189 0 -0.02427818865719196 -0.043175177334062703 0 -0.02680073896870909 -0.02942936250966189 0 -0.02427818865719196 -0.043175177334062703 0 -0.01696027679802644 -0.031424342846260549 0 -0.02427818865719196 -0.043175177334062703 0 -0.01696027679802644 -0.031424342846260549 0 -0.0101854543166134 -0.039425701308933032 0 -0.0101854543166134 -0.039425701308933032 0 -0.001131409320910022 -0.052669670764717437 0 0.007371522745366091 -0.039158275089500767 0 -0.0046318109277885136 -0.02826267259872681 0 -0.0101854543166134 -0.039425701308933032 0 0.007371522745366091 -0.039158275089500767 0 -0.0046318109277885136 -0.02826267259872681 0 -0.01696027679802644 -0.031424342846260549 0 -0.0101854543166134 -0.039425701308933032 0 -0.001131409320910022 -0.052669670764717437 0 -0.01555411667276726 -0.055711885858077882 0 -0.0020444196089744182 -0.071774698741020118 0 -0.0101854543166134 -0.039425701308933032 0 -0.001131409320910022 -0.052669670764717437 0 -0.01555411667276726 -0.055711885858077882 0 -0.0020444196089744182 -0.071774698741020118 0 -0.014427303730361749 -0.083823033002359396 0 -0.029359549618589512 -0.067329904670974702 0 -0.0020444196089744182 -0.071774698741020118 0 -0.014427303730361749 -0.083823033002359396 0 0.0083263271382496232 -0.094540275567429041 0 -0.030282513462040729 -0.080305794091505248 0 -0.018776363100453719 -0.1051644919408678 0 -0.014427303730361749 -0.083823033002359396 0 -0.030282513462040729 -0.080305794091505248 0 -0.018776363100453719 -0.1051644919408678 0 -0.014427303730361749 -0.083823033002359396 0 -0.030282513462040729 -0.080305794091505248 0 -0.029359549618589512 -0.067329904670974702 0 -0.01555411667276726 -0.055711885858077882 0 -0.0020444196089744182 -0.071774698741020118 0 -0.029359549618589512 -0.067329904670974702 0 -0.0020444196089744182 -0.071774698741020118 0 -0.029359549618589512 -0.067329904670974702 0 -0.029359549618589512 -0.067329904670974702 0 -0.056674679628205007 -0.06288511060093005 0 -0.029359549618589512 -0.067329904670974702 0 -0.041098881614311453 -0.073310462040158217 0 -0.056674679628205007 -0.06288511060093005 0 -0.030282513462040729 -0.080305794091505248 0 -0.029359549618589512 -0.067329904670974702 0 -0.041098881614311453 -0.073310462040158217 0 -0.030282513462040729 -0.080305794091505248 0 -0.048078783748410708 -0.082721038797223631 0 -0.039188479352310512 -0.096626201915147342 0 -0.030282513462040729 -0.080305794091505248 0 -0.041098881614311453 -0.073310462040158217 0 -0.048078783748410708 -0.082721038797223631 0 -0.048078783748410708 -0.082721038797223631 0 -0.056519296825689971 -0.09988645904640546 0 -0.039188479352310512 -0.096626201915147342 0 -0.065713651042146007 -0.085732225355633046 0 -0.048078783748410708 -0.082721038797223631 0 -0.056519296825689971 -0.09988645904640546 0 -0.041098881614311453 -0.073310462040158217 0 -0.048078783748410708 -0.082721038797223631 0 -0.056674679628205007 -0.06288511060093005 0 -0.065713651042146007 -0.085732225355633046 0 -0.048078783748410708 -0.082721038797223631 0 -0.056674679628205007 -0.06288511060093005 0 -0.065713651042146007 -0.085732225355633046 0 -0.056674679628205007 -0.06288511060093005 0 -0.05859385093190507 -0.1134386561181167 0 -0.056519296825689971 -0.09988645904640546 0 -0.045353585761645589 -0.1155611203037159 0 -0.061987945118678008 -0.1237802624065155 0 -0.05859385093190507 -0.1134386561181167 0 -0.045353585761645589 -0.1155611203037159 0 -0.056519296825689971 -0.09988645904640546 0 -0.039188479352310512 -0.096626201915147342 0 -0.045353585761645589 -0.1155611203037159 0 -0.070514576021606726 -0.1145267827158299 0 -0.05859385093190507 -0.1134386561181167 0 -0.056519296825689971 -0.09988645904640546 0 -0.039188479352310512 -0.096626201915147342 0 -0.045353585761645589 -0.1155611203037159 0 -0.018776363100453719 -0.1051644919408678 0 -0.018776363100453719 -0.1051644919408678 0 -0.0072702127388667073 -0.13002318979023039 0 -0.029340904287693401 -0.13386456276557721 0 -0.045353585761645589 -0.1155611203037159 0 -0.018776363100453719 -0.1051644919408678 0 -0.029340904287693401 -0.13386456276557721 0 -0.030282513462040729 -0.080305794091505248 0 -0.039188479352310512 -0.096626201915147342 0 -0.018776363100453719 -0.1051644919408678 0 -0.018776363100453719 -0.1051644919408678 0 0.0095227933737201485 -0.1166750713313939 0 0.0083263271382496232 -0.094540275567429041 0 -0.014427303730361749 -0.083823033002359396 0 -0.018776363100453719 -0.1051644919408678 0 0.0083263271382496232 -0.094540275567429041 0 -0.018776363100453719 -0.1051644919408678 0 -0.0072702127388667073 -0.13002318979023039 0 -0.018776363100453719 -0.1051644919408678 0 -0.0072702127388667073 -0.13002318979023039 0 0.0095227933737201485 -0.1166750713313939 0 -0.0072702127388667073 -0.13002318979023039 0 -0.029340904287693401 -0.13386456276557721 0 -0.01527124274969174 -0.15527370089842299 0 -0.029340904287693401 -0.13386456276557721 0 -0.01527124274969174 -0.15527370089842299 0 -0.033889590094826047 -0.15085947320153439 0 -0.0072702127388667073 -0.13002318979023039 0 0.0042359376227203427 -0.1548818876395931 0 -0.0072702127388667073 -0.13002318979023039 0 -0.01527124274969174 -0.15527370089842299 0 0.0042359376227203427 -0.1548818876395931 0 -0.01527124274969174 -0.15527370089842299 0 -0.00987874032603492 -0.17544934764309619 0 0.0023115879498421211 -0.16915809622511249 0 -0.01527124274969174 -0.15527370089842299 0 0.0023115879498421211 -0.16915809622511249 0 0.0042359376227203427 -0.1548818876395931 0 -7.2502180123992725e-05 -0.18242754928670071 0 -0.01079841321475635 -0.1862824631306495 0 -0.0033902693685317338 -0.1900224435201405 0 -7.2502180123992725e-05 -0.18242754928670071 0 -0.00987874032603492 -0.17544934764309619 0 -0.01079841321475635 -0.1862824631306495 0 -7.2502180123992725e-05 -0.18242754928670071 0 -0.00987874032603492 -0.17544934764309619 0 0.0023115879498421211 -0.16915809622511249 0 -0.00987874032603492 -0.17544934764309619 0 -0.01079841321475635 -0.1862824631306495 0 -0.024069656841237661 -0.18324350322197 0 -0.00987874032603492 -0.17544934764309619 0 -0.024069656841237661 -0.18324350322197 0 -0.0328472309921366 -0.16877395923009381 0 -0.01527124274969174 -0.15527370089842299 0 -0.00987874032603492 -0.17544934764309619 0 -0.0328472309921366 -0.16877395923009381 0 -0.01527124274969174 -0.15527370089842299 0 -0.0328472309921366 -0.16877395923009381 0 -0.033889590094826047 -0.15085947320153439 0 -0.0328472309921366 -0.16877395923009381 0 -0.046516021933861139 -0.15724858428267929 0 -0.053486907303959767 -0.1711639252225424 0 -0.0328472309921366 -0.16877395923009381 0 -0.046516021933861139 -0.15724858428267929 0 -0.033889590094826047 -0.15085947320153439 0 -0.024069656841237661 -0.18324350322197 0 -0.0328472309921366 -0.16877395923009381 0 -0.04189734283237654 -0.18240543052481051 0 -0.024069656841237661 -0.18324350322197 0 -0.04189734283237654 -0.18240543052481051 0 -0.037251225364148891 -0.19568837145639251 0 -0.0328472309921366 -0.16877395923009381 0 -0.04189734283237654 -0.18240543052481051 0 -0.053486907303959767 -0.1711639252225424 0 -0.05635094476132306 -0.18426045514179601 0 -0.053486907303959767 -0.1711639252225424 0 -0.074670148295814434 -0.17443716013956981 0 -0.04189734283237654 -0.18240543052481051 0 -0.05635094476132306 -0.18426045514179601 0 -0.047897375138549622 -0.19098577694222921 0 -0.04189734283237654 -0.18240543052481051 0 -0.05635094476132306 -0.18426045514179601 0 -0.053486907303959767 -0.1711639252225424 0 -0.046516021933861139 -0.15724858428267929 0 -0.053486907303959767 -0.1711639252225424 0 -0.064680894860674992 -0.156269270227718 0 -0.046516021933861139 -0.15724858428267929 0 -0.049878422324669193 -0.13921602823211771 0 -0.064680894860674992 -0.156269270227718 0 -0.049878422324669193 -0.13921602823211771 0 -0.071650555114202361 -0.13858805994524481 0 -0.064680894860674992 -0.156269270227718 0 -0.061987945118678008 -0.1237802624065155 0 -0.045353585761645589 -0.1155611203037159 0 -0.049878422324669193 -0.13921602823211771 0 -0.061987945118678008 -0.1237802624065155 0 -0.049878422324669193 -0.13921602823211771 0 -0.071650555114202361 -0.13858805994524481 0 -0.045353585761645589 -0.1155611203037159 0 -0.029340904287693401 -0.13386456276557721 0 -0.049878422324669193 -0.13921602823211771 0 -0.046516021933861139 -0.15724858428267929 0 -0.049878422324669193 -0.13921602823211771 0 -0.033889590094826047 -0.15085947320153439 0 -0.029340904287693401 -0.13386456276557721 0 -0.049878422324669193 -0.13921602823211771 0 -0.033889590094826047 -0.15085947320153439 0 -0.01595553083255585 -0.2401920953602511 0 -0.020913906741365468 -0.2463414956437508 0 -0.035326967516509163 -0.22706258908983251 0 -0.020913906741365468 -0.2463414956437508 0 -0.035326967516509163 -0.22706258908983251 0 -0.032283332528187388 -0.25215055097616063 0 -0.020913906741365468 -0.2463414956437508 0 -0.035326967516509163 -0.22706258908983251 0 -0.01595553083255585 -0.2401920953602511 0 -0.020913906741365468 -0.2463414956437508 0 -0.013561834430324269 -0.24502326922305689 0 -0.0079783989778275544 -0.25169792079002812 0 -0.013561834430324269 -0.24502326922305689 0 -0.009861465004613941 -0.24282266745756709 0 -0.0079783989778275544 -0.25169792079002812 0 -0.020913906741365468 -0.2463414956437508 0 -0.013561834430324269 -0.24502326922305689 0 -0.0079783989778275544 -0.25169792079002812 0 -0.0037240369044004179 -0.23806801751691031 0 0.0095294292409746698 -0.2431713689579636 0 -0.01595553083255585 -0.2401920953602511 0 -0.013561834430324269 -0.24502326922305689 0 -0.009861465004613941 -0.24282266745756709 0 -0.0079783989778275544 -0.25169792079002812 0 -0.009861465004613941 -0.24282266745756709 0 -0.0037240369044004179 -0.23806801751691031 0 -0.01595553083255585 -0.2401920953602511 0 -0.009861465004613941 -0.24282266745756709 0 -0.0037240369044004179 -0.23806801751691031 0 -0.01595553083255585 -0.2401920953602511 0 -0.003667722801450707 -0.216757636362539 0 -0.01595553083255585 -0.2401920953602511 0 -0.0037240369044004179 -0.23806801751691031 0 -0.003667722801450707 -0.216757636362539 0 -0.01595553083255585 -0.2401920953602511 0 -0.018877548170378761 -0.22114143769074759 0 -0.003667722801450707 -0.216757636362539 0 -0.0037240369044004179 -0.23806801751691031 0 -0.003667722801450707 -0.216757636362539 0 0.0051275031140051606 -0.23472751853248211 0 -0.01595553083255585 -0.2401920953602511 0 -0.018877548170378761 -0.22114143769074759 0 -0.035326967516509163 -0.22706258908983251 0 -0.018877548170378761 -0.22114143769074759 0 -0.020559971530999331 -0.20055342995036779 0 -0.035326967516509163 -0.22706258908983251 0 -0.018877548170378761 -0.22114143769074759 0 -0.003667722801450707 -0.216757636362539 0 -0.020559971530999331 -0.20055342995036779 0 -0.003667722801450707 -0.216757636362539 0 -0.020559971530999331 -0.20055342995036779 0 0.0086200852296540835 -0.19332317736482679 0 -0.020559971530999331 -0.20055342995036779 0 0.0086200852296540835 -0.19332317736482679 0 -0.0033902693685317338 -0.1900224435201405 0 -0.020559971530999331 -0.20055342995036779 0 0.0086200852296540835 -0.19332317736482679 0 -0.01079841321475635 -0.1862824631306495 0 -0.0033902693685317338 -0.1900224435201405 0 -0.020559971530999331 -0.20055342995036779 0 -0.01079841321475635 -0.1862824631306495 0 -0.024069656841237661 -0.18324350322197 0 -0.020559971530999331 -0.20055342995036779 0 -0.024069656841237661 -0.18324350322197 0 -0.020559971530999331 -0.20055342995036779 0 -0.037251225364148891 -0.19568837145639251 0 -0.020559971530999331 -0.20055342995036779 0 -0.037251225364148891 -0.19568837145639251 0 -0.049740028291651597 -0.20778368253591331 0 -0.037251225364148891 -0.19568837145639251 0 -0.049364763186671247 -0.19759485166457011 0 -0.049740028291651597 -0.20778368253591331 0 -0.04189734283237654 -0.18240543052481051 0 -0.037251225364148891 -0.19568837145639251 0 -0.047897375138549622 -0.19098577694222921 0 -0.037251225364148891 -0.19568837145639251 0 -0.047897375138549622 -0.19098577694222921 0 -0.049364763186671247 -0.19759485166457011 0 -0.05635094476132306 -0.18426045514179601 0 -0.047897375138549622 -0.19098577694222921 0 -0.054622599548228387 -0.19497977592357671 0 -0.047897375138549622 -0.19098577694222921 0 -0.054622599548228387 -0.19497977592357671 0 -0.049364763186671247 -0.19759485166457011 0 -0.05635094476132306 -0.18426045514179601 0 -0.054622599548228387 -0.19497977592357671 0 -0.057314851055291598 -0.1976516014671558 0 -0.054622599548228387 -0.19497977592357671 0 -0.057314851055291598 -0.1976516014671558 0 -0.057314851055291598 -0.1976516014671558 0 -0.049364763186671247 -0.19759485166457011 0 -0.049740028291651597 -0.20778368253591331 0 -0.057314851055291598 -0.1976516014671558 0 -0.049740028291651597 -0.20778368253591331 0 -0.054622599548228387 -0.19497977592357671 0 -0.057314851055291598 -0.1976516014671558 0 -0.049364763186671247 -0.19759485166457011 0 -0.057314851055291598 -0.1976516014671558 0 -0.049740028291651597 -0.20778368253591331 0 -0.073442237945038097 -0.2136566307633628 0 -0.049740028291651597 -0.20778368253591331 0 -0.073442237945038097 -0.2136566307633628 0 -0.049740028291651597 -0.20778368253591331 0 -0.060809550920881812 -0.2209502623053835 0 -0.073442237945038097 -0.2136566307633628 0 -0.020559971530999331 -0.20055342995036779 0 -0.049740028291651597 -0.20778368253591331 0 -0.049740028291651597 -0.20778368253591331 0 -0.035326967516509163 -0.22706258908983251 0 -0.020559971530999331 -0.20055342995036779 0 -0.049740028291651597 -0.20778368253591331 0 -0.035326967516509163 -0.22706258908983251 0 -0.049740028291651597 -0.20778368253591331 0 -0.035326967516509163 -0.22706258908983251 0 -0.050154412834989823 -0.22964059145698221 0 -0.049740028291651597 -0.20778368253591331 0 -0.060809550920881812 -0.2209502623053835 0 -0.050154412834989823 -0.22964059145698221 0 -0.050154412834989823 -0.22964059145698221 0 -0.058096375251159592 -0.24033715372808259 0 -0.064591074741213436 -0.23152837914238319 0 -0.060809550920881812 -0.2209502623053835 0 -0.050154412834989823 -0.22964059145698221 0 -0.064591074741213436 -0.23152837914238319 0 -0.050154412834989823 -0.22964059145698221 0 -0.058096375251159592 -0.24033715372808259 0 -0.044323546347883352 -0.2472224278796166 0 -0.035326967516509163 -0.22706258908983251 0 -0.050154412834989823 -0.22964059145698221 0 -0.044323546347883352 -0.2472224278796166 0 -0.032283332528187388 -0.25215055097616063 0 -0.035326967516509163 -0.22706258908983251 0 -0.044323546347883352 -0.2472224278796166 0 -0.085254706571689862 -0.24920827118798741 0 -0.074247531522904406 -0.23709749144835529 0 -0.098079048774341149 -0.23810652346970809 0 -0.07303951308202547 -0.25918521163238561 0 -0.074247531522904406 -0.23709749144835529 0 -0.064605490399081589 -0.26469129099131411 0 -0.058096375251159592 -0.24033715372808259 0 -0.074247531522904406 -0.23709749144835529 0 -0.07303951308202547 -0.25918521163238561 0 -0.085254706571689862 -0.24920827118798741 0 -0.074247531522904406 -0.23709749144835529 0 -0.058096375251159592 -0.24033715372808259 0 -0.074247531522904406 -0.23709749144835529 0 -0.064591074741213436 -0.23152837914238319 0 -0.074247531522904406 -0.23709749144835529 0 -0.074712251843607233 -0.22860042545980869 0 -0.074247531522904406 -0.23709749144835529 0 -0.074712251843607233 -0.22860042545980869 0 -0.080122025443735839 -0.22028573908326471 0 -0.074247531522904406 -0.23709749144835529 0 -0.074712251843607233 -0.22860042545980869 0 -0.064591074741213436 -0.23152837914238319 0 -0.074247531522904406 -0.23709749144835529 0 -0.080122025443735839 -0.22028573908326471 0 -0.074712251843607233 -0.22860042545980869 0 -0.064591074741213436 -0.23152837914238319 0 -0.070010041487826399 -0.22261114895487541 0 -0.060809550920881812 -0.2209502623053835 0 -0.070010041487826399 -0.22261114895487541 0 -0.073442237945038097 -0.2136566307633628 0 -0.060809550920881812 -0.2209502623053835 0 -0.064591074741213436 -0.23152837914238319 0 -0.070010041487826399 -0.22261114895487541 0 -0.074712251843607233 -0.22860042545980869 0 -0.070010041487826399 -0.22261114895487541 0 -0.080122025443735839 -0.22028573908326471 0 -0.070010041487826399 -0.22261114895487541 0 -0.080122025443735839 -0.22028573908326471 0 -0.073442237945038097 -0.2136566307633628 0 -0.080122025443735839 -0.22028573908326471 0 -0.097444052454965638 -0.2196038152682287 0 -0.098079048774341149 -0.23810652346970809 0 -0.080122025443735839 -0.22028573908326471 0 -0.098079048774341149 -0.23810652346970809 0 -0.074247531522904406 -0.23709749144835529 0 -0.080122025443735839 -0.22028573908326471 0 -0.098079048774341149 -0.23810652346970809 0 -0.080122025443735839 -0.22028573908326471 0 -0.08172158268792673 -0.21570809194539359 0 -0.097444052454965638 -0.2196038152682287 0 -0.08172158268792673 -0.21570809194539359 0 -0.087644594916551216 -0.19875748884919539 0 -0.097308673641827451 -0.2074594174920473 0 -0.079821971224500729 -0.20564186053232519 0 -0.08172158268792673 -0.21570809194539359 0 -0.087644594916551216 -0.19875748884919539 0 -0.08172158268792673 -0.21570809194539359 0 -0.097444052454965638 -0.2196038152682287 0 -0.08172158268792673 -0.21570809194539359 0 -0.097308673641827451 -0.2074594174920473 0 -0.097444052454965638 -0.2196038152682287 0 -0.08172158268792673 -0.21570809194539359 0 -0.087644594916551216 -0.19875748884919539 0 -0.080122025443735839 -0.22028573908326471 0 -0.08172158268792673 -0.21570809194539359 0 -0.073442237945038097 -0.2136566307633628 0 -0.079821971224500729 -0.20564186053232519 0 -0.08172158268792673 -0.21570809194539359 0 -0.073442237945038097 -0.2136566307633628 0 -0.080122025443735839 -0.22028573908326471 0 -0.08172158268792673 -0.21570809194539359 0 -0.057314851055291598 -0.1976516014671558 0 -0.073442237945038097 -0.2136566307633628 0 -0.080122025443735839 -0.22028573908326471 0 -0.073442237945038097 -0.2136566307633628 0 -0.08172158268792673 -0.21570809194539359 0 -0.073442237945038097 -0.2136566307633628 0 -0.057314851055291598 -0.1976516014671558 0 -0.073442237945038097 -0.2136566307633628 0 -0.072468590286814141 -0.1985098673075178 0 -0.079821971224500729 -0.20564186053232519 0 -0.073442237945038097 -0.2136566307633628 0 -0.072468590286814141 -0.1985098673075178 0 -0.057314851055291598 -0.1976516014671558 0 -0.072468590286814141 -0.1985098673075178 0 -0.074670148295814434 -0.17443716013956981 0 -0.08208773516108879 -0.18837785051232001 0 -0.087644594916551216 -0.19875748884919539 0 -0.093567607145175397 -0.18180688575299711 0 -0.072468590286814141 -0.1985098673075178 0 -0.08208773516108879 -0.18837785051232001 0 -0.087644594916551216 -0.19875748884919539 0 -0.087644594916551216 -0.19875748884919539 0 -0.093567607145175397 -0.18180688575299711 0 -0.079821971224500729 -0.20564186053232519 0 -0.072468590286814141 -0.1985098673075178 0 -0.087644594916551216 -0.19875748884919539 0 -0.087644594916551216 -0.19875748884919539 0 -0.1043466722010421 -0.19508352508284771 0 -0.093567607145175397 -0.18180688575299711 0 -0.087644594916551216 -0.19875748884919539 0 -0.1043466722010421 -0.19508352508284771 0 -0.097308673641827451 -0.2074594174920473 0 -0.1043466722010421 -0.19508352508284771 0 -0.11538646594865121 -0.20814416631457111 0 -0.1189354358745829 -0.18438522084226791 0 -0.11538646594865121 -0.20814416631457111 0 -0.1189354358745829 -0.18438522084226791 0 -0.13897181292662919 -0.18759207232702579 0 -0.11538646594865121 -0.20814416631457111 0 -0.1189354358745829 -0.18438522084226791 0 -0.11538646594865121 -0.20814416631457111 0 -0.097308673641827451 -0.2074594174920473 0 -0.097444052454965638 -0.2196038152682287 0 -0.1043466722010421 -0.19508352508284771 0 -0.11538646594865121 -0.20814416631457111 0 -0.097308673641827451 -0.2074594174920473 0 -0.097444052454965638 -0.2196038152682287 0 -0.1118374960227196 -0.2319031117868742 0 -0.098079048774341149 -0.23810652346970809 0 -0.11538646594865121 -0.20814416631457111 0 -0.097444052454965638 -0.2196038152682287 0 -0.1118374960227196 -0.2319031117868742 0 -0.11538646594865121 -0.20814416631457111 0 -0.1118374960227196 -0.2319031117868742 0 -0.11538646594865121 -0.20814416631457111 0 -0.1227310843103224 -0.2267595762964946 0 -0.1118374960227196 -0.2319031117868742 0 -0.11603607210494681 -0.25592730785615109 0 -0.1227310843103224 -0.2267595762964946 0 -0.11603607210494681 -0.25592730785615109 0 -0.1227310843103224 -0.2267595762964946 0 -0.12978142356864469 -0.244097016543221 0 -0.11603607210494681 -0.25592730785615109 0 -0.1227310843103224 -0.2267595762964946 0 -0.1118374960227196 -0.2319031117868742 0 -0.11603607210494681 -0.25592730785615109 0 -0.098079048774341149 -0.23810652346970809 0 -0.11603607210494681 -0.25592730785615109 0 -0.1118374960227196 -0.2319031117868742 0 -0.098079048774341149 -0.23810652346970809 0 -0.090362837873872032 -0.13188504197233511 0 -0.071650555114202361 -0.13858805994524481 0 -0.075372229765933635 -0.12512645953002011 0 -0.09202544553633675 -0.15122271881198371 0 -0.090362837873872032 -0.13188504197233511 0 -0.071650555114202361 -0.13858805994524481 0 -0.061987945118678008 -0.1237802624065155 0 -0.071650555114202361 -0.13858805994524481 0 -0.075372229765933635 -0.12512645953002011 0 -0.09202544553633675 -0.15122271881198371 0 -0.071650555114202361 -0.13858805994524481 0 -0.064680894860674992 -0.156269270227718 0 -0.053486907303959767 -0.1711639252225424 0 -0.064680894860674992 -0.156269270227718 0 -0.074670148295814434 -0.17443716013956981 0 -0.09202544553633675 -0.15122271881198371 0 -0.064680894860674992 -0.156269270227718 0 -0.074670148295814434 -0.17443716013956981 0 -0.057314851055291598 -0.1976516014671558 0 -0.074670148295814434 -0.17443716013956981 0 -0.072468590286814141 -0.1985098673075178 0 -0.08208773516108879 -0.18837785051232001 0 -0.074670148295814434 -0.17443716013956981 0 -0.05635094476132306 -0.18426045514179601 0 -0.057314851055291598 -0.1976516014671558 0 -0.074670148295814434 -0.17443716013956981 0 -0.08208773516108879 -0.18837785051232001 0 -0.074670148295814434 -0.17443716013956981 0 -0.093567607145175397 -0.18180688575299711 0 -0.09202544553633675 -0.15122271881198371 0 -0.074670148295814434 -0.17443716013956981 0 -0.09202544553633675 -0.15122271881198371 0 -0.074670148295814434 -0.17443716013956981 0 -0.093567607145175397 -0.18180688575299711 0 -0.09202544553633675 -0.15122271881198371 0 -0.093567607145175397 -0.18180688575299711 0 -0.1075280273649564 -0.17053671528201211 0 -0.09202544553633675 -0.15122271881198371 0 -0.1075280273649564 -0.17053671528201211 0 -0.11110795474235451 -0.14864863833945879 0 -0.1043466722010421 -0.19508352508284771 0 -0.093567607145175397 -0.18180688575299711 0 -0.1075280273649564 -0.17053671528201211 0 -0.1189354358745829 -0.18438522084226791 0 -0.1224844058005146 -0.1606262753699646 0 -0.1043466722010421 -0.19508352508284771 0 -0.1075280273649564 -0.17053671528201211 0 -0.1189354358745829 -0.18438522084226791 0 -0.1075280273649564 -0.17053671528201211 0 -0.1189354358745829 -0.18438522084226791 0 -0.1224844058005146 -0.1606262753699646 0 -0.1075280273649564 -0.17053671528201211 0 -0.1224844058005146 -0.1606262753699646 0 -0.11110795474235451 -0.14864863833945879 0 -0.1224844058005146 -0.1606262753699646 0 -0.12603337572644699 -0.1368673298976614 0 -0.1224844058005146 -0.1606262753699646 0 -0.11110795474235451 -0.14864863833945879 0 -0.12603337572644699 -0.1368673298976614 0 -0.09202544553633675 -0.15122271881198371 0 -0.11110795474235451 -0.14864863833945879 0 -0.1093807427768583 -0.12800827748439661 0 -0.09202544553633675 -0.15122271881198371 0 -0.090362837873872032 -0.13188504197233511 0 -0.1093807427768583 -0.12800827748439661 0 -0.09202544553633675 -0.15122271881198371 0 -0.1093807427768583 -0.12800827748439661 0 -0.1093807427768583 -0.12800827748439661 0 -0.1113586020809627 -0.12536269336486261 0 -0.12603337572644699 -0.1368673298976614 0 -0.11110795474235451 -0.14864863833945879 0 -0.1093807427768583 -0.12800827748439661 0 -0.12603337572644699 -0.1368673298976614 0 -0.1093807427768583 -0.12800827748439661 0 -0.1113586020809627 -0.12536269336486261 0 -0.1093807427768583 -0.12800827748439661 0 -0.12603337572644699 -0.1368673298976614 0 -0.12603337572644699 -0.1368673298976614 0 -0.1443171630234851 -0.12535623658683251 0 -0.14358861918211299 -0.1462065630611038 0 -0.1443171630234851 -0.12535623658683251 0 -0.14358861918211299 -0.1462065630611038 0 -0.15672989340554269 -0.13749085328159599 0 -0.1443171630234851 -0.12535623658683251 0 -0.15672989340554269 -0.13749085328159599 0 -0.16248036550564049 -0.1208905593516605 0 -0.14358861918211299 -0.1462065630611038 0 -0.1554093515881895 -0.1574803896830011 0 -0.15672989340554269 -0.13749085328159599 0 -0.12603337572644699 -0.1368673298976614 0 -0.14358861918211299 -0.1462065630611038 0 -0.1224844058005146 -0.1606262753699646 0 -0.12603337572644699 -0.1368673298976614 0 -0.14358861918211299 -0.1462065630611038 0 -0.1189354358745829 -0.18438522084226791 0 -0.1224844058005146 -0.1606262753699646 0 -0.13991612292217601 -0.16817866488639971 0 -0.1224844058005146 -0.1606262753699646 0 -0.14358861918211299 -0.1462065630611038 0 -0.13991612292217601 -0.16817866488639971 0 -0.1189354358745829 -0.18438522084226791 0 -0.13991612292217601 -0.16817866488639971 0 -0.13897181292662919 -0.18759207232702579 0 -0.13991612292217601 -0.16817866488639971 0 -0.15725554694818869 -0.17883991890083659 0 -0.13897181292662919 -0.18759207232702579 0 -0.14358861918211299 -0.1462065630611038 0 -0.13991612292217601 -0.16817866488639971 0 -0.1554093515881895 -0.1574803896830011 0 -0.13991612292217601 -0.16817866488639971 0 -0.1554093515881895 -0.1574803896830011 0 -0.15725554694818869 -0.17883991890083659 0 -0.1554093515881895 -0.1574803896830011 0 -0.17213146985191671 -0.16578553948748359 0 -0.16765256041009041 -0.14948559278079049 0 -0.1554093515881895 -0.1574803896830011 0 -0.15725554694818869 -0.17883991890083659 0 -0.17213146985191671 -0.16578553948748359 0 -0.15725554694818869 -0.17883991890083659 0 -0.17213146985191671 -0.16578553948748359 0 -0.17975186944619159 -0.19028168233578829 0 -0.17213146985191671 -0.16578553948748359 0 -0.17975186944619159 -0.19028168233578829 0 -0.19046018592870531 -0.17070990168635419 0 -0.17213146985191671 -0.16578553948748359 0 -0.1820785251608758 -0.15169938672157579 0 -0.19046018592870531 -0.17070990168635419 0 -0.1820785251608758 -0.15169938672157579 0 -0.1728947361847748 -0.13530620510706021 0 -0.16765256041009041 -0.14948559278079049 0 -0.17213146985191671 -0.16578553948748359 0 -0.1820785251608758 -0.15169938672157579 0 -0.16765256041009041 -0.14948559278079049 0 -0.1820785251608758 -0.15169938672157579 0 -0.1728947361847748 -0.13530620510706021 0 -0.18989641382437511 -0.1353966106162027 0 -0.1728947361847748 -0.13530620510706021 0 -0.18153161793419581 -0.1215946825872664 0 -0.16248036550564049 -0.1208905593516605 0 -0.1728947361847748 -0.13530620510706021 0 -0.18989641382437511 -0.1353966106162027 0 -0.18153161793419581 -0.1215946825872664 0 -0.1728947361847748 -0.13530620510706021 0 -0.15672989340554269 -0.13749085328159599 0 -0.16248036550564049 -0.1208905593516605 0 -0.1554093515881895 -0.1574803896830011 0 -0.15672989340554269 -0.13749085328159599 0 -0.16765256041009041 -0.14948559278079049 0 -0.1728947361847748 -0.13530620510706021 0 -0.15672989340554269 -0.13749085328159599 0 -0.16765256041009041 -0.14948559278079049 0 -0.14810028601662309 -0.24576510341654359 0 -0.12978142356864469 -0.244097016543221 0 -0.14201068467226741 -0.22702288767489931 0 -0.1227310843103224 -0.2267595762964946 0 -0.14201068467226741 -0.22702288767489931 0 -0.13982860503968261 -0.20786536039512329 0 -0.1227310843103224 -0.2267595762964946 0 -0.12978142356864469 -0.244097016543221 0 -0.14201068467226741 -0.22702288767489931 0 -0.14810028601662309 -0.24576510341654359 0 -0.14201068467226741 -0.22702288767489931 0 -0.16269984220459621 -0.21998681057076369 0 -0.13982860503968261 -0.20786536039512329 0 -0.16269984220459621 -0.21998681057076369 0 -0.14201068467226741 -0.22702288767489931 0 -0.13982860503968261 -0.20786536039512329 0 -0.16269984220459621 -0.21998681057076369 0 -0.13982860503968261 -0.20786536039512329 0 -0.16035890659192939 -0.1994835514406052 0 -0.16269984220459621 -0.21998681057076369 0 -0.11538646594865121 -0.20814416631457111 0 -0.1227310843103224 -0.2267595762964946 0 -0.13982860503968261 -0.20786536039512329 0 -0.11538646594865121 -0.20814416631457111 0 -0.13982860503968261 -0.20786536039512329 0 -0.13897181292662919 -0.18759207232702579 0 -0.15725554694818869 -0.17883991890083659 0 -0.13897181292662919 -0.18759207232702579 0 -0.16035890659192939 -0.1994835514406052 0 -0.13982860503968261 -0.20786536039512329 0 -0.13897181292662919 -0.18759207232702579 0 -0.16035890659192939 -0.1994835514406052 0 -0.15725554694818869 -0.17883991890083659 0 -0.16035890659192939 -0.1994835514406052 0 -0.17975186944619159 -0.19028168233578829 0 -0.16035890659192939 -0.1994835514406052 0 -0.17975186944619159 -0.19028168233578829 0 -0.1831187600655155 -0.21211883953006369 0 -0.16035890659192939 -0.1994835514406052 0 -0.1831187600655155 -0.21211883953006369 0 -0.16269984220459621 -0.21998681057076369 0 -0.16269984220459621 -0.21998681057076369 0 -0.1855710793695097 -0.232108260746404 0 -0.1831187600655155 -0.21211883953006369 0 -0.16269984220459621 -0.21998681057076369 0 -0.1855710793695097 -0.232108260746404 0 -0.16269984220459621 -0.21998681057076369 0 -0.1855710793695097 -0.232108260746404 0 -0.16858055678937059 -0.24688773341995571 0 -0.18464749888115431 -0.25117866146288659 0 -0.1855710793695097 -0.232108260746404 0 -0.16858055678937059 -0.24688773341995571 0 -0.14810028601662309 -0.24576510341654359 0 -0.16269984220459621 -0.21998681057076369 0 -0.16858055678937059 -0.24688773341995571 0 -0.2084423165344233 -0.2442297109220444 0 -0.22011698355556261 -0.23345904301565179 0 -0.22523528010301411 -0.2480424028876469 0 -0.2084423165344233 -0.2442297109220444 0 -0.20518343634494049 -0.2302869958319417 0 -0.22011698355556261 -0.23345904301565179 0 -0.18464749888115431 -0.25117866146288659 0 -0.1855710793695097 -0.232108260746404 0 -0.2084423165344233 -0.2442297109220444 0 -0.1855710793695097 -0.232108260746404 0 -0.2084423165344233 -0.2442297109220444 0 -0.1855710793695097 -0.232108260746404 0 -0.2084423165344233 -0.2442297109220444 0 -0.20518343634494049 -0.2302869958319417 0 -0.1855710793695097 -0.232108260746404 0 -0.19829747345332949 -0.22055613780690239 0 -0.20518343634494049 -0.2302869958319417 0 -0.1831187600655155 -0.21211883953006369 0 -0.1855710793695097 -0.232108260746404 0 -0.19829747345332949 -0.22055613780690239 0 -0.19829747345332949 -0.22055613780690239 0 -0.20518343634494049 -0.2302869958319417 0 -0.21348932881187729 -0.2210818266687061 0 -0.20518343634494049 -0.2302869958319417 0 -0.21348932881187729 -0.2210818266687061 0 -0.22011698355556261 -0.23345904301565179 0 -0.21348932881187729 -0.2210818266687061 0 -0.20237390862979371 -0.2061831911705575 0 -0.22352227614047679 -0.21025702738805371 0 -0.20237390862979371 -0.2061831911705575 0 -0.21701859415684741 -0.19808030632400009 0 -0.22352227614047679 -0.21025702738805371 0 -0.19829747345332949 -0.22055613780690239 0 -0.21348932881187729 -0.2210818266687061 0 -0.20237390862979371 -0.2061831911705575 0 -0.1831187600655155 -0.21211883953006369 0 -0.19829747345332949 -0.22055613780690239 0 -0.20237390862979371 -0.2061831911705575 0 -0.17975186944619159 -0.19028168233578829 0 -0.20237390862979371 -0.2061831911705575 0 -0.20116727876561821 -0.18656671697285229 0 -0.17975186944619159 -0.19028168233578829 0 -0.1831187600655155 -0.21211883953006369 0 -0.20237390862979371 -0.2061831911705575 0 -0.20237390862979371 -0.2061831911705575 0 -0.21701859415684741 -0.19808030632400009 0 -0.20116727876561821 -0.18656671697285229 0 -0.21701859415684741 -0.19808030632400009 0 -0.20116727876561821 -0.18656671697285229 0 -0.21744595751764159 -0.18378239743576441 0 -0.21701859415684741 -0.19808030632400009 0 -0.2333023450733889 -0.20051430359624711 0 -0.23010028786790521 -0.1880825977723698 0 -0.21701859415684741 -0.19808030632400009 0 -0.2333023450733889 -0.20051430359624711 0 -0.22352227614047679 -0.21025702738805371 0 -0.21701859415684741 -0.19808030632400009 0 -0.23010028786790521 -0.1880825977723698 0 -0.21744595751764159 -0.18378239743576441 0 -0.2333023450733889 -0.20051430359624711 0 -0.23010028786790521 -0.1880825977723698 0 -0.23507064390352281 -0.19138301678291769 0 -0.23010028786790521 -0.1880825977723698 0 -0.23858856254826721 -0.18791541400944001 0 -0.23010028786790521 -0.1880825977723698 0 -0.23507064390352281 -0.19138301678291769 0 -0.23858856254826721 -0.18791541400944001 0 -0.2333023450733889 -0.20051430359624711 0 -0.23507064390352281 -0.19138301678291769 0 -0.23858856254826721 -0.18791541400944001 0 -0.2333023450733889 -0.20051430359624711 0 -0.23858856254826721 -0.18791541400944001 0 -0.24513638240692309 -0.18778644914859291 0 -0.2333023450733889 -0.20051430359624711 0 -0.24513638240692309 -0.18778644914859291 0 -0.24091893461394329 -0.21084813366110369 0 -0.24513638240692309 -0.18778644914859291 0 -0.24091893461394329 -0.21084813366110369 0 -0.25674122321858822 -0.2008090524472641 0 -0.24513638240692309 -0.18778644914859291 0 -0.24091893461394329 -0.21084813366110369 0 -0.23858856254826721 -0.18791541400944001 0 -0.24513638240692309 -0.18778644914859291 0 -0.2333023450733889 -0.20051430359624711 0 -0.24091893461394329 -0.21084813366110369 0 -0.22352227614047679 -0.21025702738805371 0 -0.24091893461394329 -0.21084813366110369 0 -0.22352227614047679 -0.21025702738805371 0 -0.22694980198856479 -0.221911169781426 0 -0.21348932881187729 -0.2210818266687061 0 -0.22352227614047679 -0.21025702738805371 0 -0.22694980198856479 -0.221911169781426 0 -0.22011698355556261 -0.23345904301565179 0 -0.22694980198856479 -0.221911169781426 0 -0.23670148682096401 -0.23390981817361459 0 -0.21348932881187729 -0.2210818266687061 0 -0.22011698355556261 -0.23345904301565179 0 -0.22694980198856479 -0.221911169781426 0 -0.24091893461394329 -0.21084813366110369 0 -0.23670148682096401 -0.23390981817361459 0 -0.23670148682096401 -0.23390981817361459 0 -0.25537346791776128 -0.23337518287370021 0 -0.25352312128131133 -0.21865805486894821 0 -0.24091893461394329 -0.21084813366110369 0 -0.23670148682096401 -0.23390981817361459 0 -0.25352312128131133 -0.21865805486894821 0 -0.24091893461394329 -0.21084813366110369 0 -0.22694980198856479 -0.221911169781426 0 -0.23670148682096401 -0.23390981817361459 0 -0.23248403902798259 -0.25697150268612517 0 -0.23670148682096401 -0.23390981817361459 0 -0.23248403902798259 -0.25697150268612517 0 -0.23670148682096401 -0.23390981817361459 0 -0.24294271272773121 -0.246967672793176 0 -0.23670148682096401 -0.23390981817361459 0 -0.24294271272773121 -0.246967672793176 0 -0.25537346791776128 -0.23337518287370021 0 -0.22011698355556261 -0.23345904301565179 0 -0.23670148682096401 -0.23390981817361459 0 -0.22523528010301411 -0.2480424028876469 0 -0.23248403902798259 -0.25697150268612517 0 -0.23670148682096401 -0.23390981817361459 0 -0.22523528010301411 -0.2480424028876469 0 -0.23248403902798259 -0.25697150268612517 0 -0.2084423165344233 -0.2442297109220444 0 -0.22523528010301411 -0.2480424028876469 0 -0.20947198983365781 -0.13915613514366271 0 -0.19943578476539239 -0.1535124706515639 0 -0.21991209386834609 -0.1566393722335708 0 -0.20947198983365781 -0.13915613514366271 0 -0.21991209386834609 -0.1566393722335708 0 -0.20947198983365781 -0.13915613514366271 0 -0.23061031571554461 -0.12781646638976951 0 -0.21609388629610621 -0.12293112853727731 0 -0.20947198983365781 -0.13915613514366271 0 -0.21609388629610621 -0.12293112853727731 0 -0.200491295645431 -0.1241168591744692 0 -0.20947198983365781 -0.13915613514366271 0 -0.200491295645431 -0.1241168591744692 0 -0.20947198983365781 -0.13915613514366271 0 -0.18989641382437511 -0.1353966106162027 0 -0.20947198983365781 -0.13915613514366271 0 -0.18989641382437511 -0.1353966106162027 0 -0.200491295645431 -0.1241168591744692 0 -0.18989641382437511 -0.1353966106162027 0 -0.200491295645431 -0.1241168591744692 0 -0.18153161793419581 -0.1215946825872664 0 -0.1820785251608758 -0.15169938672157579 0 -0.18989641382437511 -0.1353966106162027 0 -0.19943578476539239 -0.1535124706515639 0 -0.20947198983365781 -0.13915613514366271 0 -0.18989641382437511 -0.1353966106162027 0 -0.19943578476539239 -0.1535124706515639 0 -0.1820785251608758 -0.15169938672157579 0 -0.19943578476539239 -0.1535124706515639 0 -0.19046018592870531 -0.17070990168635419 0 -0.19943578476539239 -0.1535124706515639 0 -0.19046018592870531 -0.17070990168635419 0 -0.21040619191586951 -0.17241625550491679 0 -0.19046018592870531 -0.17070990168635419 0 -0.21040619191586951 -0.17241625550491679 0 -0.17975186944619159 -0.19028168233578829 0 -0.19046018592870531 -0.17070990168635419 0 -0.20116727876561821 -0.18656671697285229 0 -0.19046018592870531 -0.17070990168635419 0 -0.20116727876561821 -0.18656671697285229 0 -0.21040619191586951 -0.17241625550491679 0 -0.20116727876561821 -0.18656671697285229 0 -0.21040619191586951 -0.17241625550491679 0 -0.21744595751764159 -0.18378239743576441 0 -0.19943578476539239 -0.1535124706515639 0 -0.21040619191586951 -0.17241625550491679 0 -0.21991209386834609 -0.1566393722335708 0 -0.21040619191586951 -0.17241625550491679 0 -0.21991209386834609 -0.1566393722335708 0 -0.2303521979030336 -0.17412260932347931 0 -0.21991209386834609 -0.1566393722335708 0 -0.2303521979030336 -0.17412260932347931 0 -0.21991209386834609 -0.1566393722335708 0 -0.23381749085254999 -0.160079813120067 0 -0.2303521979030336 -0.17412260932347931 0 -0.21040619191586951 -0.17241625550491679 0 -0.21744595751764159 -0.18378239743576441 0 -0.2303521979030336 -0.17412260932347931 0 -0.21040619191586951 -0.17241625550491679 0 -0.2303521979030336 -0.17412260932347931 0 -0.23010028786790521 -0.1880825977723698 0 -0.21744595751764159 -0.18378239743576441 0 -0.2303521979030336 -0.17412260932347931 0 -0.23010028786790521 -0.1880825977723698 0 -0.23858856254826721 -0.18791541400944001 0 -0.2303521979030336 -0.17412260932347931 0 -0.2303521979030336 -0.17412260932347931 0 -0.24136983124480529 -0.18098355164987981 0 -0.2473689572304858 -0.17557837005455751 0 -0.2303521979030336 -0.17412260932347931 0 -0.2473689572304858 -0.17557837005455751 0 -0.2406912527221915 -0.16885593815159999 0 -0.2303521979030336 -0.17412260932347931 0 -0.2473689572304858 -0.17557837005455751 0 -0.23858856254826721 -0.18791541400944001 0 -0.2303521979030336 -0.17412260932347931 0 -0.24136983124480529 -0.18098355164987981 0 -0.23858856254826721 -0.18791541400944001 0 -0.2303521979030336 -0.17412260932347931 0 -0.23858856254826721 -0.18791541400944001 0 -0.24513638240692309 -0.18778644914859291 0 -0.24136983124480529 -0.18098355164987981 0 -0.24772804976076321 -0.17361479420240991 0 -0.2473689572304858 -0.17557837005455751 0 -0.25478101089251032 -0.16758650605975309 0 -0.24772804976076321 -0.17361479420240991 0 -0.2473689572304858 -0.17557837005455751 0 -0.2406912527221915 -0.16885593815159999 0 -0.24772804976076321 -0.17361479420240991 0 -0.2473689572304858 -0.17557837005455751 0 -0.24513638240692309 -0.18778644914859291 0 -0.2473689572304858 -0.17557837005455751 0 -0.25590860217853789 -0.1831402325901734 0 -0.24513638240692309 -0.18778644914859291 0 -0.24136983124480529 -0.18098355164987981 0 -0.2473689572304858 -0.17557837005455751 0 -0.24513638240692309 -0.18778644914859291 0 -0.2473689572304858 -0.17557837005455751 0 -0.2447712860700815 -0.16765217587600079 0 -0.2440445534241916 -0.15468792797012171 0 -0.25708486447101919 -0.14830027322354331 0 -0.23381749085254999 -0.160079813120067 0 -0.2401095345162351 -0.16208786633308589 0 -0.2406912527221915 -0.16885593815159999 0 -0.23381749085254999 -0.160079813120067 0 -0.2401095345162351 -0.16208786633308589 0 -0.2440445534241916 -0.15468792797012171 0 -0.23381749085254999 -0.160079813120067 0 -0.2303521979030336 -0.17412260932347931 0 -0.2406912527221915 -0.16885593815159999 0 -0.2401095345162351 -0.16208786633308589 0 -0.2406912527221915 -0.16885593815159999 0 -0.2447712860700815 -0.16765217587600079 0 -0.24772804976076321 -0.17361479420240991 0 -0.2447712860700815 -0.16765217587600079 0 -0.25478101089251032 -0.16758650605975309 0 -0.24772804976076321 -0.17361479420240991 0 -0.2406912527221915 -0.16885593815159999 0 -0.2447712860700815 -0.16765217587600079 0 -0.2401095345162351 -0.16208786633308589 0 -0.2447712860700815 -0.16765217587600079 0 -0.2440445534241916 -0.15468792797012171 0 -0.23327842715233851 -0.1437282041836033 0 -0.25708486447101919 -0.14830027322354331 0 -0.2440445534241916 -0.15468792797012171 0 -0.23327842715233851 -0.1437282041836033 0 -0.25708486447101919 -0.14830027322354331 0 -0.23381749085254999 -0.160079813120067 0 -0.2440445534241916 -0.15468792797012171 0 -0.23327842715233851 -0.1437282041836033 0 -0.23327842715233851 -0.1437282041836033 0 -0.24772293239154089 -0.13133889465524731 0 -0.25708486447101919 -0.14830027322354331 0 -0.20947198983365781 -0.13915613514366271 0 -0.21991209386834609 -0.1566393722335708 0 -0.23327842715233851 -0.1437282041836033 0 -0.21991209386834609 -0.1566393722335708 0 -0.23381749085254999 -0.160079813120067 0 -0.23327842715233851 -0.1437282041836033 0 -0.20947198983365781 -0.13915613514366271 0 -0.23327842715233851 -0.1437282041836033 0 -0.20947198983365781 -0.13915613514366271 0 -0.23327842715233851 -0.1437282041836033 0 -0.23061031571554461 -0.12781646638976951 0 -0.23327842715233851 -0.1437282041836033 0 -0.23061031571554461 -0.12781646638976951 0 -0.24772293239154089 -0.13133889465524731 0 -0.23061031571554461 -0.12781646638976951 0 -0.24772293239154089 -0.13133889465524731 0 -0.24503735981605329 -0.1125827072853236 0 -0.23061031571554461 -0.12781646638976951 0 -0.24503735981605329 -0.1125827072853236 0 -0.2282529487034872 -0.113699692663698 0 -0.24503735981605329 -0.1125827072853236 0 -0.23294755926475411 -0.096954790314265654 0 -0.2282529487034872 -0.113699692663698 0 -0.24503735981605329 -0.1125827072853236 0 -0.23294755926475411 -0.096954790314265654 0 -0.25688603403414789 -0.092606720963067407 0 -0.23294755926475411 -0.096954790314265654 0 -0.2282529487034872 -0.113699692663698 0 -0.21104789704844881 -0.1088929224334049 0 -0.23061031571554461 -0.12781646638976951 0 -0.2282529487034872 -0.113699692663698 0 -0.21609388629610621 -0.12293112853727731 0 -0.23173667754679009 -0.075722093402801477 0 -0.25365450743115009 -0.060939001971624267 0 -0.25688603403414789 -0.092606720963067407 0 -0.23173667754679009 -0.075722093402801477 0 -0.25365450743115009 -0.060939001971624267 0 -0.23294755926475411 -0.096954790314265654 0 -0.23173667754679009 -0.075722093402801477 0 -0.25688603403414789 -0.092606720963067407 0 -0.23173667754679009 -0.075722093402801477 0 -0.20981884766243011 -0.09050518483397868 0 -0.23294755926475411 -0.096954790314265654 0 -0.23173667754679009 -0.075722093402801477 0 -0.20981884766243011 -0.09050518483397868 0 -0.20981884766243011 -0.09050518483397868 0 -0.19089081917784911 -0.065799402277868707 0 -0.2133052861117696 -0.058449919329566412 0 -0.23173667754679009 -0.075722093402801477 0 -0.20981884766243011 -0.09050518483397868 0 -0.2133052861117696 -0.058449919329566412 0 -0.20981884766243011 -0.09050518483397868 0 -0.19089081917784911 -0.065799402277868707 0 -0.1843490277149705 -0.088261513355310836 0 -0.2282529487034872 -0.113699692663698 0 -0.21609388629610621 -0.12293112853727731 0 -0.21104789704844881 -0.1088929224334049 0 -0.21609388629610621 -0.12293112853727731 0 -0.21104789704844881 -0.1088929224334049 0 -0.200491295645431 -0.1241168591744692 0 -0.20981884766243011 -0.09050518483397868 0 -0.21104789704844881 -0.1088929224334049 0 -0.19151060145720331 -0.1090775832052763 0 -0.23294755926475411 -0.096954790314265654 0 -0.20981884766243011 -0.09050518483397868 0 -0.21104789704844881 -0.1088929224334049 0 -0.20981884766243011 -0.09050518483397868 0 -0.19151060145720331 -0.1090775832052763 0 -0.1843490277149705 -0.088261513355310836 0 -0.21104789704844881 -0.1088929224334049 0 -0.19151060145720331 -0.1090775832052763 0 -0.200491295645431 -0.1241168591744692 0 -0.19151060145720331 -0.1090775832052763 0 -0.200491295645431 -0.1241168591744692 0 -0.18153161793419581 -0.1215946825872664 0 -0.19151060145720331 -0.1090775832052763 0 -0.200491295645431 -0.1241168591744692 0 -0.18153161793419581 -0.1215946825872664 0 -0.16248036550564049 -0.1208905593516605 0 -0.17338554373272841 -0.104722307349814 0 -0.19151060145720331 -0.1090775832052763 0 -0.18153161793419581 -0.1215946825872664 0 -0.17338554373272841 -0.104722307349814 0 -0.16248036550564049 -0.1208905593516605 0 -0.17338554373272841 -0.104722307349814 0 -0.15109184998453529 -0.1031125753028788 0 -0.17338554373272841 -0.104722307349814 0 -0.16227299556432889 -0.085535758781070087 0 -0.15109184998453529 -0.1031125753028788 0 -0.19151060145720331 -0.1090775832052763 0 -0.17338554373272841 -0.104722307349814 0 -0.1843490277149705 -0.088261513355310836 0 -0.1843490277149705 -0.088261513355310836 0 -0.17208636647076159 -0.071429881998651606 0 -0.16227299556432889 -0.085535758781070087 0 -0.17338554373272841 -0.104722307349814 0 -0.1843490277149705 -0.088261513355310836 0 -0.16227299556432889 -0.085535758781070087 0 -0.19089081917784911 -0.065799402277868707 0 -0.1843490277149705 -0.088261513355310836 0 -0.17208636647076159 -0.071429881998651606 0 -0.17208636647076159 -0.071429881998651606 0 -0.16227299556432889 -0.085535758781070087 0 -0.155124569585951 -0.065981390761876799 0 -0.16227299556432889 -0.085535758781070087 0 -0.1347361743099933 -0.078605546530011824 0 -0.15109184998453529 -0.1031125753028788 0 -0.16227299556432889 -0.085535758781070087 0 -0.155124569585951 -0.065981390761876799 0 -0.1347361743099933 -0.078605546530011824 0 -0.155124569585951 -0.065981390761876799 0 -0.1347361743099933 -0.078605546530011824 0 -0.13908757360176691 -0.049474654846187169 0 -0.1347361743099933 -0.078605546530011824 0 -0.13908757360176691 -0.049474654846187169 0 -0.12376213601859951 -0.066982849024258689 0 -0.1347361743099933 -0.078605546530011824 0 -0.13908757360176691 -0.049474654846187169 0 -0.1195403803683202 -0.092073109965608288 0 -0.1347361743099933 -0.078605546530011824 0 -0.1303847750182198 -0.10773643821383649 0 -0.1347361743099933 -0.078605546530011824 0 -0.1303847750182198 -0.10773643821383649 0 -0.1347361743099933 -0.078605546530011824 0 -0.1303847750182198 -0.10773643821383649 0 -0.15109184998453529 -0.1031125753028788 0 -0.12603337572644699 -0.1368673298976614 0 -0.1443171630234851 -0.12535623658683251 0 -0.1303847750182198 -0.10773643821383649 0 -0.12603337572644699 -0.1368673298976614 0 -0.1303847750182198 -0.10773643821383649 0 -0.1443171630234851 -0.12535623658683251 0 -0.1303847750182198 -0.10773643821383649 0 -0.15109184998453529 -0.1031125753028788 0 -0.1443171630234851 -0.12535623658683251 0 -0.16248036550564049 -0.1208905593516605 0 -0.15109184998453529 -0.1031125753028788 0 -0.14324914951232329 -0.02161455538033865 0 -0.15197120636494621 -0.036238192358491642 0 -0.1612896103418609 -0.017757633644541401 0 -0.14324914951232329 -0.02161455538033865 0 -0.14741072542287981 0.0062455440855098826 0 -0.14324914951232329 -0.02161455538033865 0 -0.1612896103418609 -0.017757633644541401 0 -0.14741072542287981 0.0062455440855098826 0 -0.12470345280778559 -0.0046060833266749566 0 -0.14324914951232329 -0.02161455538033865 0 -0.14741072542287981 0.0062455440855098826 0 -0.12470345280778559 -0.0046060833266749566 0 -0.14324914951232329 -0.02161455538033865 0 -0.1280472677748169 -0.031270983682370253 0 -0.1216565042630109 -0.052311087021476903 0 -0.1280472677748169 -0.031270983682370253 0 -0.13908757360176691 -0.049474654846187169 0 -0.14324914951232329 -0.02161455538033865 0 -0.1280472677748169 -0.031270983682370253 0 -0.13908757360176691 -0.049474654846187169 0 -0.1216565042630109 -0.052311087021476903 0 -0.13908757360176691 -0.049474654846187169 0 -0.12376213601859951 -0.066982849024258689 0 -0.12240676741817839 -0.054088144665157413 0 -0.13908757360176691 -0.049474654846187169 0 -0.12240676741817839 -0.054088144665157413 0 -0.1216565042630109 -0.052311087021476903 0 -0.13908757360176691 -0.049474654846187169 0 -0.13908757360176691 -0.049474654846187169 0 -0.1674397379829041 -0.044861111653463223 0 -0.155124569585951 -0.065981390761876799 0 -0.13908757360176691 -0.049474654846187169 0 -0.1674397379829041 -0.044861111653463223 0 -0.13908757360176691 -0.049474654846187169 0 -0.15197120636494621 -0.036238192358491642 0 -0.1674397379829041 -0.044861111653463223 0 -0.14324914951232329 -0.02161455538033865 0 -0.13908757360176691 -0.049474654846187169 0 -0.15197120636494621 -0.036238192358491642 0 -0.14324914951232329 -0.02161455538033865 0 -0.13908757360176691 -0.049474654846187169 0 -0.15197120636494621 -0.036238192358491642 0 -0.1674397379829041 -0.044861111653463223 0 -0.1612896103418609 -0.017757633644541401 0 -0.17208636647076159 -0.071429881998651606 0 -0.155124569585951 -0.065981390761876799 0 -0.1674397379829041 -0.044861111653463223 0 -0.19089081917784911 -0.065799402277868707 0 -0.1674397379829041 -0.044861111653463223 0 -0.19579190236404129 -0.040247568460739208 0 -0.19089081917784911 -0.065799402277868707 0 -0.17208636647076159 -0.071429881998651606 0 -0.1674397379829041 -0.044861111653463223 0 -0.1674397379829041 -0.044861111653463223 0 -0.19579190236404129 -0.040247568460739208 0 -0.1674397379829041 -0.044861111653463223 0 -0.17923962961243561 -0.027034139361650191 0 -0.19579190236404129 -0.040247568460739208 0 -0.17923962961243561 -0.027034139361650191 0 -0.1612896103418609 -0.017757633644541401 0 -0.17580682899312269 -0.0061346579875049198 0 -0.17923962961243561 -0.027034139361650191 0 -0.17580682899312269 -0.0061346579875049198 0 -0.19693754069751959 -0.01439955587470536 0 -0.1674397379829041 -0.044861111653463223 0 -0.17923962961243561 -0.027034139361650191 0 -0.1612896103418609 -0.017757633644541401 0 -0.1612896103418609 -0.017757633644541401 0 -0.14741072542287981 0.0062455440855098826 0 -0.1639099945044146 0.0053336771441489048 0 -0.1612896103418609 -0.017757633644541401 0 -0.17580682899312269 -0.0061346579875049198 0 -0.1639099945044146 0.0053336771441489048 0 -0.19693754069751959 -0.01439955587470536 0 -0.19082965241075781 0.0065390538441611546 0 -0.20691016890114819 0.0055059637443243548 0 -0.17580682899312269 -0.0061346579875049198 0 -0.19693754069751959 -0.01439955587470536 0 -0.19082965241075781 0.0065390538441611546 0 -0.19693754069751959 -0.01439955587470536 0 -0.2109031286337695 -0.025255983677518822 0 -0.19579190236404129 -0.040247568460739208 0 -0.17923962961243561 -0.027034139361650191 0 -0.19693754069751959 -0.01439955587470536 0 -0.19579190236404129 -0.040247568460739208 0 -0.19693754069751959 -0.01439955587470536 0 -0.2109031286337695 -0.025255983677518822 0 -0.21996096074885901 -0.011079176325400109 0 -0.2109031286337695 -0.025255983677518822 0 -0.21996096074885901 -0.011079176325400109 0 -0.22200497718109419 -0.02490837541651467 0 -0.21996096074885901 -0.011079176325400109 0 -0.20691016890114819 0.0055059637443243548 0 -0.21996096074885901 -0.011079176325400109 0 -0.20691016890114819 0.0055059637443243548 0 -0.22778700167026009 0.001198131637768274 0 -0.19693754069751959 -0.01439955587470536 0 -0.21996096074885901 -0.011079176325400109 0 -0.20691016890114819 0.0055059637443243548 0 -0.19089081917784911 -0.065799402277868707 0 -0.19579190236404129 -0.040247568460739208 0 -0.2133052861117696 -0.058449919329566412 0 -0.19579190236404129 -0.040247568460739208 0 -0.22414406674517851 -0.035634025268015193 0 -0.2109031286337695 -0.025255983677518822 0 -0.19579190236404129 -0.040247568460739208 0 -0.22414406674517851 -0.035634025268015193 0 -0.19579190236404129 -0.040247568460739208 0 -0.2133052861117696 -0.058449919329566412 0 -0.22414406674517851 -0.035634025268015193 0 -0.2133052861117696 -0.058449919329566412 0 -0.2264332684530197 -0.051660007978800979 0 -0.22414406674517851 -0.035634025268015193 0 -0.23173667754679009 -0.075722093402801477 0 -0.2133052861117696 -0.058449919329566412 0 -0.2264332684530197 -0.051660007978800979 0 -0.23173667754679009 -0.075722093402801477 0 -0.2264332684530197 -0.051660007978800979 0 -0.24123298848395461 -0.049926787526349839 0 -0.2264332684530197 -0.051660007978800979 0 -0.22414406674517851 -0.035634025268015193 0 -0.24123298848395461 -0.049926787526349839 0 -0.22414406674517851 -0.035634025268015193 0 -0.25249623112631581 -0.031020482075291171 0 -0.22414406674517851 -0.035634025268015193 0 -0.23301175259656989 -0.02766431639512457 0 -0.25249623112631581 -0.031020482075291171 0 -0.22414406674517851 -0.035634025268015193 0 -0.24123298848395461 -0.049926787526349839 0 -0.25249623112631581 -0.031020482075291171 0 -0.23173667754679009 -0.075722093402801477 0 -0.24123298848395461 -0.049926787526349839 0 -0.25365450743115009 -0.060939001971624267 0 -0.21996096074885901 -0.011079176325400109 0 -0.2350979178344092 -0.011639730406129291 0 -0.22778700167026009 0.001198131637768274 0 -0.2350979178344092 -0.011639730406129291 0 -0.22778700167026009 0.001198131637768274 0 -0.2397929814435005 0.001308928103204989 0 -0.21996096074885901 -0.011079176325400109 0 -0.22200497718109419 -0.02490837541651467 0 -0.23301175259656989 -0.02766431639512457 0 -0.21996096074885901 -0.011079176325400109 0 -0.23301175259656989 -0.02766431639512457 0 -0.21996096074885901 -0.011079176325400109 0 -0.23301175259656989 -0.02766431639512457 0 -0.2350979178344092 -0.011639730406129291 0 -0.22414406674517851 -0.035634025268015193 0 -0.22200497718109419 -0.02490837541651467 0 -0.23301175259656989 -0.02766431639512457 0 -0.2109031286337695 -0.025255983677518822 0 -0.22414406674517851 -0.035634025268015193 0 -0.22200497718109419 -0.02490837541651467 0 -0.23301175259656989 -0.02766431639512457 0 -0.24458212390572309 -0.019406751194195011 0 -0.2350979178344092 -0.011639730406129291 0 -0.23301175259656989 -0.02766431639512457 0 -0.24458212390572309 -0.019406751194195011 0 -0.25249623112631581 -0.031020482075291171 0 -0.24458212390572309 -0.019406751194195011 0 -0.24617050408342431 -0.01070556722276971 0 -0.25613421388789659 -0.01600365987166031 0 -0.24458212390572309 -0.019406751194195011 0 -0.24617050408342431 -0.01070556722276971 0 -0.2350979178344092 -0.011639730406129291 0 -0.24617050408342431 -0.01070556722276971 0 -0.2350979178344092 -0.011639730406129291 0 -0.2397929814435005 0.001308928103204989 0 -0.24617050408342431 -0.01070556722276971 0 -0.25537996419202591 -0.0033143468573220759 0 -0.2397929814435005 0.001308928103204989 0 -0.24617050408342431 -0.01070556722276971 0 -0.25537996419202591 -0.0033143468573220759 0 -0.25613421388789659 -0.01600365987166031 0 -0.25613421388789659 -0.01600365987166031 0 -0.26740964759094799 -0.018783394967796921 0 -0.26863379257836201 -0.0075323160215806364 0 -0.25537996419202591 -0.0033143468573220759 0 -0.25613421388789659 -0.01600365987166031 0 -0.26863379257836201 -0.0075323160215806364 0 -0.25537996419202591 -0.0033143468573220759 0 -0.26863379257836201 -0.0075323160215806364 0 -0.26514382374020828 0.0054859781629250631 0 -0.24458212390572309 -0.019406751194195011 0 -0.25249623112631581 -0.031020482075291171 0 -0.25613421388789659 -0.01600365987166031 0 -0.25249623112631581 -0.031020482075291171 0 -0.25613421388789659 -0.01600365987166031 0 -0.26740964759094799 -0.018783394967796921 0 -0.25249623112631581 -0.031020482075291171 0 -0.26740964759094799 -0.018783394967796921 0 -0.28084839550745311 -0.026406938882567139 0 -0.25249623112631581 -0.031020482075291171 0 -0.28084839550745311 -0.026406938882567139 0 -0.26740964759094799 -0.018783394967796921 0 -0.28084839550745311 -0.026406938882567139 0 -0.27893560485471269 -0.012953577987885351 0 -0.26863379257836201 -0.0075323160215806364 0 -0.26514382374020828 0.0054859781629250631 0 -0.28202086463559128 0.00085761427244706039 0 -0.26740964759094799 -0.018783394967796921 0 -0.26863379257836201 -0.0075323160215806364 0 -0.27893560485471269 -0.012953577987885351 0 -0.26863379257836201 -0.0075323160215806364 0 -0.27893560485471269 -0.012953577987885351 0 -0.28202086463559128 0.00085761427244706039 0 -0.27893560485471269 -0.012953577987885351 0 -0.29291448666874648 -0.011133384489182409 0 -0.28202086463559128 0.00085761427244706039 0 -0.29291448666874648 -0.011133384489182409 0 -0.28202086463559128 0.00085761427244706039 0 -0.29949908819018478 0.0071836852143538294 0 -0.28084839550745311 -0.026406938882567139 0 -0.30920055988859041 -0.021793395689843089 0 -0.28084839550745311 -0.026406938882567139 0 -0.29291448666874648 -0.011133384489182409 0 -0.30920055988859041 -0.021793395689843089 0 -0.28084839550745311 -0.026406938882567139 0 -0.27893560485471269 -0.012953577987885351 0 -0.29291448666874648 -0.011133384489182409 0 -0.28084839550745311 -0.026406938882567139 0 -0.30920055988859041 -0.021793395689843089 0 -0.29749016719987031 -0.03137281910926986 0 -0.30920055988859041 -0.021793395689843089 0 -0.30967158545253187 -0.036315295396067031 0 -0.29749016719987031 -0.03137281910926986 0 -0.30920055988859041 -0.021793395689843089 0 -0.30565178628296208 -0.0059818783442715153 0 -0.32099301038432648 0.001815581587585604 0 -0.29291448666874648 -0.011133384489182409 0 -0.30565178628296208 -0.0059818783442715153 0 -0.29949908819018478 0.0071836852143538294 0 -0.29291448666874648 -0.011133384489182409 0 -0.30920055988859041 -0.021793395689843089 0 -0.30565178628296208 -0.0059818783442715153 0 -0.29910650244009152 -0.049593349686303738 0 -0.31410225282291088 -0.063002324753473338 0 -0.3195299278177503 -0.046367972817906652 0 -0.29910650244009152 -0.049593349686303738 0 -0.29745987114069439 -0.065179178813476915 0 -0.31410225282291088 -0.063002324753473338 0 -0.29910650244009152 -0.049593349686303738 0 -0.30967158545253187 -0.036315295396067031 0 -0.3195299278177503 -0.046367972817906652 0 -0.29910650244009152 -0.049593349686303738 0 -0.30967158545253187 -0.036315295396067031 0 -0.29749016719987031 -0.03137281910926986 0 -0.29910650244009152 -0.049593349686303738 0 -0.29749016719987031 -0.03137281910926986 0 -0.27557233731551017 -0.046155910540447057 0 -0.28084839550745311 -0.026406938882567139 0 -0.29749016719987031 -0.03137281910926986 0 -0.27557233731551017 -0.046155910540447057 0 -0.29749016719987031 -0.03137281910926986 0 -0.27557233731551017 -0.046155910540447057 0 -0.29910650244009152 -0.049593349686303738 0 -0.28144688577142718 -0.063362282128270053 0 -0.29745987114069439 -0.065179178813476915 0 -0.29910650244009152 -0.049593349686303738 0 -0.27557233731551017 -0.046155910540447057 0 -0.28144688577142718 -0.063362282128270053 0 -0.27557233731551017 -0.046155910540447057 0 -0.25365450743115009 -0.060939001971624267 0 -0.28144688577142718 -0.063362282128270053 0 -0.28084839550745311 -0.026406938882567139 0 -0.27557233731551017 -0.046155910540447057 0 -0.25934544250558911 -0.045737000160778467 0 -0.24123298848395461 -0.049926787526349839 0 -0.25249623112631581 -0.031020482075291171 0 -0.25934544250558911 -0.045737000160778467 0 -0.25249623112631581 -0.031020482075291171 0 -0.28084839550745311 -0.026406938882567139 0 -0.25934544250558911 -0.045737000160778467 0 -0.24123298848395461 -0.049926787526349839 0 -0.25934544250558911 -0.045737000160778467 0 -0.25365450743115009 -0.060939001971624267 0 -0.27557233731551017 -0.046155910540447057 0 -0.25934544250558911 -0.045737000160778467 0 -0.25365450743115009 -0.060939001971624267 0 -0.27557233731551017 -0.046155910540447057 0 -0.25365450743115009 -0.060939001971624267 0 -0.25365450743115009 -0.060939001971624267 0 -0.25688603403414789 -0.092606720963067407 0 -0.27367447851371368 -0.079876043474549893 0 -0.25688603403414789 -0.092606720963067407 0 -0.27367447851371368 -0.079876043474549893 0 -0.28617807769762299 -0.1025776561356017 0 -0.25365450743115009 -0.060939001971624267 0 -0.27367447851371368 -0.079876043474549893 0 -0.28144688577142718 -0.063362282128270053 0 -0.24503735981605329 -0.1125827072853236 0 -0.25688603403414789 -0.092606720963067407 0 -0.27163147108432112 -0.12543896467957261 0 -0.25688603403414789 -0.092606720963067407 0 -0.28617807769762299 -0.1025776561356017 0 -0.27163147108432112 -0.12543896467957261 0 -0.24772293239154089 -0.13133889465524731 0 -0.24503735981605329 -0.1125827072853236 0 -0.27163147108432112 -0.12543896467957261 0 -0.28617807769762299 -0.1025776561356017 0 -0.27163147108432112 -0.12543896467957261 0 -0.28617807769762299 -0.1025776561356017 0 -0.30204109523775191 -0.11588242641978801 0 -0.27163147108432112 -0.12543896467957261 0 -0.28617807769762299 -0.1025776561356017 0 -0.30204109523775191 -0.11588242641978801 0 -0.30800628651075568 -0.086769864664818508 0 -0.30204109523775191 -0.11588242641978801 0 -0.30800628651075568 -0.086769864664818508 0 -0.32050133005592779 -0.10650842149919949 0 -0.27367447851371368 -0.079876043474549893 0 -0.28144688577142718 -0.063362282128270053 0 -0.29091636609623228 -0.080940518953448393 0 -0.28144688577142718 -0.063362282128270053 0 -0.29091636609623228 -0.080940518953448393 0 -0.29745987114069439 -0.065179178813476915 0 -0.27367447851371368 -0.079876043474549893 0 -0.28617807769762299 -0.1025776561356017 0 -0.29091636609623228 -0.080940518953448393 0 -0.28617807769762299 -0.1025776561356017 0 -0.29091636609623228 -0.080940518953448393 0 -0.30800628651075568 -0.086769864664818508 0 -0.29091636609623228 -0.080940518953448393 0 -0.30800628651075568 -0.086769864664818508 0 -0.29745987114069439 -0.065179178813476915 0 -0.30800628651075568 -0.086769864664818508 0 -0.29745987114069439 -0.065179178813476915 0 -0.31410225282291088 -0.063002324753473338 0 -0.30800628651075568 -0.086769864664818508 0 -0.31410225282291088 -0.063002324753473338 0 -0.32830887133568309 -0.072996170550863992 0 -0.31410225282291088 -0.063002324753473338 0 -0.32830887133568309 -0.072996170550863992 0 -0.32988591926644062 -0.056544420237666232 0 -0.30800628651075568 -0.086769864664818508 0 -0.32849145931956297 -0.090259263497117465 0 -0.32830887133568309 -0.072996170550863992 0 -0.32849145931956297 -0.090259263497117465 0 -0.32830887133568309 -0.072996170550863992 0 -0.34992556006681952 -0.083517317777766095 0 -0.32849145931956297 -0.090259263497117465 0 -0.33986261005728741 -0.1021781997566102 0 -0.34992556006681952 -0.083517317777766095 0 -0.32830887133568309 -0.072996170550863992 0 -0.34992556006681952 -0.083517317777766095 0 -0.34934681113064192 -0.059061293029027413 0 -0.32830887133568309 -0.072996170550863992 0 -0.34934681113064192 -0.059061293029027413 0 -0.32988591926644062 -0.056544420237666232 0 -0.32050133005592779 -0.10650842149919949 0 -0.33459243554469081 -0.1175211127864776 0 -0.31763087271419421 -0.12765483662631591 0 -0.30204109523775191 -0.11588242641978801 0 -0.32050133005592779 -0.10650842149919949 0 -0.31763087271419421 -0.12765483662631591 0 -0.30800628651075568 -0.086769864664818508 0 -0.32849145931956297 -0.090259263497117465 0 -0.32050133005592779 -0.10650842149919949 0 -0.32849145931956297 -0.090259263497117465 0 -0.32050133005592779 -0.10650842149919949 0 -0.33986261005728741 -0.1021781997566102 0 -0.32050133005592779 -0.10650842149919949 0 -0.33986261005728741 -0.1021781997566102 0 -0.33459243554469081 -0.1175211127864776 0 -0.33459243554469081 -0.1175211127864776 0 -0.35434040367210479 -0.113469288226446 0 -0.34062696122393998 -0.13779481782381639 0 -0.33986261005728741 -0.1021781997566102 0 -0.33459243554469081 -0.1175211127864776 0 -0.35434040367210479 -0.113469288226446 0 -0.33986261005728741 -0.1021781997566102 0 -0.35586719872608957 -0.099698817343702187 0 -0.34992556006681952 -0.083517317777766095 0 -0.33986261005728741 -0.1021781997566102 0 -0.35434040367210479 -0.113469288226446 0 -0.35586719872608957 -0.099698817343702187 0 -0.35434040367210479 -0.113469288226446 0 -0.35586719872608957 -0.099698817343702187 0 -0.36508535353380189 -0.1099377977110164 0 -0.36508535353380189 -0.1099377977110164 0 -0.37617501273955611 -0.093033843292049695 0 -0.37731074966784972 -0.11796541200019819 0 -0.35586719872608957 -0.099698817343702187 0 -0.36508535353380189 -0.1099377977110164 0 -0.37617501273955611 -0.093033843292049695 0 -0.36508535353380189 -0.1099377977110164 0 -0.36242754809725342 -0.12593932953275239 0 -0.37731074966784972 -0.11796541200019819 0 -0.35434040367210479 -0.113469288226446 0 -0.36508535353380189 -0.1099377977110164 0 -0.36242754809725342 -0.12593932953275239 0 -0.36242754809725342 -0.12593932953275239 0 -0.37731074966784972 -0.11796541200019819 0 -0.34992556006681952 -0.083517317777766095 0 -0.37503927581126328 -0.06810227458390114 0 -0.34934681113064192 -0.059061293029027413 0 -0.34992556006681952 -0.083517317777766095 0 -0.37503927581126328 -0.06810227458390114 0 -0.37617501273955611 -0.093033843292049695 0 -0.35586719872608957 -0.099698817343702187 0 -0.34992556006681952 -0.083517317777766095 0 -0.37617501273955611 -0.093033843292049695 0 -0.37503927581126328 -0.06810227458390114 0 -0.37390353888297051 -0.043170705875752648 0 -0.37503927581126328 -0.06810227458390114 0 -0.34934681113064192 -0.059061293029027413 0 -0.37390353888297051 -0.043170705875752648 0 -0.34934681113064192 -0.059061293029027413 0 -0.35603626987138781 -0.031492981361356247 0 -0.33814173322521662 -0.041294340037059757 0 -0.34934681113064192 -0.059061293029027413 0 -0.35603626987138781 -0.031492981361356247 0 -0.37390353888297051 -0.043170705875752648 0 -0.37390353888297051 -0.043170705875752648 0 -0.37276780195467768 -0.018239137167604211 0 -0.35603626987138781 -0.031492981361356247 0 -0.37276780195467768 -0.018239137167604211 0 -0.36590488865086518 -0.012566309304395 0 -0.35603626987138781 -0.031492981361356247 0 -0.37390353888297051 -0.043170705875752648 0 -0.37276780195467768 -0.018239137167604211 0 -0.37276780195467768 -0.018239137167604211 0 -0.37163206502638491 0.0066924315405442192 0 -0.36590488865086518 -0.012566309304395 0 -0.37163206502638491 0.0066924315405442192 0 -0.36274735004998171 0.00073078404237994238 0 -0.37276780195467768 -0.018239137167604211 0 -0.36590488865086518 -0.012566309304395 0 -0.37163206502638491 0.0066924315405442192 0 -0.36590488865086518 -0.012566309304395 0 -0.35377703023811358 -0.0010742091296599219 0 -0.36274735004998171 0.00073078404237994238 0 -0.36590488865086518 -0.012566309304395 0 -0.35377703023811358 -0.0010742091296599219 0 -0.33755272426972788 -0.017179852497119039 0 -0.36590488865086518 -0.012566309304395 0 -0.33755272426972788 -0.017179852497119039 0 -0.35377703023811358 -0.0010742091296599219 0 -0.33755272426972788 -0.017179852497119039 0 -0.34128894299642848 0.0122757678100476 0 -0.35603626987138781 -0.031492981361356247 0 -0.33755272426972788 -0.017179852497119039 0 -0.33814173322521662 -0.041294340037059757 0 -0.35603626987138781 -0.031492981361356247 0 -0.36590488865086518 -0.012566309304395 0 -0.33755272426972788 -0.017179852497119039 0 -0.33755272426972788 -0.017179852497119039 0 -0.32303076991635699 -0.032448939677011811 0 -0.33814173322521662 -0.041294340037059757 0 -0.33755272426972788 -0.017179852497119039 0 -0.32099301038432648 0.001815581587585604 0 -0.34128894299642848 0.0122757678100476 0 -0.30920055988859041 -0.021793395689843089 0 -0.33755272426972788 -0.017179852497119039 0 -0.32099301038432648 0.001815581587585604 0 -0.30920055988859041 -0.021793395689843089 0 -0.33755272426972788 -0.017179852497119039 0 -0.32303076991635699 -0.032448939677011811 0 -0.30920055988859041 -0.021793395689843089 0 -0.33755272426972788 -0.017179852497119039 0 -0.30920055988859041 -0.021793395689843089 0 -0.30967158545253187 -0.036315295396067031 0 -0.32303076991635699 -0.032448939677011811 0 -0.32303076991635699 -0.032448939677011811 0 -0.3195299278177503 -0.046367972817906652 0 -0.33814173322521662 -0.041294340037059757 0 -0.30967158545253187 -0.036315295396067031 0 -0.32303076991635699 -0.032448939677011811 0 -0.3195299278177503 -0.046367972817906652 0 -0.31410225282291088 -0.063002324753473338 0 -0.3195299278177503 -0.046367972817906652 0 -0.32988591926644062 -0.056544420237666232 0 -0.34934681113064192 -0.059061293029027413 0 -0.32988591926644062 -0.056544420237666232 0 -0.33814173322521662 -0.041294340037059757 0 -0.3195299278177503 -0.046367972817906652 0 -0.32988591926644062 -0.056544420237666232 0 -0.33814173322521662 -0.041294340037059757 0 -0.31050647450060431 -0.2410285869008367 0 -0.29406358844652708 -0.22039105191541941 0 -0.28963298834919088 -0.24225856961697509 0 -0.30054691257939542 -0.2663760254010798 0 -0.31050647450060431 -0.2410285869008367 0 -0.28963298834919088 -0.24225856961697509 0 -0.31050647450060431 -0.2410285869008367 0 -0.29406358844652708 -0.22039105191541941 0 -0.31368013521819071 -0.22107456735880379 0 -0.29406358844652708 -0.22039105191541941 0 -0.28963298834919088 -0.24225856961697509 0 -0.27537498001236382 -0.23098367292649061 0 -0.28055215674720962 -0.259307170174222 0 -0.28963298834919088 -0.24225856961697509 0 -0.27008861651860572 -0.24452686936845 0 -0.28963298834919088 -0.24225856961697509 0 -0.27008861651860572 -0.24452686936845 0 -0.27537498001236382 -0.23098367292649061 0 -0.27008861651860572 -0.24452686936845 0 -0.25537346791776128 -0.23337518287370021 0 -0.27537498001236382 -0.23098367292649061 0 -0.27008861651860572 -0.24452686936845 0 -0.25652616337425588 -0.24696241029445379 0 -0.25537346791776128 -0.23337518287370021 0 -0.24294271272773121 -0.246967672793176 0 -0.25652616337425588 -0.24696241029445379 0 -0.25537346791776128 -0.23337518287370021 0 -0.25537346791776128 -0.23337518287370021 0 -0.26771623882973378 -0.21436669085790819 0 -0.25352312128131133 -0.21865805486894821 0 -0.29406358844652708 -0.22039105191541941 0 -0.27537498001236382 -0.23098367292649061 0 -0.26771623882973378 -0.21436669085790819 0 -0.25537346791776128 -0.23337518287370021 0 -0.27537498001236382 -0.23098367292649061 0 -0.26771623882973378 -0.21436669085790819 0 -0.29406358844652708 -0.22039105191541941 0 -0.26771623882973378 -0.21436669085790819 0 -0.27943970958483572 -0.20089979025300919 0 -0.26771623882973378 -0.21436669085790819 0 -0.2679783851753601 -0.20028402582451099 0 -0.27943970958483572 -0.20089979025300919 0 -0.26771623882973378 -0.21436669085790819 0 -0.25352312128131133 -0.21865805486894821 0 -0.25674122321858822 -0.2008090524472641 0 -0.24091893461394329 -0.21084813366110369 0 -0.25352312128131133 -0.21865805486894821 0 -0.25674122321858822 -0.2008090524472641 0 -0.26771623882973378 -0.21436669085790819 0 -0.25674122321858822 -0.2008090524472641 0 -0.2679783851753601 -0.20028402582451099 0 -0.24513638240692309 -0.18778644914859291 0 -0.25674122321858822 -0.2008090524472641 0 -0.267824280380485 -0.18733959177191481 0 -0.24513638240692309 -0.18778644914859291 0 -0.267824280380485 -0.18733959177191481 0 -0.25674122321858822 -0.2008090524472641 0 -0.2679783851753601 -0.20028402582451099 0 -0.267824280380485 -0.18733959177191481 0 -0.27943970958483572 -0.20089979025300919 0 -0.29051217835404691 -0.18689273439523479 0 -0.267824280380485 -0.18733959177191481 0 -0.2679783851753601 -0.20028402582451099 0 -0.27943970958483572 -0.20089979025300919 0 -0.267824280380485 -0.18733959177191481 0 -0.27943970958483572 -0.20089979025300919 0 -0.30363183238706892 -0.20341846446698811 0 -0.29051217835404691 -0.18689273439523479 0 -0.29406358844652708 -0.22039105191541941 0 -0.27943970958483572 -0.20089979025300919 0 -0.30363183238706892 -0.20341846446698811 0 -0.29406358844652708 -0.22039105191541941 0 -0.30363183238706892 -0.20341846446698811 0 -0.29406358844652708 -0.22039105191541941 0 -0.30363183238706892 -0.20341846446698811 0 -0.31368013521819071 -0.22107456735880379 0 -0.30363183238706892 -0.20341846446698811 0 -0.31320007632760888 -0.18644587701855581 0 -0.30363183238706892 -0.20341846446698811 0 -0.29051217835404691 -0.18689273439523479 0 -0.31320007632760888 -0.18644587701855581 0 -0.30457544819362509 -0.16852149368130709 0 -0.29051217835404691 -0.18689273439523479 0 -0.31320007632760888 -0.18644587701855581 0 -0.29051217835404691 -0.18689273439523479 0 -0.31320007632760888 -0.18644587701855581 0 -0.30457544819362509 -0.16852149368130709 0 -0.29686817951060052 -0.15594073032192321 0 -0.31384489502492952 -0.14833492925962091 0 -0.30457544819362509 -0.16852149368130709 0 -0.28638053834274402 -0.16890263465221911 0 -0.29686817951060052 -0.15594073032192321 0 -0.28638053834274402 -0.16890263465221911 0 -0.27697652199080991 -0.15212050177273331 0 -0.29686817951060052 -0.15594073032192321 0 -0.30457544819362509 -0.16852149368130709 0 -0.28638053834274402 -0.16890263465221911 0 -0.29051217835404691 -0.18689273439523479 0 -0.28638053834274402 -0.16890263465221911 0 -0.29051217835404691 -0.18689273439523479 0 -0.27745519347755421 -0.17750236047556411 0 -0.29051217835404691 -0.18689273439523479 0 -0.27745519347755421 -0.17750236047556411 0 -0.267824280380485 -0.18733959177191481 0 -0.29051217835404691 -0.18689273439523479 0 -0.267824280380485 -0.18733959177191481 0 -0.27745519347755421 -0.17750236047556411 0 -0.26885219682485539 -0.1774162321278232 0 -0.27370677348563949 -0.16696060943062849 0 -0.27745519347755421 -0.17750236047556411 0 -0.26885219682485539 -0.1774162321278232 0 -0.267824280380485 -0.18733959177191481 0 -0.267824280380485 -0.18733959177191481 0 -0.25998850915359112 -0.18086860663611709 0 -0.25590860217853789 -0.1831402325901734 0 -0.26885219682485539 -0.1774162321278232 0 -0.267824280380485 -0.18733959177191481 0 -0.25998850915359112 -0.18086860663611709 0 -0.2473689572304858 -0.17557837005455751 0 -0.26885219682485539 -0.1774162321278232 0 -0.25478101089251032 -0.16758650605975309 0 -0.2473689572304858 -0.17557837005455751 0 -0.26885219682485539 -0.1774162321278232 0 -0.2473689572304858 -0.17557837005455751 0 -0.26885219682485539 -0.1774162321278232 0 -0.25998850915359112 -0.18086860663611709 0 -0.24513638240692309 -0.18778644914859291 0 -0.267824280380485 -0.18733959177191481 0 -0.25590860217853789 -0.1831402325901734 0 -0.2473689572304858 -0.17557837005455751 0 -0.25998850915359112 -0.18086860663611709 0 -0.25590860217853789 -0.1831402325901734 0 -0.2447712860700815 -0.16765217587600079 0 -0.25708486447101919 -0.14830027322354331 0 -0.2447712860700815 -0.16765217587600079 0 -0.25478101089251032 -0.16758650605975309 0 -0.25708486447101919 -0.14830027322354331 0 -0.25478101089251032 -0.16758650605975309 0 -0.26288071099785648 -0.1629571908741842 0 -0.25708486447101919 -0.14830027322354331 0 -0.26885219682485539 -0.1774162321278232 0 -0.25478101089251032 -0.16758650605975309 0 -0.26288071099785648 -0.1629571908741842 0 -0.26288071099785648 -0.1629571908741842 0 -0.27370677348563949 -0.16696060943062849 0 -0.27697652199080991 -0.15212050177273331 0 -0.28638053834274402 -0.16890263465221911 0 -0.27370677348563949 -0.16696060943062849 0 -0.27697652199080991 -0.15212050177273331 0 -0.26885219682485539 -0.1774162321278232 0 -0.26288071099785648 -0.1629571908741842 0 -0.27370677348563949 -0.16696060943062849 0 -0.28638053834274402 -0.16890263465221911 0 -0.27745519347755421 -0.17750236047556411 0 -0.27370677348563949 -0.16696060943062849 0 -0.27697652199080991 -0.15212050177273331 0 -0.25708486447101919 -0.14830027322354331 0 -0.27697652199080991 -0.15212050177273331 0 -0.25708486447101919 -0.14830027322354331 0 -0.27163147108432112 -0.12543896467957261 0 -0.26288071099785648 -0.1629571908741842 0 -0.27697652199080991 -0.15212050177273331 0 -0.25708486447101919 -0.14830027322354331 0 -0.25708486447101919 -0.14830027322354331 0 -0.27163147108432112 -0.12543896467957261 0 -0.24772293239154089 -0.13133889465524731 0 -0.25708486447101919 -0.14830027322354331 0 -0.27163147108432112 -0.12543896467957261 0 -0.30204109523775191 -0.11588242641978801 0 -0.27163147108432112 -0.12543896467957261 0 -0.29645438973144211 -0.13797734968317599 0 -0.27697652199080991 -0.15212050177273331 0 -0.27163147108432112 -0.12543896467957261 0 -0.29645438973144211 -0.13797734968317599 0 -0.27697652199080991 -0.15212050177273331 0 -0.29645438973144211 -0.13797734968317599 0 -0.29686817951060052 -0.15594073032192321 0 -0.27697652199080991 -0.15212050177273331 0 -0.29686817951060052 -0.15594073032192321 0 -0.29645438973144211 -0.13797734968317599 0 -0.29686817951060052 -0.15594073032192321 0 -0.31384489502492952 -0.14833492925962091 0 -0.29645438973144211 -0.13797734968317599 0 -0.31763087271419421 -0.12765483662631591 0 -0.31384489502492952 -0.14833492925962091 0 -0.30204109523775191 -0.11588242641978801 0 -0.29645438973144211 -0.13797734968317599 0 -0.31763087271419421 -0.12765483662631591 0 -0.31763087271419421 -0.12765483662631591 0 -0.31384489502492952 -0.14833492925962091 0 -0.34062696122393998 -0.13779481782381639 0 -0.31384489502492952 -0.14833492925962091 0 -0.34062696122393998 -0.13779481782381639 0 -0.32691351877577529 -0.16212034742118661 0 -0.34062696122393998 -0.13779481782381639 0 -0.32691351877577529 -0.16212034742118661 0 -0.34062696122393998 -0.13779481782381639 0 -0.35295971519911878 -0.16319042019117169 0 -0.32691351877577529 -0.16212034742118661 0 -0.33459243554469081 -0.1175211127864776 0 -0.31763087271419421 -0.12765483662631591 0 -0.34062696122393998 -0.13779481782381639 0 -0.35434040367210479 -0.113469288226446 0 -0.34062696122393998 -0.13779481782381639 0 -0.35434040367210479 -0.113469288226446 0 -0.34062696122393998 -0.13779481782381639 0 -0.36242754809725342 -0.12593932953275239 0 -0.34062696122393998 -0.13779481782381639 0 -0.36242754809725342 -0.12593932953275239 0 -0.36035717492554131 -0.1440981891837658 0 -0.36242754809725342 -0.12593932953275239 0 -0.36035717492554131 -0.1440981891837658 0 -0.37835684618764248 -0.14092920459061301 0 -0.36242754809725342 -0.12593932953275239 0 -0.37835684618764248 -0.14092920459061301 0 -0.37731074966784972 -0.11796541200019819 0 -0.36035717492554131 -0.1440981891837658 0 -0.37940294270743607 -0.16389299718102779 0 -0.37835684618764248 -0.14092920459061301 0 -0.34062696122393998 -0.13779481782381639 0 -0.36035717492554131 -0.1440981891837658 0 -0.35295971519911878 -0.16319042019117169 0 -0.36035717492554131 -0.1440981891837658 0 -0.35295971519911878 -0.16319042019117169 0 -0.37940294270743607 -0.16389299718102779 0 -0.35295971519911878 -0.16319042019117169 0 -0.36923843693214392 -0.18534215401863779 0 -0.37940294270743607 -0.16389299718102779 0 -0.35295971519911878 -0.16319042019117169 0 -0.36923843693214392 -0.18534215401863779 0 -0.3412192566298764 -0.1858940155185963 0 -0.36923843693214392 -0.18534215401863779 0 -0.3412192566298764 -0.1858940155185963 0 -0.35295971519911878 -0.16319042019117169 0 -0.3412192566298764 -0.1858940155185963 0 -0.32691351877577529 -0.16212034742118661 0 -0.30457544819362509 -0.16852149368130709 0 -0.31384489502492952 -0.14833492925962091 0 -0.32691351877577529 -0.16212034742118661 0 -0.3412192566298764 -0.1858940155185963 0 -0.31320007632760888 -0.18644587701855581 0 -0.32691351877577529 -0.16212034742118661 0 -0.31320007632760888 -0.18644587701855581 0 -0.30457544819362509 -0.16852149368130709 0 -0.32691351877577529 -0.16212034742118661 0 -0.31320007632760888 -0.18644587701855581 0 -0.3412192566298764 -0.1858940155185963 0 -0.32691351877577529 -0.16212034742118661 0 -0.31320007632760888 -0.18644587701855581 0 -0.30363183238706892 -0.20341846446698811 0 -0.31320007632760888 -0.18644587701855581 0 -0.32773431945743597 -0.20768143036052569 0 -0.3412192566298764 -0.1858940155185963 0 -0.31320007632760888 -0.18644587701855581 0 -0.32773431945743597 -0.20768143036052569 0 -0.30363183238706892 -0.20341846446698811 0 -0.32773431945743597 -0.20768143036052569 0 -0.31368013521819071 -0.22107456735880379 0 -0.32773431945743597 -0.20768143036052569 0 -0.35556400649879222 -0.21016485159446099 0 -0.33246446129931723 -0.23285330315024891 0 -0.3412192566298764 -0.1858940155185963 0 -0.32773431945743597 -0.20768143036052569 0 -0.35556400649879222 -0.21016485159446099 0 -0.36923843693214392 -0.18534215401863779 0 -0.3412192566298764 -0.1858940155185963 0 -0.35556400649879222 -0.21016485159446099 0 -0.36923843693214392 -0.18534215401863779 0 -0.35556400649879222 -0.21016485159446099 0 -0.37914797598273448 -0.20253942920642251 0 -0.35556400649879222 -0.21016485159446099 0 -0.38099011434016022 -0.2224262452622795 0 -0.37914797598273448 -0.20253942920642251 0 -0.35556400649879222 -0.21016485159446099 0 -0.35887261023027311 -0.23404822214823531 0 -0.33246446129931723 -0.23285330315024891 0 -0.35887261023027311 -0.23404822214823531 0 -0.3767973705569283 -0.24112323216075551 0 -0.38099011434016022 -0.2224262452622795 0 -0.35556400649879222 -0.21016485159446099 0 -0.35887261023027311 -0.23404822214823531 0 -0.38099011434016022 -0.2224262452622795 0 -0.36697682855123132 -0.2579397511407564 0 -0.35887261023027311 -0.23404822214823531 0 -0.3767973705569283 -0.24112323216075551 0 -0.33974311574663402 -0.25738553055922281 0 -0.36697682855123132 -0.2579397511407564 0 -0.35887261023027311 -0.23404822214823531 0 -0.33974311574663402 -0.25738553055922281 0 -0.35887261023027311 -0.23404822214823531 0 -0.33246446129931723 -0.23285330315024891 0 -0.32144586109570311 -0.2560533286399938 0 -0.33974311574663402 -0.25738553055922281 0 -0.33246446129931723 -0.23285330315024891 0 -0.31050647450060431 -0.2410285869008367 0 -0.33246446129931723 -0.23285330315024891 0 -0.31368013521819071 -0.22107456735880379 0 -0.32773431945743597 -0.20768143036052569 0 -0.33246446129931723 -0.23285330315024891 0 -0.31368013521819071 -0.22107456735880379 0 -0.32144586109570311 -0.2560533286399938 0 -0.31050647450060431 -0.2410285869008367 0 -0.33246446129931723 -0.23285330315024891 0 -0.41676923950141981 -0.25021891573173599 0 -0.43671774811853581 -0.2462955089460456 0 -0.42562441286588099 -0.23167627905796859 0 -0.42562441286588099 -0.23167627905796859 0 -0.41305338652309531 -0.2176761061835471 0 -0.4335104472262129 -0.20734648530655969 0 -0.42562441286588099 -0.23167627905796859 0 -0.4335104472262129 -0.20734648530655969 0 -0.45127447969056361 -0.22710807763004931 0 -0.40960176696989908 -0.23463728462784109 0 -0.39951378294603479 -0.22488452344436319 0 -0.41305338652309531 -0.2176761061835471 0 -0.42562441286588099 -0.23167627905796859 0 -0.40960176696989908 -0.23463728462784109 0 -0.41305338652309531 -0.2176761061835471 0 -0.41676923950141981 -0.25021891573173599 0 -0.40960176696989908 -0.23463728462784109 0 -0.39473506901606342 -0.24268551961910159 0 -0.41676923950141981 -0.25021891573173599 0 -0.42562441286588099 -0.23167627905796859 0 -0.40960176696989908 -0.23463728462784109 0 -0.38924912100373782 -0.25894014718292357 0 -0.39473506901606342 -0.24268551961910159 0 -0.3767973705569283 -0.24112323216075551 0 -0.39473506901606342 -0.24268551961910159 0 -0.3767973705569283 -0.24112323216075551 0 -0.38099011434016022 -0.2224262452622795 0 -0.39473506901606342 -0.24268551961910159 0 -0.38099011434016022 -0.2224262452622795 0 -0.40960176696989908 -0.23463728462784109 0 -0.39473506901606342 -0.24268551961910159 0 -0.39951378294603479 -0.22488452344436319 0 -0.39473506901606342 -0.24268551961910159 0 -0.38099011434016022 -0.2224262452622795 0 -0.39951378294603479 -0.22488452344436319 0 -0.38099011434016022 -0.2224262452622795 0 -0.39951378294603479 -0.22488452344436319 0 -0.39680295604019489 -0.20853710285868629 0 -0.39951378294603479 -0.22488452344436319 0 -0.39680295604019489 -0.20853710285868629 0 -0.41305338652309531 -0.2176761061835471 0 -0.38099011434016022 -0.2224262452622795 0 -0.39680295604019489 -0.20853710285868629 0 -0.37914797598273448 -0.20253942920642251 0 -0.36923843693214392 -0.18534215401863779 0 -0.37914797598273448 -0.20253942920642251 0 -0.39725761723441139 -0.18479029251867929 0 -0.39680295604019489 -0.20853710285868629 0 -0.37914797598273448 -0.20253942920642251 0 -0.39725761723441139 -0.18479029251867929 0 -0.39680295604019489 -0.20853710285868629 0 -0.41318024091211869 -0.20051768357723859 0 -0.39725761723441139 -0.18479029251867929 0 -0.41318024091211869 -0.20051768357723859 0 -0.42527679753667902 -0.18423843101872081 0 -0.39725761723441139 -0.18479029251867929 0 -0.39680295604019489 -0.20853710285868629 0 -0.41318024091211869 -0.20051768357723859 0 -0.41305338652309531 -0.2176761061835471 0 -0.41318024091211869 -0.20051768357723859 0 -0.41305338652309531 -0.2176761061835471 0 -0.4335104472262129 -0.20734648530655969 0 -0.4335104472262129 -0.20734648530655969 0 -0.42527679753667902 -0.18423843101872081 0 -0.45329597783894648 -0.1836865695187623 0 -0.41318024091211869 -0.20051768357723859 0 -0.4335104472262129 -0.20734648530655969 0 -0.42527679753667902 -0.18423843101872081 0 -0.42527679753667902 -0.18423843101872081 0 -0.43383226604443997 -0.16311088002659879 0 -0.45329597783894648 -0.1836865695187623 0 -0.42527679753667902 -0.18423843101872081 0 -0.43383226604443997 -0.16311088002659879 0 -0.41433759910310958 -0.16619369813619839 0 -0.43383226604443997 -0.16311088002659879 0 -0.41433759910310958 -0.16619369813619839 0 -0.41810371562524568 -0.14590936618264819 0 -0.42527679753667902 -0.18423843101872081 0 -0.41433759910310958 -0.16619369813619839 0 -0.39725761723441139 -0.18479029251867929 0 -0.42527679753667902 -0.18423843101872081 0 -0.39725761723441139 -0.18479029251867929 0 -0.41433759910310958 -0.16619369813619839 0 -0.39725761723441139 -0.18479029251867929 0 -0.39721759907477189 -0.15291952093434469 0 -0.39725761723441139 -0.18479029251867929 0 -0.37940294270743607 -0.16389299718102779 0 -0.39721759907477189 -0.15291952093434469 0 -0.36923843693214392 -0.18534215401863779 0 -0.39725761723441139 -0.18479029251867929 0 -0.36923843693214392 -0.18534215401863779 0 -0.39725761723441139 -0.18479029251867929 0 -0.37940294270743607 -0.16389299718102779 0 -0.39721759907477189 -0.15291952093434469 0 -0.37835684618764248 -0.14092920459061301 0 -0.40092107659423581 -0.12961104527409939 0 -0.39721759907477189 -0.15291952093434469 0 -0.40092107659423581 -0.12961104527409939 0 -0.41810371562524568 -0.14590936618264819 0 -0.37940294270743607 -0.16389299718102779 0 -0.39721759907477189 -0.15291952093434469 0 -0.37835684618764248 -0.14092920459061301 0 -0.37940294270743607 -0.16389299718102779 0 -0.37835684618764248 -0.14092920459061301 0 -0.37835684618764248 -0.14092920459061301 0 -0.37731074966784972 -0.11796541200019819 0 -0.37835684618764248 -0.14092920459061301 0 -0.40092107659423581 -0.12961104527409939 0 -0.37731074966784972 -0.11796541200019819 0 -0.40092107659423581 -0.12961104527409939 0 -0.41810371562524568 -0.14590936618264819 0 -0.42409646032628551 -0.12802094552525431 0 -0.41433759910310958 -0.16619369813619839 0 -0.39721759907477189 -0.15291952093434469 0 -0.41810371562524568 -0.14590936618264819 0 -0.43383226604443997 -0.16311088002659879 0 -0.41810371562524568 -0.14590936618264819 0 -0.43923191335635281 -0.1424078802185349 0 -0.41810371562524568 -0.14590936618264819 0 -0.42409646032628551 -0.12802094552525431 0 -0.43923191335635281 -0.1424078802185349 0 -0.42409646032628551 -0.12802094552525431 0 -0.43923191335635281 -0.1424078802185349 0 -0.44495443631011788 -0.12160535875082271 0 -0.43923191335635281 -0.1424078802185349 0 -0.4579544121803219 -0.1389909020812741 0 -0.44495443631011788 -0.12160535875082271 0 -0.43383226604443997 -0.16311088002659879 0 -0.43923191335635281 -0.1424078802185349 0 -0.4543427524178712 -0.1602408909749736 0 -0.43923191335635281 -0.1424078802185349 0 -0.4579544121803219 -0.1389909020812741 0 -0.4543427524178712 -0.1602408909749736 0 -0.4579544121803219 -0.1389909020812741 0 -0.47463035262089182 -0.15968702451167249 0 -0.4543427524178712 -0.1602408909749736 0 -0.4579544121803219 -0.1389909020812741 0 -0.44495443631011788 -0.12160535875082271 0 -0.46076946315053019 -0.1233794285345073 0 -0.4579544121803219 -0.1389909020812741 0 -0.46076946315053019 -0.1233794285345073 0 -0.47750706481470417 -0.1249052492813931 0 -0.4579544121803219 -0.1389909020812741 0 -0.48418743619226617 -0.1437143831092639 0 -0.47750706481470417 -0.1249052492813931 0 -0.5 -0.13389757824724691 0 -0.48418743619226617 -0.1437143831092639 0 -0.47750706481470417 -0.1249052492813931 0 -0.48418743619226617 -0.1437143831092639 0 -0.47463035262089182 -0.15968702451167249 0 -0.5 -0.1619722491147807 0 -0.5 -0.13389757824724691 0 -0.48418743619226617 -0.1437143831092639 0 -0.5 -0.1619722491147807 0 -0.4579544121803219 -0.1389909020812741 0 -0.48418743619226617 -0.1437143831092639 0 -0.47463035262089182 -0.15968702451167249 0 -0.47463035262089182 -0.15968702451167249 0 -0.48131515814121423 -0.1831347080188038 0 -0.4658960602547309 -0.17168729825605311 0 -0.47463035262089182 -0.15968702451167249 0 -0.5 -0.1619722491147807 0 -0.48131515814121423 -0.1831347080188038 0 -0.5 -0.1619722491147807 0 -0.48131515814121423 -0.1831347080188038 0 -0.5 -0.19004691998231449 0 -0.45329597783894648 -0.1836865695187623 0 -0.4658960602547309 -0.17168729825605311 0 -0.4543427524178712 -0.1602408909749736 0 -0.48131515814121423 -0.1831347080188038 0 -0.45329597783894648 -0.1836865695187623 0 -0.4658960602547309 -0.17168729825605311 0 -0.48131515814121423 -0.1831347080188038 0 -0.45329597783894648 -0.1836865695187623 0 -0.47463035262089182 -0.15968702451167249 0 -0.4658960602547309 -0.17168729825605311 0 -0.4543427524178712 -0.1602408909749736 0 -0.43383226604443997 -0.16311088002659879 0 -0.45329597783894648 -0.1836865695187623 0 -0.4543427524178712 -0.1602408909749736 0 -0.42527679753667902 -0.18423843101872081 0 -0.45329597783894648 -0.1836865695187623 0 -0.4335104472262129 -0.20734648530655969 0 -0.45329597783894648 -0.1836865695187623 0 -0.45577703419463578 -0.20728851460189929 0 -0.4335104472262129 -0.20734648530655969 0 -0.45577703419463578 -0.20728851460189929 0 -0.45127447969056361 -0.22710807763004931 0 -0.45577703419463578 -0.20728851460189929 0 -0.47264849191304992 -0.21339098575574089 0 -0.45127447969056361 -0.22710807763004931 0 -0.45577703419463578 -0.20728851460189929 0 -0.46946608283153041 -0.1974295967765671 0 -0.47264849191304992 -0.21339098575574089 0 -0.48131515814121423 -0.1831347080188038 0 -0.45329597783894648 -0.1836865695187623 0 -0.46946608283153041 -0.1974295967765671 0 -0.45329597783894648 -0.1836865695187623 0 -0.45577703419463578 -0.20728851460189929 0 -0.46946608283153041 -0.1974295967765671 0 -0.48131515814121423 -0.1831347080188038 0 -0.46946608283153041 -0.1974295967765671 0 -0.48429375206980541 -0.19964720598762931 0 -0.48429375206980541 -0.19964720598762931 0 -0.5 -0.19004691998231449 0 -0.5 -0.21812159084984831 0 -0.48131515814121423 -0.1831347080188038 0 -0.48429375206980541 -0.19964720598762931 0 -0.5 -0.19004691998231449 0 -0.48429375206980541 -0.19964720598762931 0 -0.5 -0.21812159084984831 0 -0.47264849191304992 -0.21339098575574089 0 -0.46946608283153041 -0.1974295967765671 0 -0.48429375206980541 -0.19964720598762931 0 -0.47264849191304992 -0.21339098575574089 0 -0.5 -0.21812159084984831 0 -0.47264849191304992 -0.21339098575574089 0 -0.47567343178643012 -0.23696598380135181 0 -0.5 -0.21812159084984831 0 -0.5 -0.24619626171738199 0 -0.47567343178643012 -0.23696598380135181 0 -0.47455237031219483 -0.26169705396472459 0 -0.5 -0.24619626171738199 0 -0.47567343178643012 -0.23696598380135181 0 -0.45540603302393468 -0.2531222969012123 0 -0.47567343178643012 -0.23696598380135181 0 -0.45127447969056361 -0.22710807763004931 0 -0.47264849191304992 -0.21339098575574089 0 -0.47567343178643012 -0.23696598380135181 0 -0.45127447969056361 -0.22710807763004931 0 -0.43671774811853581 -0.2462955089460456 0 -0.42562441286588099 -0.23167627905796859 0 -0.45127447969056361 -0.22710807763004931 0 -0.45540603302393468 -0.2531222969012123 0 -0.43671774811853581 -0.2462955089460456 0 -0.45127447969056361 -0.22710807763004931 0 -0.41049127181087208 -0.048116275565634359 0 -0.40475829376189038 -0.025151746118368359 0 -0.41049127181087208 -0.048116275565634359 0 -0.43080015278025441 -0.03819265892600749 0 -0.40475829376189038 -0.025151746118368359 0 -0.41049127181087208 -0.048116275565634359 0 -0.42570794657954519 -0.057908381132435821 0 -0.41622424985985379 -0.071080805012900344 0 -0.41049127181087208 -0.048116275565634359 0 -0.3941746348941676 -0.058615027746853052 0 -0.41622424985985379 -0.071080805012900344 0 -0.41049127181087208 -0.048116275565634359 0 -0.41622424985985379 -0.071080805012900344 0 -0.41049127181087208 -0.048116275565634359 0 -0.42570794657954519 -0.057908381132435821 0 -0.43080015278025441 -0.03819265892600749 0 -0.42570794657954519 -0.057908381132435821 0 -0.43080015278025441 -0.03819265892600749 0 -0.44303320872575952 -0.060284937531869691 0 -0.43080015278025441 -0.03819265892600749 0 -0.42860595588110839 -0.01588840966221838 0 -0.44712832666113028 -0.021822683903865429 0 -0.42860595588110839 -0.01588840966221838 0 -0.45002724807459871 -0.0030400521916615262 0 -0.42593337605189491 0.0036121682274749571 0 -0.42860595588110839 -0.01588840966221838 0 -0.41290969630723678 -0.0095493944527905994 0 -0.42593337605189491 0.0036121682274749571 0 -0.41290969630723678 -0.0095493944527905994 0 -0.42593337605189491 0.0036121682274749571 0 -0.40588327416665759 0.002018284634739226 0 -0.42860595588110839 -0.01588840966221838 0 -0.41290969630723678 -0.0095493944527905994 0 -0.40475829376189038 -0.025151746118368359 0 -0.43080015278025441 -0.03819265892600749 0 -0.42860595588110839 -0.01588840966221838 0 -0.40475829376189038 -0.025151746118368359 0 -0.40475829376189038 -0.025151746118368359 0 -0.39161809827638377 -0.0226203853494545 0 -0.39592383124098568 -0.01057093002990628 0 -0.39161809827638377 -0.0226203853494545 0 -0.39592383124098568 -0.01057093002990628 0 -0.38453114130079352 -0.01622026869656152 0 -0.40475829376189038 -0.025151746118368359 0 -0.39161809827638377 -0.0226203853494545 0 -0.39254490078801851 -0.037003188908726732 0 -0.41290969630723678 -0.0095493944527905994 0 -0.40475829376189038 -0.025151746118368359 0 -0.39592383124098568 -0.01057093002990628 0 -0.41290969630723678 -0.0095493944527905994 0 -0.39592383124098568 -0.01057093002990628 0 -0.40588327416665759 0.002018284634739226 0 -0.39592383124098568 -0.01057093002990628 0 -0.3910906890555389 0.002213308667917374 0 -0.40588327416665759 0.002018284634739226 0 -0.37276780195467768 -0.018239137167604211 0 -0.38202240793009312 -0.0053258981395451358 0 -0.37163206502638491 0.0066924315405442192 0 -0.39592383124098568 -0.01057093002990628 0 -0.38202240793009312 -0.0053258981395451358 0 -0.3910906890555389 0.002213308667917374 0 -0.39592383124098568 -0.01057093002990628 0 -0.38202240793009312 -0.0053258981395451358 0 -0.38453114130079352 -0.01622026869656152 0 -0.37276780195467768 -0.018239137167604211 0 -0.38202240793009312 -0.0053258981395451358 0 -0.38453114130079352 -0.01622026869656152 0 -0.37390353888297051 -0.043170705875752648 0 -0.37276780195467768 -0.018239137167604211 0 -0.38307309624056879 -0.027450737199619921 0 -0.39161809827638377 -0.0226203853494545 0 -0.38307309624056879 -0.027450737199619921 0 -0.39254490078801851 -0.037003188908726732 0 -0.39161809827638377 -0.0226203853494545 0 -0.38307309624056879 -0.027450737199619921 0 -0.38453114130079352 -0.01622026869656152 0 -0.37276780195467768 -0.018239137167604211 0 -0.38307309624056879 -0.027450737199619921 0 -0.38453114130079352 -0.01622026869656152 0 -0.37390353888297051 -0.043170705875752648 0 -0.38307309624056879 -0.027450737199619921 0 -0.39254490078801851 -0.037003188908726732 0 -0.37390353888297051 -0.043170705875752648 0 -0.39254490078801851 -0.037003188908726732 0 -0.3941746348941676 -0.058615027746853052 0 -0.41049127181087208 -0.048116275565634359 0 -0.40475829376189038 -0.025151746118368359 0 -0.39254490078801851 -0.037003188908726732 0 -0.41049127181087208 -0.048116275565634359 0 -0.39254490078801851 -0.037003188908726732 0 -0.3941746348941676 -0.058615027746853052 0 -0.37503927581126328 -0.06810227458390114 0 -0.37390353888297051 -0.043170705875752648 0 -0.3941746348941676 -0.058615027746853052 0 -0.37503927581126328 -0.06810227458390114 0 -0.3941746348941676 -0.058615027746853052 0 -0.39751193148857661 -0.082698167338496886 0 -0.37503927581126328 -0.06810227458390114 0 -0.37617501273955611 -0.093033843292049695 0 -0.39751193148857661 -0.082698167338496886 0 -0.37503927581126328 -0.06810227458390114 0 -0.37617501273955611 -0.093033843292049695 0 -0.3941746348941676 -0.058615027746853052 0 -0.39751193148857661 -0.082698167338496886 0 -0.41622424985985379 -0.071080805012900344 0 -0.37731074966784972 -0.11796541200019819 0 -0.39963398878834289 -0.10600537323018271 0 -0.37617501273955611 -0.093033843292049695 0 -0.37731074966784972 -0.11796541200019819 0 -0.39963398878834289 -0.10600537323018271 0 -0.37617501273955611 -0.093033843292049695 0 -0.37731074966784972 -0.11796541200019819 0 -0.37617501273955611 -0.093033843292049695 0 -0.39751193148857661 -0.082698167338496886 0 -0.39963398878834289 -0.10600537323018271 0 -0.40092107659423581 -0.12961104527409939 0 -0.39963398878834289 -0.10600537323018271 0 -0.41320318064355388 -0.1169972599375296 0 -0.40092107659423581 -0.12961104527409939 0 -0.37731074966784972 -0.11796541200019819 0 -0.39963398878834289 -0.10600537323018271 0 -0.39963398878834289 -0.10600537323018271 0 -0.41320318064355388 -0.1169972599375296 0 -0.42512394176302981 -0.10673020660416931 0 -0.40092107659423581 -0.12961104527409939 0 -0.42409646032628551 -0.12802094552525431 0 -0.41320318064355388 -0.1169972599375296 0 -0.39963398878834289 -0.10600537323018271 0 -0.42195722790883572 -0.094045334460166274 0 -0.39751193148857661 -0.082698167338496886 0 -0.39963398878834289 -0.10600537323018271 0 -0.42195722790883572 -0.094045334460166274 0 -0.39963398878834289 -0.10600537323018271 0 -0.42195722790883572 -0.094045334460166274 0 -0.42512394176302981 -0.10673020660416931 0 -0.42195722790883572 -0.094045334460166274 0 -0.43310005717205241 -0.1005354351163482 0 -0.42512394176302981 -0.10673020660416931 0 -0.42195722790883572 -0.094045334460166274 0 -0.42512394176302981 -0.10673020660416931 0 -0.43310005717205241 -0.1005354351163482 0 -0.42512394176302981 -0.10673020660416931 0 -0.43178044028391283 -0.1155532737024792 0 -0.43310005717205241 -0.1005354351163482 0 -0.43178044028391283 -0.1155532737024792 0 -0.44428223356203839 -0.10323223757661409 0 -0.42409646032628551 -0.12802094552525431 0 -0.43178044028391283 -0.1155532737024792 0 -0.44495443631011788 -0.12160535875082271 0 -0.42409646032628551 -0.12802094552525431 0 -0.41320318064355388 -0.1169972599375296 0 -0.43178044028391283 -0.1155532737024792 0 -0.41320318064355388 -0.1169972599375296 0 -0.42512394176302981 -0.10673020660416931 0 -0.43178044028391283 -0.1155532737024792 0 -0.42195722790883572 -0.094045334460166274 0 -0.41622424985985379 -0.071080805012900344 0 -0.39751193148857661 -0.082698167338496886 0 -0.42195722790883572 -0.094045334460166274 0 -0.41622424985985379 -0.071080805012900344 0 -0.42195722790883572 -0.094045334460166274 0 -0.43310005717205241 -0.1005354351163482 0 -0.44235644234244542 -0.08311612323831237 0 -0.42195722790883572 -0.094045334460166274 0 -0.44235644234244542 -0.08311612323831237 0 -0.42195722790883572 -0.094045334460166274 0 -0.42831073374134881 -0.078473780512475264 0 -0.44235644234244542 -0.08311612323831237 0 -0.42195722790883572 -0.094045334460166274 0 -0.41622424985985379 -0.071080805012900344 0 -0.42831073374134881 -0.078473780512475264 0 -0.42570794657954519 -0.057908381132435821 0 -0.41622424985985379 -0.071080805012900344 0 -0.42831073374134881 -0.078473780512475264 0 -0.42570794657954519 -0.057908381132435821 0 -0.42831073374134881 -0.078473780512475264 0 -0.44303320872575952 -0.060284937531869691 0 -0.44235644234244542 -0.08311612323831237 0 -0.4627556567760549 -0.072186912016457813 0 -0.44235644234244542 -0.08311612323831237 0 -0.4627556567760549 -0.072186912016457813 0 -0.44303320872575952 -0.060284937531869691 0 -0.42831073374134881 -0.078473780512475264 0 -0.44235644234244542 -0.08311612323831237 0 -0.44303320872575952 -0.060284937531869691 0 -0.44235644234244542 -0.08311612323831237 0 -0.46003558383382143 -0.084257661469596554 0 -0.45538354655086061 -0.095402695343590138 0 -0.44235644234244542 -0.08311612323831237 0 -0.46003558383382143 -0.084257661469596554 0 -0.4627556567760549 -0.072186912016457813 0 -0.46003558383382143 -0.084257661469596554 0 -0.45538354655086061 -0.095402695343590138 0 -0.46934394919577571 -0.091988287314391806 0 -0.46003558383382143 -0.084257661469596554 0 -0.47033832430397032 -0.078594289435230613 0 -0.46934394919577571 -0.091988287314391806 0 -0.46003558383382143 -0.084257661469596554 0 -0.4627556567760549 -0.072186912016457813 0 -0.47033832430397032 -0.078594289435230613 0 -0.4627556567760549 -0.072186912016457813 0 -0.45676742128068692 -0.059504597350029567 0 -0.44303320872575952 -0.060284937531869691 0 -0.4627556567760549 -0.072186912016457813 0 -0.47033832430397032 -0.078594289435230613 0 -0.47062847236381122 -0.061642664822609571 0 -0.4627556567760549 -0.072186912016457813 0 -0.47062847236381122 -0.061642664822609571 0 -0.45676742128068692 -0.059504597350029567 0 -0.43178044028391283 -0.1155532737024792 0 -0.44495443631011788 -0.12160535875082271 0 -0.44428223356203839 -0.10323223757661409 0 -0.44495443631011788 -0.12160535875082271 0 -0.44428223356203839 -0.10323223757661409 0 -0.46266193929697702 -0.1080162040245394 0 -0.43310005717205241 -0.1005354351163482 0 -0.44235644234244542 -0.08311612323831237 0 -0.44428223356203839 -0.10323223757661409 0 -0.44235644234244542 -0.08311612323831237 0 -0.44428223356203839 -0.10323223757661409 0 -0.45538354655086061 -0.095402695343590138 0 -0.46266193929697702 -0.1080162040245394 0 -0.45538354655086061 -0.095402695343590138 0 -0.46934394919577571 -0.091988287314391806 0 -0.44428223356203839 -0.10323223757661409 0 -0.46266193929697702 -0.1080162040245394 0 -0.45538354655086061 -0.095402695343590138 0 -0.46266193929697702 -0.1080162040245394 0 -0.46076946315053019 -0.1233794285345073 0 -0.47750706481470417 -0.1249052492813931 0 -0.44495443631011788 -0.12160535875082271 0 -0.46266193929697702 -0.1080162040245394 0 -0.46076946315053019 -0.1233794285345073 0 -0.46266193929697702 -0.1080162040245394 0 -0.47750706481470417 -0.1249052492813931 0 -0.47896543789787271 -0.1028930868202397 0 -0.46266193929697702 -0.1080162040245394 0 -0.47896543789787271 -0.1028930868202397 0 -0.46934394919577571 -0.091988287314391806 0 -0.50000000000000056 -0.1058229073797131 0 -0.48531423618190611 -0.083732786101161208 0 -0.47896543789787271 -0.1028930868202397 0 -0.50000000000000056 -0.1058229073797131 0 -0.48531423618190611 -0.083732786101161208 0 -0.47750706481470417 -0.1249052492813931 0 -0.47896543789787271 -0.1028930868202397 0 -0.50000000000000056 -0.1058229073797131 0 -0.5 -0.13389757824724691 0 -0.47750706481470417 -0.1249052492813931 0 -0.50000000000000056 -0.1058229073797131 0 -0.48531423618190611 -0.083732786101161208 0 -0.47062847236381122 -0.061642664822609571 0 -0.48531423618190611 -0.083732786101161208 0 -0.48759068336141692 -0.065557837798569357 0 -0.47062847236381122 -0.061642664822609571 0 -0.47033832430397032 -0.078594289435230613 0 -0.48531423618190611 -0.083732786101161208 0 -0.47062847236381122 -0.061642664822609571 0 -0.47896543789787271 -0.1028930868202397 0 -0.46934394919577571 -0.091988287314391806 0 -0.48531423618190611 -0.083732786101161208 0 -0.47033832430397032 -0.078594289435230613 0 -0.46934394919577571 -0.091988287314391806 0 -0.48531423618190611 -0.083732786101161208 0 -0.50000000000000056 -0.1058229073797131 0 -0.5 -0.078202004681131476 0 -0.48531423618190611 -0.083732786101161208 0 -0.5 -0.078202004681131476 0 -0.48531423618190611 -0.083732786101161208 0 -0.48759068336141692 -0.065557837798569357 0 -0.5 -0.078202004681131476 0 -0.48759068336141692 -0.065557837798569357 0 -0.5 -0.050581101982549843 0 -0.48759068336141692 -0.065557837798569357 0 -0.5 -0.050581101982549843 0 -0.483692615878968 -0.054210710215682828 0 -0.5 -0.050581101982549843 0 -0.47924235997880599 -0.039989362355463673 0 -0.483692615878968 -0.054210710215682828 0 -0.5 -0.050581101982549843 0 -0.47924235997880599 -0.039989362355463673 0 -0.5 -0.022960199283968089 0 -0.47924235997880599 -0.039989362355463673 0 -0.45594270854571639 -0.039552543544057933 0 -0.47237668206820538 -0.01550696170348804 0 -0.48759068336141692 -0.065557837798569357 0 -0.483692615878968 -0.054210710215682828 0 -0.47062847236381122 -0.061642664822609571 0 -0.47924235997880599 -0.039989362355463673 0 -0.483692615878968 -0.054210710215682828 0 -0.47062847236381122 -0.061642664822609571 0 -0.47924235997880599 -0.039989362355463673 0 -0.47062847236381122 -0.061642664822609571 0 -0.45594270854571639 -0.039552543544057933 0 -0.47062847236381122 -0.061642664822609571 0 -0.45676742128068692 -0.059504597350029567 0 -0.45594270854571639 -0.039552543544057933 0 -0.47062847236381122 -0.061642664822609571 0 -0.45594270854571639 -0.039552543544057933 0 -0.43080015278025441 -0.03819265892600749 0 -0.45594270854571639 -0.039552543544057933 0 -0.44712832666113028 -0.021822683903865429 0 -0.43080015278025441 -0.03819265892600749 0 -0.45594270854571639 -0.039552543544057933 0 -0.44303320872575952 -0.060284937531869691 0 -0.45676742128068692 -0.059504597350029567 0 -0.45594270854571639 -0.039552543544057933 0 -0.44303320872575952 -0.060284937531869691 0 -0.42860595588110839 -0.01588840966221838 0 -0.45002724807459871 -0.0030400521916615262 0 -0.44712832666113028 -0.021822683903865429 0 -0.45594270854571639 -0.039552543544057933 0 -0.44712832666113028 -0.021822683903865429 0 -0.47237668206820538 -0.01550696170348804 0 -0.45002724807459871 -0.0030400521916615262 0 -0.47237668206820538 -0.01550696170348804 0 -0.47429613121718628 0.01415540593998681 0 -0.45002724807459871 -0.0030400521916615262 0 -0.44712832666113028 -0.021822683903865429 0 -0.47237668206820538 -0.01550696170348804 0 -0.47924235997880599 -0.039989362355463673 0 -0.47237668206820538 -0.01550696170348804 0 -0.5 -0.022960199283968089 0 -0.47237668206820538 -0.01550696170348804 0 -0.5 -0.022960199283968089 0 -0.5 0.004660703414613554 0 -0.47429613121718628 0.01415540593998681 0 -0.5 0.032281606113195187 0 -0.47979209078208768 0.044150821451916622 0 -0.5 0.004660703414613554 0 -0.47429613121718628 0.01415540593998681 0 -0.5 0.032281606113195187 0 -0.47429613121718628 0.01415540593998681 0 -0.47979209078208768 0.044150821451916622 0 -0.45735490026298109 0.034866906074035003 0 -0.47237668206820538 -0.01550696170348804 0 -0.5 0.004660703414613554 0 -0.47429613121718628 0.01415540593998681 0 -0.5 0.059902508811776889 0 -0.48446780798723371 0.06160223964016031 0 -0.47979209078208768 0.044150821451916622 0 -0.5 0.059902508811776889 0 -0.5 0.032281606113195187 0 -0.47979209078208768 0.044150821451916622 0 -0.48446780798723371 0.06160223964016031 0 -0.47979209078208768 0.044150821451916622 0 -0.47094233987244272 0.065851507536775072 0 -0.47979209078208768 0.044150821451916622 0 -0.46175754458622909 0.051473292789049663 0 -0.47094233987244272 0.065851507536775072 0 -0.46175754458622909 0.051473292789049663 0 -0.44643371226925782 0.048007698741967843 0 -0.45426467974437612 0.06448953014055378 0 -0.46175754458622909 0.051473292789049663 0 -0.45426467974437612 0.06448953014055378 0 -0.47094233987244272 0.065851507536775072 0 -0.47979209078208768 0.044150821451916622 0 -0.46175754458622909 0.051473292789049663 0 -0.45735490026298109 0.034866906074035003 0 -0.46175754458622909 0.051473292789049663 0 -0.45735490026298109 0.034866906074035003 0 -0.44643371226925782 0.048007698741967843 0 -0.45735490026298109 0.034866906074035003 0 -0.44643371226925782 0.048007698741967843 0 -0.43332361235074068 0.039172235738812469 0 -0.44643371226925782 0.048007698741967843 0 -0.43983502445219141 0.061502946430459518 0 -0.45426467974437612 0.06448953014055378 0 -0.44643371226925782 0.048007698741967843 0 -0.43983502445219141 0.061502946430459518 0 -0.43332361235074068 0.039172235738812469 0 -0.45002724807459871 -0.0030400521916615262 0 -0.47429613121718628 0.01415540593998681 0 -0.44407345716626262 0.017842070298084919 0 -0.47429613121718628 0.01415540593998681 0 -0.45735490026298109 0.034866906074035003 0 -0.44407345716626262 0.017842070298084919 0 -0.45735490026298109 0.034866906074035003 0 -0.44407345716626262 0.017842070298084919 0 -0.43332361235074068 0.039172235738812469 0 -0.45002724807459871 -0.0030400521916615262 0 -0.44407345716626262 0.017842070298084919 0 -0.42593337605189491 0.0036121682274749571 0 -0.44407345716626262 0.017842070298084919 0 -0.42593337605189491 0.0036121682274749571 0 -0.42629298011784061 0.019700986923677961 0 -0.42593337605189491 0.0036121682274749571 0 -0.41201914543273621 0.01508486170033017 0 -0.40588327416665759 0.002018284634739226 0 -0.42593337605189491 0.0036121682274749571 0 -0.41201914543273621 0.01508486170033017 0 -0.42629298011784061 0.019700986923677961 0 -0.41201914543273621 0.01508486170033017 0 -0.41433880945589152 0.02979961183413142 0 -0.40040093236682978 0.02453330970621255 0 -0.41201914543273621 0.01508486170033017 0 -0.41433880945589152 0.02979961183413142 0 -0.42629298011784061 0.019700986923677961 0 -0.41433880945589152 0.02979961183413142 0 -0.42629298011784061 0.019700986923677961 0 -0.43332361235074068 0.039172235738812469 0 -0.44407345716626262 0.017842070298084919 0 -0.42629298011784061 0.019700986923677961 0 -0.43332361235074068 0.039172235738812469 0 -0.43983502445219141 0.061502946430459518 0 -0.43332361235074068 0.039172235738812469 0 -0.42210027467512462 0.057612877244027867 0 -0.43332361235074068 0.039172235738812469 0 -0.42210027467512462 0.057612877244027867 0 -0.41219808977550138 0.045922932007702762 0 -0.42210027467512462 0.057612877244027867 0 -0.41219808977550138 0.045922932007702762 0 -0.40529980242045099 0.060078429517120321 0 -0.41433880945589152 0.02979961183413142 0 -0.43332361235074068 0.039172235738812469 0 -0.41219808977550138 0.045922932007702762 0 -0.41433880945589152 0.02979961183413142 0 -0.41219808977550138 0.045922932007702762 0 -0.40203663573653808 0.036658375186402678 0 -0.40203663573653808 0.036658375186402678 0 -0.38527731940759258 0.036121893106963197 0 -0.40040093236682978 0.02453330970621255 0 -0.40203663573653808 0.036658375186402678 0 -0.39806741894555803 0.047862058551315999 0 -0.38527731940759258 0.036121893106963197 0 -0.41219808977550138 0.045922932007702762 0 -0.40203663573653808 0.036658375186402678 0 -0.39806741894555803 0.047862058551315999 0 -0.40529980242045099 0.060078429517120321 0 -0.39806741894555803 0.047862058551315999 0 -0.38827414678815397 0.061684695635978969 0 -0.41219808977550138 0.045922932007702762 0 -0.40529980242045099 0.060078429517120321 0 -0.39806741894555803 0.047862058551315999 0 -0.38827414678815397 0.061684695635978969 0 -0.3752152677122938 0.053615121968976692 0 -0.38527731940759258 0.036121893106963197 0 -0.39806741894555803 0.047862058551315999 0 -0.38827414678815397 0.061684695635978969 0 -0.38527731940759258 0.036121893106963197 0 -0.38827414678815397 0.061684695635978969 0 -0.38527731940759258 0.036121893106963197 0 -0.38827414678815397 0.061684695635978969 0 -0.3752152677122938 0.053615121968976692 0 -0.37934952992800203 0.06152599102278665 0 -0.3752152677122938 0.053615121968976692 0 -0.38527731940759258 0.036121893106963197 0 -0.36998983818245179 0.039180883917947558 0 -0.38527731940759258 0.036121893106963197 0 -0.3741660754503644 0.024763952449897351 0 -0.36998983818245179 0.039180883917947558 0 -0.38527731940759258 0.036121893106963197 0 -0.38228049202703113 0.01055909057794736 0 -0.3741660754503644 0.024763952449897351 0 -0.38527731940759258 0.036121893106963197 0 -0.38228049202703113 0.01055909057794736 0 -0.39447725070068201 0.01416723945843977 0 -0.38527731940759258 0.036121893106963197 0 -0.38228049202703113 0.01055909057794736 0 -0.38228049202703113 0.01055909057794736 0 -0.3741660754503644 0.024763952449897351 0 -0.36925123739472948 0.01547380578063577 0 -0.38202240793009312 -0.0053258981395451358 0 -0.38175641350976203 0.003534733161715954 0 -0.37163206502638491 0.0066924315405442192 0 -0.38228049202703113 0.01055909057794736 0 -0.38175641350976203 0.003534733161715954 0 -0.37163206502638491 0.0066924315405442192 0 -0.38202240793009312 -0.0053258981395451358 0 -0.38175641350976203 0.003534733161715954 0 -0.3910906890555389 0.002213308667917374 0 -0.38228049202703113 0.01055909057794736 0 -0.38175641350976203 0.003534733161715954 0 -0.3910906890555389 0.002213308667917374 0 -0.38228049202703113 0.01055909057794736 0 -0.39447725070068201 0.01416723945843977 0 -0.3910906890555389 0.002213308667917374 0 -0.41201914543273621 0.01508486170033017 0 -0.39447725070068201 0.01416723945843977 0 -0.40588327416665759 0.002018284634739226 0 -0.39447725070068201 0.01416723945843977 0 -0.3910906890555389 0.002213308667917374 0 -0.40588327416665759 0.002018284634739226 0 -0.41201914543273621 0.01508486170033017 0 -0.39447725070068201 0.01416723945843977 0 -0.40040093236682978 0.02453330970621255 0 -0.38527731940759258 0.036121893106963197 0 -0.39447725070068201 0.01416723945843977 0 -0.40040093236682978 0.02453330970621255 0 -0.41433880945589152 0.02979961183413142 0 -0.40203663573653808 0.036658375186402678 0 -0.40040093236682978 0.02453330970621255 0 -0.3942651582294785 0.099319450463552672 0 -0.39872388013383359 0.1132443814453792 0 -0.37999490953915538 0.093225113860619477 0 -0.3942651582294785 0.099319450463552672 0 -0.40138214715771192 0.1022109434355072 0 -0.39872388013383359 0.1132443814453792 0 -0.3942651582294785 0.099319450463552672 0 -0.39926876358287577 0.094825301980054899 0 -0.39195609073381549 0.093091511596202547 0 -0.3942651582294785 0.099319450463552672 0 -0.39926876358287577 0.094825301980054899 0 -0.40138214715771192 0.1022109434355072 0 -0.39926876358287577 0.094825301980054899 0 -0.40138214715771192 0.1022109434355072 0 -0.40855842336974679 0.096704164735213108 0 -0.40138214715771192 0.1022109434355072 0 -0.40893158939430557 0.1058661550654288 0 -0.40855842336974679 0.096704164735213108 0 -0.40138214715771192 0.1022109434355072 0 -0.39872388013383359 0.1132443814453792 0 -0.40893158939430557 0.1058661550654288 0 -0.39872388013383359 0.1132443814453792 0 -0.40893158939430557 0.1058661550654288 0 -0.4073506077339214 0.11717849432105661 0 -0.39872388013383359 0.1132443814453792 0 -0.40008630086622299 0.12140039422385079 0 -0.4073506077339214 0.11717849432105661 0 -0.40008630086622299 0.12140039422385079 0 -0.4073506077339214 0.11717849432105661 0 -0.40663359107449082 0.12710503490572889 0 -0.40008630086622299 0.12140039422385079 0 -0.39043111164144301 0.120546406187059 0 -0.39729231374742607 0.12892765426003011 0 -0.39872388013383359 0.1132443814453792 0 -0.40008630086622299 0.12140039422385079 0 -0.39043111164144301 0.120546406187059 0 -0.39872388013383359 0.1132443814453792 0 -0.38331479935317297 0.1117602336801226 0 -0.39043111164144301 0.120546406187059 0 -0.38331479935317297 0.1117602336801226 0 -0.39043111164144301 0.120546406187059 0 -0.3771229259235489 0.12278337187638851 0 -0.38331479935317297 0.1117602336801226 0 -0.3771229259235489 0.12278337187638851 0 -0.37146216644709129 0.1114782088342699 0 -0.39872388013383359 0.1132443814453792 0 -0.38331479935317297 0.1117602336801226 0 -0.37999490953915538 0.093225113860619477 0 -0.38331479935317297 0.1117602336801226 0 -0.37999490953915538 0.093225113860619477 0 -0.37146216644709129 0.1114782088342699 0 -0.39872388013383359 0.1132443814453792 0 -0.37999490953915538 0.093225113860619477 0 -0.3942651582294785 0.099319450463552672 0 -0.37999490953915538 0.093225113860619477 0 -0.39195609073381549 0.093091511596202547 0 -0.37999490953915538 0.093225113860619477 0 -0.37543873292193292 0.080761983674428522 0 -0.38259013430284822 0.084786174645554171 0 -0.37543873292193292 0.080761983674428522 0 -0.38259013430284822 0.084786174645554171 0 -0.38365592058158959 0.077910102882173871 0 -0.38259013430284822 0.084786174645554171 0 -0.38365592058158959 0.077910102882173871 0 -0.39127097416871481 0.087247498164994802 0 -0.37999490953915538 0.093225113860619477 0 -0.39127097416871481 0.087247498164994802 0 -0.37999490953915538 0.093225113860619477 0 -0.39195609073381549 0.093091511596202547 0 -0.39127097416871481 0.087247498164994802 0 -0.37999490953915538 0.093225113860619477 0 -0.38259013430284822 0.084786174645554171 0 -0.39127097416871481 0.087247498164994802 0 -0.38827414678815397 0.061684695635978969 0 -0.39127097416871481 0.087247498164994802 0 -0.38827414678815397 0.061684695635978969 0 -0.38365592058158959 0.077910102882173871 0 -0.39127097416871481 0.087247498164994802 0 -0.38827414678815397 0.061684695635978969 0 -0.38105741116970748 0.070287104817218851 0 -0.38365592058158959 0.077910102882173871 0 -0.37543873292193292 0.080761983674428522 0 -0.38105741116970748 0.070287104817218851 0 -0.3708780889558867 0.072554299931123528 0 -0.37543873292193292 0.080761983674428522 0 -0.38105741116970748 0.070287104817218851 0 -0.38365592058158959 0.077910102882173871 0 -0.38827414678815397 0.061684695635978969 0 -0.37934952992800203 0.06152599102278665 0 -0.38105741116970748 0.070287104817218851 0 -0.39955588483027948 0.07126646471144947 0 -0.39127097416871481 0.087247498164994802 0 -0.4155529993104527 0.074375222297726529 0 -0.40529980242045099 0.060078429517120321 0 -0.38827414678815397 0.061684695635978969 0 -0.39955588483027948 0.07126646471144947 0 -0.38827414678815397 0.061684695635978969 0 -0.39955588483027948 0.07126646471144947 0 -0.39127097416871481 0.087247498164994802 0 -0.39127097416871481 0.087247498164994802 0 -0.40292226136284098 0.088843738333556549 0 -0.4155529993104527 0.074375222297726529 0 -0.39127097416871481 0.087247498164994802 0 -0.4155529993104527 0.074375222297726529 0 -0.39635452246206182 0.091002012518702199 0 -0.39127097416871481 0.087247498164994802 0 -0.40292226136284098 0.088843738333556549 0 -0.39926876358287577 0.094825301980054899 0 -0.39635452246206182 0.091002012518702199 0 -0.39195609073381549 0.093091511596202547 0 -0.39635452246206182 0.091002012518702199 0 -0.39195609073381549 0.093091511596202547 0 -0.39127097416871481 0.087247498164994802 0 -0.39195609073381549 0.093091511596202547 0 -0.39127097416871481 0.087247498164994802 0 -0.39926876358287577 0.094825301980054899 0 -0.40292226136284098 0.088843738333556549 0 -0.40855842336974679 0.096704164735213108 0 -0.39926876358287577 0.094825301980054899 0 -0.39635452246206182 0.091002012518702199 0 -0.40292226136284098 0.088843738333556549 0 -0.40292226136284098 0.088843738333556549 0 -0.41819891438162948 0.088269200944329024 0 -0.40855842336974679 0.096704164735213108 0 -0.40292226136284098 0.088843738333556549 0 -0.41819891438162948 0.088269200944329024 0 -0.4155529993104527 0.074375222297726529 0 -0.40529980242045099 0.060078429517120321 0 -0.39955588483027948 0.07126646471144947 0 -0.4155529993104527 0.074375222297726529 0 -0.42210027467512462 0.057612877244027867 0 -0.40529980242045099 0.060078429517120321 0 -0.4155529993104527 0.074375222297726529 0 -0.43983502445219141 0.061502946430459518 0 -0.42210027467512462 0.057612877244027867 0 -0.4155529993104527 0.074375222297726529 0 -0.43983502445219141 0.061502946430459518 0 -0.4155529993104527 0.074375222297726529 0 -0.43983502445219141 0.061502946430459518 0 -0.4155529993104527 0.074375222297726529 0 -0.4353179992887925 0.081430087965160811 0 -0.41819891438162948 0.088269200944329024 0 -0.4353179992887925 0.081430087965160811 0 -0.42864288857631422 0.099992791389988123 0 -0.41819891438162948 0.088269200944329024 0 -0.4155529993104527 0.074375222297726529 0 -0.4353179992887925 0.081430087965160811 0 -0.42864288857631422 0.099992791389988123 0 -0.43295024732585491 0.1177656997386137 0 -0.44642879087906118 0.1053096283597485 0 -0.42864288857631422 0.099992791389988123 0 -0.40893158939430557 0.1058661550654288 0 -0.40855842336974679 0.096704164735213108 0 -0.42864288857631422 0.099992791389988123 0 -0.40893158939430557 0.1058661550654288 0 -0.4073506077339214 0.11717849432105661 0 -0.41819891438162948 0.088269200944329024 0 -0.42864288857631422 0.099992791389988123 0 -0.40855842336974679 0.096704164735213108 0 -0.42864288857631422 0.099992791389988123 0 -0.4073506077339214 0.11717849432105661 0 -0.42864288857631422 0.099992791389988123 0 -0.4073506077339214 0.11717849432105661 0 -0.41931682637261602 0.1223675700967678 0 -0.4073506077339214 0.11717849432105661 0 -0.41931682637261602 0.1223675700967678 0 -0.40663359107449082 0.12710503490572889 0 -0.41931682637261602 0.1223675700967678 0 -0.43295024732585491 0.1177656997386137 0 -0.42773912053657609 0.13301982418274741 0 -0.42864288857631422 0.099992791389988123 0 -0.41931682637261602 0.1223675700967678 0 -0.43295024732585491 0.1177656997386137 0 -0.44642879087906118 0.1053096283597485 0 -0.46486445230639151 0.11534694887315 0 -0.44424501197105998 0.1265458385839896 0 -0.43295024732585491 0.1177656997386137 0 -0.44642879087906118 0.1053096283597485 0 -0.44424501197105998 0.1265458385839896 0 -0.42864288857631422 0.099992791389988123 0 -0.44642879087906118 0.1053096283597485 0 -0.44993516941870793 0.08280708845892075 0 -0.46486445230639151 0.11534694887315 0 -0.45617971093953019 0.090073473820936695 0 -0.44642879087906118 0.1053096283597485 0 -0.46486445230639151 0.11534694887315 0 -0.45617971093953019 0.090073473820936695 0 -0.46609916705879201 0.097360820396609052 0 -0.46486445230639151 0.11534694887315 0 -0.45617971093953019 0.090073473820936695 0 -0.43983502445219141 0.061502946430459518 0 -0.4353179992887925 0.081430087965160811 0 -0.44993516941870793 0.08280708845892075 0 -0.43983502445219141 0.061502946430459518 0 -0.44993516941870793 0.08280708845892075 0 -0.45426467974437612 0.06448953014055378 0 -0.42864288857631422 0.099992791389988123 0 -0.44993516941870793 0.08280708845892075 0 -0.44642879087906118 0.1053096283597485 0 -0.44993516941870793 0.08280708845892075 0 -0.45617971093953019 0.090073473820936695 0 -0.4353179992887925 0.081430087965160811 0 -0.42864288857631422 0.099992791389988123 0 -0.44993516941870793 0.08280708845892075 0 -0.4353179992887925 0.081430087965160811 0 -0.44993516941870793 0.08280708845892075 0 -0.44993516941870793 0.08280708845892075 0 -0.45617971093953019 0.090073473820936695 0 -0.4678626105549667 0.084495930764039023 0 -0.44993516941870793 0.08280708845892075 0 -0.4678626105549667 0.084495930764039023 0 -0.46609916705879201 0.097360820396609052 0 -0.45617971093953019 0.090073473820936695 0 -0.4678626105549667 0.084495930764039023 0 -0.44993516941870793 0.08280708845892075 0 -0.45426467974437612 0.06448953014055378 0 -0.47094233987244272 0.065851507536775072 0 -0.44993516941870793 0.08280708845892075 0 -0.47094233987244272 0.065851507536775072 0 -0.44993516941870793 0.08280708845892075 0 -0.4678626105549667 0.084495930764039023 0 -0.47094233987244272 0.065851507536775072 0 -0.4678626105549667 0.084495930764039023 0 -0.47094233987244272 0.065851507536775072 0 -0.48427879078811609 0.076468558114620444 0 -0.48446780798723371 0.06160223964016031 0 -0.47094233987244272 0.065851507536775072 0 -0.48427879078811609 0.076468558114620444 0 -0.4678626105549667 0.084495930764039023 0 -0.48427879078811609 0.076468558114620444 0 -0.4857900516912258 0.086184773069155396 0 -0.4678626105549667 0.084495930764039023 0 -0.4857900516912258 0.086184773069155396 0 -0.47548989443427953 0.099526928128310488 0 -0.4678626105549667 0.084495930764039023 0 -0.4857900516912258 0.086184773069155396 0 -0.48427879078811609 0.076468558114620444 0 -0.4857900516912258 0.086184773069155396 0 -0.49999999999999939 0.08752341151035857 0 -0.4857900516912258 0.086184773069155396 0 -0.49999999999999939 0.08752341151035857 0 -0.48427879078811609 0.076468558114620444 0 -0.4857900516912258 0.086184773069155396 0 -0.5 0.059902508811776889 0 -0.48446780798723371 0.06160223964016031 0 -0.48427879078811609 0.076468558114620444 0 -0.5 0.059902508811776889 0 -0.48427879078811609 0.076468558114620444 0 -0.49999999999999939 0.08752341151035857 0 -0.46486445230639151 0.11534694887315 0 -0.48017281361171749 0.1242783586015319 0 -0.48935588671948388 0.1091102782255898 0 -0.46486445230639151 0.11534694887315 0 -0.47548989443427953 0.099526928128310488 0 -0.48935588671948388 0.1091102782255898 0 -0.4857900516912258 0.086184773069155396 0 -0.47548989443427953 0.099526928128310488 0 -0.48935588671948388 0.1091102782255898 0 -0.46609916705879201 0.097360820396609052 0 -0.46486445230639151 0.11534694887315 0 -0.47548989443427953 0.099526928128310488 0 -0.46609916705879201 0.097360820396609052 0 -0.4678626105549667 0.084495930764039023 0 -0.47548989443427953 0.099526928128310488 0 -0.4857900516912258 0.086184773069155396 0 -0.48935588671948388 0.1091102782255898 0 -0.4857900516912258 0.086184773069155396 0 -0.49999999999999939 0.08752341151035857 0 -0.48935588671948388 0.1091102782255898 0 -0.49999999999999939 0.08752341151035857 0 -0.48935588671948388 0.1091102782255898 0 -0.5 0.1101142570564921 0 -0.48935588671948388 0.1091102782255898 0 -0.5 0.1101142570564921 0 -0.4929217217477419 0.13203578338202429 0 -0.48935588671948388 0.1091102782255898 0 -0.4929217217477419 0.13203578338202429 0 -0.5 0.1101142570564921 0 -0.5 0.13270510260262569 0 -0.4929217217477419 0.13203578338202429 0 -0.48017281361171749 0.1242783586015319 0 -0.48935588671948388 0.1091102782255898 0 -0.4929217217477419 0.13203578338202429 0 -0.5 0.13270510260262569 0 -0.4929217217477419 0.13203578338202429 0 -0.49648755677599993 0.1549612885384587 0 -0.48017281361171749 0.1242783586015319 0 -0.4929217217477419 0.13203578338202429 0 -0.47354919367325282 0.1406204239253635 0 -0.46486445230639151 0.11534694887315 0 -0.48017281361171749 0.1242783586015319 0 -0.47354919367325282 0.1406204239253635 0 -0.46486445230639151 0.11534694887315 0 -0.47354919367325282 0.1406204239253635 0 -0.47354919367325282 0.1406204239253635 0 -0.49648755677599993 0.1549612885384587 0 -0.48223393504011408 0.165893898977577 0 -0.47354919367325282 0.1406204239253635 0 -0.48223393504011408 0.165893898977577 0 -0.46606483636491841 0.1569542162676397 0 -0.47354919367325282 0.1406204239253635 0 -0.48223393504011408 0.165893898977577 0 -0.4929217217477419 0.13203578338202429 0 -0.47354919367325282 0.1406204239253635 0 -0.49648755677599993 0.1549612885384587 0 -0.5 0.13270510260262569 0 -0.5 0.15529594814875941 0 -0.49648755677599993 0.1549612885384587 0 -0.4929217217477419 0.13203578338202429 0 -0.49648755677599993 0.1549612885384587 0 -0.5 0.15529594814875941 0 -0.49648755677599993 0.1549612885384587 0 -0.50005339180425779 0.17788679369489299 0 -0.49648755677599993 0.1549612885384587 0 -0.50005339180425779 0.17788679369489299 0 -0.49648755677599993 0.1549612885384587 0 -0.50005339180425779 0.17788679369489299 0 -0.48223393504011408 0.165893898977577 0 -0.50005339180425779 0.17788679369489299 0 -0.4831737021873288 0.18491871488128481 0 -0.48223393504011408 0.165893898977577 0 -0.4831737021873288 0.18491871488128481 0 -0.48223393504011408 0.165893898977577 0 -0.46456099856888289 0.1773262373269274 0 -0.48223393504011408 0.165893898977577 0 -0.46606483636491841 0.1569542162676397 0 -0.46456099856888289 0.1773262373269274 0 -0.46606483636491841 0.1569542162676397 0 -0.46456099856888289 0.1773262373269274 0 -0.45033847908106062 0.15906728904796269 0 -0.46456099856888289 0.1773262373269274 0 -0.45033847908106062 0.15906728904796269 0 -0.44620444249441837 0.1715583610428951 0 -0.46456099856888289 0.1773262373269274 0 -0.44785565995862731 0.1839709986088342 0 -0.45905470237388252 0.19396426283805579 0 -0.46456099856888289 0.1773262373269274 0 -0.44785565995862731 0.1839709986088342 0 -0.44620444249441837 0.1715583610428951 0 -0.44785565995862731 0.1839709986088342 0 -0.44620444249441837 0.1715583610428951 0 -0.43304314691869827 0.17554679386834521 0 -0.44785565995862731 0.1839709986088342 0 -0.43780201224793902 0.19000786926633681 0 -0.43304314691869827 0.17554679386834521 0 -0.45033847908106062 0.15906728904796269 0 -0.44620444249441837 0.1715583610428951 0 -0.43522392794482262 0.16188048636240601 0 -0.44620444249441837 0.1715583610428951 0 -0.43522392794482262 0.16188048636240601 0 -0.43304314691869827 0.17554679386834521 0 -0.45033847908106062 0.15906728904796269 0 -0.45472840340508391 0.14179008434432211 0 -0.43675260152726281 0.14620088374919529 0 -0.45033847908106062 0.15906728904796269 0 -0.43675260152726281 0.14620088374919529 0 -0.43522392794482262 0.16188048636240601 0 -0.44424501197105998 0.1265458385839896 0 -0.45472840340508391 0.14179008434432211 0 -0.43675260152726281 0.14620088374919529 0 -0.46486445230639151 0.11534694887315 0 -0.44424501197105998 0.1265458385839896 0 -0.45472840340508391 0.14179008434432211 0 -0.46486445230639151 0.11534694887315 0 -0.47354919367325282 0.1406204239253635 0 -0.45472840340508391 0.14179008434432211 0 -0.47354919367325282 0.1406204239253635 0 -0.46606483636491841 0.1569542162676397 0 -0.45472840340508391 0.14179008434432211 0 -0.46606483636491841 0.1569542162676397 0 -0.45033847908106062 0.15906728904796269 0 -0.45472840340508391 0.14179008434432211 0 -0.48120426634400448 0.2448663725910814 0 -0.48588586454105681 0.22742313331259459 0 -0.47195049768801478 0.23404684853296601 0 -0.48120426634400448 0.2448663725910814 0 -0.46819550642637969 0.24342717838557651 0 -0.46721878990479188 0.25715663656607468 0 -0.48120426634400448 0.2448663725910814 0 -0.47195049768801478 0.23404684853296601 0 -0.46819550642637969 0.24342717838557651 0 -0.48120426634400448 0.2448663725910814 0 -0.48588586454105681 0.22742313331259459 0 -0.49654829752714441 0.25247158130542779 0 -0.48588586454105681 0.22742313331259459 0 -0.49654829752714441 0.25247158130542779 0 -0.48588586454105681 0.22742313331259459 0 -0.5 0.22603091227939451 0 -0.49999999999999639 0.25010297157164529 0 -0.48588586454105681 0.22742313331259459 0 -0.49654829752714441 0.25247158130542779 0 -0.49999999999999639 0.25010297157164529 0 -0.48588586454105681 0.22742313331259459 0 -0.5 0.22603091227939451 0 -0.49168703151884813 0.21399488263326921 0 -0.48588586454105681 0.22742313331259459 0 -0.47195049768801478 0.23404684853296601 0 -0.46633252433017858 0.22059780154718911 0 -0.48588586454105681 0.22742313331259459 0 -0.47522343155496988 0.20237468531976099 0 -0.48588586454105681 0.22742313331259459 0 -0.47522343155496988 0.20237468531976099 0 -0.46633252433017858 0.22059780154718911 0 -0.48588586454105681 0.22742313331259459 0 -0.49168703151884813 0.21399488263326921 0 -0.47522343155496988 0.20237468531976099 0 -0.5 0.22603091227939451 0 -0.49168703151884813 0.21399488263326921 0 -0.5 0.20195885298714369 0 -0.49168703151884813 0.21399488263326921 0 -0.5 0.20195885298714369 0 -0.47522343155496988 0.20237468531976099 0 -0.4831737021873288 0.18491871488128481 0 -0.5 0.20195885298714369 0 -0.47522343155496988 0.20237468531976099 0 -0.50005339180425779 0.17788679369489299 0 -0.4831737021873288 0.18491871488128481 0 -0.5 0.20195885298714369 0 -0.46456099856888289 0.1773262373269274 0 -0.47522343155496988 0.20237468531976099 0 -0.4831737021873288 0.18491871488128481 0 -0.46456099856888289 0.1773262373269274 0 -0.47522343155496988 0.20237468531976099 0 -0.47522343155496988 0.20237468531976099 0 -0.45905470237388252 0.19396426283805579 0 -0.45873581026661281 0.20697885271039629 0 -0.46456099856888289 0.1773262373269274 0 -0.47522343155496988 0.20237468531976099 0 -0.45905470237388252 0.19396426283805579 0 -0.45905470237388252 0.19396426283805579 0 -0.44713993512999489 0.19902546460462109 0 -0.45873581026661281 0.20697885271039629 0 -0.44785565995862731 0.1839709986088342 0 -0.45905470237388252 0.19396426283805579 0 -0.44713993512999489 0.19902546460462109 0 -0.44785565995862731 0.1839709986088342 0 -0.43780201224793902 0.19000786926633681 0 -0.44713993512999489 0.19902546460462109 0 -0.43780201224793902 0.19000786926633681 0 -0.44713993512999489 0.19902546460462109 0 -0.43334858319212671 0.2026033029400319 0 -0.44713993512999489 0.19902546460462109 0 -0.44241310516338772 0.2186418980028767 0 -0.45873581026661281 0.20697885271039629 0 -0.44713993512999489 0.19902546460462109 0 -0.44241310516338772 0.2186418980028767 0 -0.43334858319212671 0.2026033029400319 0 -0.47522343155496988 0.20237468531976099 0 -0.45873581026661281 0.20697885271039629 0 -0.46633252433017858 0.22059780154718911 0 -0.44241310516338772 0.2186418980028767 0 -0.45873581026661281 0.20697885271039629 0 -0.46633252433017858 0.22059780154718911 0 -0.44241310516338772 0.2186418980028767 0 -0.46633252433017858 0.22059780154718911 0 -0.45813432679845439 0.2339197568283882 0 -0.47195049768801478 0.23404684853296601 0 -0.46633252433017858 0.22059780154718911 0 -0.45813432679845439 0.2339197568283882 0 -0.44241310516338772 0.2186418980028767 0 -0.45813432679845439 0.2339197568283882 0 -0.44475602213461052 0.2383143507401565 0 -0.44241310516338772 0.2186418980028767 0 -0.44475602213461052 0.2383143507401565 0 -0.43127178581484699 0.2366720149038633 0 -0.45813432679845439 0.2339197568283882 0 -0.44475602213461052 0.2383143507401565 0 -0.45331531656753488 0.25498961129775921 0 -0.44475602213461052 0.2383143507401565 0 -0.45331531656753488 0.25498961129775921 0 -0.43547421198197839 0.25007309349285561 0 -0.45813432679845439 0.2339197568283882 0 -0.46819550642637969 0.24342717838557651 0 -0.45331531656753488 0.25498961129775921 0 -0.47195049768801478 0.23404684853296601 0 -0.45813432679845439 0.2339197568283882 0 -0.46819550642637969 0.24342717838557651 0 -0.41507499501564521 0.23483761276803661 0 -0.42123420067136941 0.24671331128717519 0 -0.4035296774214725 0.2476303463643702 0 -0.41507499501564521 0.23483761276803661 0 -0.40199455523078609 0.2301144328304715 0 -0.4035296774214725 0.2476303463643702 0 -0.41507499501564521 0.23483761276803661 0 -0.42123420067136941 0.24671331128717519 0 -0.43127178581484699 0.2366720149038633 0 -0.42123420067136941 0.24671331128717519 0 -0.43127178581484699 0.2366720149038633 0 -0.43547421198197839 0.25007309349285561 0 -0.44475602213461052 0.2383143507401565 0 -0.43127178581484699 0.2366720149038633 0 -0.43547421198197839 0.25007309349285561 0 -0.44241310516338772 0.2186418980028767 0 -0.42473184915599338 0.22509130319844001 0 -0.4279300121248496 0.21357731048176079 0 -0.41507499501564521 0.23483761276803661 0 -0.43127178581484699 0.2366720149038633 0 -0.42473184915599338 0.22509130319844001 0 -0.44241310516338772 0.2186418980028767 0 -0.43127178581484699 0.2366720149038633 0 -0.42473184915599338 0.22509130319844001 0 -0.42473184915599338 0.22509130319844001 0 -0.41553068273892979 0.2201262713103318 0 -0.4279300121248496 0.21357731048176079 0 -0.41553068273892979 0.2201262713103318 0 -0.40521526660549861 0.21288705711731959 0 -0.40199455523078609 0.2301144328304715 0 -0.41507499501564521 0.23483761276803661 0 -0.42473184915599338 0.22509130319844001 0 -0.41553068273892979 0.2201262713103318 0 -0.41507499501564521 0.23483761276803661 0 -0.41553068273892979 0.2201262713103318 0 -0.40199455523078609 0.2301144328304715 0 -0.41553068273892979 0.2201262713103318 0 -0.41823741830080607 0.2042499114659623 0 -0.4279300121248496 0.21357731048176079 0 -0.41553068273892979 0.2201262713103318 0 -0.41823741830080607 0.2042499114659623 0 -0.40521526660549861 0.21288705711731959 0 -0.41823741830080607 0.2042499114659623 0 -0.40566624522987882 0.19860645826313009 0 -0.40521526660549861 0.21288705711731959 0 -0.44241310516338772 0.2186418980028767 0 -0.4279300121248496 0.21357731048176079 0 -0.43334858319212671 0.2026033029400319 0 -0.41823741830080607 0.2042499114659623 0 -0.4279300121248496 0.21357731048176079 0 -0.43334858319212671 0.2026033029400319 0 -0.41823741830080607 0.2042499114659623 0 -0.43334858319212671 0.2026033029400319 0 -0.42629172148723909 0.19043962105778711 0 -0.43780201224793902 0.19000786926633681 0 -0.43334858319212671 0.2026033029400319 0 -0.42629172148723909 0.19043962105778711 0 -0.41565693276811139 0.1928085426602012 0 -0.40566624522987882 0.19860645826313009 0 -0.40999748630854371 0.1819500518445453 0 -0.42629172148723909 0.19043962105778711 0 -0.41565693276811139 0.1928085426602012 0 -0.42098105666352359 0.17987323791627949 0 -0.41823741830080607 0.2042499114659623 0 -0.42629172148723909 0.19043962105778711 0 -0.41565693276811139 0.1928085426602012 0 -0.41823741830080607 0.2042499114659623 0 -0.41565693276811139 0.1928085426602012 0 -0.40566624522987882 0.19860645826313009 0 -0.40566624522987882 0.19860645826313009 0 -0.39806562229869819 0.18809453420424571 0 -0.40999748630854371 0.1819500518445453 0 -0.40566624522987882 0.19860645826313009 0 -0.39447605789651602 0.19942608259190009 0 -0.39806562229869819 0.18809453420424571 0 -0.40566624522987882 0.19860645826313009 0 -0.39447605789651602 0.19942608259190009 0 -0.39408848896302712 0.2103374641300971 0 -0.39447605789651602 0.19942608259190009 0 -0.39806562229869819 0.18809453420424571 0 -0.38750768825127557 0.19358567411889799 0 -0.37935229969543161 0.18883843513782639 0 -0.37548762673436081 0.194590399044486 0 -0.37979685688139297 0.19890987633308899 0 -0.38750768825127557 0.19358567411889799 0 -0.37935229969543161 0.18883843513782639 0 -0.37979685688139297 0.19890987633308899 0 -0.37979685688139297 0.19890987633308899 0 -0.37666093792019067 0.20750210145591139 0 -0.37338087780336221 0.2008157630732724 0 -0.37548762673436081 0.194590399044486 0 -0.37979685688139297 0.19890987633308899 0 -0.37338087780336221 0.2008157630732724 0 -0.39447605789651602 0.19942608259190009 0 -0.38750768825127557 0.19358567411889799 0 -0.38596677584557992 0.20432917050699231 0 -0.38750768825127557 0.19358567411889799 0 -0.37979685688139297 0.19890987633308899 0 -0.38596677584557992 0.20432917050699231 0 -0.38596677584557992 0.20432917050699231 0 -0.38327062516107713 0.21621382441205819 0 -0.39408848896302712 0.2103374641300971 0 -0.38596677584557992 0.20432917050699231 0 -0.37666093792019067 0.20750210145591139 0 -0.38327062516107713 0.21621382441205819 0 -0.37979685688139297 0.19890987633308899 0 -0.38596677584557992 0.20432917050699231 0 -0.37666093792019067 0.20750210145591139 0 -0.37666093792019067 0.20750210145591139 0 -0.38327062516107713 0.21621382441205819 0 -0.37381271686193568 0.21477059899012979 0 -0.38327062516107713 0.21621382441205819 0 -0.37629630226675059 0.2248371331775966 0 -0.37381271686193568 0.21477059899012979 0 -0.38327062516107713 0.21621382441205819 0 -0.39408848896302712 0.2103374641300971 0 -0.39432433137780781 0.21998183254669659 0 -0.39408848896302712 0.2103374641300971 0 -0.40521526660549861 0.21288705711731959 0 -0.39432433137780781 0.21998183254669659 0 -0.39447605789651602 0.19942608259190009 0 -0.38596677584557992 0.20432917050699231 0 -0.39408848896302712 0.2103374641300971 0 -0.40566624522987882 0.19860645826313009 0 -0.39408848896302712 0.2103374641300971 0 -0.40521526660549861 0.21288705711731959 0 -0.40199455523078609 0.2301144328304715 0 -0.39432433137780781 0.21998183254669659 0 -0.38546000396354191 0.23165178266063979 0 -0.40521526660549861 0.21288705711731959 0 -0.40199455523078609 0.2301144328304715 0 -0.39432433137780781 0.21998183254669659 0 -0.37629630226675059 0.2248371331775966 0 -0.38546000396354191 0.23165178266063979 0 -0.36901564376584278 0.2402611071267198 0 -0.38327062516107713 0.21621382441205819 0 -0.39432433137780781 0.21998183254669659 0 -0.38546000396354191 0.23165178266063979 0 -0.38327062516107713 0.21621382441205819 0 -0.37629630226675059 0.2248371331775966 0 -0.38546000396354191 0.23165178266063979 0 -0.39069612944498622 0.24277127154173969 0 -0.36901564376584278 0.2402611071267198 0 -0.38755728753843921 0.25590513753249078 0 -0.36901564376584278 0.2402611071267198 0 -0.38755728753843921 0.25590513753249078 0 -0.38546000396354191 0.23165178266063979 0 -0.39069612944498622 0.24277127154173969 0 -0.36901564376584278 0.2402611071267198 0 -0.40199455523078609 0.2301144328304715 0 -0.39069612944498622 0.24277127154173969 0 -0.4035296774214725 0.2476303463643702 0 -0.40199455523078609 0.2301144328304715 0 -0.38546000396354191 0.23165178266063979 0 -0.39069612944498622 0.24277127154173969 0 -0.39069612944498622 0.24277127154173969 0 -0.4035296774214725 0.2476303463643702 0 -0.38755728753843921 0.25590513753249078 0 -0.41326758419969711 0.15482722138790819 0 -0.41429402968502888 0.1380351524197192 0 -0.42305415214784131 0.14488513371952719 0 -0.41326758419969711 0.15482722138790819 0 -0.41429402968502888 0.1380351524197192 0 -0.40359072798625739 0.14760875080565769 0 -0.41326758419969711 0.15482722138790819 0 -0.42305415214784131 0.14488513371952719 0 -0.42387388155149769 0.15532090203782109 0 -0.41326758419969711 0.15482722138790819 0 -0.40301429800207622 0.16155077302492291 0 -0.40359072798625739 0.14760875080565769 0 -0.41429402968502888 0.1380351524197192 0 -0.40359072798625739 0.14760875080565769 0 -0.40298276442479192 0.1366045554484604 0 -0.41931682637261602 0.1223675700967678 0 -0.40663359107449082 0.12710503490572889 0 -0.41429402968502888 0.1380351524197192 0 -0.41931682637261602 0.1223675700967678 0 -0.41429402968502888 0.1380351524197192 0 -0.42773912053657609 0.13301982418274741 0 -0.40663359107449082 0.12710503490572889 0 -0.41429402968502888 0.1380351524197192 0 -0.40298276442479192 0.1366045554484604 0 -0.41429402968502888 0.1380351524197192 0 -0.42773912053657609 0.13301982418274741 0 -0.42305415214784131 0.14488513371952719 0 -0.43295024732585491 0.1177656997386137 0 -0.44424501197105998 0.1265458385839896 0 -0.42773912053657609 0.13301982418274741 0 -0.44424501197105998 0.1265458385839896 0 -0.42773912053657609 0.13301982418274741 0 -0.43675260152726281 0.14620088374919529 0 -0.43675260152726281 0.14620088374919529 0 -0.42387388155149769 0.15532090203782109 0 -0.43522392794482262 0.16188048636240601 0 -0.42773912053657609 0.13301982418274741 0 -0.43675260152726281 0.14620088374919529 0 -0.42305415214784131 0.14488513371952719 0 -0.43675260152726281 0.14620088374919529 0 -0.42305415214784131 0.14488513371952719 0 -0.42387388155149769 0.15532090203782109 0 -0.43522392794482262 0.16188048636240601 0 -0.43304314691869827 0.17554679386834521 0 -0.41976527341428188 0.16871975498138911 0 -0.42387388155149769 0.15532090203782109 0 -0.43522392794482262 0.16188048636240601 0 -0.41976527341428188 0.16871975498138911 0 -0.43780201224793902 0.19000786926633681 0 -0.42629172148723909 0.19043962105778711 0 -0.43304314691869827 0.17554679386834521 0 -0.43304314691869827 0.17554679386834521 0 -0.42098105666352359 0.17987323791627949 0 -0.41976527341428188 0.16871975498138911 0 -0.42629172148723909 0.19043962105778711 0 -0.43304314691869827 0.17554679386834521 0 -0.42098105666352359 0.17987323791627949 0 -0.41565693276811139 0.1928085426602012 0 -0.42098105666352359 0.17987323791627949 0 -0.40999748630854371 0.1819500518445453 0 -0.42098105666352359 0.17987323791627949 0 -0.40999748630854371 0.1819500518445453 0 -0.41976527341428188 0.16871975498138911 0 -0.40999748630854371 0.1819500518445453 0 -0.41976527341428188 0.16871975498138911 0 -0.40909677712688142 0.16873197924961639 0 -0.40999748630854371 0.1819500518445453 0 -0.40909677712688142 0.16873197924961639 0 -0.40001476197264418 0.1747310236244915 0 -0.41326758419969711 0.15482722138790819 0 -0.42387388155149769 0.15532090203782109 0 -0.41976527341428188 0.16871975498138911 0 -0.41326758419969711 0.15482722138790819 0 -0.40909677712688142 0.16873197924961639 0 -0.40301429800207622 0.16155077302492291 0 -0.41326758419969711 0.15482722138790819 0 -0.41976527341428188 0.16871975498138911 0 -0.40909677712688142 0.16873197924961639 0 -0.40909677712688142 0.16873197924961639 0 -0.40301429800207622 0.16155077302492291 0 -0.40001476197264418 0.1747310236244915 0 -0.40301429800207622 0.16155077302492291 0 -0.39238057394677411 0.16671849757041921 0 -0.40001476197264418 0.1747310236244915 0 -0.40301429800207622 0.16155077302492291 0 -0.39238057394677411 0.16671849757041921 0 -0.39352836485999659 0.153240183518422 0 -0.39806562229869819 0.18809453420424571 0 -0.40999748630854371 0.1819500518445453 0 -0.40001476197264418 0.1747310236244915 0 -0.39238057394677411 0.16671849757041921 0 -0.40001476197264418 0.1747310236244915 0 -0.38794235861191689 0.18012715608201799 0 -0.39806562229869819 0.18809453420424571 0 -0.40001476197264418 0.1747310236244915 0 -0.38794235861191689 0.18012715608201799 0 -0.39806562229869819 0.18809453420424571 0 -0.38750768825127557 0.19358567411889799 0 -0.38794235861191689 0.18012715608201799 0 -0.38750768825127557 0.19358567411889799 0 -0.37935229969543161 0.18883843513782639 0 -0.38794235861191689 0.18012715608201799 0 -0.38794235861191689 0.18012715608201799 0 -0.38052309608480461 0.16777146130132159 0 -0.37449822867776061 0.17908663128435781 0 -0.37935229969543161 0.18883843513782639 0 -0.38794235861191689 0.18012715608201799 0 -0.37449822867776061 0.17908663128435781 0 -0.39238057394677411 0.16671849757041921 0 -0.3852299247956974 0.15831378155017339 0 -0.39352836485999659 0.153240183518422 0 -0.39238057394677411 0.16671849757041921 0 -0.38794235861191689 0.18012715608201799 0 -0.38052309608480461 0.16777146130132159 0 -0.39238057394677411 0.16671849757041921 0 -0.3852299247956974 0.15831378155017339 0 -0.38052309608480461 0.16777146130132159 0 -0.3852299247956974 0.15831378155017339 0 -0.38052309608480461 0.16777146130132159 0 -0.37427071262398393 0.15544097543124799 0 -0.3852299247956974 0.15831378155017339 0 -0.38407800441844342 0.14638337407500551 0 -0.37427071262398393 0.15544097543124799 0 -0.38407800441844342 0.14638337407500551 0 -0.37197614675929802 0.139040575445744 0 -0.37427071262398393 0.15544097543124799 0 -0.38407800441844342 0.14638337407500551 0 -0.39352836485999659 0.153240183518422 0 -0.393833350388203 0.13950684418301529 0 -0.3852299247956974 0.15831378155017339 0 -0.38407800441844342 0.14638337407500551 0 -0.39352836485999659 0.153240183518422 0 -0.39352836485999659 0.153240183518422 0 -0.40359072798625739 0.14760875080565769 0 -0.393833350388203 0.13950684418301529 0 -0.40359072798625739 0.14760875080565769 0 -0.40298276442479192 0.1366045554484604 0 -0.393833350388203 0.13950684418301529 0 -0.40301429800207622 0.16155077302492291 0 -0.39352836485999659 0.153240183518422 0 -0.40359072798625739 0.14760875080565769 0 -0.40663359107449082 0.12710503490572889 0 -0.40298276442479192 0.1366045554484604 0 -0.39729231374742607 0.12892765426003011 0 -0.40008630086622299 0.12140039422385079 0 -0.40663359107449082 0.12710503490572889 0 -0.39729231374742607 0.12892765426003011 0 -0.393833350388203 0.13950684418301529 0 -0.39729231374742607 0.12892765426003011 0 -0.38562952708348158 0.1327578843214301 0 -0.40298276442479192 0.1366045554484604 0 -0.393833350388203 0.13950684418301529 0 -0.39729231374742607 0.12892765426003011 0 -0.39043111164144301 0.120546406187059 0 -0.39729231374742607 0.12892765426003011 0 -0.38562952708348158 0.1327578843214301 0 -0.3771229259235489 0.12278337187638851 0 -0.38562952708348158 0.1327578843214301 0 -0.37197614675929802 0.139040575445744 0 -0.39043111164144301 0.120546406187059 0 -0.3771229259235489 0.12278337187638851 0 -0.38562952708348158 0.1327578843214301 0 -0.38407800441844342 0.14638337407500551 0 -0.393833350388203 0.13950684418301529 0 -0.38562952708348158 0.1327578843214301 0 -0.38407800441844342 0.14638337407500551 0 -0.38562952708348158 0.1327578843214301 0 -0.37197614675929802 0.139040575445744 0 -0.37197614675929802 0.139040575445744 0 -0.35716782069568648 0.12814794922525879 0 -0.3546148974636491 0.1523231368461205 0 -0.3771229259235489 0.12278337187638851 0 -0.37197614675929802 0.139040575445744 0 -0.35716782069568648 0.12814794922525879 0 -0.35716782069568648 0.12814794922525879 0 -0.3546148974636491 0.1523231368461205 0 -0.35716782069568648 0.12814794922525879 0 -0.3546148974636491 0.1523231368461205 0 -0.33872398373642498 0.1348067625776303 0 -0.35716782069568648 0.12814794922525879 0 -0.33872398373642498 0.1348067625776303 0 -0.34115836651812431 0.1138129640329 0 -0.37197614675929802 0.139040575445744 0 -0.3546148974636491 0.1523231368461205 0 -0.37427071262398393 0.15544097543124799 0 -0.38052309608480461 0.16777146130132159 0 -0.37427071262398393 0.15544097543124799 0 -0.36881677785269512 0.1669417258897134 0 -0.3546148974636491 0.1523231368461205 0 -0.36881677785269512 0.1669417258897134 0 -0.36275168190670609 0.17597510716396211 0 -0.3546148974636491 0.1523231368461205 0 -0.37427071262398393 0.15544097543124799 0 -0.36881677785269512 0.1669417258897134 0 -0.38052309608480461 0.16777146130132159 0 -0.36881677785269512 0.1669417258897134 0 -0.37449822867776061 0.17908663128435781 0 -0.37935229969543161 0.18883843513782639 0 -0.37449822867776061 0.17908663128435781 0 -0.3694204725572563 0.18979752163375621 0 -0.37449822867776061 0.17908663128435781 0 -0.36275168190670609 0.17597510716396211 0 -0.3694204725572563 0.18979752163375621 0 -0.36881677785269512 0.1669417258897134 0 -0.37449822867776061 0.17908663128435781 0 -0.36275168190670609 0.17597510716396211 0 -0.36275168190670609 0.17597510716396211 0 -0.35930151899632568 0.18629070357331509 0 -0.3694204725572563 0.18979752163375621 0 -0.36275168190670609 0.17597510716396211 0 -0.35930151899632568 0.18629070357331509 0 -0.35206197423161167 0.17649832446698219 0 -0.3546148974636491 0.1523231368461205 0 -0.35206197423161167 0.17649832446698219 0 -0.33674865026545631 0.16983944502761891 0 -0.3546148974636491 0.1523231368461205 0 -0.35206197423161167 0.17649832446698219 0 -0.3546148974636491 0.1523231368461205 0 -0.36275168190670609 0.17597510716396211 0 -0.35206197423161167 0.17649832446698219 0 -0.33674865026545631 0.16983944502761891 0 -0.32150912937896819 0.16148959598844731 0 -0.33451111270616102 0.15168442751572611 0 -0.3546148974636491 0.1523231368461205 0 -0.33674865026545631 0.16983944502761891 0 -0.33451111270616102 0.15168442751572611 0 -0.33674865026545631 0.16983944502761891 0 -0.32826768556778191 0.1862080139274277 0 -0.32334818326485409 0.17415242158793051 0 -0.33674865026545631 0.16983944502761891 0 -0.34060272658694202 0.18649726850531809 0 -0.32826768556778191 0.1862080139274277 0 -0.35206197423161167 0.17649832446698219 0 -0.33674865026545631 0.16983944502761891 0 -0.34060272658694202 0.18649726850531809 0 -0.32826768556778191 0.1862080139274277 0 -0.32334818326485409 0.17415242158793051 0 -0.31088586062414908 0.17765910724071601 0 -0.32334818326485409 0.17415242158793051 0 -0.32150912937896819 0.16148959598844731 0 -0.31088586062414908 0.17765910724071601 0 -0.33674865026545631 0.16983944502761891 0 -0.32334818326485409 0.17415242158793051 0 -0.32150912937896819 0.16148959598844731 0 -0.32150912937896819 0.16148959598844731 0 -0.32064559575483642 0.14240194559245539 0 -0.33451111270616102 0.15168442751572611 0 -0.32150912937896819 0.16148959598844731 0 -0.32064559575483642 0.14240194559245539 0 -0.30336899248151689 0.1550770974579197 0 -0.30403361169892368 0.13349336888990529 0 -0.322595989108524 0.1236531664614027 0 -0.32064559575483642 0.14240194559245539 0 -0.30403361169892368 0.13349336888990529 0 -0.322595989108524 0.1236531664614027 0 -0.32064559575483642 0.14240194559245539 0 -0.33872398373642498 0.1348067625776303 0 -0.322595989108524 0.1236531664614027 0 -0.3546148974636491 0.1523231368461205 0 -0.33872398373642498 0.1348067625776303 0 -0.33451111270616102 0.15168442751572611 0 -0.32064559575483642 0.14240194559245539 0 -0.33872398373642498 0.1348067625776303 0 -0.33451111270616102 0.15168442751572611 0 -0.34897780488666402 0.24655348825625059 0 -0.35641204800479759 0.24228533268283961 0 -0.36004616023260438 0.26114403339595538 0 -0.34897780488666402 0.24655348825625059 0 -0.34933083540807452 0.23529398974516799 0 -0.35641204800479759 0.24228533268283961 0 -0.34897780488666402 0.24655348825625059 0 -0.34933083540807452 0.23529398974516799 0 -0.33985037778789973 0.24054563156833619 0 -0.34933083540807452 0.23529398974516799 0 -0.35641204800479759 0.24228533268283961 0 -0.36029415580080798 0.2329025781536766 0 -0.35641204800479759 0.24228533268283961 0 -0.36341128369583597 0.23553257386314699 0 -0.36004616023260438 0.26114403339595538 0 -0.36901564376584278 0.2402611071267198 0 -0.37216982174676799 0.2577853064291496 0 -0.36341128369583597 0.23553257386314699 0 -0.36004616023260438 0.26114403339595538 0 -0.36901564376584278 0.2402611071267198 0 -0.36341128369583597 0.23553257386314699 0 -0.36004616023260438 0.26114403339595538 0 -0.36901564376584278 0.2402611071267198 0 -0.36341128369583597 0.23553257386314699 0 -0.35641204800479759 0.24228533268283961 0 -0.36341128369583597 0.23553257386314699 0 -0.36029415580080798 0.2329025781536766 0 -0.36901564376584278 0.2402611071267198 0 -0.36541698845535447 0.22026745005880319 0 -0.36341128369583597 0.23553257386314699 0 -0.36029415580080798 0.2329025781536766 0 -0.36541698845535447 0.22026745005880319 0 -0.36341128369583597 0.23553257386314699 0 -0.36541698845535447 0.22026745005880319 0 -0.37629630226675059 0.2248371331775966 0 -0.36901564376584278 0.2402611071267198 0 -0.36541698845535447 0.22026745005880319 0 -0.36901564376584278 0.2402611071267198 0 -0.36341128369583597 0.23553257386314699 0 -0.36541698845535447 0.22026745005880319 0 -0.36341128369583597 0.23553257386314699 0 -0.36029415580080798 0.2329025781536766 0 -0.37629630226675059 0.2248371331775966 0 -0.36541698845535447 0.22026745005880319 0 -0.37381271686193568 0.21477059899012979 0 -0.36029415580080798 0.2329025781536766 0 -0.36541698845535447 0.22026745005880319 0 -0.3565516111397023 0.2240291130530985 0 -0.36541698845535447 0.22026745005880319 0 -0.3565516111397023 0.2240291130530985 0 -0.35615860641760178 0.21461957034490209 0 -0.3565516111397023 0.2240291130530985 0 -0.34695612776753693 0.22484869970870591 0 -0.35615860641760178 0.21461957034490209 0 -0.34933083540807452 0.23529398974516799 0 -0.36029415580080798 0.2329025781536766 0 -0.3565516111397023 0.2240291130530985 0 -0.34933083540807452 0.23529398974516799 0 -0.34695612776753693 0.22484869970870591 0 -0.33562873562506002 0.22693755385582889 0 -0.34933083540807452 0.23529398974516799 0 -0.3565516111397023 0.2240291130530985 0 -0.34695612776753693 0.22484869970870591 0 -0.34695612776753693 0.22484869970870591 0 -0.3495090509995743 0.20067351208784401 0 -0.34695612776753693 0.22484869970870591 0 -0.3495090509995743 0.20067351208784401 0 -0.33924740732121689 0.21248665746889939 0 -0.34695612776753693 0.22484869970870591 0 -0.35615860641760178 0.21461957034490209 0 -0.3495090509995743 0.20067351208784401 0 -0.35615860641760178 0.21461957034490209 0 -0.36235925372584038 0.20327907681605911 0 -0.3495090509995743 0.20067351208784401 0 -0.36541698845535447 0.22026745005880319 0 -0.35615860641760178 0.21461957034490209 0 -0.36235925372584038 0.20327907681605911 0 -0.36541698845535447 0.22026745005880319 0 -0.36741873050630508 0.20503248584627959 0 -0.36541698845535447 0.22026745005880319 0 -0.36235925372584038 0.20327907681605911 0 -0.36541698845535447 0.22026745005880319 0 -0.36741873050630508 0.20503248584627959 0 -0.36235925372584038 0.20327907681605911 0 -0.36541698845535447 0.22026745005880319 0 -0.37381271686193568 0.21477059899012979 0 -0.36741873050630508 0.20503248584627959 0 -0.37666093792019067 0.20750210145591139 0 -0.36741873050630508 0.20503248584627959 0 -0.37338087780336221 0.2008157630732724 0 -0.37666093792019067 0.20750210145591139 0 -0.37381271686193568 0.21477059899012979 0 -0.36741873050630508 0.20503248584627959 0 -0.35930151899632568 0.18629070357331509 0 -0.36235925372584038 0.20327907681605911 0 -0.3694204725572563 0.18979752163375621 0 -0.36741873050630508 0.20503248584627959 0 -0.36235925372584038 0.20327907681605911 0 -0.3694204725572563 0.18979752163375621 0 -0.35930151899632568 0.18629070357331509 0 -0.36235925372584038 0.20327907681605911 0 -0.36741873050630508 0.20503248584627959 0 -0.3694204725572563 0.18979752163375621 0 -0.36741873050630508 0.20503248584627959 0 -0.37338087780336221 0.2008157630732724 0 -0.3694204725572563 0.18979752163375621 0 -0.37548762673436081 0.194590399044486 0 -0.37338087780336221 0.2008157630732724 0 -0.3694204725572563 0.18979752163375621 0 -0.37935229969543161 0.18883843513782639 0 -0.37548762673436081 0.194590399044486 0 -0.3694204725572563 0.18979752163375621 0 -0.35206197423161167 0.17649832446698219 0 -0.3495090509995743 0.20067351208784401 0 -0.35206197423161167 0.17649832446698219 0 -0.34060272658694202 0.18649726850531809 0 -0.3495090509995743 0.20067351208784401 0 -0.35930151899632568 0.18629070357331509 0 -0.36235925372584038 0.20327907681605911 0 -0.3495090509995743 0.20067351208784401 0 -0.35930151899632568 0.18629070357331509 0 -0.35206197423161167 0.17649832446698219 0 -0.3495090509995743 0.20067351208784401 0 -0.34060272658694202 0.18649726850531809 0 -0.3495090509995743 0.20067351208784401 0 -0.33464171046799729 0.1989215717008101 0 -0.34060272658694202 0.18649726850531809 0 -0.32826768556778191 0.1862080139274277 0 -0.33464171046799729 0.1989215717008101 0 -0.33464171046799729 0.1989215717008101 0 -0.31843146951197199 0.19947222635527029 0 -0.32950141174591591 0.21105194999130811 0 -0.32826768556778191 0.1862080139274277 0 -0.31843146951197199 0.19947222635527029 0 -0.31088586062414908 0.17765910724071601 0 -0.32826768556778191 0.1862080139274277 0 -0.33464171046799729 0.1989215717008101 0 -0.31843146951197199 0.19947222635527029 0 -0.31843146951197199 0.19947222635527029 0 -0.32950141174591591 0.21105194999130811 0 -0.31245968817421038 0.22359060439314399 0 -0.32950141174591591 0.21105194999130811 0 -0.33924740732121689 0.21248665746889939 0 -0.33562873562506002 0.22693755385582889 0 -0.33464171046799729 0.1989215717008101 0 -0.32950141174591591 0.21105194999130811 0 -0.33924740732121689 0.21248665746889939 0 -0.3495090509995743 0.20067351208784401 0 -0.33464171046799729 0.1989215717008101 0 -0.33924740732121689 0.21248665746889939 0 -0.34695612776753693 0.22484869970870591 0 -0.33924740732121689 0.21248665746889939 0 -0.33562873562506002 0.22693755385582889 0 -0.34933083540807452 0.23529398974516799 0 -0.33562873562506002 0.22693755385582889 0 -0.33985037778789973 0.24054563156833619 0 -0.32950141174591591 0.21105194999130811 0 -0.33562873562506002 0.22693755385582889 0 -0.31245968817421038 0.22359060439314399 0 -0.33562873562506002 0.22693755385582889 0 -0.32784876663567858 0.24135632246026301 0 -0.31245968817421038 0.22359060439314399 0 -0.32784876663567858 0.24135632246026301 0 -0.31194510868681208 0.2490814624430977 0 -0.32266640875577379 0.25875618584567173 0 -0.32784876663567858 0.24135632246026301 0 -0.31194510868681208 0.2490814624430977 0 -0.31245968817421038 0.22359060439314399 0 -0.32784876663567858 0.24135632246026301 0 -0.33985037778789973 0.24054563156833619 0 -0.3374657463840211 0.25258680352417051 0 -0.33562873562506002 0.22693755385582889 0 -0.32784876663567858 0.24135632246026301 0 -0.33985037778789973 0.24054563156833619 0 -0.34897780488666402 0.24655348825625059 0 -0.33985037778789973 0.24054563156833619 0 -0.3374657463840211 0.25258680352417051 0 -0.28350545545988159 0.24511508518317501 0 -0.31194510868681208 0.2490814624430977 0 -0.28947394683394129 0.22290723965403389 0 -0.28350545545988159 0.24511508518317501 0 -0.31194510868681208 0.2490814624430977 0 -0.31194510868681208 0.2490814624430977 0 -0.31245968817421038 0.22359060439314399 0 -0.28947394683394129 0.22290723965403389 0 -0.28350545545988159 0.24511508518317501 0 -0.28947394683394129 0.22290723965403389 0 -0.2711768260273017 0.22934903210340499 0 -0.28947394683394129 0.22290723965403389 0 -0.30139020375155429 0.20051660572864921 0 -0.27189929570899291 0.21032623774871539 0 -0.31245968817421038 0.22359060439314399 0 -0.30139020375155429 0.20051660572864921 0 -0.31245968817421038 0.22359060439314399 0 -0.28947394683394129 0.22290723965403389 0 -0.30139020375155429 0.20051660572864921 0 -0.31843146951197199 0.19947222635527029 0 -0.31245968817421038 0.22359060439314399 0 -0.30139020375155429 0.20051660572864921 0 -0.31843146951197199 0.19947222635527029 0 -0.30139020375155429 0.20051660572864921 0 -0.31088586062414908 0.17765910724071601 0 -0.30139020375155429 0.20051660572864921 0 -0.27338181725919941 0.18861189194295511 0 -0.27189929570899291 0.21032623774871539 0 -0.30139020375155429 0.20051660572864921 0 -0.29032071932889819 0.1774426070641543 0 -0.30139020375155429 0.20051660572864921 0 -0.27338181725919941 0.18861189194295511 0 -0.29032071932889819 0.1774426070641543 0 -0.27338181725919941 0.18861189194295511 0 -0.25748109765676452 0.1974555209482948 0 -0.27189929570899291 0.21032623774871539 0 -0.27338181725919941 0.18861189194295511 0 -0.25748109765676452 0.1974555209482948 0 -0.25672354526768532 0.18036420840679929 0 -0.25748109765676452 0.1974555209482948 0 -0.25672354526768532 0.18036420840679929 0 -0.2386003623005804 0.1909511444375297 0 -0.25748109765676452 0.1974555209482948 0 -0.27189929570899291 0.21032623774871539 0 -0.2468004677473643 0.2170241222054746 0 -0.28947394683394129 0.22290723965403389 0 -0.27189929570899291 0.21032623774871539 0 -0.2711768260273017 0.22934903210340499 0 -0.27189929570899291 0.21032623774871539 0 -0.2711768260273017 0.22934903210340499 0 -0.2468004677473643 0.2170241222054746 0 -0.2711768260273017 0.22934903210340499 0 -0.25506580223295128 0.2411487079232523 0 -0.2468004677473643 0.2170241222054746 0 -0.28350545545988159 0.24511508518317501 0 -0.2711768260273017 0.22934903210340499 0 -0.25506580223295128 0.2411487079232523 0 -0.28350545545988159 0.24511508518317501 0 -0.25506580223295128 0.2411487079232523 0 -0.2728481904644981 0.26143257162966432 0 -0.28350545545988159 0.24511508518317501 0 -0.25506580223295128 0.2411487079232523 0 -0.29375672372013051 0.14285366994039739 0 -0.28242451552579911 0.13738546190058121 0 -0.27925123490624221 0.15436860839965949 0 -0.29375672372013051 0.14285366994039739 0 -0.30336899248151689 0.1550770974579197 0 -0.27925123490624221 0.15436860839965949 0 -0.29375672372013051 0.14285366994039739 0 -0.28242451552579911 0.13738546190058121 0 -0.29012471436341453 0.130857766090894 0 -0.29012471436341453 0.130857766090894 0 -0.2800995398838208 0.13020160139827111 0 -0.27966717916248363 0.1212685678664447 0 -0.28242451552579911 0.13738546190058121 0 -0.29012471436341453 0.130857766090894 0 -0.2800995398838208 0.13020160139827111 0 -0.29375672372013051 0.14285366994039739 0 -0.29012471436341453 0.130857766090894 0 -0.30403361169892368 0.13349336888990529 0 -0.29012471436341453 0.130857766090894 0 -0.30403361169892368 0.13349336888990529 0 -0.30112660797584262 0.11884585081517569 0 -0.29375672372013051 0.14285366994039739 0 -0.30403361169892368 0.13349336888990529 0 -0.30336899248151689 0.1550770974579197 0 -0.32064559575483642 0.14240194559245539 0 -0.30403361169892368 0.13349336888990529 0 -0.30336899248151689 0.1550770974579197 0 -0.32150912937896819 0.16148959598844731 0 -0.30336899248151689 0.1550770974579197 0 -0.31088586062414908 0.17765910724071601 0 -0.30336899248151689 0.1550770974579197 0 -0.31088586062414908 0.17765910724071601 0 -0.29032071932889819 0.1774426070641543 0 -0.30139020375155429 0.20051660572864921 0 -0.31088586062414908 0.17765910724071601 0 -0.29032071932889819 0.1774426070641543 0 -0.29032071932889819 0.1774426070641543 0 -0.27925123490624221 0.15436860839965949 0 -0.30336899248151689 0.1550770974579197 0 -0.29032071932889819 0.1774426070641543 0 -0.27925123490624221 0.15436860839965949 0 -0.29032071932889819 0.1774426070641543 0 -0.26538682044175921 0.16626398270775239 0 -0.27925123490624221 0.15436860839965949 0 -0.27338181725919941 0.18861189194295511 0 -0.29032071932889819 0.1774426070641543 0 -0.26538682044175921 0.16626398270775239 0 -0.27338181725919941 0.18861189194295511 0 -0.25672354526768532 0.18036420840679929 0 -0.26538682044175921 0.16626398270775239 0 -0.26538682044175921 0.16626398270775239 0 -0.25728405863933229 0.1475662721264398 0 -0.24203788772944701 0.16164875012463961 0 -0.25672354526768532 0.18036420840679929 0 -0.26538682044175921 0.16626398270775239 0 -0.24203788772944701 0.16164875012463961 0 -0.26538682044175921 0.16626398270775239 0 -0.25728405863933229 0.1475662721264398 0 -0.27925123490624221 0.15436860839965949 0 -0.25728405863933229 0.1475662721264398 0 -0.27925123490624221 0.15436860839965949 0 -0.26818175048358611 0.13129460973516449 0 -0.28242451552579911 0.13738546190058121 0 -0.27925123490624221 0.15436860839965949 0 -0.26818175048358611 0.13129460973516449 0 -0.27925123490624221 0.15436860839965949 0 -0.26818175048358611 0.13129460973516449 0 -0.26818175048358611 0.13129460973516449 0 -0.25820775034912491 0.1236912849177154 0 -0.27966717916248363 0.1212685678664447 0 -0.2800995398838208 0.13020160139827111 0 -0.26818175048358611 0.13129460973516449 0 -0.27966717916248363 0.1212685678664447 0 -0.28242451552579911 0.13738546190058121 0 -0.2800995398838208 0.13020160139827111 0 -0.26818175048358611 0.13129460973516449 0 -0.25728405863933229 0.1475662721264398 0 -0.26818175048358611 0.13129460973516449 0 -0.25669773284991981 0.13447267841785099 0 -0.26818175048358611 0.13129460973516449 0 -0.25669773284991981 0.13447267841785099 0 -0.25820775034912491 0.1236912849177154 0 -0.25728405863933229 0.1475662721264398 0 -0.25669773284991981 0.13447267841785099 0 -0.24277999027016781 0.1333122883800992 0 -0.25820775034912491 0.1236912849177154 0 -0.24277999027016781 0.1333122883800992 0 -0.25669773284991981 0.13447267841785099 0 -0.25820775034912491 0.1236912849177154 0 -0.24277999027016781 0.1333122883800992 0 -0.25985311395776473 0.1104105486414456 0 -0.25820775034912491 0.1236912849177154 0 -0.2465842574223798 0.1136730485039653 0 -0.25985311395776473 0.1104105486414456 0 -0.25820775034912491 0.1236912849177154 0 -0.27364945571928467 0.114061584943706 0 -0.25985311395776473 0.1104105486414456 0 -0.25133872639838267 0.099597610871731482 0 -0.26938894131357999 0.1019119084466257 0 -0.25133872639838267 0.099597610871731482 0 -0.26938894131357999 0.1019119084466257 0 -0.25429264043260819 0.080886583836923695 0 -0.25985311395776473 0.1104105486414456 0 -0.25133872639838267 0.099597610871731482 0 -0.2465842574223798 0.1136730485039653 0 -0.26938894131357999 0.1019119084466257 0 -0.28653232590929351 0.1047143958822427 0 -0.27814297766292811 0.090435431756261425 0 -0.26938894131357999 0.1019119084466257 0 -0.28202731547286891 0.1124795306203332 0 -0.28653232590929351 0.1047143958822427 0 -0.25985311395776473 0.1104105486414456 0 -0.26938894131357999 0.1019119084466257 0 -0.27364945571928467 0.114061584943706 0 -0.25820775034912491 0.1236912849177154 0 -0.27364945571928467 0.114061584943706 0 -0.27966717916248363 0.1212685678664447 0 -0.25820775034912491 0.1236912849177154 0 -0.27966717916248363 0.1212685678664447 0 -0.25820775034912491 0.1236912849177154 0 -0.27364945571928467 0.114061584943706 0 -0.27364945571928467 0.114061584943706 0 -0.27966717916248363 0.1212685678664447 0 -0.28202731547286891 0.1124795306203332 0 -0.26938894131357999 0.1019119084466257 0 -0.27364945571928467 0.114061584943706 0 -0.28202731547286891 0.1124795306203332 0 -0.29012471436341453 0.130857766090894 0 -0.27966717916248363 0.1212685678664447 0 -0.30112660797584262 0.11884585081517569 0 -0.27966717916248363 0.1212685678664447 0 -0.30112660797584262 0.11884585081517569 0 -0.28202731547286891 0.1124795306203332 0 -0.28653232590929351 0.1047143958822427 0 -0.30112660797584262 0.11884585081517569 0 -0.27966717916248363 0.1212685678664447 0 -0.28202731547286891 0.1124795306203332 0 -0.30112660797584262 0.11884585081517569 0 -0.28653232590929351 0.1047143958822427 0 -0.30199331489324788 0.099984279675599155 0 -0.27814297766292811 0.090435431756261425 0 -0.28653232590929351 0.1047143958822427 0 -0.30199331489324788 0.099984279675599155 0 -0.30112660797584262 0.11884585081517569 0 -0.30199331489324788 0.099984279675599155 0 -0.27814297766292811 0.090435431756261425 0 -0.30199331489324788 0.099984279675599155 0 -0.31226452817049022 0.11564039137211631 0 -0.30112660797584262 0.11884585081517569 0 -0.30403361169892368 0.13349336888990529 0 -0.31226452817049022 0.11564039137211631 0 -0.30112660797584262 0.11884585081517569 0 -0.30826795150203168 0.0730570480900746 0 -0.29162857128467889 0.068174224611542072 0 -0.30671133469942591 0.060491325403138993 0 -0.30826795150203168 0.0730570480900746 0 -0.29896722472195492 0.083545671358161877 0 -0.29162857128467889 0.068174224611542072 0 -0.30826795150203168 0.0730570480900746 0 -0.30671133469942591 0.060491325403138993 0 -0.31748379774572277 0.065664047262652556 0 -0.30826795150203168 0.0730570480900746 0 -0.30989223771910468 0.085925076087191882 0 -0.29896722472195492 0.083545671358161877 0 -0.30199331489324788 0.099984279675599155 0 -0.30989223771910468 0.085925076087191882 0 -0.31804414445220519 0.093015806396628209 0 -0.30199331489324788 0.099984279675599155 0 -0.30989223771910468 0.085925076087191882 0 -0.29896722472195492 0.083545671358161877 0 -0.29896722472195492 0.083545671358161877 0 -0.29162857128467889 0.068174224611542072 0 -0.27814297766292811 0.090435431756261425 0 -0.30199331489324788 0.099984279675599155 0 -0.29896722472195492 0.083545671358161877 0 -0.27814297766292811 0.090435431756261425 0 -0.29162857128467889 0.068174224611542072 0 -0.26954824856239218 0.070591615048194847 0 -0.27661211831262261 0.058821093714310643 0 -0.29162857128467889 0.068174224611542072 0 -0.26954824856239218 0.070591615048194847 0 -0.27814297766292811 0.090435431756261425 0 -0.26938894131357999 0.1019119084466257 0 -0.27814297766292811 0.090435431756261425 0 -0.25429264043260819 0.080886583836923695 0 -0.27814297766292811 0.090435431756261425 0 -0.25429264043260819 0.080886583836923695 0 -0.26954824856239218 0.070591615048194847 0 -0.27814297766292811 0.090435431756261425 0 -0.25429264043260819 0.080886583836923695 0 -0.26954824856239218 0.070591615048194847 0 -0.25429264043260819 0.080886583836923695 0 -0.24938781436518601 0.068753797982909676 0 -0.26954824856239218 0.070591615048194847 0 -0.26546819001061889 0.057703898189083162 0 -0.24938781436518601 0.068753797982909676 0 -0.25301635817267382 0.054799278369873833 0 -0.26866648296270568 0.047302201796583558 0 -0.2490183198394047 0.040680481043489383 0 -0.25301635817267382 0.054799278369873833 0 -0.26546819001061889 0.057703898189083162 0 -0.26866648296270568 0.047302201796583558 0 -0.25301635817267382 0.054799278369873833 0 -0.26546819001061889 0.057703898189083162 0 -0.24938781436518601 0.068753797982909676 0 -0.26866648296270568 0.047302201796583558 0 -0.2490183198394047 0.040680481043489383 0 -0.26498316757438117 0.037762001638634128 0 -0.26866648296270568 0.047302201796583558 0 -0.2490183198394047 0.040680481043489383 0 -0.26498316757438117 0.037762001638634128 0 -0.25230682830346818 0.02955531694840258 0 -0.2490183198394047 0.040680481043489383 0 -0.26498316757438117 0.037762001638634128 0 -0.26866648296270568 0.047302201796583558 0 -0.28629368916477671 0.038049955930227621 0 -0.26498316757438117 0.037762001638634128 0 -0.27408996900487831 0.0279022292276793 0 -0.28629368916477671 0.038049955930227621 0 -0.26498316757438117 0.037762001638634128 0 -0.28629368916477671 0.038049955930227621 0 -0.26866648296270568 0.047302201796583558 0 -0.28831464608600682 0.053923922549677747 0 -0.28629368916477671 0.038049955930227621 0 -0.26866648296270568 0.047302201796583558 0 -0.28831464608600682 0.053923922549677747 0 -0.27661211831262261 0.058821093714310643 0 -0.26866648296270568 0.047302201796583558 0 -0.28831464608600682 0.053923922549677747 0 -0.26954824856239218 0.070591615048194847 0 -0.26546819001061889 0.057703898189083162 0 -0.27661211831262261 0.058821093714310643 0 -0.26546819001061889 0.057703898189083162 0 -0.27661211831262261 0.058821093714310643 0 -0.26866648296270568 0.047302201796583558 0 -0.25537996419202591 -0.0033143468573220759 0 -0.26514382374020828 0.0054859781629250631 0 -0.25229657263007749 0.0082721924600334829 0 -0.25229657263007749 0.0082721924600334829 0 -0.25976610739902811 0.013753461600862811 0 -0.25276540064208891 0.019357371674601519 0 -0.26514382374020828 0.0054859781629250631 0 -0.25229657263007749 0.0082721924600334829 0 -0.25976610739902811 0.013753461600862811 0 -0.25976610739902811 0.013753461600862811 0 -0.26191756645844749 0.023627443951056079 0 -0.27295971954361758 0.01538275836770563 0 -0.25976610739902811 0.013753461600862811 0 -0.25276540064208891 0.019357371674601519 0 -0.26191756645844749 0.023627443951056079 0 -0.25276540064208891 0.019357371674601519 0 -0.25230682830346818 0.02955531694840258 0 -0.26191756645844749 0.023627443951056079 0 -0.26498316757438117 0.037762001638634128 0 -0.25230682830346818 0.02955531694840258 0 -0.26191756645844749 0.023627443951056079 0 -0.26498316757438117 0.037762001638634128 0 -0.26191756645844749 0.023627443951056079 0 -0.27408996900487831 0.0279022292276793 0 -0.27408996900487831 0.0279022292276793 0 -0.27295971954361758 0.01538275836770563 0 -0.28429570228316881 0.024688986250773051 0 -0.26191756645844749 0.023627443951056079 0 -0.27408996900487831 0.0279022292276793 0 -0.27295971954361758 0.01538275836770563 0 -0.26514382374020828 0.0054859781629250631 0 -0.27295971954361758 0.01538275836770563 0 -0.28202086463559128 0.00085761427244706039 0 -0.26514382374020828 0.0054859781629250631 0 -0.25976610739902811 0.013753461600862811 0 -0.27295971954361758 0.01538275836770563 0 -0.27295971954361758 0.01538275836770563 0 -0.28202086463559128 0.00085761427244706039 0 -0.28760580723404278 0.013574793022046609 0 -0.28202086463559128 0.00085761427244706039 0 -0.28760580723404278 0.013574793022046609 0 -0.29949908819018478 0.0071836852143538294 0 -0.28760580723404278 0.013574793022046609 0 -0.29680124940308078 0.024186401267074661 0 -0.29949908819018478 0.0071836852143538294 0 -0.28760580723404278 0.013574793022046609 0 -0.28429570228316881 0.024688986250773051 0 -0.29680124940308078 0.024186401267074661 0 -0.27295971954361758 0.01538275836770563 0 -0.28760580723404278 0.013574793022046609 0 -0.28429570228316881 0.024688986250773051 0 -0.27408996900487831 0.0279022292276793 0 -0.28429570228316881 0.024688986250773051 0 -0.28629368916477671 0.038049955930227621 0 -0.28429570228316881 0.024688986250773051 0 -0.29680124940308078 0.024186401267074661 0 -0.28629368916477671 0.038049955930227621 0 -0.29680124940308078 0.024186401267074661 0 -0.30760421075517241 0.03833791022182112 0 -0.31420691026787673 0.022904774863883651 0 -0.29680124940308078 0.024186401267074661 0 -0.29949908819018478 0.0071836852143538294 0 -0.31420691026787673 0.022904774863883651 0 -0.29949908819018478 0.0071836852143538294 0 -0.31420691026787673 0.022904774863883651 0 -0.30565178628296208 -0.0059818783442715153 0 -0.29949908819018478 0.0071836852143538294 0 -0.32099301038432648 0.001815581587585604 0 -0.29949908819018478 0.0071836852143538294 0 -0.32099301038432648 0.001815581587585604 0 -0.31420691026787673 0.022904774863883651 0 -0.29646044252860898 0.04771701560694519 0 -0.28831464608600682 0.053923922549677747 0 -0.29827198362797391 0.054099153773578393 0 -0.29162857128467889 0.068174224611542072 0 -0.28831464608600682 0.053923922549677747 0 -0.29827198362797391 0.054099153773578393 0 -0.29162857128467889 0.068174224611542072 0 -0.27661211831262261 0.058821093714310643 0 -0.28831464608600682 0.053923922549677747 0 -0.29680124940308078 0.024186401267074661 0 -0.28629368916477671 0.038049955930227621 0 -0.30760421075517241 0.03833791022182112 0 -0.29646044252860898 0.04771701560694519 0 -0.28831464608600682 0.053923922549677747 0 -0.28629368916477671 0.038049955930227621 0 -0.29646044252860898 0.04771701560694519 0 -0.28629368916477671 0.038049955930227621 0 -0.30118319195325288 0.0435903454632076 0 -0.28629368916477671 0.038049955930227621 0 -0.30118319195325288 0.0435903454632076 0 -0.30760421075517241 0.03833791022182112 0 -0.28629368916477671 0.038049955930227621 0 -0.30760421075517241 0.03833791022182112 0 -0.30118319195325288 0.0435903454632076 0 -0.30969478679239942 0.043707084264404547 0 -0.30503900060939371 0.050420672246918943 0 -0.30118319195325288 0.0435903454632076 0 -0.30760421075517241 0.03833791022182112 0 -0.30969478679239942 0.043707084264404547 0 -0.30969478679239942 0.043707084264404547 0 -0.30503900060939371 0.050420672246918943 0 -0.31570943015827241 0.05431341009372552 0 -0.29646044252860898 0.04771701560694519 0 -0.30118319195325288 0.0435903454632076 0 -0.30503900060939371 0.050420672246918943 0 -0.29646044252860898 0.04771701560694519 0 -0.30503900060939371 0.050420672246918943 0 -0.29827198362797391 0.054099153773578393 0 -0.29162857128467889 0.068174224611542072 0 -0.29827198362797391 0.054099153773578393 0 -0.30671133469942591 0.060491325403138993 0 -0.30503900060939371 0.050420672246918943 0 -0.29827198362797391 0.054099153773578393 0 -0.30671133469942591 0.060491325403138993 0 -0.30503900060939371 0.050420672246918943 0 -0.30671133469942591 0.060491325403138993 0 -0.31570943015827241 0.05431341009372552 0 -0.32423537340598529 0.059783326953227869 0 -0.31570943015827241 0.05431341009372552 0 -0.31748379774572277 0.065664047262652556 0 -0.30969478679239942 0.043707084264404547 0 -0.32809241908493753 0.050559543079165811 0 -0.31570943015827241 0.05431341009372552 0 -0.30969478679239942 0.043707084264404547 0 -0.32809241908493753 0.050559543079165811 0 -0.30671133469942591 0.060491325403138993 0 -0.31570943015827241 0.05431341009372552 0 -0.31748379774572277 0.065664047262652556 0 -0.32423537340598529 0.059783326953227869 0 -0.32809241908493753 0.050559543079165811 0 -0.31570943015827241 0.05431341009372552 0 -0.30760421075517241 0.03833791022182112 0 -0.32891473234556801 0.038625864513414071 0 -0.30760421075517241 0.03833791022182112 0 -0.32891473234556801 0.038625864513414071 0 -0.31420691026787673 0.022904774863883651 0 -0.30969478679239942 0.043707084264404547 0 -0.32809241908493753 0.050559543079165811 0 -0.32891473234556801 0.038625864513414071 0 -0.30760421075517241 0.03833791022182112 0 -0.30969478679239942 0.043707084264404547 0 -0.32891473234556801 0.038625864513414071 0 -0.32891473234556801 0.038625864513414071 0 -0.34649005137747518 0.057412001893927672 0 -0.34945228526401001 0.038903374215681089 0 -0.32891473234556801 0.038625864513414071 0 -0.34149602037197568 0.026951929917848082 0 -0.34945228526401001 0.038903374215681089 0 -0.32891473234556801 0.038625864513414071 0 -0.34945228526401001 0.038903374215681089 0 -0.32809241908493753 0.050559543079165811 0 -0.33265812433454339 0.061316776099374831 0 -0.34649005137747518 0.057412001893927672 0 -0.32809241908493753 0.050559543079165811 0 -0.32891473234556801 0.038625864513414071 0 -0.34649005137747518 0.057412001893927672 0 -0.32809241908493753 0.050559543079165811 0 -0.34649005137747518 0.057412001893927672 0 -0.32891473234556801 0.038625864513414071 0 -0.34649005137747518 0.057412001893927672 0 -0.32423537340598529 0.059783326953227869 0 -0.32809241908493753 0.050559543079165811 0 -0.33265812433454339 0.061316776099374831 0 -0.32099301038432648 0.001815581587585604 0 -0.31420691026787673 0.022904774863883651 0 -0.32893777644370997 0.021370881223778809 0 -0.32891473234556801 0.038625864513414071 0 -0.31420691026787673 0.022904774863883651 0 -0.32891473234556801 0.038625864513414071 0 -0.31420691026787673 0.022904774863883651 0 -0.32893777644370997 0.021370881223778809 0 -0.32891473234556801 0.038625864513414071 0 -0.34149602037197568 0.026951929917848082 0 -0.32893777644370997 0.021370881223778809 0 -0.34149602037197568 0.026951929917848082 0 -0.32893777644370997 0.021370881223778809 0 -0.34128894299642848 0.0122757678100476 0 -0.32099301038432648 0.001815581587585604 0 -0.32893777644370997 0.021370881223778809 0 -0.34128894299642848 0.0122757678100476 0 -0.35377703023811358 -0.0010742091296599219 0 -0.34128894299642848 0.0122757678100476 0 -0.35967541628456312 0.0098712230630304699 0 -0.34128894299642848 0.0122757678100476 0 -0.35888636481016217 0.02358376182631881 0 -0.35967541628456312 0.0098712230630304699 0 -0.35377703023811358 -0.0010742091296599219 0 -0.35967541628456312 0.0098712230630304699 0 -0.36274735004998171 0.00073078404237994238 0 -0.34149602037197568 0.026951929917848082 0 -0.35888636481016217 0.02358376182631881 0 -0.34945228526401001 0.038903374215681089 0 -0.34149602037197568 0.026951929917848082 0 -0.34128894299642848 0.0122757678100476 0 -0.35888636481016217 0.02358376182631881 0 -0.35888636481016217 0.02358376182631881 0 -0.3741660754503644 0.024763952449897351 0 -0.36998983818245179 0.039180883917947558 0 -0.35888636481016217 0.02358376182631881 0 -0.3741660754503644 0.024763952449897351 0 -0.36925123739472948 0.01547380578063577 0 -0.35888636481016217 0.02358376182631881 0 -0.35967541628456312 0.0098712230630304699 0 -0.36925123739472948 0.01547380578063577 0 -0.35967541628456312 0.0098712230630304699 0 -0.36925123739472948 0.01547380578063577 0 -0.37163206502638491 0.0066924315405442192 0 -0.38228049202703113 0.01055909057794736 0 -0.36925123739472948 0.01547380578063577 0 -0.37163206502638491 0.0066924315405442192 0 -0.35967541628456312 0.0098712230630304699 0 -0.37163206502638491 0.0066924315405442192 0 -0.36274735004998171 0.00073078404237994238 0 -0.34649005137747518 0.057412001893927672 0 -0.34945228526401001 0.038903374215681089 0 -0.36098423476196451 0.050592187070421193 0 -0.34649005137747518 0.057412001893927672 0 -0.36377373127359153 0.063849553355572963 0 -0.34649005137747518 0.057412001893927672 0 -0.36098423476196451 0.050592187070421193 0 -0.36377373127359153 0.063849553355572963 0 -0.34945228526401001 0.038903374215681089 0 -0.36998983818245179 0.039180883917947558 0 -0.34945228526401001 0.038903374215681089 0 -0.36998983818245179 0.039180883917947558 0 -0.36098423476196451 0.050592187070421193 0 -0.35888636481016217 0.02358376182631881 0 -0.34945228526401001 0.038903374215681089 0 -0.36998983818245179 0.039180883917947558 0 -0.3752152677122938 0.053615121968976692 0 -0.36998983818245179 0.039180883917947558 0 -0.36098423476196451 0.050592187070421193 0 -0.3752152677122938 0.053615121968976692 0 -0.36098423476196451 0.050592187070421193 0 -0.36377373127359153 0.063849553355572963 0 -0.3752152677122938 0.053615121968976692 0 -0.37934952992800203 0.06152599102278665 0 -0.36377373127359153 0.063849553355572963 0 -0.38105741116970748 0.070287104817218851 0 -0.36377373127359153 0.063849553355572963 0 -0.37934952992800203 0.06152599102278665 0 -0.38105741116970748 0.070287104817218851 0 -0.36377373127359153 0.063849553355572963 0 -0.38105741116970748 0.070287104817218851 0 -0.3708780889558867 0.072554299931123528 0 -0.36377373127359153 0.063849553355572963 0 -0.37543873292193292 0.080761983674428522 0 -0.3708780889558867 0.072554299931123528 0 -0.36324248045831498 0.075318557877273845 0 -0.3708780889558867 0.072554299931123528 0 -0.36324248045831498 0.075318557877273845 0 -0.36377373127359153 0.063849553355572963 0 -0.36324248045831498 0.075318557877273845 0 -0.35545669875693969 0.076489066857041904 0 -0.3621925864014709 0.080565377151101195 0 -0.34649005137747518 0.057412001893927672 0 -0.36324248045831498 0.075318557877273845 0 -0.34649005137747518 0.057412001893927672 0 -0.35545669875693969 0.076489066857041904 0 -0.34760874147795823 0.074954459634990908 0 -0.34649005137747518 0.057412001893927672 0 -0.36324248045831498 0.075318557877273845 0 -0.36377373127359153 0.063849553355572963 0 -0.34649005137747518 0.057412001893927672 0 -0.36324248045831498 0.075318557877273845 0 -0.35545669875693969 0.076489066857041904 0 -0.3535821059295382 0.085200331143182678 0 -0.3621925864014709 0.080565377151101195 0 -0.35972074392772441 0.1039727616043971 0 -0.34884130774006261 0.092720305469283892 0 -0.34411419820811112 0.083604242281641677 0 -0.3535821059295382 0.085200331143182678 0 -0.34760874147795823 0.074954459634990908 0 -0.34411419820811112 0.083604242281641677 0 -0.3535821059295382 0.085200331143182678 0 -0.35545669875693969 0.076489066857041904 0 -0.3535821059295382 0.085200331143182678 0 -0.3621925864014709 0.080565377151101195 0 -0.35545669875693969 0.076489066857041904 0 -0.34760874147795823 0.074954459634990908 0 -0.3535821059295382 0.085200331143182678 0 -0.37999490953915538 0.093225113860619477 0 -0.37543873292193292 0.080761983674428522 0 -0.36324248045831498 0.075318557877273845 0 -0.3621925864014709 0.080565377151101195 0 -0.35972074392772441 0.1039727616043971 0 -0.37999490953915538 0.093225113860619477 0 -0.36324248045831498 0.075318557877273845 0 -0.3621925864014709 0.080565377151101195 0 -0.37999490953915538 0.093225113860619477 0 -0.3621925864014709 0.080565377151101195 0 -0.35972074392772441 0.1039727616043971 0 -0.37999490953915538 0.093225113860619477 0 -0.36324248045831498 0.075318557877273845 0 -0.37999490953915538 0.093225113860619477 0 -0.35972074392772441 0.1039727616043971 0 -0.37146216644709129 0.1114782088342699 0 -0.37999490953915538 0.093225113860619477 0 -0.35972074392772441 0.1039727616043971 0 -0.3771229259235489 0.12278337187638851 0 -0.35716782069568648 0.12814794922525879 0 -0.37146216644709129 0.1114782088342699 0 -0.35716782069568648 0.12814794922525879 0 -0.35972074392772441 0.1039727616043971 0 -0.37146216644709129 0.1114782088342699 0 -0.35716782069568648 0.12814794922525879 0 -0.35972074392772441 0.1039727616043971 0 -0.34115836651812431 0.1138129640329 0 -0.35716782069568648 0.12814794922525879 0 -0.35972074392772441 0.1039727616043971 0 -0.35972074392772441 0.1039727616043971 0 -0.33646553328447593 0.098563981072647674 0 -0.34115836651812431 0.1138129640329 0 -0.34884130774006261 0.092720305469283892 0 -0.3535821059295382 0.085200331143182678 0 -0.35972074392772441 0.1039727616043971 0 -0.35972074392772441 0.1039727616043971 0 -0.34115836651812431 0.1138129640329 0 -0.34884130774006261 0.092720305469283892 0 -0.35972074392772441 0.1039727616043971 0 -0.33646553328447593 0.098563981072647674 0 -0.33646553328447593 0.098563981072647674 0 -0.32584365212356797 0.109533127594937 0 -0.32893270032285321 0.091741615212213079 0 -0.33646553328447593 0.098563981072647674 0 -0.34115836651812431 0.1138129640329 0 -0.32584365212356797 0.109533127594937 0 -0.34115836651812431 0.1138129640329 0 -0.322595989108524 0.1236531664614027 0 -0.32584365212356797 0.109533127594937 0 -0.34115836651812431 0.1138129640329 0 -0.322595989108524 0.1236531664614027 0 -0.33872398373642498 0.1348067625776303 0 -0.34115836651812431 0.1138129640329 0 -0.322595989108524 0.1236531664614027 0 -0.30403361169892368 0.13349336888990529 0 -0.31226452817049022 0.11564039137211631 0 -0.322595989108524 0.1236531664614027 0 -0.31226452817049022 0.11564039137211631 0 -0.322595989108524 0.1236531664614027 0 -0.32584365212356797 0.109533127594937 0 -0.30199331489324788 0.099984279675599155 0 -0.32584365212356797 0.109533127594937 0 -0.31804414445220519 0.093015806396628209 0 -0.32584365212356797 0.109533127594937 0 -0.31804414445220519 0.093015806396628209 0 -0.32893270032285321 0.091741615212213079 0 -0.30199331489324788 0.099984279675599155 0 -0.32584365212356797 0.109533127594937 0 -0.30199331489324788 0.099984279675599155 0 -0.31226452817049022 0.11564039137211631 0 -0.32584365212356797 0.109533127594937 0 -0.30989223771910468 0.085925076087191882 0 -0.31804414445220519 0.093015806396628209 0 -0.32218855302608368 0.080022574915495609 0 -0.31804414445220519 0.093015806396628209 0 -0.32218855302608368 0.080022574915495609 0 -0.32893270032285321 0.091741615212213079 0 -0.30826795150203168 0.0730570480900746 0 -0.30989223771910468 0.085925076087191882 0 -0.32218855302608368 0.080022574915495609 0 -0.30826795150203168 0.0730570480900746 0 -0.32218855302608368 0.080022574915495609 0 -0.31748379774572277 0.065664047262652556 0 -0.32423537340598529 0.059783326953227869 0 -0.33265812433454339 0.061316776099374831 0 -0.32723309570645032 0.067062858231220643 0 -0.32423537340598529 0.059783326953227869 0 -0.31748379774572277 0.065664047262652556 0 -0.32723309570645032 0.067062858231220643 0 -0.32218855302608368 0.080022574915495609 0 -0.31748379774572277 0.065664047262652556 0 -0.32723309570645032 0.067062858231220643 0 -0.34649005137747518 0.057412001893927672 0 -0.34760874147795823 0.074954459634990908 0 -0.33668263412178118 0.072512410450300019 0 -0.32218855302608368 0.080022574915495609 0 -0.32723309570645032 0.067062858231220643 0 -0.33668263412178118 0.072512410450300019 0 -0.33265812433454339 0.061316776099374831 0 -0.32723309570645032 0.067062858231220643 0 -0.33668263412178118 0.072512410450300019 0 -0.33265812433454339 0.061316776099374831 0 -0.34649005137747518 0.057412001893927672 0 -0.33668263412178118 0.072512410450300019 0 -0.34760874147795823 0.074954459634990908 0 -0.34411419820811112 0.083604242281641677 0 -0.33668263412178118 0.072512410450300019 0 -0.34411419820811112 0.083604242281641677 0 -0.33668263412178118 0.072512410450300019 0 -0.33401114674217652 0.084749552768449254 0 -0.34884130774006261 0.092720305469283892 0 -0.34411419820811112 0.083604242281641677 0 -0.33646553328447593 0.098563981072647674 0 -0.34411419820811112 0.083604242281641677 0 -0.33646553328447593 0.098563981072647674 0 -0.33401114674217652 0.084749552768449254 0 -0.33646553328447593 0.098563981072647674 0 -0.32893270032285321 0.091741615212213079 0 -0.33401114674217652 0.084749552768449254 0 -0.32218855302608368 0.080022574915495609 0 -0.33668263412178118 0.072512410450300019 0 -0.33401114674217652 0.084749552768449254 0 -0.32218855302608368 0.080022574915495609 0 -0.32893270032285321 0.091741615212213079 0 -0.33401114674217652 0.084749552768449254 0 -0.39202675663651582 0.5 0 -0.44296364594040638 0.47532087137969509 0 -0.47148182297020158 0.48176682993167269 0 -0.39202675663651582 0.5 0 -0.38685083543877657 0.47054016493952228 0 -0.35550701130023182 0.47703644637796039 0 -0.39202675663651582 0.5 0 -0.38685083543877657 0.47054016493952228 0 -0.4144454689106114 0.46887491282771748 0 -0.38685083543877657 0.47054016493952228 0 -0.38137785779607181 0.45584853121112412 0 -0.37131332832198027 0.46456972568346822 0 -0.38137785779607181 0.45584853121112412 0 -0.37323000630099679 0.45754905890918701 0 -0.37131332832198027 0.46456972568346822 0 -0.38685083543877657 0.47054016493952228 0 -0.38137785779607181 0.45584853121112412 0 -0.39551529784013562 0.45516855997199501 0 -0.38137785779607181 0.45584853121112412 0 -0.3845842202631351 0.45104211771512159 0 -0.39551529784013562 0.45516855997199501 0 -0.39829901691190928 0.43856282067431612 0 -0.37201739046930049 0.44811357960837728 0 -0.39344435371084269 0.44151325647590761 0 -0.37201739046930049 0.44811357960837728 0 -0.36799937170549041 0.45163812320146002 0 -0.3845842202631351 0.45104211771512159 0 -0.39344435371084269 0.44151325647590761 0 -0.36799937170549041 0.45163812320146002 0 -0.38137785779607181 0.45584853121112412 0 -0.3845842202631351 0.45104211771512159 0 -0.36799937170549041 0.45163812320146002 0 -0.39344435371084269 0.44151325647590761 0 -0.36799937170549041 0.45163812320146002 0 -0.39829901691190928 0.43856282067431612 0 -0.39344435371084269 0.44151325647590761 0 -0.37201739046930049 0.44811357960837728 0 -0.38336688891823911 0.43867285164541808 0 -0.39829901691190928 0.43856282067431612 0 -0.37201739046930049 0.44811357960837728 0 -0.38336688891823911 0.43867285164541808 0 -0.37201739046930049 0.44811357960837728 0 -0.374495835471923 0.43815868703815403 0 -0.39344435371084269 0.44151325647590761 0 -0.39551529784013562 0.45516855997199501 0 -0.41138603761978609 0.44893330308864499 0 -0.3845842202631351 0.45104211771512159 0 -0.39344435371084269 0.44151325647590761 0 -0.39551529784013562 0.45516855997199501 0 -0.38685083543877657 0.47054016493952228 0 -0.39551529784013562 0.45516855997199501 0 -0.4144454689106114 0.46887491282771748 0 -0.39551529784013562 0.45516855997199501 0 -0.41138603761978609 0.44893330308864499 0 -0.4144454689106114 0.46887491282771748 0 -0.41138603761978609 0.44893330308864499 0 -0.43481789018226658 0.44794022662543193 0 -0.4144454689106114 0.46887491282771748 0 -0.41138603761978609 0.44893330308864499 0 -0.43481789018226658 0.44794022662543193 0 -0.41888933571619508 0.43138838975035498 0 -0.39344435371084269 0.44151325647590761 0 -0.41138603761978609 0.44893330308864499 0 -0.41888933571619508 0.43138838975035498 0 -0.43481789018226658 0.44794022662543193 0 -0.4144454689106114 0.46887491282771748 0 -0.44296364594040638 0.47532087137969509 0 -0.4144454689106114 0.46887491282771748 0 -0.44296364594040638 0.47532087137969509 0 -0.39202675663651582 0.5 0 -0.4144454689106114 0.46887491282771748 0 -0.44296364594040638 0.47532087137969509 0 -0.39202675663651582 0.5 0 -0.47148182297020158 0.48176682993167269 0 -0.5 0.5 0 -0.44296364594040638 0.47532087137969509 0 -0.47148182297020158 0.48176682993167269 0 -0.44296364594040638 0.47532087137969509 0 -0.47148182297020158 0.48176682993167269 0 -0.45695735880530991 0.46020185727896618 0 -0.47148182297020158 0.48176682993167269 0 -0.48760957831803009 0.47322715323147763 0 -0.47872770024324268 0.45438183825883538 0 -0.48760957831803009 0.47322715323147763 0 -0.49999999999999672 0.48821278848364968 0 -0.5 0.46396687257510899 0 -0.47148182297020158 0.48176682993167269 0 -0.48760957831803009 0.47322715323147763 0 -0.49999999999999672 0.48821278848364968 0 -0.47148182297020158 0.48176682993167269 0 -0.5 0.5 0 -0.49999999999999672 0.48821278848364968 0 -0.47148182297020158 0.48176682993167269 0 -0.49999999999999672 0.48821278848364968 0 -0.5 0.4397209566665683 0 -0.47872770024324268 0.45438183825883538 0 -0.48324654511205029 0.4345017066649281 0 -0.5 0.4397209566665683 0 -0.5 0.46396687257510899 0 -0.47872770024324268 0.45438183825883538 0 -0.48760957831803009 0.47322715323147763 0 -0.5 0.46396687257510899 0 -0.47872770024324268 0.45438183825883538 0 -0.47148182297020158 0.48176682993167269 0 -0.47872770024324268 0.45438183825883538 0 -0.45695735880530991 0.46020185727896618 0 -0.47872770024324268 0.45438183825883538 0 -0.46003385475999892 0.42981942481729057 0 -0.48324654511205029 0.4345017066649281 0 -0.47872770024324268 0.45438183825883538 0 -0.45695735880530991 0.46020185727896618 0 -0.46003385475999892 0.42981942481729057 0 -0.43481789018226658 0.44794022662543193 0 -0.44296364594040638 0.47532087137969509 0 -0.45695735880530991 0.46020185727896618 0 -0.43481789018226658 0.44794022662543193 0 -0.45695735880530991 0.46020185727896618 0 -0.46003385475999892 0.42981942481729057 0 -0.43481789018226658 0.44794022662543193 0 -0.46003385475999892 0.42981942481729057 0 -0.43551539528796668 0.42060305523344582 0 -0.44772732093663692 0.40705887370368032 0 -0.43370518622185739 0.39816291977779178 0 -0.43551539528796668 0.42060305523344582 0 -0.44772732093663692 0.40705887370368032 0 -0.46003385475999892 0.42981942481729057 0 -0.43551539528796668 0.42060305523344582 0 -0.46480022153162581 0.40686244178832998 0 -0.46003385475999892 0.42981942481729057 0 -0.47872809080107381 0.41818633416460038 0 -0.44772732093663692 0.40705887370368032 0 -0.46480022153162581 0.40686244178832998 0 -0.46003385475999892 0.42981942481729057 0 -0.46003385475999892 0.42981942481729057 0 -0.48324654511205029 0.4345017066649281 0 -0.47872809080107381 0.41818633416460038 0 -0.46480022153162581 0.40686244178832998 0 -0.47872809080107381 0.41818633416460038 0 -0.48297991979538102 0.40168782242164758 0 -0.47872809080107381 0.41818633416460038 0 -0.5 0.41547504075802749 0 -0.48297991979538102 0.40168782242164758 0 -0.48324654511205029 0.4345017066649281 0 -0.47872809080107381 0.41818633416460038 0 -0.5 0.41547504075802749 0 -0.5 0.4397209566665683 0 -0.48324654511205029 0.4345017066649281 0 -0.5 0.41547504075802749 0 -0.49999999999999822 0.39122912484948691 0 -0.48022981032477802 0.38515940780926539 0 -0.49999999999999822 0.39122912484948691 0 -0.48022981032477802 0.38515940780926539 0 -0.5 0.36343899680644548 0 -0.49999999999999822 0.39122912484948691 0 -0.48297991979538102 0.40168782242164758 0 -0.48022981032477802 0.38515940780926539 0 -0.5 0.41547504075802749 0 -0.49999999999999822 0.39122912484948691 0 -0.48297991979538102 0.40168782242164758 0 -0.48297991979538102 0.40168782242164758 0 -0.48022981032477802 0.38515940780926539 0 -0.46832963101257402 0.39313381413041509 0 -0.46480022153162581 0.40686244178832998 0 -0.48297991979538102 0.40168782242164758 0 -0.46832963101257402 0.39313381413041509 0 -0.48022981032477802 0.38515940780926539 0 -0.46045962064955781 0.37908969076904359 0 -0.46832963101257402 0.39313381413041509 0 -0.48022981032477802 0.38515940780926539 0 -0.46045962064955781 0.37908969076904359 0 -0.48022981032477802 0.38515940780926539 0 -0.46045962064955781 0.37908969076904359 0 -0.47597278094426848 0.3634076630802433 0 -0.46045962064955781 0.37908969076904359 0 -0.46832963101257402 0.39313381413041509 0 -0.45317858276152739 0.39286970786378911 0 -0.44772732093663692 0.40705887370368032 0 -0.46480022153162581 0.40686244178832998 0 -0.45317858276152739 0.39286970786378911 0 -0.46480022153162581 0.40686244178832998 0 -0.46832963101257402 0.39313381413041509 0 -0.45317858276152739 0.39286970786378911 0 -0.44772732093663692 0.40705887370368032 0 -0.45317858276152739 0.39286970786378911 0 -0.43370518622185739 0.39816291977779178 0 -0.43370518622185739 0.39816291977779178 0 -0.44479548320140538 0.37492651719600051 0 -0.45317858276152739 0.39286970786378911 0 -0.43370518622185739 0.39816291977779178 0 -0.44479548320140538 0.37492651719600051 0 -0.46045962064955781 0.37908969076904359 0 -0.45317858276152739 0.39286970786378911 0 -0.44479548320140538 0.37492651719600051 0 -0.43370518622185739 0.39816291977779178 0 -0.4302123170486305 0.37281948164846962 0 -0.44479548320140538 0.37492651719600051 0 -0.41781922056083892 0.38260643104269509 0 -0.43370518622185739 0.39816291977779178 0 -0.4302123170486305 0.37281948164846962 0 -0.41781922056083892 0.38260643104269509 0 -0.39660336448031458 0.38003694087062301 0 -0.40456273884952543 0.36557657670104188 0 -0.41781922056083892 0.38260643104269509 0 -0.41791878391084603 0.40924849672612529 0 -0.40186905798128492 0.39854771115736898 0 -0.41781922056083892 0.38260643104269509 0 -0.43370518622185739 0.39816291977779178 0 -0.41791878391084603 0.40924849672612529 0 -0.43370518622185739 0.39816291977779178 0 -0.43551539528796668 0.42060305523344582 0 -0.41791878391084603 0.40924849672612529 0 -0.43551539528796668 0.42060305523344582 0 -0.41888933571619508 0.43138838975035498 0 -0.41791878391084603 0.40924849672612529 0 -0.43481789018226658 0.44794022662543193 0 -0.43551539528796668 0.42060305523344582 0 -0.41888933571619508 0.43138838975035498 0 -0.39829901691190928 0.43856282067431612 0 -0.41888933571619508 0.43138838975035498 0 -0.40443713964575378 0.42304508261220719 0 -0.41791878391084603 0.40924849672612529 0 -0.40443713964575378 0.42304508261220719 0 -0.40186905798128492 0.39854771115736898 0 -0.41888933571619508 0.43138838975035498 0 -0.41791878391084603 0.40924849672612529 0 -0.40443713964575378 0.42304508261220719 0 -0.39121044405494249 0.41286377196203011 0 -0.40443713964575378 0.42304508261220719 0 -0.40186905798128492 0.39854771115736898 0 -0.39121044405494249 0.41286377196203011 0 -0.40443713964575378 0.42304508261220719 0 -0.39672827525114368 0.42870293437075863 0 -0.39344435371084269 0.44151325647590761 0 -0.41888933571619508 0.43138838975035498 0 -0.39121044405494249 0.41286377196203011 0 -0.39672827525114368 0.42870293437075863 0 -0.38831639079726449 0.42735764586668701 0 -0.39829901691190928 0.43856282067431612 0 -0.39344435371084269 0.44151325647590761 0 -0.41888933571619508 0.43138838975035498 0 -0.39829901691190928 0.43856282067431612 0 -0.40443713964575378 0.42304508261220719 0 -0.39672827525114368 0.42870293437075863 0 -0.39829901691190928 0.43856282067431612 0 -0.39672827525114368 0.42870293437075863 0 -0.38976031449631421 0.43331442885143778 0 -0.39672827525114368 0.42870293437075863 0 -0.38976031449631421 0.43331442885143778 0 -0.38831639079726449 0.42735764586668701 0 -0.38831639079726449 0.42735764586668701 0 -0.38138666883033068 0.43364249655237552 0 -0.37099391446791291 0.43070886936018088 0 -0.38336688891823911 0.43867285164541808 0 -0.38976031449631421 0.43331442885143778 0 -0.38138666883033068 0.43364249655237552 0 -0.38976031449631421 0.43331442885143778 0 -0.38831639079726449 0.42735764586668701 0 -0.38138666883033068 0.43364249655237552 0 -0.38336688891823911 0.43867285164541808 0 -0.39829901691190928 0.43856282067431612 0 -0.38976031449631421 0.43331442885143778 0 -0.38336688891823911 0.43867285164541808 0 -0.38138666883033068 0.43364249655237552 0 -0.374495835471923 0.43815868703815403 0 -0.38138666883033068 0.43364249655237552 0 -0.37099391446791291 0.43070886936018088 0 -0.374495835471923 0.43815868703815403 0 -0.39121044405494249 0.41286377196203011 0 -0.38831639079726449 0.42735764586668701 0 -0.36510806009150992 0.4123301531551718 0 -0.38831639079726449 0.42735764586668701 0 -0.36510806009150992 0.4123301531551718 0 -0.39121044405494249 0.41286377196203011 0 -0.38075430212270472 0.39227449982895168 0 -0.36510806009150992 0.4123301531551718 0 -0.38075430212270472 0.39227449982895168 0 -0.39660336448031458 0.38003694087062301 0 -0.38170891741279023 0.37307185685886451 0 -0.38075430212270472 0.39227449982895168 0 -0.38170891741279023 0.37307185685886451 0 -0.36677839092312631 0.37462235873769678 0 -0.38075430212270472 0.39227449982895168 0 -0.39660336448031458 0.38003694087062301 0 -0.40186905798128492 0.39854771115736898 0 -0.41781922056083892 0.38260643104269509 0 -0.39660336448031458 0.38003694087062301 0 -0.40186905798128492 0.39854771115736898 0 -0.39121044405494249 0.41286377196203011 0 -0.38075430212270472 0.39227449982895168 0 -0.40186905798128492 0.39854771115736898 0 -0.399558765427941 0.35040855606278709 0 -0.3910571609226387 0.36442959602134051 0 -0.38880640683004769 0.35106400174374558 0 -0.399558765427941 0.35040855606278709 0 -0.38880640683004769 0.35106400174374558 0 -0.39147610332138022 0.34100150670622392 0 -0.399558765427941 0.35040855606278709 0 -0.40252440162163111 0.33905170790467931 0 -0.41080871561478682 0.35077399202257648 0 -0.399558765427941 0.35040855606278709 0 -0.40456273884952543 0.36557657670104188 0 -0.41080871561478682 0.35077399202257648 0 -0.39660336448031458 0.38003694087062301 0 -0.40456273884952543 0.36557657670104188 0 -0.3910571609226387 0.36442959602134051 0 -0.399558765427941 0.35040855606278709 0 -0.40456273884952543 0.36557657670104188 0 -0.3910571609226387 0.36442959602134051 0 -0.3910571609226387 0.36442959602134051 0 -0.38170891741279023 0.37307185685886451 0 -0.38206355477986009 0.36127421684610711 0 -0.39660336448031458 0.38003694087062301 0 -0.3910571609226387 0.36442959602134051 0 -0.38170891741279023 0.37307185685886451 0 -0.38206355477986009 0.36127421684610711 0 -0.37596721099792768 0.35375858316163628 0 -0.37277807773589661 0.36404704644494851 0 -0.38170891741279023 0.37307185685886451 0 -0.38206355477986009 0.36127421684610711 0 -0.37277807773589661 0.36404704644494851 0 -0.38206355477986009 0.36127421684610711 0 -0.37596721099792768 0.35375858316163628 0 -0.38880640683004769 0.35106400174374558 0 -0.3910571609226387 0.36442959602134051 0 -0.38206355477986009 0.36127421684610711 0 -0.38880640683004769 0.35106400174374558 0 -0.38880640683004769 0.35106400174374558 0 -0.38142245341860559 0.34385680868012081 0 -0.39147610332138022 0.34100150670622392 0 -0.37596721099792768 0.35375858316163628 0 -0.38880640683004769 0.35106400174374558 0 -0.38142245341860559 0.34385680868012081 0 -0.37596721099792768 0.35375858316163628 0 -0.38142245341860559 0.34385680868012081 0 -0.37189025933219372 0.34030595764387278 0 -0.37897228661147853 0.33315399414512492 0 -0.3891580706670239 0.32427260506531669 0 -0.37183012884491468 0.33228853939086822 0 -0.38142245341860559 0.34385680868012081 0 -0.37897228661147853 0.33315399414512492 0 -0.37189025933219372 0.34030595764387278 0 -0.3891580706670239 0.32427260506531669 0 -0.37183012884491468 0.33228853939086822 0 -0.37897228661147853 0.33315399414512492 0 -0.39147610332138022 0.34100150670622392 0 -0.3951937652187596 0.33249476871362371 0 -0.37897228661147853 0.33315399414512492 0 -0.39761799805860992 0.32035902876952371 0 -0.3951937652187596 0.33249476871362371 0 -0.38142245341860559 0.34385680868012081 0 -0.37897228661147853 0.33315399414512492 0 -0.39147610332138022 0.34100150670622392 0 -0.3891580706670239 0.32427260506531669 0 -0.38107733776948099 0.30727429754368712 0 -0.37470880437359749 0.3202363491017336 0 -0.37897228661147853 0.33315399414512492 0 -0.3891580706670239 0.32427260506531669 0 -0.39761799805860992 0.32035902876952371 0 -0.37897228661147853 0.33315399414512492 0 -0.39761799805860992 0.32035902876952371 0 -0.3891580706670239 0.32427260506531669 0 -0.37470880437359749 0.3202363491017336 0 -0.37183012884491468 0.33228853939086822 0 -0.3891580706670239 0.32427260506531669 0 -0.39761799805860992 0.32035902876952371 0 -0.4057897084155499 0.31475147920656033 0 -0.3891580706670239 0.32427260506531669 0 -0.4057897084155499 0.31475147920656033 0 -0.3891580706670239 0.32427260506531669 0 -0.4057897084155499 0.31475147920656033 0 -0.39640637704952242 0.30349181191306251 0 -0.3891580706670239 0.32427260506531669 0 -0.39761799805860992 0.32035902876952371 0 -0.39761799805860992 0.32035902876952371 0 -0.3951937652187596 0.33249476871362371 0 -0.40381146839827359 0.33055893560846761 0 -0.39761799805860992 0.32035902876952371 0 -0.40381146839827359 0.33055893560846761 0 -0.41208498615965111 0.3259338223474908 0 -0.39761799805860992 0.32035902876952371 0 -0.4057897084155499 0.31475147920656033 0 -0.39147610332138022 0.34100150670622392 0 -0.3951937652187596 0.33249476871362371 0 -0.40252440162163111 0.33905170790467931 0 -0.399558765427941 0.35040855606278709 0 -0.39147610332138022 0.34100150670622392 0 -0.40252440162163111 0.33905170790467931 0 -0.40381146839827359 0.33055893560846761 0 -0.40252440162163111 0.33905170790467931 0 -0.41163619093271703 0.33495535030702089 0 -0.3951937652187596 0.33249476871362371 0 -0.40381146839827359 0.33055893560846761 0 -0.40252440162163111 0.33905170790467931 0 -0.40252440162163111 0.33905170790467931 0 -0.41163619093271703 0.33495535030702089 0 -0.41080871561478682 0.35077399202257648 0 -0.41163619093271703 0.33495535030702089 0 -0.42011903251756932 0.34004528381146648 0 -0.41080871561478682 0.35077399202257648 0 -0.40381146839827359 0.33055893560846761 0 -0.41163619093271703 0.33495535030702089 0 -0.41208498615965111 0.3259338223474908 0 -0.41163619093271703 0.33495535030702089 0 -0.41979869606807829 0.32944449028165518 0 -0.42011903251756932 0.34004528381146648 0 -0.41163619093271703 0.33495535030702089 0 -0.41979869606807829 0.32944449028165518 0 -0.41208498615965111 0.3259338223474908 0 -0.39761799805860992 0.32035902876952371 0 -0.41795113714525839 0.31976639523197348 0 -0.41968412243320002 0.31015120341888319 0 -0.39761799805860992 0.32035902876952371 0 -0.41968412243320002 0.31015120341888319 0 -0.39761799805860992 0.32035902876952371 0 -0.41208498615965111 0.3259338223474908 0 -0.41795113714525839 0.31976639523197348 0 -0.39761799805860992 0.32035902876952371 0 -0.4057897084155499 0.31475147920656033 0 -0.41968412243320002 0.31015120341888319 0 -0.41979869606807829 0.32944449028165518 0 -0.41795113714525839 0.31976639523197348 0 -0.42780943676495609 0.32334274900930232 0 -0.41979869606807829 0.32944449028165518 0 -0.41208498615965111 0.3259338223474908 0 -0.41795113714525839 0.31976639523197348 0 -0.41795113714525839 0.31976639523197348 0 -0.42600700289630061 0.31632144882840663 0 -0.41968412243320002 0.31015120341888319 0 -0.42600700289630061 0.31632144882840663 0 -0.43305477237460738 0.31125972698156451 0 -0.41968412243320002 0.31015120341888319 0 -0.41795113714525839 0.31976639523197348 0 -0.42600700289630061 0.31632144882840663 0 -0.42780943676495609 0.32334274900930232 0 -0.42600700289630061 0.31632144882840663 0 -0.42780943676495609 0.32334274900930232 0 -0.43301925134047342 0.318406960066139 0 -0.42780943676495609 0.32334274900930232 0 -0.43301925134047342 0.318406960066139 0 -0.43930121995134053 0.32519655755371252 0 -0.42780943676495609 0.32334274900930232 0 -0.42919139288831842 0.33262334098267748 0 -0.43930121995134053 0.32519655755371252 0 -0.43301925134047342 0.318406960066139 0 -0.43930121995134053 0.32519655755371252 0 -0.43892382471516272 0.31591431795770902 0 -0.43301925134047342 0.318406960066139 0 -0.43892382471516272 0.31591431795770902 0 -0.43305477237460738 0.31125972698156451 0 -0.42600700289630061 0.31632144882840663 0 -0.43301925134047342 0.318406960066139 0 -0.43305477237460738 0.31125972698156451 0 -0.42011903251756932 0.34004528381146648 0 -0.42919139288831842 0.33262334098267748 0 -0.43719457157129699 0.34415490725079312 0 -0.42919139288831842 0.33262334098267748 0 -0.43719457157129699 0.34415490725079312 0 -0.43930121995134053 0.32519655755371252 0 -0.41979869606807829 0.32944449028165518 0 -0.42011903251756932 0.34004528381146648 0 -0.42919139288831842 0.33262334098267748 0 -0.41979869606807829 0.32944449028165518 0 -0.42780943676495609 0.32334274900930232 0 -0.42919139288831842 0.33262334098267748 0 -0.42011903251756932 0.34004528381146648 0 -0.43719457157129699 0.34415490725079312 0 -0.4220526719867313 0.35121722118307319 0 -0.43719457157129699 0.34415490725079312 0 -0.42985321700715962 0.35827471524095822 0 -0.43972313287436371 0.36077392943638248 0 -0.42985321700715962 0.35827471524095822 0 -0.4220526719867313 0.35121722118307319 0 -0.41921814684461212 0.36354473630646911 0 -0.43719457157129699 0.34415490725079312 0 -0.42985321700715962 0.35827471524095822 0 -0.4220526719867313 0.35121722118307319 0 -0.42011903251756932 0.34004528381146648 0 -0.4220526719867313 0.35121722118307319 0 -0.41080871561478682 0.35077399202257648 0 -0.4220526719867313 0.35121722118307319 0 -0.41080871561478682 0.35077399202257648 0 -0.41921814684461212 0.36354473630646911 0 -0.41781922056083892 0.38260643104269509 0 -0.40456273884952543 0.36557657670104188 0 -0.41921814684461212 0.36354473630646911 0 -0.40456273884952543 0.36557657670104188 0 -0.41080871561478682 0.35077399202257648 0 -0.41921814684461212 0.36354473630646911 0 -0.41781922056083892 0.38260643104269509 0 -0.41921814684461212 0.36354473630646911 0 -0.4302123170486305 0.37281948164846962 0 -0.42985321700715962 0.35827471524095822 0 -0.41921814684461212 0.36354473630646911 0 -0.4302123170486305 0.37281948164846962 0 -0.42985321700715962 0.35827471524095822 0 -0.4302123170486305 0.37281948164846962 0 -0.43972313287436371 0.36077392943638248 0 -0.4302123170486305 0.37281948164846962 0 -0.44479548320140538 0.37492651719600051 0 -0.43972313287436371 0.36077392943638248 0 -0.44479548320140538 0.37492651719600051 0 -0.45588578018095338 0.35169011461420902 0 -0.44479548320140538 0.37492651719600051 0 -0.43972313287436371 0.36077392943638248 0 -0.45588578018095338 0.35169011461420902 0 -0.43719457157129699 0.34415490725079312 0 -0.43972313287436371 0.36077392943638248 0 -0.45588578018095338 0.35169011461420902 0 -0.46045962064955781 0.37908969076904359 0 -0.45588578018095338 0.35169011461420902 0 -0.47597278094426848 0.3634076630802433 0 -0.46045962064955781 0.37908969076904359 0 -0.44479548320140538 0.37492651719600051 0 -0.45588578018095338 0.35169011461420902 0 -0.45588578018095338 0.35169011461420902 0 -0.47597278094426848 0.3634076630802433 0 -0.48100590224914508 0.34406552667310042 0 -0.48100590224914508 0.34406552667310042 0 -0.5 0.36343899680644548 0 -0.5 0.33564886876340427 0 -0.47597278094426848 0.3634076630802433 0 -0.48100590224914508 0.34406552667310042 0 -0.5 0.36343899680644548 0 -0.48022981032477802 0.38515940780926539 0 -0.47597278094426848 0.3634076630802433 0 -0.5 0.36343899680644548 0 -0.4872007752091479 0.32175380474188348 0 -0.5 0.33564886876340427 0 -0.5 0.30785874072036279 0 -0.48100590224914508 0.34406552667310042 0 -0.4872007752091479 0.32175380474188348 0 -0.5 0.33564886876340427 0 -0.48100590224914508 0.34406552667310042 0 -0.4872007752091479 0.32175380474188348 0 -0.46697607716050138 0.32845371203241752 0 -0.46697607716050138 0.32845371203241752 0 -0.47806637414004932 0.30521730945062608 0 -0.4872007752091479 0.32175380474188348 0 -0.46697607716050138 0.32845371203241752 0 -0.47806637414004932 0.30521730945062608 0 -0.46697607716050138 0.32845371203241752 0 -0.44938599114813799 0.31532797630288623 0 -0.45878795183845028 0.30429637011585758 0 -0.46697607716050138 0.32845371203241752 0 -0.45878795183845028 0.30429637011585758 0 -0.47806637414004932 0.30521730945062608 0 -0.46697607716050138 0.32845371203241752 0 -0.45047323499532271 0.33356229723523417 0 -0.44938599114813799 0.31532797630288623 0 -0.45588578018095338 0.35169011461420902 0 -0.48100590224914508 0.34406552667310042 0 -0.46697607716050138 0.32845371203241752 0 -0.45588578018095338 0.35169011461420902 0 -0.46697607716050138 0.32845371203241752 0 -0.45047323499532271 0.33356229723523417 0 -0.45588578018095338 0.35169011461420902 0 -0.46697607716050138 0.32845371203241752 0 -0.43719457157129699 0.34415490725079312 0 -0.45047323499532271 0.33356229723523417 0 -0.43930121995134053 0.32519655755371252 0 -0.43719457157129699 0.34415490725079312 0 -0.45588578018095338 0.35169011461420902 0 -0.45047323499532271 0.33356229723523417 0 -0.45047323499532271 0.33356229723523417 0 -0.44938599114813799 0.31532797630288623 0 -0.43930121995134053 0.32519655755371252 0 -0.44938599114813799 0.31532797630288623 0 -0.43892382471516272 0.31591431795770902 0 -0.44183715625902958 0.30947438329726129 0 -0.44938599114813799 0.31532797630288623 0 -0.43930121995134053 0.32519655755371252 0 -0.43892382471516272 0.31591431795770902 0 -0.44183715625902958 0.30947438329726129 0 -0.44175024680779001 0.29994337806824217 0 -0.44824066953561847 0.30538208533350691 0 -0.43892382471516272 0.31591431795770902 0 -0.44183715625902958 0.30947438329726129 0 -0.43305477237460738 0.31125972698156451 0 -0.44183715625902958 0.30947438329726129 0 -0.44175024680779001 0.29994337806824217 0 -0.43305477237460738 0.31125972698156451 0 -0.44175024680779001 0.29994337806824217 0 -0.44944200162468451 0.29786831888328719 0 -0.44228263832358489 0.29590617204462127 0 -0.44944200162468451 0.29786831888328719 0 -0.44824066953561847 0.30538208533350691 0 -0.45878795183845028 0.30429637011585758 0 -0.44175024680779001 0.29994337806824217 0 -0.44944200162468451 0.29786831888328719 0 -0.44824066953561847 0.30538208533350691 0 -0.44938599114813799 0.31532797630288623 0 -0.44183715625902958 0.30947438329726129 0 -0.44824066953561847 0.30538208533350691 0 -0.44938599114813799 0.31532797630288623 0 -0.44824066953561847 0.30538208533350691 0 -0.45878795183845028 0.30429637011585758 0 -0.44122749688929908 0.29043354004960698 0 -0.45966776376857971 0.27777955380154562 0 -0.44944200162468451 0.29786831888328719 0 -0.44122749688929908 0.29043354004960698 0 -0.46519208400444811 0.28620722345922189 0 -0.44944200162468451 0.29786831888328719 0 -0.44122749688929908 0.29043354004960698 0 -0.44228263832358489 0.29590617204462127 0 -0.44122749688929908 0.29043354004960698 0 -0.46519208400444811 0.28620722345922189 0 -0.44122749688929908 0.29043354004960698 0 -0.46519208400444811 0.28620722345922189 0 -0.45966776376857971 0.27777955380154562 0 -0.44944200162468451 0.29786831888328719 0 -0.46519208400444811 0.28620722345922189 0 -0.45878795183845028 0.30429637011585758 0 -0.46519208400444811 0.28620722345922189 0 -0.45878795183845028 0.30429637011585758 0 -0.47806637414004932 0.30521730945062608 0 -0.47806637414004932 0.30521730945062608 0 -0.48915667111959682 0.28198090686883442 0 -0.46519208400444811 0.28620722345922189 0 -0.48915667111959682 0.28198090686883442 0 -0.47526184352554512 0.27714808264232088 0 -0.46519208400444811 0.28620722345922189 0 -0.48915667111959682 0.28198090686883442 0 -0.46519208400444811 0.28620722345922189 0 -0.47806637414004932 0.30521730945062608 0 -0.48915667111959682 0.28198090686883442 0 -0.4902120155561383 0.29674939902366848 0 -0.48915667111959682 0.28198090686883442 0 -0.499999999999999 0.2800686126773213 0 -0.47806637414004932 0.30521730945062608 0 -0.4902120155561383 0.29674939902366848 0 -0.48915667111959682 0.28198090686883442 0 -0.4902120155561383 0.29674939902366848 0 -0.5 0.30785874072036279 0 -0.499999999999999 0.2800686126773213 0 -0.47806637414004932 0.30521730945062608 0 -0.4902120155561383 0.29674939902366848 0 -0.5 0.30785874072036279 0 -0.4872007752091479 0.32175380474188348 0 -0.47806637414004932 0.30521730945062608 0 -0.5 0.30785874072036279 0 -0.49654829752714441 0.25247158130542779 0 -0.47810803064786211 0.26512556755348671 0 -0.48961440095478193 0.26542019990744292 0 -0.49654829752714441 0.25247158130542779 0 -0.47810803064786211 0.26512556755348671 0 -0.48120426634400448 0.2448663725910814 0 -0.49654829752714441 0.25247158130542779 0 -0.47810803064786211 0.26512556755348671 0 -0.49654829752714441 0.25247158130542779 0 -0.50000000000000022 0.26058040505990421 0 -0.49654829752714441 0.25247158130542779 0 -0.49999999999999639 0.25010297157164529 0 -0.50000000000000022 0.26058040505990421 0 -0.49654829752714441 0.25247158130542779 0 -0.49999999999999639 0.25010297157164529 0 -0.48961440095478193 0.26542019990744292 0 -0.49654829752714441 0.25247158130542779 0 -0.50000000000000022 0.26058040505990421 0 -0.48961440095478193 0.26542019990744292 0 -0.50000000000000022 0.26058040505990421 0 -0.49565695387042252 0.26999236785790143 0 -0.50000000000000022 0.26058040505990421 0 -0.49565695387042252 0.26999236785790143 0 -0.499999999999999 0.2800686126773213 0 -0.48961440095478193 0.26542019990744292 0 -0.49565695387042252 0.26999236785790143 0 -0.49301341452690811 0.27390025378693711 0 -0.49565695387042252 0.26999236785790143 0 -0.499999999999999 0.2800686126773213 0 -0.49301341452690811 0.27390025378693711 0 -0.48915667111959682 0.28198090686883442 0 -0.499999999999999 0.2800686126773213 0 -0.49301341452690811 0.27390025378693711 0 -0.48915667111959682 0.28198090686883442 0 -0.499999999999999 0.2800686126773213 0 -0.48915667111959682 0.28198090686883442 0 -0.49301341452690811 0.27390025378693711 0 -0.48915667111959682 0.28198090686883442 0 -0.49301341452690811 0.27390025378693711 0 -0.4846810161248114 0.27275065727872122 0 -0.48961440095478193 0.26542019990744292 0 -0.49301341452690811 0.27390025378693711 0 -0.4846810161248114 0.27275065727872122 0 -0.47810803064786211 0.26512556755348671 0 -0.45966776376857971 0.27777955380154562 0 -0.4846810161248114 0.27275065727872122 0 -0.47526184352554512 0.27714808264232088 0 -0.47810803064786211 0.26512556755348671 0 -0.48961440095478193 0.26542019990744292 0 -0.4846810161248114 0.27275065727872122 0 -0.47810803064786211 0.26512556755348671 0 -0.47526184352554512 0.27714808264232088 0 -0.47810803064786211 0.26512556755348671 0 -0.45966776376857971 0.27777955380154562 0 -0.48915667111959682 0.28198090686883442 0 -0.4846810161248114 0.27275065727872122 0 -0.47526184352554512 0.27714808264232088 0 -0.48120426634400448 0.2448663725910814 0 -0.47810803064786211 0.26512556755348671 0 -0.46721878990479188 0.25715663656607468 0 -0.46819550642637969 0.24342717838557651 0 -0.46721878990479188 0.25715663656607468 0 -0.45331531656753488 0.25498961129775921 0 -0.46721878990479188 0.25715663656607468 0 -0.45331531656753488 0.25498961129775921 0 -0.45966776376857971 0.27777955380154562 0 -0.47810803064786211 0.26512556755348671 0 -0.46721878990479188 0.25715663656607468 0 -0.45966776376857971 0.27777955380154562 0 -0.46519208400444811 0.28620722345922189 0 -0.47526184352554512 0.27714808264232088 0 -0.45966776376857971 0.27777955380154562 0 -0.45331531656753488 0.25498961129775921 0 -0.45966776376857971 0.27777955380154562 0 -0.44570537574985553 0.27352232068494298 0 -0.44122749688929908 0.29043354004960698 0 -0.45966776376857971 0.27777955380154562 0 -0.44570537574985553 0.27352232068494298 0 -0.44122749688929908 0.29043354004960698 0 -0.44570537574985553 0.27352232068494298 0 -0.43494688227520778 0.27850984968196402 0 -0.44570537574985553 0.27352232068494298 0 -0.43640833357800429 0.26487348851379677 0 -0.43494688227520778 0.27850984968196402 0 -0.45331531656753488 0.25498961129775921 0 -0.44570537574985553 0.27352232068494298 0 -0.43640833357800429 0.26487348851379677 0 -0.45331531656753488 0.25498961129775921 0 -0.43547421198197839 0.25007309349285561 0 -0.43640833357800429 0.26487348851379677 0 -0.43547421198197839 0.25007309349285561 0 -0.43640833357800429 0.26487348851379677 0 -0.42576190216616838 0.25867213715894449 0 -0.43640833357800429 0.26487348851379677 0 -0.42576190216616838 0.25867213715894449 0 -0.42111967591304778 0.27255625016355428 0 -0.42123420067136941 0.24671331128717519 0 -0.43547421198197839 0.25007309349285561 0 -0.42576190216616838 0.25867213715894449 0 -0.42123420067136941 0.24671331128717519 0 -0.42576190216616838 0.25867213715894449 0 -0.41487343003364019 0.25851763755137819 0 -0.4035296774214725 0.2476303463643702 0 -0.41487343003364019 0.25851763755137819 0 -0.4060989313110368 0.27154916793826012 0 -0.42123420067136941 0.24671331128717519 0 -0.4035296774214725 0.2476303463643702 0 -0.41487343003364019 0.25851763755137819 0 -0.42576190216616838 0.25867213715894449 0 -0.41487343003364019 0.25851763755137819 0 -0.42111967591304778 0.27255625016355428 0 -0.42111967591304778 0.27255625016355428 0 -0.42464057508363451 0.28719319834402951 0 -0.4060989313110368 0.27154916793826012 0 -0.42464057508363451 0.28719319834402951 0 -0.4060989313110368 0.27154916793826012 0 -0.41487343003364019 0.25851763755137819 0 -0.42111967591304778 0.27255625016355428 0 -0.4060989313110368 0.27154916793826012 0 -0.42111967591304778 0.27255625016355428 0 -0.42464057508363451 0.28719319834402951 0 -0.42884409304305382 0.28172439702900048 0 -0.42111967591304778 0.27255625016355428 0 -0.43494688227520778 0.27850984968196402 0 -0.42884409304305382 0.28172439702900048 0 -0.43640833357800429 0.26487348851379677 0 -0.42111967591304778 0.27255625016355428 0 -0.43494688227520778 0.27850984968196402 0 -0.44122749688929908 0.29043354004960698 0 -0.42550088235857869 0.29320703460565972 0 -0.44122749688929908 0.29043354004960698 0 -0.42350860265242352 0.30259250962808237 0 -0.44122749688929908 0.29043354004960698 0 -0.44228263832358489 0.29590617204462127 0 -0.42350860265242352 0.30259250962808237 0 -0.44122749688929908 0.29043354004960698 0 -0.43494688227520778 0.27850984968196402 0 -0.43246609735076108 0.28671301616608602 0 -0.44122749688929908 0.29043354004960698 0 -0.43246609735076108 0.28671301616608602 0 -0.42550088235857869 0.29320703460565972 0 -0.43494688227520778 0.27850984968196402 0 -0.43246609735076108 0.28671301616608602 0 -0.42884409304305382 0.28172439702900048 0 -0.44122749688929908 0.29043354004960698 0 -0.42550088235857869 0.29320703460565972 0 -0.42350860265242352 0.30259250962808237 0 -0.43246609735076108 0.28671301616608602 0 -0.42550088235857869 0.29320703460565972 0 -0.42464057508363451 0.28719319834402951 0 -0.43246609735076108 0.28671301616608602 0 -0.42464057508363451 0.28719319834402951 0 -0.42884409304305382 0.28172439702900048 0 -0.44228263832358489 0.29590617204462127 0 -0.42403617336956739 0.30532882562559083 0 -0.42350860265242352 0.30259250962808237 0 -0.44175024680779001 0.29994337806824217 0 -0.42403617336956739 0.30532882562559083 0 -0.41968412243320002 0.31015120341888319 0 -0.44228263832358489 0.29590617204462127 0 -0.42403617336956739 0.30532882562559083 0 -0.44175024680779001 0.29994337806824217 0 -0.44228263832358489 0.29590617204462127 0 -0.42403617336956739 0.30532882562559083 0 -0.44175024680779001 0.29994337806824217 0 -0.43305477237460738 0.31125972698156451 0 -0.41968412243320002 0.31015120341888319 0 -0.44175024680779001 0.29994337806824217 0 -0.41968412243320002 0.31015120341888319 0 -0.4057897084155499 0.31475147920656033 0 -0.42350860265242352 0.30259250962808237 0 -0.4057897084155499 0.31475147920656033 0 -0.42403617336956739 0.30532882562559083 0 -0.42350860265242352 0.30259250962808237 0 -0.4057897084155499 0.31475147920656033 0 -0.42350860265242352 0.30259250962808237 0 -0.41410314579686269 0.30225458529532317 0 -0.42550088235857869 0.29320703460565972 0 -0.41410314579686269 0.30225458529532317 0 -0.40977426782785792 0.29598052916170903 0 -0.4057897084155499 0.31475147920656033 0 -0.42403617336956739 0.30532882562559083 0 -0.4057897084155499 0.31475147920656033 0 -0.42403617336956739 0.30532882562559083 0 -0.41968412243320002 0.31015120341888319 0 -0.42550088235857869 0.29320703460565972 0 -0.42350860265242352 0.30259250962808237 0 -0.41410314579686269 0.30225458529532317 0 -0.41410314579686269 0.30225458529532317 0 -0.40977426782785792 0.29598052916170903 0 -0.40594226772990349 0.30474137387460482 0 -0.4057897084155499 0.31475147920656033 0 -0.41410314579686269 0.30225458529532317 0 -0.40594226772990349 0.30474137387460482 0 -0.42464057508363451 0.28719319834402951 0 -0.40977426782785792 0.29598052916170903 0 -0.4060989313110368 0.27154916793826012 0 -0.42550088235857869 0.29320703460565972 0 -0.42464057508363451 0.28719319834402951 0 -0.40977426782785792 0.29598052916170903 0 -0.42550088235857869 0.29320703460565972 0 -0.40977426782785792 0.29598052916170903 0 -0.40977426782785792 0.29598052916170903 0 -0.39309997170720251 0.28752756986262451 0 -0.39640637704952242 0.30349181191306251 0 -0.40977426782785792 0.29598052916170903 0 -0.39309997170720251 0.28752756986262451 0 -0.4060989313110368 0.27154916793826012 0 -0.4057897084155499 0.31475147920656033 0 -0.40594226772990349 0.30474137387460482 0 -0.39640637704952242 0.30349181191306251 0 -0.40977426782785792 0.29598052916170903 0 -0.40594226772990349 0.30474137387460482 0 -0.39640637704952242 0.30349181191306251 0 -0.39309997170720251 0.28752756986262451 0 -0.39640637704952242 0.30349181191306251 0 -0.38107733776948099 0.30727429754368712 0 -0.3891580706670239 0.32427260506531669 0 -0.39640637704952242 0.30349181191306251 0 -0.38107733776948099 0.30727429754368712 0 -0.38107733776948099 0.30727429754368712 0 -0.37662357975812472 0.28252980198641842 0 -0.38107733776948099 0.30727429754368712 0 -0.37662357975812472 0.28252980198641842 0 -0.36849014983371209 0.29704036126262889 0 -0.39309997170720251 0.28752756986262451 0 -0.38107733776948099 0.30727429754368712 0 -0.37662357975812472 0.28252980198641842 0 -0.39309997170720251 0.28752756986262451 0 -0.37662357975812472 0.28252980198641842 0 -0.38169543261065503 0.26905525829099408 0 -0.37662357975812472 0.28252980198641842 0 -0.38169543261065503 0.26905525829099408 0 -0.37216982174676799 0.2577853064291496 0 -0.37861868488526079 0.26007163903805153 0 -0.38755728753843921 0.25590513753249078 0 -0.37216982174676799 0.2577853064291496 0 -0.38169543261065503 0.26905525829099408 0 -0.37861868488526079 0.26007163903805153 0 -0.38755728753843921 0.25590513753249078 0 -0.38169543261065503 0.26905525829099408 0 -0.37861868488526079 0.26007163903805153 0 -0.37216982174676799 0.2577853064291496 0 -0.36901564376584278 0.2402611071267198 0 -0.38755728753843921 0.25590513753249078 0 -0.37216982174676799 0.2577853064291496 0 -0.38755728753843921 0.25590513753249078 0 -0.4060989313110368 0.27154916793826012 0 -0.38169543261065503 0.26905525829099408 0 -0.38755728753843921 0.25590513753249078 0 -0.4060989313110368 0.27154916793826012 0 -0.4035296774214725 0.2476303463643702 0 -0.38755728753843921 0.25590513753249078 0 -0.4060989313110368 0.27154916793826012 0 -0.39309997170720251 0.28752756986262451 0 -0.38169543261065503 0.26905525829099408 0 -0.4060989313110368 0.27154916793826012 0 -0.36004616023260438 0.26114403339595538 0 -0.35693199584635349 0.28484548032010393 0 -0.34556674140147059 0.27845913849939552 0 -0.36004616023260438 0.26114403339595538 0 -0.35693199584635349 0.28484548032010393 0 -0.34556674140147059 0.27845913849939552 0 -0.36004616023260438 0.26114403339595538 0 -0.33762344636948233 0.26735599944540761 0 -0.36004616023260438 0.26114403339595538 0 -0.33762344636948233 0.26735599944540761 0 -0.3374657463840211 0.25258680352417051 0 -0.36004616023260438 0.26114403339595538 0 -0.33762344636948233 0.26735599944540761 0 -0.34897780488666402 0.24655348825625059 0 -0.36004616023260438 0.26114403339595538 0 -0.3374657463840211 0.25258680352417051 0 -0.36901564376584278 0.2402611071267198 0 -0.36004616023260438 0.26114403339595538 0 -0.37216982174676799 0.2577853064291496 0 -0.36004616023260438 0.26114403339595538 0 -0.37216982174676799 0.2577853064291496 0 -0.36004616023260438 0.26114403339595538 0 -0.37216982174676799 0.2577853064291496 0 -0.36563067964392992 0.273933101316431 0 -0.37662357975812472 0.28252980198641842 0 -0.37216982174676799 0.2577853064291496 0 -0.37662357975812472 0.28252980198641842 0 -0.36563067964392992 0.273933101316431 0 -0.35693199584635349 0.28484548032010393 0 -0.37662357975812472 0.28252980198641842 0 -0.37216982174676799 0.2577853064291496 0 -0.36563067964392992 0.273933101316431 0 -0.36004616023260438 0.26114403339595538 0 -0.36563067964392992 0.273933101316431 0 -0.35693199584635349 0.28484548032010393 0 -0.37662357975812472 0.28252980198641842 0 -0.36849014983371209 0.29704036126262889 0 -0.35693199584635349 0.28484548032010393 0 -0.36849014983371209 0.29704036126262889 0 -0.35714529545874613 0.29999259977002141 0 -0.35693199584635349 0.28484548032010393 0 -0.38107733776948099 0.30727429754368712 0 -0.36849014983371209 0.29704036126262889 0 -0.36534622170683317 0.31206543209870358 0 -0.36849014983371209 0.29704036126262889 0 -0.36534622170683317 0.31206543209870358 0 -0.35714529545874613 0.29999259977002141 0 -0.35714529545874613 0.29999259977002141 0 -0.34991543824617721 0.31167602238231829 0 -0.34396030790610499 0.29514738188781448 0 -0.36534622170683317 0.31206543209870358 0 -0.35714529545874613 0.29999259977002141 0 -0.34991543824617721 0.31167602238231829 0 -0.34556674140147059 0.27845913849939552 0 -0.35693199584635349 0.28484548032010393 0 -0.34396030790610499 0.29514738188781448 0 -0.35714529545874613 0.29999259977002141 0 -0.35693199584635349 0.28484548032010393 0 -0.34396030790610499 0.29514738188781448 0 -0.34396030790610499 0.29514738188781448 0 -0.32927179665280731 0.2838027974476961 0 -0.32700898690570229 0.30056212112166308 0 -0.34556674140147059 0.27845913849939552 0 -0.34396030790610499 0.29514738188781448 0 -0.32927179665280731 0.2838027974476961 0 -0.34396030790610499 0.29514738188781448 0 -0.32700898690570229 0.30056212112166308 0 -0.33495168223179761 0.31383331398264691 0 -0.34991543824617721 0.31167602238231829 0 -0.34396030790610499 0.29514738188781448 0 -0.33495168223179761 0.31383331398264691 0 -0.3206504507546839 0.31218832483220238 0 -0.31366443427851232 0.29928336897671842 0 -0.30622637139445458 0.32161634112291609 0 -0.3206504507546839 0.31218832483220238 0 -0.32700898690570229 0.30056212112166308 0 -0.33495168223179761 0.31383331398264691 0 -0.3206504507546839 0.31218832483220238 0 -0.32700898690570229 0.30056212112166308 0 -0.31366443427851232 0.29928336897671842 0 -0.32927179665280731 0.2838027974476961 0 -0.32700898690570229 0.30056212112166308 0 -0.31366443427851232 0.29928336897671842 0 -0.32927179665280731 0.2838027974476961 0 -0.31366443427851232 0.29928336897671842 0 -0.30627831142505629 0.28493609181089941 0 -0.3152007325063606 0.27356796549486129 0 -0.33762344636948233 0.26735599944540761 0 -0.32266640875577379 0.25875618584567173 0 -0.32927179665280731 0.2838027974476961 0 -0.3152007325063606 0.27356796549486129 0 -0.33762344636948233 0.26735599944540761 0 -0.32927179665280731 0.2838027974476961 0 -0.3152007325063606 0.27356796549486129 0 -0.30627831142505629 0.28493609181089941 0 -0.3152007325063606 0.27356796549486129 0 -0.32266640875577379 0.25875618584567173 0 -0.30380076391445898 0.26531334246325933 0 -0.3152007325063606 0.27356796549486129 0 -0.33762344636948233 0.26735599944540761 0 -0.34556674140147059 0.27845913849939552 0 -0.32927179665280731 0.2838027974476961 0 -0.33762344636948233 0.26735599944540761 0 -0.32784876663567858 0.24135632246026301 0 -0.3374657463840211 0.25258680352417051 0 -0.32266640875577379 0.25875618584567173 0 -0.33762344636948233 0.26735599944540761 0 -0.3374657463840211 0.25258680352417051 0 -0.32266640875577379 0.25875618584567173 0 -0.31194510868681208 0.2490814624430977 0 -0.32266640875577379 0.25875618584567173 0 -0.30380076391445898 0.26531334246325933 0 -0.31194510868681208 0.2490814624430977 0 -0.30380076391445898 0.26531334246325933 0 -0.29230342180889418 0.25852725073861982 0 -0.3152007325063606 0.27356796549486129 0 -0.30380076391445898 0.26531334246325933 0 -0.2922051177096367 0.2799728256657194 0 -0.3152007325063606 0.27356796549486129 0 -0.2922051177096367 0.2799728256657194 0 -0.3152007325063606 0.27356796549486129 0 -0.2922051177096367 0.2799728256657194 0 -0.30627831142505629 0.28493609181089941 0 -0.28941759051882038 0.27169379197390281 0 -0.27457825072830028 0.27657570265549541 0 -0.28219968743423268 0.28944292795151849 0 -0.2922051177096367 0.2799728256657194 0 -0.28941759051882038 0.27169379197390281 0 -0.28219968743423268 0.28944292795151849 0 -0.2922051177096367 0.2799728256657194 0 -0.28941759051882038 0.27169379197390281 0 -0.30380076391445898 0.26531334246325933 0 -0.2922051177096367 0.2799728256657194 0 -0.28941759051882038 0.27169379197390281 0 -0.28350545545988159 0.24511508518317501 0 -0.31194510868681208 0.2490814624430977 0 -0.29230342180889418 0.25852725073861982 0 -0.28350545545988159 0.24511508518317501 0 -0.29230342180889418 0.25852725073861982 0 -0.2728481904644981 0.26143257162966432 0 -0.28941759051882038 0.27169379197390281 0 -0.29230342180889418 0.25852725073861982 0 -0.2728481904644981 0.26143257162966432 0 -0.30380076391445898 0.26531334246325933 0 -0.28941759051882038 0.27169379197390281 0 -0.29230342180889418 0.25852725073861982 0 -0.28941759051882038 0.27169379197390281 0 -0.2728481904644981 0.26143257162966432 0 -0.27457825072830028 0.27657570265549541 0 -0.2728481904644981 0.26143257162966432 0 -0.27457825072830028 0.27657570265549541 0 -0.255490224463644 0.27029477662765389 0 -0.27457825072830028 0.27657570265549541 0 -0.255490224463644 0.27029477662765389 0 -0.26647587788808169 0.29232335854569258 0 -0.25506580223295128 0.2411487079232523 0 -0.2728481904644981 0.26143257162966432 0 -0.255490224463644 0.27029477662765389 0 -0.26048702308098171 0.31247929817369291 0 -0.26647587788808169 0.29232335854569258 0 -0.2415770480872001 0.29756877121112851 0 -0.255490224463644 0.27029477662765389 0 -0.26647587788808169 0.29232335854569258 0 -0.2415770480872001 0.29756877121112851 0 -0.27457825072830028 0.27657570265549541 0 -0.26647587788808169 0.29232335854569258 0 -0.28219968743423268 0.28944292795151849 0 -0.26048702308098171 0.31247929817369291 0 -0.26647587788808169 0.29232335854569258 0 -0.28225008597626711 0.31012922801909759 0 -0.26647587788808169 0.29232335854569258 0 -0.28225008597626711 0.31012922801909759 0 -0.28219968743423268 0.28944292795151849 0 -0.28225008597626711 0.31012922801909759 0 -0.29782198095663748 0.29665506654840951 0 -0.30622637139445458 0.32161634112291609 0 -0.28225008597626711 0.31012922801909759 0 -0.28219968743423268 0.28944292795151849 0 -0.29782198095663748 0.29665506654840951 0 -0.2922051177096367 0.2799728256657194 0 -0.29782198095663748 0.29665506654840951 0 -0.2922051177096367 0.2799728256657194 0 -0.28219968743423268 0.28944292795151849 0 -0.29782198095663748 0.29665506654840951 0 -0.31366443427851232 0.29928336897671842 0 -0.29782198095663748 0.29665506654840951 0 -0.30627831142505629 0.28493609181089941 0 -0.2922051177096367 0.2799728256657194 0 -0.29782198095663748 0.29665506654840951 0 -0.30627831142505629 0.28493609181089941 0 -0.31366443427851232 0.29928336897671842 0 -0.29782198095663748 0.29665506654840951 0 -0.30622637139445458 0.32161634112291609 0 -0.29782198095663748 0.29665506654840951 0 -0.30622637139445458 0.32161634112291609 0 -0.30622637139445458 0.32161634112291609 0 -0.2895618056328762 0.32974835267619279 0 -0.29727140931615492 0.34661249733198202 0 -0.30622637139445458 0.32161634112291609 0 -0.29727140931615492 0.34661249733198202 0 -0.31463076183227168 0.34657761569742268 0 -0.30622637139445458 0.32161634112291609 0 -0.31463076183227168 0.34657761569742268 0 -0.28384348161955081 0.34219152071802078 0 -0.2895618056328762 0.32974835267619279 0 -0.29727140931615492 0.34661249733198202 0 -0.28225008597626711 0.31012922801909759 0 -0.30622637139445458 0.32161634112291609 0 -0.2895618056328762 0.32974835267619279 0 -0.26048702308098171 0.31247929817369291 0 -0.28225008597626711 0.31012922801909759 0 -0.26991574182430123 0.33419527670599991 0 -0.28225008597626711 0.31012922801909759 0 -0.2895618056328762 0.32974835267619279 0 -0.26991574182430123 0.33419527670599991 0 -0.28384348161955081 0.34219152071802078 0 -0.2895618056328762 0.32974835267619279 0 -0.26991574182430123 0.33419527670599991 0 -0.26991574182430123 0.33419527670599991 0 -0.2454891616416518 0.34842914958717142 0 -0.24221636162905821 0.32817985638654551 0 -0.26991574182430123 0.33419527670599991 0 -0.24221636162905821 0.32817985638654551 0 -0.26048702308098171 0.31247929817369291 0 -0.26991574182430123 0.33419527670599991 0 -0.24221636162905821 0.32817985638654551 0 -0.26991574182430123 0.33419527670599991 0 -0.26097502605381218 0.36378634183604158 0 -0.2454891616416518 0.34842914958717142 0 -0.26991574182430123 0.33419527670599991 0 -0.26097502605381218 0.36378634183604158 0 -0.278624969704871 0.35820995615790852 0 -0.28384348161955081 0.34219152071802078 0 -0.26991574182430123 0.33419527670599991 0 -0.278624969704871 0.35820995615790852 0 -0.26097502605381218 0.36378634183604158 0 -0.278624969704871 0.35820995615790852 0 -0.27011819553671768 0.38603863411921618 0 -0.278624969704871 0.35820995615790852 0 -0.29090853027655877 0.37548377927212712 0 -0.27011819553671768 0.38603863411921618 0 -0.29727140931615492 0.34661249733198202 0 -0.29090853027655877 0.37548377927212712 0 -0.278624969704871 0.35820995615790852 0 -0.29727140931615492 0.34661249733198202 0 -0.29090853027655877 0.37548377927212712 0 -0.28384348161955081 0.34219152071802078 0 -0.278624969704871 0.35820995615790852 0 -0.29727140931615492 0.34661249733198202 0 -0.29727140931615492 0.34661249733198202 0 -0.31089190142789142 0.36173198391725742 0 -0.31463076183227168 0.34657761569742268 0 -0.31089190142789142 0.36173198391725742 0 -0.30751189684312658 0.37250183011702481 0 -0.29090853027655877 0.37548377927212712 0 -0.29727140931615492 0.34661249733198202 0 -0.31089190142789142 0.36173198391725742 0 -0.29090853027655877 0.37548377927212712 0 -0.31089190142789142 0.36173198391725742 0 -0.30751189684312658 0.37250183011702481 0 -0.31480203647853122 0.36932650386136778 0 -0.30751189684312658 0.37250183011702481 0 -0.31330655227974841 0.37356542485833888 0 -0.31344082040162602 0.3788753959945752 0 -0.30751189684312658 0.37250183011702481 0 -0.31330655227974841 0.37356542485833888 0 -0.31480203647853122 0.36932650386136778 0 -0.31089190142789142 0.36173198391725742 0 -0.3230351522700855 0.37153889027193049 0 -0.31463076183227168 0.34657761569742268 0 -0.31089190142789142 0.36173198391725742 0 -0.31480203647853122 0.36932650386136778 0 -0.3230351522700855 0.37153889027193049 0 -0.31480203647853122 0.36932650386136778 0 -0.31671386004092372 0.37262752119905029 0 -0.3230351522700855 0.37153889027193049 0 -0.31330655227974841 0.37356542485833888 0 -0.31671386004092372 0.37262752119905029 0 -0.31567416399718451 0.37659011024543532 0 -0.31330655227974841 0.37356542485833888 0 -0.31480203647853122 0.36932650386136778 0 -0.31671386004092372 0.37262752119905029 0 -0.31671386004092372 0.37262752119905029 0 -0.3230351522700855 0.37153889027193049 0 -0.31567416399718451 0.37659011024543532 0 -0.3230351522700855 0.37153889027193049 0 -0.32028476401032829 0.37685875605542218 0 -0.31567416399718451 0.37659011024543532 0 -0.3230351522700855 0.37153889027193049 0 -0.31567416399718451 0.37659011024543532 0 -0.3230351522700855 0.37153889027193049 0 -0.32373873164144301 0.3736285406758787 0 -0.32028476401032829 0.37685875605542218 0 -0.3230351522700855 0.37153889027193049 0 -0.32373873164144301 0.3736285406758787 0 -0.3230351522700855 0.37153889027193049 0 -0.32373873164144301 0.3736285406758787 0 -0.33051199625211192 0.37020612239523731 0 -0.32373873164144301 0.3736285406758787 0 -0.33051199625211192 0.37020612239523731 0 -0.32818795765420061 0.3753743622120318 0 -0.3230351522700855 0.37153889027193049 0 -0.34168086371721618 0.35874392489632811 0 -0.335917275977614 0.37174489392001731 0 -0.33051199625211192 0.37020612239523731 0 -0.32818795765420061 0.3753743622120318 0 -0.3230351522700855 0.37153889027193049 0 -0.33051199625211192 0.37020612239523731 0 -0.34168086371721618 0.35874392489632811 0 -0.3230351522700855 0.37153889027193049 0 -0.34168086371721618 0.35874392489632811 0 -0.32642868848232981 0.35650079172933807 0 -0.335917275977614 0.37174489392001731 0 -0.34168086371721618 0.35874392489632811 0 -0.34428170035057332 0.36930386533910581 0 -0.335917275977614 0.37174489392001731 0 -0.33051199625211192 0.37020612239523731 0 -0.34168086371721618 0.35874392489632811 0 -0.335917275977614 0.37174489392001731 0 -0.34428170035057332 0.36930386533910581 0 -0.33874563768966942 0.38063575450197012 0 -0.33476442569351839 0.35137221606937191 0 -0.32642868848232981 0.35650079172933807 0 -0.32857415955697961 0.34050615538092832 0 -0.3409026989411319 0.34825976772838219 0 -0.33476442569351839 0.35137221606937191 0 -0.33772183663892358 0.34169863212691381 0 -0.3409026989411319 0.34825976772838219 0 -0.34168086371721618 0.35874392489632811 0 -0.33476442569351839 0.35137221606937191 0 -0.34168086371721618 0.35874392489632811 0 -0.33476442569351839 0.35137221606937191 0 -0.32642868848232981 0.35650079172933807 0 -0.33476442569351839 0.35137221606937191 0 -0.32857415955697961 0.34050615538092832 0 -0.33772183663892358 0.34169863212691381 0 -0.31463076183227168 0.34657761569742268 0 -0.32642868848232981 0.35650079172933807 0 -0.32857415955697961 0.34050615538092832 0 -0.3230351522700855 0.37153889027193049 0 -0.31463076183227168 0.34657761569742268 0 -0.32642868848232981 0.35650079172933807 0 -0.3230351522700855 0.37153889027193049 0 -0.31463076183227168 0.34657761569742268 0 -0.31463076183227168 0.34657761569742268 0 -0.32359715080389723 0.32733836605018252 0 -0.32857415955697961 0.34050615538092832 0 -0.30622637139445458 0.32161634112291609 0 -0.31463076183227168 0.34657761569742268 0 -0.32359715080389723 0.32733836605018252 0 -0.3206504507546839 0.31218832483220238 0 -0.30622637139445458 0.32161634112291609 0 -0.32359715080389723 0.32733836605018252 0 -0.3206504507546839 0.31218832483220238 0 -0.32359715080389723 0.32733836605018252 0 -0.33495168223179761 0.31383331398264691 0 -0.33495168223179761 0.31383331398264691 0 -0.3392524970421269 0.32999533429960309 0 -0.34694010468639641 0.3219099340151122 0 -0.32359715080389723 0.32733836605018252 0 -0.33495168223179761 0.31383331398264691 0 -0.3392524970421269 0.32999533429960309 0 -0.32359715080389723 0.32733836605018252 0 -0.32857415955697961 0.34050615538092832 0 -0.3392524970421269 0.32999533429960309 0 -0.32857415955697961 0.34050615538092832 0 -0.3392524970421269 0.32999533429960309 0 -0.33772183663892358 0.34169863212691381 0 -0.3392524970421269 0.32999533429960309 0 -0.33772183663892358 0.34169863212691381 0 -0.34511540196086099 0.33835968715628328 0 -0.3409026989411319 0.34825976772838219 0 -0.33772183663892358 0.34169863212691381 0 -0.34511540196086099 0.33835968715628328 0 -0.34511540196086099 0.33835968715628328 0 -0.35107282218339542 0.33162494168703399 0 -0.35636641389302331 0.3402741535596252 0 -0.3409026989411319 0.34825976772838219 0 -0.34511540196086099 0.33835968715628328 0 -0.35636641389302331 0.3402741535596252 0 -0.3392524970421269 0.32999533429960309 0 -0.34511540196086099 0.33835968715628328 0 -0.35107282218339542 0.33162494168703399 0 -0.35107282218339542 0.33162494168703399 0 -0.35665056423232061 0.32269952760155413 0 -0.35969071480363279 0.33094928234385679 0 -0.35107282218339542 0.33162494168703399 0 -0.35636641389302331 0.3402741535596252 0 -0.35969071480363279 0.33094928234385679 0 -0.34991543824617721 0.31167602238231829 0 -0.34694010468639641 0.3219099340151122 0 -0.35665056423232061 0.32269952760155413 0 -0.34991543824617721 0.31167602238231829 0 -0.33495168223179761 0.31383331398264691 0 -0.34694010468639641 0.3219099340151122 0 -0.35107282218339542 0.33162494168703399 0 -0.34694010468639641 0.3219099340151122 0 -0.35665056423232061 0.32269952760155413 0 -0.3392524970421269 0.32999533429960309 0 -0.35107282218339542 0.33162494168703399 0 -0.34694010468639641 0.3219099340151122 0 -0.36534622170683317 0.31206543209870358 0 -0.34991543824617721 0.31167602238231829 0 -0.35665056423232061 0.32269952760155413 0 -0.38107733776948099 0.30727429754368712 0 -0.36534622170683317 0.31206543209870358 0 -0.37470880437359749 0.3202363491017336 0 -0.36534622170683317 0.31206543209870358 0 -0.35665056423232061 0.32269952760155413 0 -0.36648041491652622 0.3260334671766949 0 -0.35665056423232061 0.32269952760155413 0 -0.36648041491652622 0.3260334671766949 0 -0.35969071480363279 0.33094928234385679 0 -0.36648041491652622 0.3260334671766949 0 -0.37470880437359749 0.3202363491017336 0 -0.37183012884491468 0.33228853939086822 0 -0.36534622170683317 0.31206543209870358 0 -0.36648041491652622 0.3260334671766949 0 -0.37470880437359749 0.3202363491017336 0 -0.37897228661147853 0.33315399414512492 0 -0.37183012884491468 0.33228853939086822 0 -0.36032657516434741 0.34594895952072652 0 -0.37897228661147853 0.33315399414512492 0 -0.37189025933219372 0.34030595764387278 0 -0.36032657516434741 0.34594895952072652 0 -0.37897228661147853 0.33315399414512492 0 -0.36032657516434741 0.34594895952072652 0 -0.35636641389302331 0.3402741535596252 0 -0.36796993886759832 0.33428197938073179 0 -0.36032657516434741 0.34594895952072652 0 -0.36796993886759832 0.33428197938073179 0 -0.37183012884491468 0.33228853939086822 0 -0.36032657516434741 0.34594895952072652 0 -0.35636641389302331 0.3402741535596252 0 -0.36796993886759832 0.33428197938073179 0 -0.36648041491652622 0.3260334671766949 0 -0.35969071480363279 0.33094928234385679 0 -0.36796993886759832 0.33428197938073179 0 -0.35636641389302331 0.3402741535596252 0 -0.35969071480363279 0.33094928234385679 0 -0.36796993886759832 0.33428197938073179 0 -0.36648041491652622 0.3260334671766949 0 -0.36796993886759832 0.33428197938073179 0 -0.37183012884491468 0.33228853939086822 0 -0.36796993886759832 0.33428197938073179 0 -0.37183012884491468 0.33228853939086822 0 -0.37596721099792768 0.35375858316163628 0 -0.37189025933219372 0.34030595764387278 0 -0.36189341601671488 0.3593048585771344 0 -0.37189025933219372 0.34030595764387278 0 -0.36032657516434741 0.34594895952072652 0 -0.36189341601671488 0.3593048585771344 0 -0.37189025933219372 0.34030595764387278 0 -0.36189341601671488 0.3593048585771344 0 -0.37596721099792768 0.35375858316163628 0 -0.36189341601671488 0.3593048585771344 0 -0.37277807773589661 0.36404704644494851 0 -0.36189341601671488 0.3593048585771344 0 -0.36677839092312631 0.37462235873769678 0 -0.35189657270123609 0.37830375951039602 0 -0.38170891741279023 0.37307185685886451 0 -0.37277807773589661 0.36404704644494851 0 -0.36677839092312631 0.37462235873769678 0 -0.36189341601671488 0.3593048585771344 0 -0.37277807773589661 0.36404704644494851 0 -0.36677839092312631 0.37462235873769678 0 -0.36189341601671488 0.3593048585771344 0 -0.35189657270123609 0.37830375951039602 0 -0.35193806150833112 0.36182689494343978 0 -0.34428170035057332 0.36930386533910581 0 -0.35189657270123609 0.37830375951039602 0 -0.36189341601671488 0.3593048585771344 0 -0.35193806150833112 0.36182689494343978 0 -0.35189657270123609 0.37830375951039602 0 -0.34168086371721618 0.35874392489632811 0 -0.35193806150833112 0.36182689494343978 0 -0.34428170035057332 0.36930386533910581 0 -0.36032657516434741 0.34594895952072652 0 -0.36189341601671488 0.3593048585771344 0 -0.35193806150833112 0.36182689494343978 0 -0.34168086371721618 0.35874392489632811 0 -0.36032657516434741 0.34594895952072652 0 -0.3409026989411319 0.34825976772838219 0 -0.34168086371721618 0.35874392489632811 0 -0.36032657516434741 0.34594895952072652 0 -0.34168086371721618 0.35874392489632811 0 -0.36032657516434741 0.34594895952072652 0 -0.35193806150833112 0.36182689494343978 0 -0.3409026989411319 0.34825976772838219 0 -0.35636641389302331 0.3402741535596252 0 -0.36032657516434741 0.34594895952072652 0 -0.3409026989411319 0.34825976772838219 0 -0.35636641389302331 0.3402741535596252 0 -0.36093154780564829 0.39203882838504489 0 -0.36510806009150992 0.4123301531551718 0 -0.34189972938575541 0.39730266044365647 0 -0.36510806009150992 0.4123301531551718 0 -0.34189972938575541 0.39730266044365647 0 -0.35189657270123609 0.37830375951039602 0 -0.34189972938575541 0.39730266044365647 0 -0.35189657270123609 0.37830375951039602 0 -0.36093154780564829 0.39203882838504489 0 -0.34189972938575541 0.39730266044365647 0 -0.35189657270123609 0.37830375951039602 0 -0.34189972938575541 0.39730266044365647 0 -0.33874563768966942 0.38063575450197012 0 -0.34428170035057332 0.36930386533910581 0 -0.35189657270123609 0.37830375951039602 0 -0.33874563768966942 0.38063575450197012 0 -0.36677839092312631 0.37462235873769678 0 -0.35189657270123609 0.37830375951039602 0 -0.36093154780564829 0.39203882838504489 0 -0.38075430212270472 0.39227449982895168 0 -0.36677839092312631 0.37462235873769678 0 -0.36093154780564829 0.39203882838504489 0 -0.38075430212270472 0.39227449982895168 0 -0.36093154780564829 0.39203882838504489 0 -0.36510806009150992 0.4123301531551718 0 -0.37099391446791291 0.43070886936018088 0 -0.35181453093981269 0.43345573243096119 0 -0.36482769618588451 0.44061141249158692 0 -0.38831639079726449 0.42735764586668701 0 -0.36510806009150992 0.4123301531551718 0 -0.37099391446791291 0.43070886936018088 0 -0.36510806009150992 0.4123301531551718 0 -0.37099391446791291 0.43070886936018088 0 -0.35181453093981269 0.43345573243096119 0 -0.37099391446791291 0.43070886936018088 0 -0.36482769618588451 0.44061141249158692 0 -0.374495835471923 0.43815868703815403 0 -0.35181453093981269 0.43345573243096119 0 -0.3467257591173083 0.41579702347234271 0 -0.33868878040861811 0.43000599582540638 0 -0.36510806009150992 0.4123301531551718 0 -0.35181453093981269 0.43345573243096119 0 -0.3467257591173083 0.41579702347234271 0 -0.36510806009150992 0.4123301531551718 0 -0.3467257591173083 0.41579702347234271 0 -0.34189972938575541 0.39730266044365647 0 -0.3467257591173083 0.41579702347234271 0 -0.33030916386585851 0.41933041451799308 0 -0.33868878040861811 0.43000599582540638 0 -0.33030916386585851 0.41933041451799308 0 -0.34189972938575541 0.39730266044365647 0 -0.3467257591173083 0.41579702347234271 0 -0.33030916386585851 0.41933041451799308 0 -0.34189972938575541 0.39730266044365647 0 -0.33030916386585851 0.41933041451799308 0 -0.33868878040861811 0.43000599582540638 0 -0.31871859834595978 0.44135816859232879 0 -0.35181453093981269 0.43345573243096119 0 -0.33868878040861811 0.43000599582540638 0 -0.33755228944645049 0.44320555090787928 0 -0.33030916386585851 0.41933041451799308 0 -0.31871859834595978 0.44135816859232879 0 -0.33030916386585851 0.41933041451799308 0 -0.30251714461486812 0.42555123420767321 0 -0.31871859834595978 0.44135816859232879 0 -0.33030916386585851 0.41933041451799308 0 -0.30931027855444798 0.40373630813250649 0 -0.30251714461486812 0.42555123420767321 0 -0.33030916386585851 0.41933041451799308 0 -0.32498337691627599 0.40013493890860602 0 -0.30931027855444798 0.40373630813250649 0 -0.3157274378816276 0.39221628322975771 0 -0.32498337691627599 0.40013493890860602 0 -0.30931027855444798 0.40373630813250649 0 -0.3157274378816276 0.39221628322975771 0 -0.32498337691627599 0.40013493890860602 0 -0.32767027489369072 0.38808902821911589 0 -0.33030916386585851 0.41933041451799308 0 -0.32498337691627599 0.40013493890860602 0 -0.34189972938575541 0.39730266044365647 0 -0.32498337691627599 0.40013493890860602 0 -0.34189972938575541 0.39730266044365647 0 -0.32767027489369072 0.38808902821911589 0 -0.34189972938575541 0.39730266044365647 0 -0.32767027489369072 0.38808902821911589 0 -0.34189972938575541 0.39730266044365647 0 -0.33874563768966942 0.38063575450197012 0 -0.32767027489369072 0.38808902821911589 0 -0.33874563768966942 0.38063575450197012 0 -0.33080827282914699 0.37907031957952941 0 -0.32767027489369072 0.38808902821911589 0 -0.335917275977614 0.37174489392001731 0 -0.33874563768966942 0.38063575450197012 0 -0.33080827282914699 0.37907031957952941 0 -0.335917275977614 0.37174489392001731 0 -0.33080827282914699 0.37907031957952941 0 -0.32818795765420061 0.3753743622120318 0 -0.32353387306023679 0.38069295954538213 0 -0.32767027489369072 0.38808902821911589 0 -0.31344082040162602 0.3788753959945752 0 -0.32373873164144301 0.3736285406758787 0 -0.32818795765420061 0.3753743622120318 0 -0.32353387306023679 0.38069295954538213 0 -0.33080827282914699 0.37907031957952941 0 -0.32353387306023679 0.38069295954538213 0 -0.32767027489369072 0.38808902821911589 0 -0.33080827282914699 0.37907031957952941 0 -0.32818795765420061 0.3753743622120318 0 -0.32353387306023679 0.38069295954538213 0 -0.32373873164144301 0.3736285406758787 0 -0.32353387306023679 0.38069295954538213 0 -0.32028476401032829 0.37685875605542218 0 -0.32767027489369072 0.38808902821911589 0 -0.31344082040162602 0.3788753959945752 0 -0.3157274378816276 0.39221628322975771 0 -0.32767027489369072 0.38808902821911589 0 -0.31344082040162602 0.3788753959945752 0 -0.32353387306023679 0.38069295954538213 0 -0.32028476401032829 0.37685875605542218 0 -0.31344082040162602 0.3788753959945752 0 -0.32028476401032829 0.37685875605542218 0 -0.31567416399718451 0.37659011024543532 0 -0.31344082040162602 0.3788753959945752 0 -0.31330655227974841 0.37356542485833888 0 -0.31567416399718451 0.37659011024543532 0 -0.31344082040162602 0.3788753959945752 0 -0.30751189684312658 0.37250183011702481 0 -0.30351032981488241 0.38774700305399318 0 -0.29090853027655877 0.37548377927212712 0 -0.30751189684312658 0.37250183011702481 0 -0.31344082040162602 0.3788753959945752 0 -0.30351032981488241 0.38774700305399318 0 -0.3157274378816276 0.39221628322975771 0 -0.31344082040162602 0.3788753959945752 0 -0.30351032981488241 0.38774700305399318 0 -0.30351032981488241 0.38774700305399318 0 -0.30931027855444798 0.40373630813250649 0 -0.28454565123696268 0.40435506121227222 0 -0.3157274378816276 0.39221628322975771 0 -0.30351032981488241 0.38774700305399318 0 -0.30931027855444798 0.40373630813250649 0 -0.28454565123696268 0.40435506121227222 0 -0.29090853027655877 0.37548377927212712 0 -0.28454565123696268 0.40435506121227222 0 -0.29090853027655877 0.37548377927212712 0 -0.27011819553671768 0.38603863411921618 0 -0.30351032981488241 0.38774700305399318 0 -0.28454565123696268 0.40435506121227222 0 -0.29090853027655877 0.37548377927212712 0 -0.28454565123696268 0.40435506121227222 0 -0.27011819553671768 0.38603863411921618 0 -0.26552390003292348 0.41247554071528392 0 -0.27011819553671768 0.38603863411921618 0 -0.24285097517463139 0.407033707315274 0 -0.24615806091924011 0.38293742331528391 0 -0.27011819553671768 0.38603863411921618 0 -0.26552390003292348 0.41247554071528392 0 -0.24285097517463139 0.407033707315274 0 -0.26097502605381218 0.36378634183604158 0 -0.27011819553671768 0.38603863411921618 0 -0.24615806091924011 0.38293742331528391 0 -0.25192190601893938 0.43172395777723982 0 -0.26552390003292348 0.41247554071528392 0 -0.27818277219736659 0.43322634315241731 0 -0.25192190601893938 0.43172395777723982 0 -0.26552390003292348 0.41247554071528392 0 -0.24285097517463139 0.407033707315274 0 -0.28454565123696268 0.40435506121227222 0 -0.26552390003292348 0.41247554071528392 0 -0.27818277219736659 0.43322634315241731 0 -0.27818277219736659 0.43322634315241731 0 -0.30251714461486812 0.42555123420767321 0 -0.29795607720642442 0.45223325315569501 0 -0.28454565123696268 0.40435506121227222 0 -0.27818277219736659 0.43322634315241731 0 -0.28454565123696268 0.40435506121227222 0 -0.27818277219736659 0.43322634315241731 0 -0.30251714461486812 0.42555123420767321 0 -0.30931027855444798 0.40373630813250649 0 -0.28454565123696268 0.40435506121227222 0 -0.30251714461486812 0.42555123420767321 0 -0.29795607720642442 0.45223325315569501 0 -0.31639765914020612 0.45498416676964898 0 -0.31871859834595978 0.44135816859232879 0 -0.30251714461486812 0.42555123420767321 0 -0.29795607720642442 0.45223325315569501 0 -0.31871859834595978 0.44135816859232879 0 -0.26621944368408151 0.49213759010366992 0 -0.29433849565947512 0.5 0 -0.22129066721614871 0.5 0 -0.29795607720642442 0.45223325315569501 0 -0.30789153825550308 0.4643377923444662 0 -0.31639765914020612 0.45498416676964898 0 -0.29795607720642442 0.45223325315569501 0 -0.30789153825550308 0.4643377923444662 0 -0.29166442568943368 0.48201272337811751 0 -0.29795607720642442 0.45223325315569501 0 -0.27160008263860552 0.46053944626046522 0 -0.29166442568943368 0.48201272337811751 0 -0.27818277219736659 0.43322634315241731 0 -0.29795607720642442 0.45223325315569501 0 -0.27160008263860552 0.46053944626046522 0 -0.25192190601893938 0.43172395777723982 0 -0.27818277219736659 0.43322634315241731 0 -0.27160008263860552 0.46053944626046522 0 -0.25192190601893938 0.43172395777723982 0 -0.27160008263860552 0.46053944626046522 0 -0.2430008623608729 0.46112026018527869 0 -0.27160008263860552 0.46053944626046522 0 -0.26621944368408151 0.49213759010366992 0 -0.2430008623608729 0.46112026018527869 0 -0.27160008263860552 0.46053944626046522 0 -0.26621944368408151 0.49213759010366992 0 -0.29166442568943368 0.48201272337811751 0 -0.26621944368408151 0.49213759010366992 0 -0.29166442568943368 0.48201272337811751 0 -0.26621944368408151 0.49213759010366992 0 -0.29433849565947512 0.5 0 -0.29166442568943368 0.48201272337811751 0 -0.30789153825550308 0.4643377923444662 0 -0.29166442568943368 0.48201272337811751 0 -0.31710940769478591 0.471887856652565 0 -0.29166442568943368 0.48201272337811751 0 -0.31710940769478591 0.471887856652565 0 -0.29433849565947512 0.5 0 -0.29166442568943368 0.48201272337811751 0 -0.31710940769478591 0.471887856652565 0 -0.31710940769478591 0.471887856652565 0 -0.34255438970013818 0.46176298992701248 0 -0.35550701130023182 0.47703644637796039 0 -0.39202675663651582 0.5 0 -0.29433849565947512 0.5 0 -0.35550701130023182 0.47703644637796039 0 -0.29433849565947512 0.5 0 -0.31710940769478591 0.471887856652565 0 -0.35550701130023182 0.47703644637796039 0 -0.30789153825550308 0.4643377923444662 0 -0.31710940769478591 0.471887856652565 0 -0.31945413758408281 0.46721509747649981 0 -0.30789153825550308 0.4643377923444662 0 -0.31945413758408281 0.46721509747649981 0 -0.31639765914020612 0.45498416676964898 0 -0.31710940769478591 0.471887856652565 0 -0.31945413758408281 0.46721509747649981 0 -0.34255438970013818 0.46176298992701248 0 -0.31945413758408281 0.46721509747649981 0 -0.31639765914020612 0.45498416676964898 0 -0.32784151292838198 0.45830048736136841 0 -0.31639765914020612 0.45498416676964898 0 -0.32784151292838198 0.45830048736136841 0 -0.32977849096254752 0.4533383466568861 0 -0.31639765914020612 0.45498416676964898 0 -0.31871859834595978 0.44135816859232879 0 -0.32977849096254752 0.4533383466568861 0 -0.31871859834595978 0.44135816859232879 0 -0.33755228944645049 0.44320555090787928 0 -0.32977849096254752 0.4533383466568861 0 -0.33868878040861811 0.43000599582540638 0 -0.31871859834595978 0.44135816859232879 0 -0.33755228944645049 0.44320555090787928 0 -0.33984661438128327 0.45032333129206392 0 -0.33755228944645049 0.44320555090787928 0 -0.32977849096254752 0.4533383466568861 0 -0.33984661438128327 0.45032333129206392 0 -0.33755228944645049 0.44320555090787928 0 -0.34631991308944349 0.44708508906105199 0 -0.31945413758408281 0.46721509747649981 0 -0.34573576402669159 0.45766433854243849 0 -0.32784151292838198 0.45830048736136841 0 -0.32977849096254752 0.4533383466568861 0 -0.34573576402669159 0.45766433854243849 0 -0.33984661438128327 0.45032333129206392 0 -0.32977849096254752 0.4533383466568861 0 -0.34573576402669159 0.45766433854243849 0 -0.31945413758408281 0.46721509747649981 0 -0.32784151292838198 0.45830048736136841 0 -0.34573576402669159 0.45766433854243849 0 -0.31945413758408281 0.46721509747649981 0 -0.34255438970013818 0.46176298992701248 0 -0.34573576402669159 0.45766433854243849 0 -0.31710940769478591 0.471887856652565 0 -0.34255438970013818 0.46176298992701248 0 -0.34255438970013818 0.46176298992701248 0 -0.35822039662863547 0.46409795860370878 0 -0.35550701130023182 0.47703644637796039 0 -0.34255438970013818 0.46176298992701248 0 -0.35822039662863547 0.46409795860370878 0 -0.36799937170549041 0.45163812320146002 0 -0.34255438970013818 0.46176298992701248 0 -0.34573576402669159 0.45766433854243849 0 -0.36799937170549041 0.45163812320146002 0 -0.34255438970013818 0.46176298992701248 0 -0.36799937170549041 0.45163812320146002 0 -0.34573576402669159 0.45766433854243849 0 -0.37201739046930049 0.44811357960837728 0 -0.34573576402669159 0.45766433854243849 0 -0.35937990772548678 0.44795318960218539 0 -0.37201739046930049 0.44811357960837728 0 -0.35181453093981269 0.43345573243096119 0 -0.34631991308944349 0.44708508906105199 0 -0.35493878022007042 0.44542342776633909 0 -0.35181453093981269 0.43345573243096119 0 -0.33755228944645049 0.44320555090787928 0 -0.34631991308944349 0.44708508906105199 0 -0.34573576402669159 0.45766433854243849 0 -0.34631991308944349 0.44708508906105199 0 -0.35493878022007042 0.44542342776633909 0 -0.33984661438128327 0.45032333129206392 0 -0.34573576402669159 0.45766433854243849 0 -0.34631991308944349 0.44708508906105199 0 -0.34573576402669159 0.45766433854243849 0 -0.35937990772548678 0.44795318960218539 0 -0.35493878022007042 0.44542342776633909 0 -0.35181453093981269 0.43345573243096119 0 -0.35493878022007042 0.44542342776633909 0 -0.36482769618588451 0.44061141249158692 0 -0.34573576402669159 0.45766433854243849 0 -0.37201739046930049 0.44811357960837728 0 -0.36799937170549041 0.45163812320146002 0 -0.35937990772548678 0.44795318960218539 0 -0.35493878022007042 0.44542342776633909 0 -0.36482769618588451 0.44061141249158692 0 -0.35937990772548678 0.44795318960218539 0 -0.36482769618588451 0.44061141249158692 0 -0.37201739046930049 0.44811357960837728 0 -0.36482769618588451 0.44061141249158692 0 -0.37201739046930049 0.44811357960837728 0 -0.374495835471923 0.43815868703815403 0 -0.35822039662863547 0.46409795860370878 0 -0.37131332832198027 0.46456972568346822 0 -0.35550701130023182 0.47703644637796039 0 -0.35822039662863547 0.46409795860370878 0 -0.3669434364958653 0.46006867830241388 0 -0.37131332832198027 0.46456972568346822 0 -0.35822039662863547 0.46409795860370878 0 -0.36799937170549041 0.45163812320146002 0 -0.3669434364958653 0.46006867830241388 0 -0.38137785779607181 0.45584853121112412 0 -0.36799937170549041 0.45163812320146002 0 -0.37323000630099679 0.45754905890918701 0 -0.3669434364958653 0.46006867830241388 0 -0.37323000630099679 0.45754905890918701 0 -0.37131332832198027 0.46456972568346822 0 -0.36799937170549041 0.45163812320146002 0 -0.3669434364958653 0.46006867830241388 0 -0.37323000630099679 0.45754905890918701 0 -0.38685083543877657 0.47054016493952228 0 -0.37131332832198027 0.46456972568346822 0 -0.35550701130023182 0.47703644637796039 0 -0.14719456717743479 0.49726220986496139 0 -0.1669106468449025 0.5 0 -0.096280503195043415 0.49999999999999961 0 -0.14719456717743479 0.49726220986496139 0 -0.12927926813383431 0.47977795868400902 0 -0.1153806750737312 0.4839919427771433 0 -0.15451111453183991 0.47255493165347529 0 -0.14719456717743479 0.49726220986496139 0 -0.12927926813383431 0.47977795868400902 0 -0.15451111453183991 0.47255493165347529 0 -0.14719456717743479 0.49726220986496139 0 -0.1669106468449025 0.5 0 -0.14719456717743479 0.49726220986496139 0 -0.12927926813383431 0.47977795868400902 0 -0.15451111453183991 0.47255493165347529 0 -0.12927926813383431 0.47977795868400902 0 -0.13280305227926081 0.45907183038089111 0 -0.15451111453183991 0.47255493165347529 0 -0.13280305227926081 0.45907183038089111 0 -0.15368724671434791 0.4383561891372279 0 -0.13280305227926081 0.45907183038089111 0 -0.1301182561379696 0.43878695128052508 0 -0.15368724671434791 0.4383561891372279 0 -0.15451111453183991 0.47255493165347529 0 -0.173956935033906 0.45593783286274608 0 -0.18425182319061281 0.47764314993778367 0 -0.15451111453183991 0.47255493165347529 0 -0.15368724671434791 0.4383561891372279 0 -0.173956935033906 0.45593783286274608 0 -0.15368724671434791 0.4383561891372279 0 -0.173956935033906 0.45593783286274608 0 -0.1886902419198109 0.43521983234611977 0 -0.15451111453183991 0.47255493165347529 0 -0.18425182319061281 0.47764314993778367 0 -0.1669106468449025 0.5 0 -0.18425182319061281 0.47764314993778367 0 -0.1669106468449025 0.5 0 -0.22129066721614871 0.5 0 -0.18425182319061281 0.47764314993778367 0 -0.22129066721614871 0.5 0 -0.20458975232626669 0.45972298517269722 0 -0.22129066721614871 0.5 0 -0.2430008623608729 0.46112026018527869 0 -0.20458975232626669 0.45972298517269722 0 -0.26621944368408151 0.49213759010366992 0 -0.22129066721614871 0.5 0 -0.2430008623608729 0.46112026018527869 0 -0.25192190601893938 0.43172395777723982 0 -0.2430008623608729 0.46112026018527869 0 -0.2214359644247488 0.42833450380468091 0 -0.2430008623608729 0.46112026018527869 0 -0.20458975232626669 0.45972298517269722 0 -0.2214359644247488 0.42833450380468091 0 -0.20458975232626669 0.45972298517269722 0 -0.1886902419198109 0.43521983234611977 0 -0.2214359644247488 0.42833450380468091 0 -0.173956935033906 0.45593783286274608 0 -0.18425182319061281 0.47764314993778367 0 -0.20458975232626669 0.45972298517269722 0 -0.173956935033906 0.45593783286274608 0 -0.20458975232626669 0.45972298517269722 0 -0.1886902419198109 0.43521983234611977 0 -0.1886902419198109 0.43521983234611977 0 -0.19870943872993399 0.40682994981197379 0 -0.2214359644247488 0.42833450380468091 0 -0.19870943872993399 0.40682994981197379 0 -0.2214359644247488 0.42833450380468091 0 -0.22148723234746179 0.39358242141055061 0 -0.2214359644247488 0.42833450380468091 0 -0.24285097517463139 0.407033707315274 0 -0.22148723234746179 0.39358242141055061 0 -0.25192190601893938 0.43172395777723982 0 -0.2214359644247488 0.42833450380468091 0 -0.24285097517463139 0.407033707315274 0 -0.24285097517463139 0.407033707315274 0 -0.24615806091924011 0.38293742331528391 0 -0.22148723234746179 0.39358242141055061 0 -0.24615806091924011 0.38293742331528391 0 -0.22148723234746179 0.39358242141055061 0 -0.23133273477243679 0.36687214241890681 0 -0.22148723234746179 0.39358242141055061 0 -0.20370349029780291 0.37332360927629871 0 -0.23133273477243679 0.36687214241890681 0 -0.19870943872993399 0.40682994981197379 0 -0.22148723234746179 0.39358242141055061 0 -0.20370349029780291 0.37332360927629871 0 -0.19870943872993399 0.40682994981197379 0 -0.18392748671770451 0.39306427608471067 0 -0.20370349029780291 0.37332360927629871 0 -0.17607424582316911 0.3797750761336906 0 -0.20370349029780291 0.37332360927629871 0 -0.17607424582316911 0.3797750761336906 0 -0.18392748671770451 0.39306427608471067 0 -0.20370349029780291 0.37332360927629871 0 -0.17607424582316911 0.3797750761336906 0 -0.1676268302334446 0.39177343883546473 0 -0.18392748671770451 0.39306427608471067 0 -0.17607424582316911 0.3797750761336906 0 -0.1676268302334446 0.39177343883546473 0 -0.148445001348535 0.38622654299108261 0 -0.17607424582316911 0.3797750761336906 0 -0.148445001348535 0.38622654299108261 0 -0.15807444741660029 0.36507724921468421 0 -0.17607424582316911 0.3797750761336906 0 -0.148445001348535 0.38622654299108261 0 -0.1676268302334446 0.39177343883546473 0 -0.14887254318570711 0.41528019505799491 0 -0.1676268302334446 0.39177343883546473 0 -0.18392748671770451 0.39306427608471067 0 -0.17352342850417199 0.41361930636612543 0 -0.19870943872993399 0.40682994981197379 0 -0.18392748671770451 0.39306427608471067 0 -0.17352342850417199 0.41361930636612543 0 -0.15368724671434791 0.4383561891372279 0 -0.1886902419198109 0.43521983234611977 0 -0.17352342850417199 0.41361930636612543 0 -0.1886902419198109 0.43521983234611977 0 -0.19870943872993399 0.40682994981197379 0 -0.17352342850417199 0.41361930636612543 0 -0.15368724671434791 0.4383561891372279 0 -0.17352342850417199 0.41361930636612543 0 -0.14887254318570711 0.41528019505799491 0 -0.1676268302334446 0.39177343883546473 0 -0.17352342850417199 0.41361930636612543 0 -0.14887254318570711 0.41528019505799491 0 -0.1301182561379696 0.43878695128052508 0 -0.15368724671434791 0.4383561891372279 0 -0.14887254318570711 0.41528019505799491 0 -0.1301182561379696 0.43878695128052508 0 -0.14887254318570711 0.41528019505799491 0 -0.1301182561379696 0.43878695128052508 0 -0.14887254318570711 0.41528019505799491 0 -0.12182712473995951 0.41530146114165239 0 -0.14887254318570711 0.41528019505799491 0 -0.13670478252703819 0.40129814643086381 0 -0.12182712473995951 0.41530146114165239 0 -0.13670478252703819 0.40129814643086381 0 -0.120815756873901 0.39267800984847451 0 -0.12182712473995951 0.41530146114165239 0 -0.13670478252703819 0.40129814643086381 0 -0.148445001348535 0.38622654299108261 0 -0.120815756873901 0.39267800984847451 0 -0.148445001348535 0.38622654299108261 0 -0.12487128540785949 0.37471806619671871 0 -0.120815756873901 0.39267800984847451 0 -0.148445001348535 0.38622654299108261 0 -0.14107704277694991 0.36717865380055881 0 -0.12487128540785949 0.37471806619671871 0 -0.148445001348535 0.38622654299108261 0 -0.120815756873901 0.39267800984847451 0 -0.14887254318570711 0.41528019505799491 0 -0.13670478252703819 0.40129814643086381 0 -0.148445001348535 0.38622654299108261 0 -0.1676268302334446 0.39177343883546473 0 -0.14887254318570711 0.41528019505799491 0 -0.148445001348535 0.38622654299108261 0 -0.148445001348535 0.38622654299108261 0 -0.14107704277694991 0.36717865380055881 0 -0.15807444741660029 0.36507724921468421 0 -0.14827462022750859 0.34756111629633918 0 -0.14107704277694991 0.36717865380055881 0 -0.15807444741660029 0.36507724921468421 0 -0.14107704277694991 0.36717865380055881 0 -0.12771320529459049 0.35645317127919107 0 -0.12487128540785949 0.37471806619671871 0 -0.14827462022750859 0.34756111629633918 0 -0.12771320529459049 0.35645317127919107 0 -0.13054554349740871 0.33917687704598048 0 -0.14827462022750859 0.34756111629633918 0 -0.14107704277694991 0.36717865380055881 0 -0.12771320529459049 0.35645317127919107 0 -0.13054554349740871 0.33917687704598048 0 -0.14450902508286151 0.32656722235309488 0 -0.1197653272361902 0.32307673998604869 0 -0.14450902508286151 0.32656722235309488 0 -0.1197653272361902 0.32307673998604869 0 -0.13442481151533389 0.31285585461632209 0 -0.14450902508286151 0.32656722235309488 0 -0.1197653272361902 0.32307673998604869 0 -0.14450902508286151 0.32656722235309488 0 -0.16596373034288461 0.32596969181312169 0 -0.15357921674026939 0.30968709550109741 0 -0.13442481151533389 0.31285585461632209 0 -0.14450902508286151 0.32656722235309488 0 -0.15357921674026939 0.30968709550109741 0 -0.14827462022750859 0.34756111629633918 0 -0.14450902508286151 0.32656722235309488 0 -0.16596373034288461 0.32596969181312169 0 -0.14827462022750859 0.34756111629633918 0 -0.13054554349740871 0.33917687704598048 0 -0.14450902508286151 0.32656722235309488 0 -0.14827462022750859 0.34756111629633918 0 -0.16596373034288461 0.32596969181312169 0 -0.16999740850388231 0.34957875039325459 0 -0.16596373034288461 0.32596969181312169 0 -0.18681760123857269 0.31614901574763649 0 -0.1859998394534095 0.33500610490956573 0 -0.16596373034288461 0.32596969181312169 0 -0.18681760123857269 0.31614901574763649 0 -0.1699390721771748 0.29970901004720357 0 -0.16596373034288461 0.32596969181312169 0 -0.1859998394534095 0.33500610490956573 0 -0.16999740850388231 0.34957875039325459 0 -0.16999740850388231 0.34957875039325459 0 -0.18606956171623279 0.36151050656108208 0 -0.1725539158649711 0.36398539557567788 0 -0.1859998394534095 0.33500610490956573 0 -0.16999740850388231 0.34957875039325459 0 -0.18606956171623279 0.36151050656108208 0 -0.14827462022750859 0.34756111629633918 0 -0.16999740850388231 0.34957875039325459 0 -0.15807444741660029 0.36507724921468421 0 -0.17607424582316911 0.3797750761336906 0 -0.15807444741660029 0.36507724921468421 0 -0.1725539158649711 0.36398539557567788 0 -0.16999740850388231 0.34957875039325459 0 -0.15807444741660029 0.36507724921468421 0 -0.1725539158649711 0.36398539557567788 0 -0.17607424582316911 0.3797750761336906 0 -0.18606956171623279 0.36151050656108208 0 -0.1725539158649711 0.36398539557567788 0 -0.17607424582316911 0.3797750761336906 0 -0.18606956171623279 0.36151050656108208 0 -0.20370349029780291 0.37332360927629871 0 -0.18606956171623279 0.36151050656108208 0 -0.201198629197199 0.34644953069385193 0 -0.20370349029780291 0.37332360927629871 0 -0.1859998394534095 0.33500610490956573 0 -0.18606956171623279 0.36151050656108208 0 -0.201198629197199 0.34644953069385193 0 -0.201198629197199 0.34644953069385193 0 -0.20370349029780291 0.37332360927629871 0 -0.22328251288519929 0.34609361579121112 0 -0.20370349029780291 0.37332360927629871 0 -0.23133273477243679 0.36687214241890681 0 -0.20370349029780291 0.37332360927629871 0 -0.23133273477243679 0.36687214241890681 0 -0.22328251288519929 0.34609361579121112 0 -0.23133273477243679 0.36687214241890681 0 -0.22328251288519929 0.34609361579121112 0 -0.2454891616416518 0.34842914958717142 0 -0.26097502605381218 0.36378634183604158 0 -0.23133273477243679 0.36687214241890681 0 -0.2454891616416518 0.34842914958717142 0 -0.26097502605381218 0.36378634183604158 0 -0.24615806091924011 0.38293742331528391 0 -0.23133273477243679 0.36687214241890681 0 -0.26048702308098171 0.31247929817369291 0 -0.24221636162905821 0.32817985638654551 0 -0.2415770480872001 0.29756877121112851 0 -0.22328251288519929 0.34609361579121112 0 -0.2454891616416518 0.34842914958717142 0 -0.24221636162905821 0.32817985638654551 0 -0.22328251288519929 0.34609361579121112 0 -0.24221636162905821 0.32817985638654551 0 -0.21451698143381551 0.322164436067091 0 -0.24221636162905821 0.32817985638654551 0 -0.21451698143381551 0.322164436067091 0 -0.24221636162905821 0.32817985638654551 0 -0.21451698143381551 0.322164436067091 0 -0.2415770480872001 0.29756877121112851 0 -0.201198629197199 0.34644953069385193 0 -0.22328251288519929 0.34609361579121112 0 -0.21451698143381551 0.322164436067091 0 -0.1859998394534095 0.33500610490956573 0 -0.201198629197199 0.34644953069385193 0 -0.21451698143381551 0.322164436067091 0 -0.18681760123857269 0.31614901574763649 0 -0.21451698143381551 0.322164436067091 0 -0.18681760123857269 0.31614901574763649 0 -0.1859998394534095 0.33500610490956573 0 -0.21451698143381551 0.322164436067091 0 -0.18681760123857269 0.31614901574763649 0 -0.21451698143381551 0.322164436067091 0 -0.20280334243322021 0.29546153461720748 0 -0.21451698143381551 0.322164436067091 0 -0.20280334243322021 0.29546153461720748 0 -0.22202630834483231 0.2886367907503069 0 -0.18681760123857269 0.31614901574763649 0 -0.20280334243322021 0.29546153461720748 0 -0.18444334791002359 0.28596221727180282 0 -0.20280334243322021 0.29546153461720748 0 -0.20208590586266639 0.26673291727371751 0 -0.18444334791002359 0.28596221727180282 0 -0.20280334243322021 0.29546153461720748 0 -0.22202630834483231 0.2886367907503069 0 -0.20208590586266639 0.26673291727371751 0 -0.21451698143381551 0.322164436067091 0 -0.22202630834483231 0.2886367907503069 0 -0.2415770480872001 0.29756877121112851 0 -0.22202630834483231 0.2886367907503069 0 -0.2415770480872001 0.29756877121112851 0 -0.22878806516315511 0.2685138469506857 0 -0.22878806516315511 0.2685138469506857 0 -0.2266261490060209 0.23718233066332961 0 -0.2095201173771308 0.2492192741355776 0 -0.25506580223295128 0.2411487079232523 0 -0.255490224463644 0.27029477662765389 0 -0.22878806516315511 0.2685138469506857 0 -0.255490224463644 0.27029477662765389 0 -0.2415770480872001 0.29756877121112851 0 -0.22878806516315511 0.2685138469506857 0 -0.255490224463644 0.27029477662765389 0 -0.22878806516315511 0.2685138469506857 0 -0.22878806516315511 0.2685138469506857 0 -0.20208590586266639 0.26673291727371751 0 -0.2095201173771308 0.2492192741355776 0 -0.22878806516315511 0.2685138469506857 0 -0.20208590586266639 0.26673291727371751 0 -0.22202630834483231 0.2886367907503069 0 -0.22878806516315511 0.2685138469506857 0 -0.20208590586266639 0.26673291727371751 0 -0.20208590586266639 0.26673291727371751 0 -0.17538374656217781 0.26495198759674943 0 -0.20208590586266639 0.26673291727371751 0 -0.1889614215909477 0.24853840731164881 0 -0.2095201173771308 0.2492192741355776 0 -0.20208590586266639 0.26673291727371751 0 -0.17538374656217781 0.26495198759674943 0 -0.1889614215909477 0.24853840731164881 0 -0.17538374656217781 0.26495198759674943 0 -0.1889614215909477 0.24853840731164881 0 -0.16334453339397681 0.24964550431787491 0 -0.17538374656217781 0.26495198759674943 0 -0.1486815872616892 0.26317105791977963 0 -0.17538374656217781 0.26495198759674943 0 -0.1486815872616892 0.26317105791977963 0 -0.16334453339397681 0.24964550431787491 0 -0.17538374656217781 0.26495198759674943 0 -0.1593103297194324 0.28144003398349138 0 -0.1486815872616892 0.26317105791977963 0 -0.20208590586266639 0.26673291727371751 0 -0.17538374656217781 0.26495198759674943 0 -0.18444334791002359 0.28596221727180282 0 -0.17538374656217781 0.26495198759674943 0 -0.18444334791002359 0.28596221727180282 0 -0.1593103297194324 0.28144003398349138 0 -0.18681760123857269 0.31614901574763649 0 -0.18444334791002359 0.28596221727180282 0 -0.1699390721771748 0.29970901004720357 0 -0.16596373034288461 0.32596969181312169 0 -0.1699390721771748 0.29970901004720357 0 -0.15357921674026939 0.30968709550109741 0 -0.1699390721771748 0.29970901004720357 0 -0.15193061090899271 0.29516373823220099 0 -0.15357921674026939 0.30968709550109741 0 -0.18444334791002359 0.28596221727180282 0 -0.1699390721771748 0.29970901004720357 0 -0.1593103297194324 0.28144003398349138 0 -0.1699390721771748 0.29970901004720357 0 -0.1593103297194324 0.28144003398349138 0 -0.15193061090899271 0.29516373823220099 0 -0.1699390721771748 0.29970901004720357 0 -0.1593103297194324 0.28144003398349138 0 -0.1593103297194324 0.28144003398349138 0 -0.15193061090899271 0.29516373823220099 0 -0.14183802186492431 0.28444641063351389 0 -0.15193061090899271 0.29516373823220099 0 -0.14183802186492431 0.28444641063351389 0 -0.1376154132703061 0.29917637630507837 0 -0.13442481151533389 0.31285585461632209 0 -0.15357921674026939 0.30968709550109741 0 -0.1376154132703061 0.29917637630507837 0 -0.15193061090899271 0.29516373823220099 0 -0.15357921674026939 0.30968709550109741 0 -0.1376154132703061 0.29917637630507837 0 -0.13442481151533389 0.31285585461632209 0 -0.1376154132703061 0.29917637630507837 0 -0.1184134681693753 0.30180816482823031 0 -0.1376154132703061 0.29917637630507837 0 -0.12894874816666141 0.28747121873139769 0 -0.1184134681693753 0.30180816482823031 0 -0.14183802186492431 0.28444641063351389 0 -0.1376154132703061 0.29917637630507837 0 -0.12894874816666141 0.28747121873139769 0 -0.12894874816666141 0.28747121873139769 0 -0.1317416344843568 0.27168785498434311 0 -0.1154092431162566 0.2786817834083074 0 -0.14183802186492431 0.28444641063351389 0 -0.12894874816666141 0.28747121873139769 0 -0.1317416344843568 0.27168785498434311 0 -0.14183802186492431 0.28444641063351389 0 -0.1317416344843568 0.27168785498434311 0 -0.14254988295036691 0.27254979679912011 0 -0.1317416344843568 0.27168785498434311 0 -0.1311778414214308 0.26200362647447278 0 -0.14254988295036691 0.27254979679912011 0 -0.1311778414214308 0.26200362647447278 0 -0.1486815872616892 0.26317105791977963 0 -0.13812506878039979 0.24502622242135749 0 -0.1317416344843568 0.27168785498434311 0 -0.1311778414214308 0.26200362647447278 0 -0.1136740955811725 0.260836195029164 0 -0.1311778414214308 0.26200362647447278 0 -0.13812506878039979 0.24502622242135749 0 -0.1222394844647914 0.24910471079974431 0 -0.1311778414214308 0.26200362647447278 0 -0.1486815872616892 0.26317105791977963 0 -0.1486815872616892 0.26317105791977963 0 -0.13812506878039979 0.24502622242135749 0 -0.1486815872616892 0.26317105791977963 0 -0.16334453339397681 0.24964550431787491 0 -0.13812506878039979 0.24502622242135749 0 -0.1593103297194324 0.28144003398349138 0 -0.1486815872616892 0.26317105791977963 0 -0.14254988295036691 0.27254979679912011 0 -0.1593103297194324 0.28144003398349138 0 -0.1486815872616892 0.26317105791977963 0 -0.1311778414214308 0.26200362647447278 0 -0.1486815872616892 0.26317105791977963 0 -0.14254988295036691 0.27254979679912011 0 -0.1593103297194324 0.28144003398349138 0 -0.14183802186492431 0.28444641063351389 0 -0.14254988295036691 0.27254979679912011 0 -0.1021549725155335 0.2600679145358466 0 -0.1154092431162566 0.2786817834083074 0 -0.098588300952526561 0.28982708607742458 0 -0.1021549725155335 0.2600679145358466 0 -0.098588300952526561 0.28982708607742458 0 -0.085949071550348394 0.27623087910201599 0 -0.1021549725155335 0.2600679145358466 0 -0.098588300952526561 0.28982708607742458 0 -0.102842594246254 0.25433061782129768 0 -0.1021549725155335 0.2600679145358466 0 -0.086941366811937537 0.25905322648809209 0 -0.1021549725155335 0.2600679145358466 0 -0.086941366811937537 0.25905322648809209 0 -0.102842594246254 0.25433061782129768 0 -0.1136740955811725 0.260836195029164 0 -0.102842594246254 0.25433061782129768 0 -0.1021549725155335 0.2600679145358466 0 -0.102842594246254 0.25433061782129768 0 -0.1021549725155335 0.2600679145358466 0 -0.1136740955811725 0.260836195029164 0 -0.1021549725155335 0.2600679145358466 0 -0.1136740955811725 0.260836195029164 0 -0.1311778414214308 0.26200362647447278 0 -0.1136740955811725 0.260836195029164 0 -0.1311778414214308 0.26200362647447278 0 -0.1136740955811725 0.260836195029164 0 -0.1222394844647914 0.24910471079974431 0 -0.1136740955811725 0.260836195029164 0 -0.1118085010851831 0.24786095545684919 0 -0.1222394844647914 0.24910471079974431 0 -0.102842594246254 0.25433061782129768 0 -0.1136740955811725 0.260836195029164 0 -0.1118085010851831 0.24786095545684919 0 -0.1317416344843568 0.27168785498434311 0 -0.1136740955811725 0.260836195029164 0 -0.1154092431162566 0.2786817834083074 0 -0.1021549725155335 0.2600679145358466 0 -0.1136740955811725 0.260836195029164 0 -0.1154092431162566 0.2786817834083074 0 -0.1317416344843568 0.27168785498434311 0 -0.1136740955811725 0.260836195029164 0 -0.12894874816666141 0.28747121873139769 0 -0.1154092431162566 0.2786817834083074 0 -0.1184134681693753 0.30180816482823031 0 -0.1154092431162566 0.2786817834083074 0 -0.1184134681693753 0.30180816482823031 0 -0.098588300952526561 0.28982708607742458 0 -0.098588300952526561 0.28982708607742458 0 -0.095021629389518913 0.3195862576190025 0 -0.1184134681693753 0.30180816482823031 0 -0.098588300952526561 0.28982708607742458 0 -0.095021629389518913 0.3195862576190025 0 -0.098588300952526561 0.28982708607742458 0 -0.08499357112062754 0.30329106243784532 0 -0.085949071550348394 0.27623087910201599 0 -0.08499357112062754 0.30329106243784532 0 -0.071288456793123872 0.28710744663254162 0 -0.085949071550348394 0.27623087910201599 0 -0.098588300952526561 0.28982708607742458 0 -0.08499357112062754 0.30329106243784532 0 -0.095021629389518913 0.3195862576190025 0 -0.08499357112062754 0.30329106243784532 0 -0.071288456793123872 0.28710744663254162 0 -0.070849152477904909 0.31617635482473699 0 -0.071288456793123872 0.28710744663254162 0 -0.050431218896926457 0.295305943286022 0 -0.070849152477904909 0.31617635482473699 0 -0.071288456793123872 0.28710744663254162 0 -0.070849152477904909 0.31617635482473699 0 -0.071288456793123872 0.28710744663254162 0 -0.060737237947857722 0.27004299025855472 0 -0.057310487808908253 0.28250785865641742 0 -0.071288456793123872 0.28710744663254162 0 -0.085949071550348394 0.27623087910201599 0 -0.071727761108341045 0.25803853844034602 0 -0.071288456793123872 0.28710744663254162 0 -0.071727761108341045 0.25803853844034602 0 -0.060737237947857722 0.27004299025855472 0 -0.071288456793123872 0.28710744663254162 0 -0.071727761108341045 0.25803853844034602 0 -0.102842594246254 0.25433061782129768 0 -0.086941366811937537 0.25905322648809209 0 -0.087452885363448682 0.24508730646051219 0 -0.085949071550348394 0.27623087910201599 0 -0.086941366811937537 0.25905322648809209 0 -0.071727761108341045 0.25803853844034602 0 -0.1021549725155335 0.2600679145358466 0 -0.085949071550348394 0.27623087910201599 0 -0.086941366811937537 0.25905322648809209 0 -0.086941366811937537 0.25905322648809209 0 -0.071727761108341045 0.25803853844034602 0 -0.086941366811937537 0.25905322648809209 0 -0.079546297441093719 0.2495057666221675 0 -0.087452885363448682 0.24508730646051219 0 -0.086941366811937537 0.25905322648809209 0 -0.071727761108341045 0.25803853844034602 0 -0.079546297441093719 0.2495057666221675 0 -0.071727761108341045 0.25803853844034602 0 -0.066231629469996861 0.25767196793819719 0 -0.072063176480647501 0.2358439950997199 0 -0.071727761108341045 0.25803853844034602 0 -0.066231629469996861 0.25767196793819719 0 -0.060737237947857722 0.27004299025855472 0 -0.071727761108341045 0.25803853844034602 0 -0.066231629469996861 0.25767196793819719 0 -0.066231629469996861 0.25767196793819719 0 -0.053349919069790662 0.25058618960334778 0 -0.051555027539055248 0.256693095943548 0 -0.066231629469996861 0.25767196793819719 0 -0.051555027539055248 0.256693095943548 0 -0.066231629469996861 0.25767196793819719 0 -0.051555027539055248 0.256693095943548 0 -0.060737237947857722 0.27004299025855472 0 -0.049910767210863287 0.25658343020519908 0 -0.051555027539055248 0.256693095943548 0 -0.043453551236175107 0.26784361277542162 0 -0.049910767210863287 0.25658343020519908 0 -0.053349919069790662 0.25058618960334778 0 -0.045441256962230947 0.25037256953796999 0 -0.049910767210863287 0.25658343020519908 0 -0.051555027539055248 0.256693095943548 0 -0.049910767210863287 0.25658343020519908 0 -0.053349919069790662 0.25058618960334778 0 -0.053349919069790662 0.25058618960334778 0 -0.051555027539055248 0.256693095943548 0 -0.049910767210863287 0.25658343020519908 0 -0.053349919069790662 0.25058618960334778 0 -0.051555027539055248 0.256693095943548 0 -0.051555027539055248 0.256693095943548 0 -0.045690334024611458 0.27664702262567198 0 -0.051555027539055248 0.256693095943548 0 -0.060737237947857722 0.27004299025855472 0 -0.045690334024611458 0.27664702262567198 0 -0.060737237947857722 0.27004299025855472 0 -0.045690334024611458 0.27664702262567198 0 -0.057310487808908253 0.28250785865641742 0 -0.043453551236175107 0.26784361277542162 0 -0.027045426230725429 0.26568254940490438 0 -0.031657526302834443 0.28841368428507252 0 -0.045690334024611458 0.27664702262567198 0 -0.043453551236175107 0.26784361277542162 0 -0.031657526302834443 0.28841368428507252 0 -0.043453551236175107 0.26784361277542162 0 -0.031657526302834443 0.28841368428507252 0 -0.051555027539055248 0.256693095943548 0 -0.045690334024611458 0.27664702262567198 0 -0.043453551236175107 0.26784361277542162 0 -0.045690334024611458 0.27664702262567198 0 -0.043453551236175107 0.26784361277542162 0 -0.043453551236175107 0.26784361277542162 0 -0.040431917332913798 0.25595122796037978 0 -0.027045426230725429 0.26568254940490438 0 -0.049910767210863287 0.25658343020519908 0 -0.040431917332913798 0.25595122796037978 0 -0.040431917332913798 0.25595122796037978 0 -0.045441256962230947 0.25037256953796999 0 -0.037653780083210062 0.24501718422763991 0 -0.049910767210863287 0.25658343020519908 0 -0.040431917332913798 0.25595122796037978 0 -0.045441256962230947 0.25037256953796999 0 -0.043453551236175107 0.26784361277542162 0 -0.040431917332913798 0.25595122796037978 0 -0.049910767210863287 0.25658343020519908 0 -0.043453551236175107 0.26784361277542162 0 -0.049910767210863287 0.25658343020519908 0 -0.043453551236175107 0.26784361277542162 0 -0.040431917332913798 0.25595122796037978 0 -0.040431917332913798 0.25595122796037978 0 -0.037653780083210062 0.24501718422763991 0 -0.040431917332913798 0.25595122796037978 0 -0.015069837235323871 0.25425967632940732 0 -0.040431917332913798 0.25595122796037978 0 -0.015069837235323871 0.25425967632940732 0 -0.037653780083210062 0.24501718422763991 0 -0.040431917332913798 0.25595122796037978 0 -0.027045426230725429 0.26568254940490438 0 -0.015069837235323871 0.25425967632940732 0 -0.027045426230725429 0.26568254940490438 0 -0.0060435029931193646 0.2694932765028964 0 -0.015069837235323871 0.25425967632940732 0 -0.027045426230725429 0.26568254940490438 0 -0.017956835280452599 0.28063160729717967 0 -0.0060435029931193646 0.2694932765028964 0 -0.027045426230725429 0.26568254940490438 0 -0.017956835280452599 0.28063160729717967 0 -0.031657526302834443 0.28841368428507252 0 -0.017956835280452599 0.28063160729717967 0 -0.0060435029931193646 0.2694932765028964 0 -0.0073978362223277166 0.28689032226821071 0 -0.0060435029931193646 0.2694932765028964 0 -0.0073978362223277166 0.28689032226821071 0 0.0036022908640532341 0.28003696460785432 0 -0.015069837235323871 0.25425967632940732 0 0.010292242862265389 0.2525681246984261 0 -0.015069837235323871 0.25425967632940732 0 -0.01368076861047251 0.24879265446303431 0 0.010292242862265389 0.2525681246984261 0 -0.0060435029931193646 0.2694932765028964 0 -0.015069837235323871 0.25425967632940732 0 0.010292242862265389 0.2525681246984261 0 -0.01368076861047251 0.24879265446303431 0 0.010292242862265389 0.2525681246984261 0 -0.01156703535089351 0.31198003756396953 0 -0.0049034890932287863 0.31236688705127519 0 0.0048028054488206129 0.30550447276361348 0 -0.01156703535089351 0.31198003756396953 0 -0.01986150136948682 0.30898375579471932 0 0.0048028054488206129 0.30550447276361348 0 -0.0084981762899175844 0.30037618230539048 0 -0.01986150136948682 0.30898375579471932 0 0.0048028054488206129 0.30550447276361348 0 -0.0084981762899175844 0.30037618230539048 0 -0.017639884653256069 0.29267820402481448 0 -0.01986150136948682 0.30898375579471932 0 -0.01986150136948682 0.30898375579471932 0 0.0048028054488206129 0.30550447276361348 0 -0.0084981762899175844 0.30037618230539048 0 0.00015927102486981489 0.29745675896918089 0 0.0048028054488206129 0.30550447276361348 0 -0.0073978362223277166 0.28689032226821071 0 0.0056590684270016872 0.29069243878221251 0 0.00015927102486981489 0.29745675896918089 0 -0.0084981762899175844 0.30037618230539048 0 -0.0073978362223277166 0.28689032226821071 0 0.00015927102486981489 0.29745675896918089 0 -0.017956835280452599 0.28063160729717967 0 -0.0073978362223277166 0.28689032226821071 0 -0.017639884653256069 0.29267820402481448 0 -0.0084981762899175844 0.30037618230539048 0 -0.0073978362223277166 0.28689032226821071 0 -0.017639884653256069 0.29267820402481448 0 -0.017639884653256069 0.29267820402481448 0 -0.01986150136948682 0.30898375579471932 0 -0.031657526302834443 0.28841368428507252 0 -0.017956835280452599 0.28063160729717967 0 -0.017639884653256069 0.29267820402481448 0 -0.031657526302834443 0.28841368428507252 0 -0.01986150136948682 0.30898375579471932 0 -0.031657526302834443 0.28841368428507252 0 -0.01986150136948682 0.30898375579471932 0 -0.037516802569364523 0.31147430987054597 0 -0.01986150136948682 0.30898375579471932 0 -0.038475805895043208 0.30119360208276069 0 -0.031657526302834443 0.28841368428507252 0 -0.01986150136948682 0.30898375579471932 0 -0.037516802569364523 0.31147430987054597 0 -0.024676122611672201 0.31698767337984313 0 -0.01156703535089351 0.31198003756396953 0 -0.01986150136948682 0.30898375579471932 0 -0.01758775517957523 0.31294874586430438 0 -0.01986150136948682 0.30898375579471932 0 -0.01758775517957523 0.31294874586430438 0 -0.038475805895043208 0.30119360208276069 0 -0.037516802569364523 0.31147430987054597 0 -0.055172103769242392 0.31396486394637191 0 -0.01986150136948682 0.30898375579471932 0 -0.038475805895043208 0.30119360208276069 0 -0.037516802569364523 0.31147430987054597 0 -0.045690334024611458 0.27664702262567198 0 -0.038475805895043208 0.30119360208276069 0 -0.031657526302834443 0.28841368428507252 0 -0.045690334024611458 0.27664702262567198 0 -0.038475805895043208 0.30119360208276069 0 -0.045690334024611458 0.27664702262567198 0 -0.038475805895043208 0.30119360208276069 0 -0.050431218896926457 0.295305943286022 0 -0.045690334024611458 0.27664702262567198 0 -0.050431218896926457 0.295305943286022 0 -0.045690334024611458 0.27664702262567198 0 -0.050431218896926457 0.295305943286022 0 -0.057310487808908253 0.28250785865641742 0 -0.071288456793123872 0.28710744663254162 0 -0.050431218896926457 0.295305943286022 0 -0.057310487808908253 0.28250785865641742 0 -0.050431218896926457 0.295305943286022 0 -0.055172103769242392 0.31396486394637191 0 -0.070849152477904909 0.31617635482473699 0 -0.050431218896926457 0.295305943286022 0 -0.055172103769242392 0.31396486394637191 0 -0.038475805895043208 0.30119360208276069 0 -0.050431218896926457 0.295305943286022 0 -0.055172103769242392 0.31396486394637191 0 -0.056390858037045882 0.31876157169182401 0 -0.063316141079349464 0.3375757539062989 0 -0.065023942883826402 0.32626548236443081 0 -0.056390858037045882 0.31876157169182401 0 -0.063316141079349464 0.3375757539062989 0 -0.055172103769242392 0.31396486394637191 0 -0.056390858037045882 0.31876157169182401 0 -0.070849152477904909 0.31617635482473699 0 -0.055172103769242392 0.31396486394637191 0 -0.055348917149889043 0.31593089089684112 0 -0.056390858037045882 0.31876157169182401 0 -0.055172103769242392 0.31396486394637191 0 -0.056390858037045882 0.31876157169182401 0 -0.055348917149889043 0.31593089089684112 0 -0.056390858037045882 0.31876157169182401 0 -0.056390858037045882 0.31876157169182401 0 -0.047027703780593601 0.32007770335118041 0 -0.045340630401150092 0.33290448699983521 0 -0.055172103769242392 0.31396486394637191 0 -0.055348917149889043 0.31593089089684112 0 -0.047027703780593601 0.32007770335118041 0 -0.055348917149889043 0.31593089089684112 0 -0.056390858037045882 0.31876157169182401 0 -0.047027703780593601 0.32007770335118041 0 -0.056390858037045882 0.31876157169182401 0 -0.063195723890686187 0.34554379810882357 0 -0.056390858037045882 0.31876157169182401 0 -0.045340630401150092 0.33290448699983521 0 -0.063195723890686187 0.34554379810882357 0 -0.056390858037045882 0.31876157169182401 0 -0.063195723890686187 0.34554379810882357 0 -0.063316141079349464 0.3375757539062989 0 -0.045340630401150092 0.33290448699983521 0 -0.029263975432956529 0.33534748085244731 0 -0.041647052605288608 0.35329012867298543 0 -0.045340630401150092 0.33290448699983521 0 -0.034518468660329302 0.32440623932175072 0 -0.029263975432956529 0.33534748085244731 0 -0.037516802569364523 0.31147430987054597 0 -0.055172103769242392 0.31396486394637191 0 -0.047027703780593601 0.32007770335118041 0 -0.037516802569364523 0.31147430987054597 0 -0.055172103769242392 0.31396486394637191 0 -0.037516802569364523 0.31147430987054597 0 -0.047027703780593601 0.32007770335118041 0 -0.034518468660329302 0.32440623932175072 0 -0.047027703780593601 0.32007770335118041 0 -0.045340630401150092 0.33290448699983521 0 -0.034518468660329302 0.32440623932175072 0 -0.037516802569364523 0.31147430987054597 0 -0.034518468660329302 0.32440623932175072 0 -0.024676122611672201 0.31698767337984313 0 -0.01986150136948682 0.30898375579471932 0 -0.024676122611672201 0.31698767337984313 0 -0.01758775517957523 0.31294874586430438 0 -0.024676122611672201 0.31698767337984313 0 -0.016695180420690538 0.31849628019175807 0 -0.01758775517957523 0.31294874586430438 0 -0.024676122611672201 0.31698767337984313 0 -0.016695180420690538 0.31849628019175807 0 -0.021877027470586719 0.32561670923598118 0 -0.016695180420690538 0.31849628019175807 0 -0.021877027470586719 0.32561670923598118 0 -0.01017459089870802 0.32403715885563539 0 -0.034518468660329302 0.32440623932175072 0 -0.024676122611672201 0.31698767337984313 0 -0.021877027470586719 0.32561670923598118 0 -0.034518468660329302 0.32440623932175072 0 -0.021877027470586719 0.32561670923598118 0 -0.029263975432956529 0.33534748085244731 0 -0.029263975432956529 0.33534748085244731 0 -0.015324273372708291 0.33749480753988148 0 -0.02394476725139327 0.34968864718543352 0 -0.021877027470586719 0.32561670923598118 0 -0.029263975432956529 0.33534748085244731 0 -0.015324273372708291 0.33749480753988148 0 -0.021877027470586719 0.32561670923598118 0 -0.015324273372708291 0.33749480753988148 0 -0.01017459089870802 0.32403715885563539 0 -0.015324273372708291 0.33749480753988148 0 -0.003384044066198042 0.33179074559994298 0 -0.01017459089870802 0.32403715885563539 0 -0.015324273372708291 0.33749480753988148 0 -0.0019492003402293669 0.34182717583593059 0 -0.003384044066198042 0.33179074559994298 0 -0.003384044066198042 0.33179074559994298 0 -0.01017459089870802 0.32403715885563539 0 0.0005881388663088069 0.323179086459774 0 -0.0046830325785964964 0.318374051492265 0 -0.01017459089870802 0.32403715885563539 0 0.0005881388663088069 0.323179086459774 0 -0.0046830325785964964 0.318374051492265 0 0.001640553041194217 0.31653633429737832 0 0.0005881388663088069 0.323179086459774 0 -0.0049034890932287863 0.31236688705127519 0 0.001640553041194217 0.31653633429737832 0 0.0021809559534737852 0.31154143232201797 0 -0.0049034890932287863 0.31236688705127519 0 -0.0046830325785964964 0.318374051492265 0 0.001640553041194217 0.31653633429737832 0 -0.0049034890932287863 0.31236688705127519 0 -0.0046830325785964964 0.318374051492265 0 -0.010705782251059 0.31779714074234278 0 -0.0046830325785964964 0.318374051492265 0 -0.010705782251059 0.31779714074234278 0 -0.01017459089870802 0.32403715885563539 0 -0.01156703535089351 0.31198003756396953 0 -0.0049034890932287863 0.31236688705127519 0 -0.010705782251059 0.31779714074234278 0 -0.01156703535089351 0.31198003756396953 0 -0.016695180420690538 0.31849628019175807 0 -0.010705782251059 0.31779714074234278 0 -0.01156703535089351 0.31198003756396953 0 -0.016695180420690538 0.31849628019175807 0 -0.01758775517957523 0.31294874586430438 0 -0.016695180420690538 0.31849628019175807 0 -0.010705782251059 0.31779714074234278 0 -0.01017459089870802 0.32403715885563539 0 -0.0069400381463707471 0.35673085073994759 0 -0.006197098098082339 0.38887427719183432 0 0.0092361384877125696 0.36858803067752749 0 -0.0069400381463707471 0.35673085073994759 0 -0.024389979987844101 0.36596703924153162 0 -0.006197098098082339 0.38887427719183432 0 -0.015324273372708291 0.33749480753988148 0 -0.0069400381463707471 0.35673085073994759 0 -0.02394476725139327 0.34968864718543352 0 -0.015324273372708291 0.33749480753988148 0 -0.0019492003402293669 0.34182717583593059 0 -0.0069400381463707471 0.35673085073994759 0 -0.0019492003402293669 0.34182717583593059 0 -0.0069400381463707471 0.35673085073994759 0 0.0065766348852069924 0.3498664669526052 0 -0.02394476725139327 0.34968864718543352 0 -0.024389979987844101 0.36596703924153162 0 -0.041647052605288608 0.35329012867298543 0 -0.0069400381463707471 0.35673085073994759 0 -0.02394476725139327 0.34968864718543352 0 -0.024389979987844101 0.36596703924153162 0 -0.024389979987844101 0.36596703924153162 0 -0.041647052605288608 0.35329012867298543 0 -0.045506479697467392 0.37581606739314077 0 -0.029263975432956529 0.33534748085244731 0 -0.02394476725139327 0.34968864718543352 0 -0.041647052605288608 0.35329012867298543 0 -0.041647052605288608 0.35329012867298543 0 -0.05719911042358751 0.36143700314909771 0 -0.063195723890686187 0.34554379810882357 0 -0.045340630401150092 0.33290448699983521 0 -0.041647052605288608 0.35329012867298543 0 -0.063195723890686187 0.34554379810882357 0 -0.041647052605288608 0.35329012867298543 0 -0.05719911042358751 0.36143700314909771 0 -0.045506479697467392 0.37581606739314077 0 -0.05719911042358751 0.36143700314909771 0 -0.060132589690863131 0.37649668107003831 0 -0.045506479697467392 0.37581606739314077 0 -0.05719911042358751 0.36143700314909771 0 -0.07000058974432713 0.37232602452582292 0 -0.060132589690863131 0.37649668107003831 0 -0.07000058974432713 0.37232602452582292 0 -0.070241424121654072 0.35638993612077352 0 -0.05719911042358751 0.36143700314909771 0 -0.07000058974432713 0.37232602452582292 0 -0.063195723890686187 0.34554379810882357 0 -0.07000058974432713 0.37232602452582292 0 -0.070241424121654072 0.35638993612077352 0 -0.077924426379085546 0.37726264320618058 0 -0.070241424121654072 0.35638993612077352 0 -0.077924426379085546 0.37726264320618058 0 -0.088745495554186843 0.37195231940072571 0 -0.070241424121654072 0.35638993612077352 0 -0.077924426379085546 0.37726264320618058 0 -0.088745495554186843 0.37195231940072571 0 -0.091883562471853031 0.3457692885098641 0 -0.088745495554186843 0.37195231940072571 0 -0.091883562471853031 0.3457692885098641 0 -0.070241424121654072 0.35638993612077352 0 -0.070241424121654072 0.35638993612077352 0 -0.063316141079349464 0.3375757539062989 0 -0.07000058974432713 0.37232602452582292 0 -0.063195723890686187 0.34554379810882357 0 -0.070241424121654072 0.35638993612077352 0 -0.063195723890686187 0.34554379810882357 0 -0.070241424121654072 0.35638993612077352 0 -0.063316141079349464 0.3375757539062989 0 -0.091883562471853031 0.3457692885098641 0 -0.070241424121654072 0.35638993612077352 0 -0.070545288299780656 0.33628314547275528 0 -0.070241424121654072 0.35638993612077352 0 -0.070545288299780656 0.33628314547275528 0 -0.07000058974432713 0.37232602452582292 0 -0.063195723890686187 0.34554379810882357 0 -0.070241424121654072 0.35638993612077352 0 -0.063316141079349464 0.3375757539062989 0 -0.070545288299780656 0.33628314547275528 0 -0.063316141079349464 0.3375757539062989 0 -0.070545288299780656 0.33628314547275528 0 -0.065023942883826402 0.32626548236443081 0 -0.070545288299780656 0.33628314547275528 0 -0.070849152477904909 0.31617635482473699 0 -0.055172103769242392 0.31396486394637191 0 -0.070849152477904909 0.31617635482473699 0 -0.070545288299780656 0.33628314547275528 0 -0.065023942883826402 0.32626548236443081 0 -0.070849152477904909 0.31617635482473699 0 -0.056390858037045882 0.31876157169182401 0 -0.065023942883826402 0.32626548236443081 0 -0.070849152477904909 0.31617635482473699 0 -0.070545288299780656 0.33628314547275528 0 -0.070849152477904909 0.31617635482473699 0 -0.095021629389518913 0.3195862576190025 0 -0.08499357112062754 0.30329106243784532 0 -0.070849152477904909 0.31617635482473699 0 -0.095021629389518913 0.3195862576190025 0 -0.070849152477904909 0.31617635482473699 0 -0.095021629389518913 0.3195862576190025 0 -0.091883562471853031 0.3457692885098641 0 -0.095021629389518913 0.3195862576190025 0 -0.091883562471853031 0.3457692885098641 0 -0.070545288299780656 0.33628314547275528 0 -0.095021629389518913 0.3195862576190025 0 -0.095021629389518913 0.3195862576190025 0 -0.1197653272361902 0.32307673998604869 0 -0.1124655396458927 0.34222613531522827 0 -0.091883562471853031 0.3457692885098641 0 -0.095021629389518913 0.3195862576190025 0 -0.1124655396458927 0.34222613531522827 0 -0.095021629389518913 0.3195862576190025 0 -0.1197653272361902 0.32307673998604869 0 -0.1184134681693753 0.30180816482823031 0 -0.095021629389518913 0.3195862576190025 0 -0.1197653272361902 0.32307673998604869 0 -0.13442481151533389 0.31285585461632209 0 -0.1184134681693753 0.30180816482823031 0 -0.1197653272361902 0.32307673998604869 0 -0.13054554349740871 0.33917687704598048 0 -0.1197653272361902 0.32307673998604869 0 -0.1124655396458927 0.34222613531522827 0 -0.12771320529459049 0.35645317127919107 0 -0.1124655396458927 0.34222613531522827 0 -0.1079432596302743 0.3624617832888708 0 -0.12771320529459049 0.35645317127919107 0 -0.13054554349740871 0.33917687704598048 0 -0.1124655396458927 0.34222613531522827 0 -0.12487128540785949 0.37471806619671871 0 -0.1079432596302743 0.3624617832888708 0 -0.1032334465229066 0.38331023597213443 0 -0.12771320529459049 0.35645317127919107 0 -0.12487128540785949 0.37471806619671871 0 -0.1079432596302743 0.3624617832888708 0 -0.088745495554186843 0.37195231940072571 0 -0.091883562471853031 0.3457692885098641 0 -0.1079432596302743 0.3624617832888708 0 -0.088745495554186843 0.37195231940072571 0 -0.1079432596302743 0.3624617832888708 0 -0.1032334465229066 0.38331023597213443 0 -0.091883562471853031 0.3457692885098641 0 -0.1124655396458927 0.34222613531522827 0 -0.1079432596302743 0.3624617832888708 0 -0.1032334465229066 0.38331023597213443 0 -0.085607428636519184 0.39813535029158692 0 -0.093186512399267174 0.3991294767058664 0 -0.1032334465229066 0.38331023597213443 0 -0.120815756873901 0.39267800984847451 0 -0.093186512399267174 0.3991294767058664 0 -0.120815756873901 0.39267800984847451 0 -0.093186512399267174 0.3991294767058664 0 -0.120815756873901 0.39267800984847451 0 -0.104348614198815 0.40869261846030908 0 -0.093186512399267174 0.3991294767058664 0 -0.104348614198815 0.40869261846030908 0 -0.092008010781350069 0.40825690183315771 0 -0.093186512399267174 0.3991294767058664 0 -0.12487128540785949 0.37471806619671871 0 -0.1032334465229066 0.38331023597213443 0 -0.120815756873901 0.39267800984847451 0 -0.120815756873901 0.39267800984847451 0 -0.12182712473995951 0.41530146114165239 0 -0.104348614198815 0.40869261846030908 0 -0.12182712473995951 0.41530146114165239 0 -0.104348614198815 0.40869261846030908 0 -0.1049854767120568 0.41948862884111721 0 -0.12182712473995951 0.41530146114165239 0 -0.10926137706223139 0.43099035690096799 0 -0.1049854767120568 0.41948862884111721 0 -0.1301182561379696 0.43878695128052508 0 -0.12182712473995951 0.41530146114165239 0 -0.10926137706223139 0.43099035690096799 0 -0.10926137706223139 0.43099035690096799 0 -0.094956040989360724 0.42767730318712699 0 -0.1049854767120568 0.41948862884111721 0 -0.10926137706223139 0.43099035690096799 0 -0.094956040989360724 0.42767730318712699 0 -0.10044841910622181 0.43817753623379352 0 -0.094956040989360724 0.42767730318712699 0 -0.086758278401667902 0.43828003765402129 0 -0.10044841910622181 0.43817753623379352 0 -0.104348614198815 0.40869261846030908 0 -0.1049854767120568 0.41948862884111721 0 -0.094534226569917335 0.41478140451552942 0 -0.094956040989360724 0.42767730318712699 0 -0.1049854767120568 0.41948862884111721 0 -0.094534226569917335 0.41478140451552942 0 -0.104348614198815 0.40869261846030908 0 -0.094534226569917335 0.41478140451552942 0 -0.092008010781350069 0.40825690183315771 0 -0.082707030120362623 0.42233535173733638 0 -0.085607428636519184 0.39813535029158692 0 -0.082707030120362623 0.42233535173733638 0 -0.076353809932344391 0.39733068813157979 0 -0.082707030120362623 0.42233535173733638 0 -0.085607428636519184 0.39813535029158692 0 -0.086563053255178934 0.40073153236736742 0 -0.092008010781350069 0.40825690183315771 0 -0.082707030120362623 0.42233535173733638 0 -0.086563053255178934 0.40073153236736742 0 -0.094956040989360724 0.42767730318712699 0 -0.094534226569917335 0.41478140451552942 0 -0.082707030120362623 0.42233535173733638 0 -0.094534226569917335 0.41478140451552942 0 -0.092008010781350069 0.40825690183315771 0 -0.082707030120362623 0.42233535173733638 0 -0.094956040989360724 0.42767730318712699 0 -0.082707030120362623 0.42233535173733638 0 -0.086758278401667902 0.43828003765402129 0 -0.082707030120362623 0.42233535173733638 0 -0.082042052715790501 0.4278837114066647 0 -0.086758278401667902 0.43828003765402129 0 -0.082707030120362623 0.42233535173733638 0 -0.086758278401667902 0.43828003765402129 0 -0.082707030120362623 0.42233535173733638 0 -0.082042052715790501 0.4278837114066647 0 -0.065406024651655792 0.41744152600339118 0 -0.086758278401667902 0.43828003765402129 0 -0.082042052715790501 0.4278837114066647 0 -0.065406024651655792 0.41744152600339118 0 -0.086758278401667902 0.43828003765402129 0 -0.073804116029247302 0.4371034288437663 0 -0.065406024651655792 0.41744152600339118 0 -0.086758278401667902 0.43828003765402129 0 -0.065936286297007013 0.43511801097785191 0 -0.065406024651655792 0.41744152600339118 0 -0.05670789768802674 0.43094295342702887 0 -0.082707030120362623 0.42233535173733638 0 -0.082042052715790501 0.4278837114066647 0 -0.065406024651655792 0.41744152600339118 0 -0.073804116029247302 0.4371034288437663 0 -0.065936286297007013 0.43511801097785191 0 -0.065406024651655792 0.41744152600339118 0 -0.082707030120362623 0.42233535173733638 0 -0.065406024651655792 0.41744152600339118 0 -0.076353809932344391 0.39733068813157979 0 -0.065406024651655792 0.41744152600339118 0 -0.076353809932344391 0.39733068813157979 0 -0.060220454790492102 0.39077526707337018 0 -0.082707030120362623 0.42233535173733638 0 -0.076353809932344391 0.39733068813157979 0 -0.085607428636519184 0.39813535029158692 0 -0.076353809932344391 0.39733068813157979 0 -0.085607428636519184 0.39813535029158692 0 -0.077924426379085546 0.37726264320618058 0 -0.092008010781350069 0.40825690183315771 0 -0.093186512399267174 0.3991294767058664 0 -0.086563053255178934 0.40073153236736742 0 -0.085607428636519184 0.39813535029158692 0 -0.093186512399267174 0.3991294767058664 0 -0.086563053255178934 0.40073153236736742 0 -0.085607428636519184 0.39813535029158692 0 -0.086563053255178934 0.40073153236736742 0 -0.088745495554186843 0.37195231940072571 0 -0.085607428636519184 0.39813535029158692 0 -0.088745495554186843 0.37195231940072571 0 -0.085607428636519184 0.39813535029158692 0 -0.077924426379085546 0.37726264320618058 0 -0.088745495554186843 0.37195231940072571 0 -0.1032334465229066 0.38331023597213443 0 -0.085607428636519184 0.39813535029158692 0 -0.085607428636519184 0.39813535029158692 0 -0.077924426379085546 0.37726264320618058 0 -0.07000058974432713 0.37232602452582292 0 -0.076353809932344391 0.39733068813157979 0 -0.077924426379085546 0.37726264320618058 0 -0.07000058974432713 0.37232602452582292 0 -0.076353809932344391 0.39733068813157979 0 -0.07000058974432713 0.37232602452582292 0 -0.076353809932344391 0.39733068813157979 0 -0.069870053868976753 0.3809636254893119 0 -0.076353809932344391 0.39733068813157979 0 -0.069870053868976753 0.3809636254893119 0 -0.060220454790492102 0.39077526707337018 0 -0.069870053868976753 0.3809636254893119 0 -0.060132589690863131 0.37649668107003831 0 -0.060220454790492102 0.39077526707337018 0 -0.07000058974432713 0.37232602452582292 0 -0.069870053868976753 0.3809636254893119 0 -0.07000058974432713 0.37232602452582292 0 -0.069870053868976753 0.3809636254893119 0 -0.060132589690863131 0.37649668107003831 0 -0.060220454790492102 0.39077526707337018 0 -0.044053770901645112 0.39660301435275958 0 -0.045506479697467392 0.37581606739314077 0 -0.060132589690863131 0.37649668107003831 0 -0.060220454790492102 0.39077526707337018 0 -0.045506479697467392 0.37581606739314077 0 -0.065406024651655792 0.41744152600339118 0 -0.060220454790492102 0.39077526707337018 0 -0.044053770901645112 0.39660301435275958 0 -0.044053770901645112 0.39660301435275958 0 -0.02835553267378324 0.38728418437708151 0 -0.021630334683877241 0.40916052370614098 0 -0.044053770901645112 0.39660301435275958 0 -0.045506479697467392 0.37581606739314077 0 -0.02835553267378324 0.38728418437708151 0 -0.024389979987844101 0.36596703924153162 0 -0.045506479697467392 0.37581606739314077 0 -0.02835553267378324 0.38728418437708151 0 -0.024389979987844101 0.36596703924153162 0 -0.02835553267378324 0.38728418437708151 0 -0.006197098098082339 0.38887427719183432 0 -0.02835553267378324 0.38728418437708151 0 -0.006197098098082339 0.38887427719183432 0 -0.021630334683877241 0.40916052370614098 0 -0.006197098098082339 0.38887427719183432 0 -0.021630334683877241 0.40916052370614098 0 0.001738985615909209 0.40767877470127428 0 -0.006197098098082339 0.38887427719183432 0 -0.021630334683877241 0.40916052370614098 0 -0.01444186018658767 0.42499316711039448 0 -0.01313670676755469 0.43540210218949132 0 -0.0043858365965349757 0.43091195994427978 0 -0.01313670676755469 0.43540210218949132 0 -0.0043858365965349757 0.43091195994427978 0 -0.0054909350807642197 0.43984799706899641 0 -0.0043858365965349757 0.43091195994427978 0 -0.0054909350807642197 0.43984799706899641 0 0.0060525274966358907 0.43394064196042442 0 -0.01444186018658767 0.42499316711039448 0 -0.0043858365965349757 0.43091195994427978 0 -0.0046041233353045982 0.42054886433158079 0 -0.0043858365965349757 0.43091195994427978 0 -0.0046041233353045982 0.42054886433158079 0 0.001571042455832043 0.42695653658648552 0 -0.0046041233353045982 0.42054886433158079 0 -0.021630334683877241 0.40916052370614098 0 0.001738985615909209 0.40767877470127428 0 -0.01444186018658767 0.42499316711039448 0 -0.0046041233353045982 0.42054886433158079 0 -0.021630334683877241 0.40916052370614098 0 -0.01444186018658767 0.42499316711039448 0 -0.021630334683877241 0.40916052370614098 0 -0.024168452842609961 0.42970240035789542 0 -0.021630334683877241 0.40916052370614098 0 -0.037063571269672198 0.42944677022044792 0 -0.021630334683877241 0.40916052370614098 0 -0.024168452842609961 0.42970240035789542 0 -0.037063571269672198 0.42944677022044792 0 -0.01444186018658767 0.42499316711039448 0 -0.01313670676755469 0.43540210218949132 0 -0.024168452842609961 0.42970240035789542 0 -0.01313670676755469 0.43540210218949132 0 -0.024168452842609961 0.42970240035789542 0 -0.021981170176639461 0.4389271994192942 0 -0.024168452842609961 0.42970240035789542 0 -0.037063571269672198 0.42944677022044792 0 -0.031831845452052587 0.43996876040031851 0 -0.024168452842609961 0.42970240035789542 0 -0.031831845452052587 0.43996876040031851 0 -0.021981170176639461 0.4389271994192942 0 -0.037063571269672198 0.42944677022044792 0 -0.049446720726308027 0.41922278495246679 0 -0.048501237239218641 0.42905913720089378 0 -0.037063571269672198 0.42944677022044792 0 -0.050786759272867563 0.43662404020363133 0 -0.048501237239218641 0.42905913720089378 0 -0.044053770901645112 0.39660301435275958 0 -0.021630334683877241 0.40916052370614098 0 -0.049446720726308027 0.41922278495246679 0 -0.021630334683877241 0.40916052370614098 0 -0.037063571269672198 0.42944677022044792 0 -0.049446720726308027 0.41922278495246679 0 -0.065406024651655792 0.41744152600339118 0 -0.044053770901645112 0.39660301435275958 0 -0.065406024651655792 0.41744152600339118 0 -0.044053770901645112 0.39660301435275958 0 -0.049446720726308027 0.41922278495246679 0 -0.065406024651655792 0.41744152600339118 0 -0.049446720726308027 0.41922278495246679 0 -0.05670789768802674 0.43094295342702887 0 -0.050786759272867563 0.43662404020363133 0 -0.048501237239218641 0.42905913720089378 0 -0.05670789768802674 0.43094295342702887 0 -0.049446720726308027 0.41922278495246679 0 -0.048501237239218641 0.42905913720089378 0 -0.05670789768802674 0.43094295342702887 0 -0.050786759272867563 0.43662404020363133 0 -0.05670789768802674 0.43094295342702887 0 -0.060118635885140853 0.44294474353748198 0 -0.065936286297007013 0.43511801097785191 0 -0.05670789768802674 0.43094295342702887 0 -0.060118635885140853 0.44294474353748198 0 -0.05249680785546728 0.4497330167347548 0 -0.059444516753459437 0.45996209570892882 0 -0.045043171556123841 0.44430893323456472 0 -0.059444516753459437 0.45996209570892882 0 -0.045043171556123841 0.44430893323456472 0 -0.060118635885140853 0.44294474353748198 0 -0.05249680785546728 0.4497330167347548 0 -0.063326487010185811 0.45159384641185912 0 -0.050786759272867563 0.43662404020363133 0 -0.060118635885140853 0.44294474353748198 0 -0.05249680785546728 0.4497330167347548 0 -0.059444516753459437 0.45996209570892882 0 -0.050852632158080377 0.46423079617057289 0 -0.042905677256836493 0.45672073819235171 0 -0.059444516753459437 0.45996209570892882 0 -0.042905677256836493 0.45672073819235171 0 -0.045043171556123841 0.44430893323456472 0 -0.059444516753459437 0.45996209570892882 0 -0.050852632158080377 0.46423079617057289 0 -0.056906209892666593 0.47126958735631719 0 -0.05249680785546728 0.4497330167347548 0 -0.059444516753459437 0.45996209570892882 0 -0.063326487010185811 0.45159384641185912 0 -0.050852632158080377 0.46423079617057289 0 -0.04280811103578698 0.46917868033434218 0 -0.056906209892666593 0.47126958735631719 0 -0.042905677256836493 0.45672073819235171 0 -0.033362518049867507 0.4660122267918182 0 -0.04280811103578698 0.46917868033434218 0 -0.050852632158080377 0.46423079617057289 0 -0.042905677256836493 0.45672073819235171 0 -0.04280811103578698 0.46917868033434218 0 -0.042905677256836493 0.45672073819235171 0 -0.037484750241461688 0.44932817349675519 0 -0.030158306700833849 0.45631426215978599 0 -0.042905677256836493 0.45672073819235171 0 -0.033362518049867507 0.4660122267918182 0 -0.030158306700833849 0.45631426215978599 0 -0.037484750241461688 0.44932817349675519 0 -0.031831845452052587 0.43996876040031851 0 -0.030158306700833849 0.45631426215978599 0 -0.037063571269672198 0.42944677022044792 0 -0.05249680785546728 0.4497330167347548 0 -0.045043171556123841 0.44430893323456472 0 -0.037063571269672198 0.42944677022044792 0 -0.05249680785546728 0.4497330167347548 0 -0.037063571269672198 0.42944677022044792 0 -0.050786759272867563 0.43662404020363133 0 -0.05249680785546728 0.4497330167347548 0 -0.042905677256836493 0.45672073819235171 0 -0.045043171556123841 0.44430893323456472 0 -0.037484750241461688 0.44932817349675519 0 -0.037063571269672198 0.42944677022044792 0 -0.045043171556123841 0.44430893323456472 0 -0.031831845452052587 0.43996876040031851 0 -0.045043171556123841 0.44430893323456472 0 -0.037484750241461688 0.44932817349675519 0 -0.031831845452052587 0.43996876040031851 0 -0.031831845452052587 0.43996876040031851 0 -0.030158306700833849 0.45631426215978599 0 -0.01369749220332438 0.46131983942987398 0 -0.031831845452052587 0.43996876040031851 0 -0.021981170176639461 0.4389271994192942 0 -0.018576031218603802 0.44757795720319982 0 -0.031831845452052587 0.43996876040031851 0 -0.01369749220332438 0.46131983942987398 0 -0.031831845452052587 0.43996876040031851 0 -0.018576031218603802 0.44757795720319982 0 -0.01369749220332438 0.46131983942987398 0 -0.01313670676755469 0.43540210218949132 0 -0.021981170176639461 0.4389271994192942 0 -0.012396473491308201 0.44454115773504882 0 -0.021981170176639461 0.4389271994192942 0 -0.018576031218603802 0.44757795720319982 0 -0.012396473491308201 0.44454115773504882 0 -0.030158306700833849 0.45631426215978599 0 -0.025038782040248082 0.4642239927722544 0 -0.01369749220332438 0.46131983942987398 0 -0.033362518049867507 0.4660122267918182 0 -0.025038782040248082 0.4642239927722544 0 -0.02572984313161562 0.47358946770098598 0 -0.033362518049867507 0.4660122267918182 0 -0.030158306700833849 0.45631426215978599 0 -0.025038782040248082 0.4642239927722544 0 -0.025038782040248082 0.4642239927722544 0 -0.01369749220332438 0.46131983942987398 0 -0.02572984313161562 0.47358946770098598 0 -0.01369749220332438 0.46131983942987398 0 -0.02572984313161562 0.47358946770098598 0 -0.011939123612778419 0.46339011269657848 0 -0.01369749220332438 0.46131983942987398 0 -0.02572984313161562 0.47358946770098598 0 -0.011939123612778419 0.46339011269657848 0 -0.0056788975283216074 0.45314311847938649 0 -0.011939123612778419 0.46339011269657848 0 -0.0056788975283216074 0.45314311847938649 0 0.0041572681536312089 0.46313827509128441 0 -0.01369749220332438 0.46131983942987398 0 -0.0056788975283216074 0.45314311847938649 0 -0.018576031218603802 0.44757795720319982 0 -0.01369749220332438 0.46131983942987398 0 -0.01258722361038957 0.45164551821187732 0 -0.01369749220332438 0.46131983942987398 0 -0.0056788975283216074 0.45314311847938649 0 -0.01258722361038957 0.45164551821187732 0 -0.011939123612778419 0.46339011269657848 0 -0.01369749220332438 0.46131983942987398 0 -0.0056788975283216074 0.45314311847938649 0 -0.011939123612778419 0.46339011269657848 0 -0.01369749220332438 0.46131983942987398 0 -0.0056788975283216074 0.45314311847938649 0 -0.0054909350807642197 0.43984799706899641 0 0.0060525274966358907 0.43394064196042442 0 -0.01313670676755469 0.43540210218949132 0 -0.0054909350807642197 0.43984799706899641 0 -0.012396473491308201 0.44454115773504882 0 -0.0056788975283216074 0.45314311847938649 0 -0.012396473491308201 0.44454115773504882 0 -0.01258722361038957 0.45164551821187732 0 -0.018576031218603802 0.44757795720319982 0 -0.012396473491308201 0.44454115773504882 0 -0.01258722361038957 0.45164551821187732 0 -0.0056788975283216074 0.45314311847938649 0 -0.0054909350807642197 0.43984799706899641 0 -0.012396473491308201 0.44454115773504882 0 -0.0075750716008230468 0.5 0 -0.02312221626356499 0.48169505634828841 0 0.0036080210499636681 0.48169505634828769 0 -0.011939123612778419 0.46339011269657848 0 -0.02312221626356499 0.48169505634828841 0 0.0036080210499636681 0.48169505634828769 0 -0.011939123612778419 0.46339011269657848 0 0.0036080210499636681 0.48169505634828769 0 -0.011939123612778419 0.46339011269657848 0 0.0036080210499636681 0.48169505634828769 0 0.0041572681536312089 0.46313827509128441 0 -0.011939123612778419 0.46339011269657848 0 -0.02312221626356499 0.48169505634828841 0 -0.02572984313161562 0.47358946770098598 0 -0.011939123612778419 0.46339011269657848 0 -0.02312221626356499 0.48169505634828841 0 -0.02312221626356499 0.48169505634828841 0 -0.02572984313161562 0.47358946770098598 0 -0.037762194059907571 0.48585909597209709 0 -0.02312221626356499 0.48169505634828841 0 -0.034305308914351129 0.4999999999999985 0 -0.0075750716008230468 0.5 0 -0.02312221626356499 0.48169505634828841 0 -0.034305308914351129 0.4999999999999985 0 -0.02312221626356499 0.48169505634828841 0 -0.034305308914351129 0.4999999999999985 0 -0.037762194059907571 0.48585909597209709 0 -0.034305308914351129 0.4999999999999985 0 -0.037762194059907571 0.48585909597209709 0 -0.057793120166189087 0.5 0 -0.037762194059907571 0.48585909597209709 0 -0.045658996752109507 0.47724752485386868 0 -0.055566051124481652 0.48189710305736633 0 -0.033362518049867507 0.4660122267918182 0 -0.02572984313161562 0.47358946770098598 0 -0.036899613064207193 0.47470974080504053 0 -0.033362518049867507 0.4660122267918182 0 -0.036899613064207193 0.47470974080504053 0 -0.04280811103578698 0.46917868033434218 0 -0.02572984313161562 0.47358946770098598 0 -0.037762194059907571 0.48585909597209709 0 -0.02572984313161562 0.47358946770098598 0 -0.037762194059907571 0.48585909597209709 0 -0.036899613064207193 0.47470974080504053 0 -0.037762194059907571 0.48585909597209709 0 -0.036899613064207193 0.47470974080504053 0 -0.045658996752109507 0.47724752485386868 0 -0.036899613064207193 0.47470974080504053 0 -0.045658996752109507 0.47724752485386868 0 -0.04280811103578698 0.46917868033434218 0 -0.055566051124481652 0.48189710305736633 0 -0.056906209892666593 0.47126958735631719 0 -0.073845861950795066 0.47561525818329298 0 -0.045658996752109507 0.47724752485386868 0 -0.04280811103578698 0.46917868033434218 0 -0.056906209892666593 0.47126958735631719 0 -0.045658996752109507 0.47724752485386868 0 -0.055566051124481652 0.48189710305736633 0 -0.056906209892666593 0.47126958735631719 0 -0.037762194059907571 0.48585909597209709 0 -0.055566051124481652 0.48189710305736633 0 -0.057793120166189087 0.5 0 -0.055566051124481652 0.48189710305736633 0 -0.057793120166189087 0.5 0 -0.071346634361524372 0.48975615637966352 0 -0.057793120166189087 0.5 0 -0.071346634361524372 0.48975615637966352 0 -0.081280931418027058 0.50000000000000178 0 -0.071346634361524372 0.48975615637966352 0 -0.088247207148129253 0.49126842065765852 0 -0.073845861950795066 0.47561525818329298 0 -0.071346634361524372 0.48975615637966352 0 -0.081280931418027058 0.50000000000000178 0 -0.088247207148129253 0.49126842065765852 0 -0.081280931418027058 0.50000000000000178 0 -0.088247207148129253 0.49126842065765852 0 -0.088247207148129253 0.49126842065765852 0 -0.097329292887272642 0.47988487006367142 0 -0.081280931418027058 0.50000000000000178 0 -0.088247207148129253 0.49126842065765852 0 -0.096280503195043415 0.49999999999999961 0 -0.088247207148129253 0.49126842065765852 0 -0.096280503195043415 0.49999999999999961 0 -0.088247207148129253 0.49126842065765852 0 -0.08672262643743596 0.47150714416261869 0 -0.097329292887272642 0.47988487006367142 0 -0.08672262643743596 0.47150714416261869 0 -0.092043785644472367 0.45908245385884588 0 -0.097329292887272642 0.47988487006367142 0 -0.088247207148129253 0.49126842065765852 0 -0.073845861950795066 0.47561525818329298 0 -0.088247207148129253 0.49126842065765852 0 -0.08672262643743596 0.47150714416261869 0 -0.073845861950795066 0.47561525818329298 0 -0.08672262643743596 0.47150714416261869 0 -0.073845861950795066 0.47561525818329298 0 -0.075043597421163052 0.46006190774478489 0 -0.059444516753459437 0.45996209570892882 0 -0.056906209892666593 0.47126958735631719 0 -0.073845861950795066 0.47561525818329298 0 -0.055566051124481652 0.48189710305736633 0 -0.071346634361524372 0.48975615637966352 0 -0.073845861950795066 0.47561525818329298 0 -0.059444516753459437 0.45996209570892882 0 -0.073845861950795066 0.47561525818329298 0 -0.075043597421163052 0.46006190774478489 0 -0.059444516753459437 0.45996209570892882 0 -0.073845861950795066 0.47561525818329298 0 -0.059444516753459437 0.45996209570892882 0 -0.075043597421163052 0.46006190774478489 0 -0.063326487010185811 0.45159384641185912 0 -0.065936286297007013 0.43511801097785191 0 -0.060118635885140853 0.44294474353748198 0 -0.070661083850404621 0.44634052334776381 0 -0.073804116029247302 0.4371034288437663 0 -0.065936286297007013 0.43511801097785191 0 -0.070661083850404621 0.44634052334776381 0 -0.060118635885140853 0.44294474353748198 0 -0.063326487010185811 0.45159384641185912 0 -0.070661083850404621 0.44634052334776381 0 -0.075043597421163052 0.46006190774478489 0 -0.063326487010185811 0.45159384641185912 0 -0.070661083850404621 0.44634052334776381 0 -0.075043597421163052 0.46006190774478489 0 -0.070661083850404621 0.44634052334776381 0 -0.080258906945502695 0.44833704623580212 0 -0.073804116029247302 0.4371034288437663 0 -0.070661083850404621 0.44634052334776381 0 -0.080258906945502695 0.44833704623580212 0 -0.086758278401667902 0.43828003765402129 0 -0.092043785644472367 0.45908245385884588 0 -0.099061123745950108 0.45028687257853972 0 -0.086758278401667902 0.43828003765402129 0 -0.092043785644472367 0.45908245385884588 0 -0.080258906945502695 0.44833704623580212 0 -0.086758278401667902 0.43828003765402129 0 -0.092043785644472367 0.45908245385884588 0 -0.073804116029247302 0.4371034288437663 0 -0.080258906945502695 0.44833704623580212 0 -0.086758278401667902 0.43828003765402129 0 -0.086758278401667902 0.43828003765402129 0 -0.099061123745950108 0.45028687257853972 0 -0.075043597421163052 0.46006190774478489 0 -0.080258906945502695 0.44833704623580212 0 -0.092043785644472367 0.45908245385884588 0 -0.08672262643743596 0.47150714416261869 0 -0.075043597421163052 0.46006190774478489 0 -0.092043785644472367 0.45908245385884588 0 -0.092043785644472367 0.45908245385884588 0 -0.099061123745950108 0.45028687257853972 0 -0.11136396909023361 0.46229370750305671 0 -0.092043785644472367 0.45908245385884588 0 -0.11136396909023361 0.46229370750305671 0 -0.097329292887272642 0.47988487006367142 0 -0.099061123745950108 0.45028687257853972 0 -0.11136396909023361 0.46229370750305671 0 -0.099061123745950108 0.45028687257853972 0 -0.1122052753319005 0.44365311084831011 0 -0.11136396909023361 0.46229370750305671 0 -0.086758278401667902 0.43828003765402129 0 -0.10044841910622181 0.43817753623379352 0 -0.099061123745950108 0.45028687257853972 0 -0.10926137706223139 0.43099035690096799 0 -0.10044841910622181 0.43817753623379352 0 -0.1122052753319005 0.44365311084831011 0 -0.10044841910622181 0.43817753623379352 0 -0.099061123745950108 0.45028687257853972 0 -0.1122052753319005 0.44365311084831011 0 -0.1301182561379696 0.43878695128052508 0 -0.10926137706223139 0.43099035690096799 0 -0.1122052753319005 0.44365311084831011 0 -0.1301182561379696 0.43878695128052508 0 -0.1122052753319005 0.44365311084831011 0 -0.11136396909023361 0.46229370750305671 0 -0.1301182561379696 0.43878695128052508 0 -0.11136396909023361 0.46229370750305671 0 -0.13280305227926081 0.45907183038089111 0 -0.1301182561379696 0.43878695128052508 0 -0.11136396909023361 0.46229370750305671 0 -0.12927926813383431 0.47977795868400902 0 -0.13280305227926081 0.45907183038089111 0 -0.11136396909023361 0.46229370750305671 0 -0.12927926813383431 0.47977795868400902 0 -0.11136396909023361 0.46229370750305671 0 -0.1153806750737312 0.4839919427771433 0 -0.12927926813383431 0.47977795868400902 0 -0.11136396909023361 0.46229370750305671 0 -0.14719456717743479 0.49726220986496139 0 -0.1016229035927028 0.49678343302325201 0 -0.096280503195043415 0.49999999999999961 0 -0.14719456717743479 0.49726220986496139 0 -0.1153806750737312 0.4839919427771433 0 -0.1016229035927028 0.49678343302325201 0 -0.1153806750737312 0.4839919427771433 0 -0.1016229035927028 0.49678343302325201 0 -0.097329292887272642 0.47988487006367142 0 -0.088247207148129253 0.49126842065765852 0 -0.1016229035927028 0.49678343302325201 0 -0.097329292887272642 0.47988487006367142 0 -0.1016229035927028 0.49678343302325201 0 -0.097329292887272642 0.47988487006367142 0 -0.088247207148129253 0.49126842065765852 0 -0.1016229035927028 0.49678343302325201 0 -0.096280503195043415 0.49999999999999961 0 -0.11136396909023361 0.46229370750305671 0 -0.097329292887272642 0.47988487006367142 0 -0.092043785644472367 0.45908245385884588 0 -0.097329292887272642 0.47988487006367142 0 -0.11136396909023361 0.46229370750305671 0 -0.1153806750737312 0.4839919427771433 0 -0.097329292887272642 0.47988487006367142 0 -0.1715378108618969 0.081473223889364871 0 -0.1695298481977881 0.092652884725989426 0 -0.1589516095679368 0.087971432183466924 0 -0.1715378108618969 0.081473223889364871 0 -0.1589516095679368 0.087971432183466924 0 -0.15992953251122069 0.072645630634943059 0 -0.15992953251122069 0.072645630634943059 0 -0.1689003531558109 0.070475423662913178 0 -0.18403160084199621 0.069145699794123688 0 -0.1715378108618969 0.081473223889364871 0 -0.15992953251122069 0.072645630634943059 0 -0.18403160084199621 0.069145699794123688 0 -0.15846762668723821 0.063089351404170421 0 -0.1689003531558109 0.070475423662913178 0 -0.1638986624983243 0.057156703612289597 0 -0.15992953251122069 0.072645630634943059 0 -0.15846762668723821 0.063089351404170421 0 -0.1689003531558109 0.070475423662913178 0 -0.1715378108618969 0.081473223889364871 0 -0.18403160084199621 0.069145699794123688 0 -0.18236291607771499 0.080325117704706267 0 -0.15992953251122069 0.072645630634943059 0 -0.18403160084199621 0.069145699794123688 0 -0.1689003531558109 0.070475423662913178 0 -0.18403160084199621 0.069145699794123688 0 -0.1777757879377006 0.059462206061482878 0 -0.18403160084199621 0.069145699794123688 0 -0.18236291607771499 0.080325117704706267 0 -0.19618165806327489 0.083423109847579932 0 -0.18236291607771499 0.080325117704706267 0 -0.1831997386797648 0.089107293361269171 0 -0.19618165806327489 0.083423109847579932 0 -0.18236291607771499 0.080325117704706267 0 -0.1757667977383234 0.087216872208714991 0 -0.1831997386797648 0.089107293361269171 0 -0.1715378108618969 0.081473223889364871 0 -0.18236291607771499 0.080325117704706267 0 -0.1757667977383234 0.087216872208714991 0 -0.1715378108618969 0.081473223889364871 0 -0.1695298481977881 0.092652884725989426 0 -0.1757667977383234 0.087216872208714991 0 -0.1695298481977881 0.092652884725989426 0 -0.1757667977383234 0.087216872208714991 0 -0.1772656986979593 0.094722902687888966 0 -0.1757667977383234 0.087216872208714991 0 -0.1831997386797648 0.089107293361269171 0 -0.1772656986979593 0.094722902687888966 0 -0.18422964695377811 0.1012004507418558 0 -0.17316995623249989 0.1020415349371247 0 -0.17227763584428141 0.1189777916361318 0 -0.1831997386797648 0.089107293361269171 0 -0.18422964695377811 0.1012004507418558 0 -0.1772656986979593 0.094722902687888966 0 -0.18422964695377811 0.1012004507418558 0 -0.17316995623249989 0.1020415349371247 0 -0.1772656986979593 0.094722902687888966 0 -0.1695298481977881 0.092652884725989426 0 -0.17316995623249989 0.1020415349371247 0 -0.1772656986979593 0.094722902687888966 0 -0.18422964695377811 0.1012004507418558 0 -0.17227763584428141 0.1189777916361318 0 -0.1892732801653953 0.1153091945389728 0 -0.18422964695377811 0.1012004507418558 0 -0.17227763584428141 0.1189777916361318 0 -0.17227763584428141 0.1189777916361318 0 -0.1892732801653953 0.1153091945389728 0 -0.18001056856736669 0.12972871477387871 0 -0.17227763584428141 0.1189777916361318 0 -0.1640181910262499 0.10276957521117309 0 -0.15612526191640891 0.11208743332005849 0 -0.17227763584428141 0.1189777916361318 0 -0.15612526191640891 0.11208743332005849 0 -0.1493976711257016 0.12641162965511921 0 -0.17316995623249989 0.1020415349371247 0 -0.17227763584428141 0.1189777916361318 0 -0.1640181910262499 0.10276957521117309 0 -0.1695298481977881 0.092652884725989426 0 -0.17316995623249989 0.1020415349371247 0 -0.1640181910262499 0.10276957521117309 0 -0.1695298481977881 0.092652884725989426 0 -0.1589516095679368 0.087971432183466924 0 -0.1640181910262499 0.10276957521117309 0 -0.1640181910262499 0.10276957521117309 0 -0.15246522073204941 0.099541437931693594 0 -0.15612526191640891 0.11208743332005849 0 -0.1589516095679368 0.087971432183466924 0 -0.1640181910262499 0.10276957521117309 0 -0.15246522073204941 0.099541437931693594 0 -0.15246522073204941 0.099541437931693594 0 -0.13717961809685261 0.104402800422459 0 -0.14494976206177609 0.088739712741369658 0 -0.15246522073204941 0.099541437931693594 0 -0.15612526191640891 0.11208743332005849 0 -0.13717961809685261 0.104402800422459 0 -0.15612526191640891 0.11208743332005849 0 -0.13717961809685261 0.104402800422459 0 -0.1493976711257016 0.12641162965511921 0 -0.13717961809685261 0.104402800422459 0 -0.1493976711257016 0.12641162965511921 0 -0.12421186667326629 0.12701614479988779 0 -0.13717961809685261 0.104402800422459 0 -0.12421186667326629 0.12701614479988779 0 -0.1181426053162586 0.1068152534780261 0 -0.13717961809685261 0.104402800422459 0 -0.12421186667326629 0.12701614479988779 0 -0.13717961809685261 0.104402800422459 0 -0.12528968029428239 0.09151819051175078 0 -0.14494976206177609 0.088739712741369658 0 -0.13717961809685261 0.104402800422459 0 -0.12528968029428239 0.09151819051175078 0 -0.1181426053162586 0.1068152534780261 0 -0.12528968029428239 0.09151819051175078 0 -0.14494976206177609 0.088739712741369658 0 -0.13582746418044511 0.07614556147576243 0 -0.1589516095679368 0.087971432183466924 0 -0.15992953251122069 0.072645630634943059 0 -0.14494976206177609 0.088739712741369658 0 -0.15992953251122069 0.072645630634943059 0 -0.14494976206177609 0.088739712741369658 0 -0.13582746418044511 0.07614556147576243 0 -0.1589516095679368 0.087971432183466924 0 -0.15246522073204941 0.099541437931693594 0 -0.14494976206177609 0.088739712741369658 0 -0.15992953251122069 0.072645630634943059 0 -0.13582746418044511 0.07614556147576243 0 -0.15992953251122069 0.072645630634943059 0 -0.14825366873282009 0.064426563423039096 0 -0.13582746418044511 0.07614556147576243 0 -0.15992953251122069 0.072645630634943059 0 -0.15846762668723821 0.063089351404170421 0 -0.14825366873282009 0.064426563423039096 0 -0.13582746418044511 0.07614556147576243 0 -0.1313908266181639 0.057860543913468912 0 -0.1236179063483689 0.068109104510717458 0 -0.14825366873282009 0.064426563423039096 0 -0.13582746418044511 0.07614556147576243 0 -0.1313908266181639 0.057860543913468912 0 -0.1313908266181639 0.057860543913468912 0 -0.13654744324649801 0.038821055446372453 0 -0.1240751716511294 0.046421578455218437 0 -0.1313908266181639 0.057860543913468912 0 -0.13654744324649801 0.038821055446372453 0 -0.151355916538015 0.050742435687667217 0 -0.13654744324649801 0.038821055446372453 0 -0.1214102998521855 0.033587953871668602 0 -0.1240751716511294 0.046421578455218437 0 -0.13654744324649801 0.038821055446372453 0 -0.151355916538015 0.050742435687667217 0 -0.1539114976834017 0.025758651316182761 0 -0.14825366873282009 0.064426563423039096 0 -0.1313908266181639 0.057860543913468912 0 -0.151355916538015 0.050742435687667217 0 -0.1313908266181639 0.057860543913468912 0 -0.151355916538015 0.050742435687667217 0 -0.15846762668723821 0.063089351404170421 0 -0.14825366873282009 0.064426563423039096 0 -0.151355916538015 0.050742435687667217 0 -0.12470345280778559 -0.0046060833266749566 0 -0.136366193982944 0.019361266881730631 0 -0.1192272432507404 0.019871391370585571 0 -0.12470345280778559 -0.0046060833266749566 0 -0.136366193982944 0.019361266881730631 0 -0.14741072542287981 0.0062455440855098826 0 -0.136366193982944 0.019361266881730631 0 -0.1192272432507404 0.019871391370585571 0 -0.1214102998521855 0.033587953871668602 0 -0.13654744324649801 0.038821055446372453 0 -0.136366193982944 0.019361266881730631 0 -0.1214102998521855 0.033587953871668602 0 -0.136366193982944 0.019361266881730631 0 -0.1539114976834017 0.025758651316182761 0 -0.14741072542287981 0.0062455440855098826 0 -0.13654744324649801 0.038821055446372453 0 -0.136366193982944 0.019361266881730631 0 -0.1539114976834017 0.025758651316182761 0 -0.1539114976834017 0.025758651316182761 0 -0.14741072542287981 0.0062455440855098826 0 -0.1639099945044146 0.0053336771441489048 0 -0.17580682899312269 -0.0061346579875049198 0 -0.1639099945044146 0.0053336771441489048 0 -0.17356391772549479 0.018744834737180478 0 -0.1539114976834017 0.025758651316182761 0 -0.17356391772549479 0.018744834737180478 0 -0.17132100645786619 0.043624327461865869 0 -0.1539114976834017 0.025758651316182761 0 -0.1639099945044146 0.0053336771441489048 0 -0.17356391772549479 0.018744834737180478 0 -0.18137637152518679 0.027785610824785281 0 -0.1790963236885145 0.04085221124501448 0 -0.19385937705343789 0.02209110381404927 0 -0.18137637152518679 0.027785610824785281 0 -0.17356391772549479 0.018744834737180478 0 -0.17132100645786619 0.043624327461865869 0 -0.17356391772549479 0.018744834737180478 0 -0.17132100645786619 0.043624327461865869 0 -0.18137637152518679 0.027785610824785281 0 -0.1816010720175002 0.019675478732692441 0 -0.18918528300924409 0.020515865185375581 0 -0.1816010720175002 0.019675478732692441 0 -0.18227871581007529 0.01165560418342846 0 -0.18918528300924409 0.020515865185375581 0 -0.18137637152518679 0.027785610824785281 0 -0.1816010720175002 0.019675478732692441 0 -0.17356391772549479 0.018744834737180478 0 -0.1816010720175002 0.019675478732692441 0 -0.17356391772549479 0.018744834737180478 0 -0.18227871581007529 0.01165560418342846 0 -0.17580682899312269 -0.0061346579875049198 0 -0.17356391772549479 0.018744834737180478 0 -0.17580682899312269 -0.0061346579875049198 0 -0.18227871581007529 0.01165560418342846 0 -0.19082965241075781 0.0065390538441611546 0 -0.17580682899312269 -0.0061346579875049198 0 -0.17356391772549479 0.018744834737180478 0 -0.18227871581007529 0.01165560418342846 0 -0.18227871581007529 0.01165560418342846 0 -0.19082965241075781 0.0065390538441611546 0 -0.18918528300924409 0.020515865185375581 0 -0.1689003531558109 0.070475423662913178 0 -0.17132100645786619 0.043624327461865869 0 -0.1689003531558109 0.070475423662913178 0 -0.1638986624983243 0.057156703612289597 0 -0.17132100645786619 0.043624327461865869 0 -0.1689003531558109 0.070475423662913178 0 -0.17132100645786619 0.043624327461865869 0 -0.1729340160171195 0.048683363337194932 0 -0.151355916538015 0.050742435687667217 0 -0.1638986624983243 0.057156703612289597 0 -0.17132100645786619 0.043624327461865869 0 -0.151355916538015 0.050742435687667217 0 -0.17132100645786619 0.043624327461865869 0 -0.15846762668723821 0.063089351404170421 0 -0.151355916538015 0.050742435687667217 0 -0.1638986624983243 0.057156703612289597 0 -0.151355916538015 0.050742435687667217 0 -0.1539114976834017 0.025758651316182761 0 -0.17132100645786619 0.043624327461865869 0 -0.1790963236885145 0.04085221124501448 0 -0.1729340160171195 0.048683363337194932 0 -0.1790963236885145 0.04085221124501448 0 -0.19385937705343789 0.02209110381404927 0 -0.1790963236885145 0.04085221124501448 0 -0.1729340160171195 0.048683363337194932 0 -0.179378101465726 0.050666824671094138 0 -0.18137637152518679 0.027785610824785281 0 -0.17132100645786619 0.043624327461865869 0 -0.1790963236885145 0.04085221124501448 0 -0.17132100645786619 0.043624327461865869 0 -0.1790963236885145 0.04085221124501448 0 -0.1729340160171195 0.048683363337194932 0 -0.17132100645786619 0.043624327461865869 0 -0.1790963236885145 0.04085221124501448 0 -0.1689003531558109 0.070475423662913178 0 -0.1729340160171195 0.048683363337194932 0 -0.1777757879377006 0.059462206061482878 0 -0.1790963236885145 0.04085221124501448 0 -0.179378101465726 0.050666824671094138 0 -0.1877062782195697 0.053669518040684622 0 -0.179378101465726 0.050666824671094138 0 -0.1777757879377006 0.059462206061482878 0 -0.1877062782195697 0.053669518040684622 0 -0.1729340160171195 0.048683363337194932 0 -0.179378101465726 0.050666824671094138 0 -0.1777757879377006 0.059462206061482878 0 -0.18403160084199621 0.069145699794123688 0 -0.1777757879377006 0.059462206061482878 0 -0.1877062782195697 0.053669518040684622 0 -0.18403160084199621 0.069145699794123688 0 -0.19560115456059951 0.059767079453101751 0 -0.1877062782195697 0.053669518040684622 0 -0.19560115456059951 0.059767079453101751 0 -0.20253307000806031 0.050607331024294572 0 -0.20813366917277171 0.065645768953304123 0 -0.19560115456059951 0.059767079453101751 0 -0.20253307000806031 0.050607331024294572 0 -0.1877062782195697 0.053669518040684622 0 -0.20253307000806031 0.050607331024294572 0 -0.19620881125769479 0.034751134865238932 0 -0.207879284057498 0.0390913026584533 0 -0.1790963236885145 0.04085221124501448 0 -0.19620881125769479 0.034751134865238932 0 -0.19385937705343789 0.02209110381404927 0 -0.1790963236885145 0.04085221124501448 0 -0.1877062782195697 0.053669518040684622 0 -0.19620881125769479 0.034751134865238932 0 -0.20253307000806031 0.050607331024294572 0 -0.1877062782195697 0.053669518040684622 0 -0.19620881125769479 0.034751134865238932 0 -0.1790963236885145 0.04085221124501448 0 -0.19620881125769479 0.034751134865238932 0 -0.20253307000806031 0.050607331024294572 0 -0.207879284057498 0.0390913026584533 0 -0.2187519129444376 0.049852264621849537 0 -0.19620881125769479 0.034751134865238932 0 -0.2133212988268752 0.028650058485463668 0 -0.19620881125769479 0.034751134865238932 0 -0.207879284057498 0.0390913026584533 0 -0.2133212988268752 0.028650058485463668 0 -0.207879284057498 0.0390913026584533 0 -0.21767463145275781 0.038002798379270251 0 -0.2133212988268752 0.028650058485463668 0 -0.207879284057498 0.0390913026584533 0 -0.21767463145275781 0.038002798379270251 0 -0.2187519129444376 0.049852264621849537 0 -0.2187519129444376 0.049852264621849537 0 -0.2164830028008175 0.064433338141805283 0 -0.20813366917277171 0.065645768953304123 0 -0.20253307000806031 0.050607331024294572 0 -0.2187519129444376 0.049852264621849537 0 -0.20813366917277171 0.065645768953304123 0 -0.2187519129444376 0.049852264621849537 0 -0.20813366917277171 0.065645768953304123 0 -0.19385937705343789 0.02209110381404927 0 -0.20691016890114819 0.0055059637443243548 0 -0.19082965241075781 0.0065390538441611546 0 -0.19385937705343789 0.02209110381404927 0 -0.20691016890114819 0.0055059637443243548 0 -0.19620881125769479 0.034751134865238932 0 -0.19385937705343789 0.02209110381404927 0 -0.2133212988268752 0.028650058485463668 0 -0.19082965241075781 0.0065390538441611546 0 -0.18918528300924409 0.020515865185375581 0 -0.19385937705343789 0.02209110381404927 0 -0.18137637152518679 0.027785610824785281 0 -0.18918528300924409 0.020515865185375581 0 -0.19385937705343789 0.02209110381404927 0 -0.18918528300924409 0.020515865185375581 0 -0.19385937705343789 0.02209110381404927 0 -0.19385937705343789 0.02209110381404927 0 -0.2133212988268752 0.028650058485463668 0 -0.21212132669004799 0.016604513807310432 0 -0.19385937705343789 0.02209110381404927 0 -0.2133212988268752 0.028650058485463668 0 -0.2133212988268752 0.028650058485463668 0 -0.21762173305196239 0.027116834425115411 0 -0.2241114398270079 0.02954614184406373 0 -0.2133212988268752 0.028650058485463668 0 -0.21762173305196239 0.027116834425115411 0 -0.2133212988268752 0.028650058485463668 0 -0.21762173305196239 0.027116834425115411 0 -0.2181572422588684 0.02182281358300912 0 -0.21212132669004799 0.016604513807310432 0 -0.2181572422588684 0.02182281358300912 0 -0.22148038045601789 0.01266289540310549 0 -0.2133212988268752 0.028650058485463668 0 -0.21212132669004799 0.016604513807310432 0 -0.2181572422588684 0.02182281358300912 0 -0.20691016890114819 0.0055059637443243548 0 -0.22778700167026009 0.001198131637768274 0 -0.22148038045601789 0.01266289540310549 0 -0.19385937705343789 0.02209110381404927 0 -0.21212132669004799 0.016604513807310432 0 -0.20691016890114819 0.0055059637443243548 0 -0.21212132669004799 0.016604513807310432 0 -0.20691016890114819 0.0055059637443243548 0 -0.22148038045601789 0.01266289540310549 0 -0.22778700167026009 0.001198131637768274 0 -0.23266514327702961 0.012827042423133751 0 -0.2397929814435005 0.001308928103204989 0 -0.22148038045601789 0.01266289540310549 0 -0.23266514327702961 0.012827042423133751 0 -0.2277506864245461 0.017434628193871 0 -0.22778700167026009 0.001198131637768274 0 -0.22148038045601789 0.01266289540310549 0 -0.23266514327702961 0.012827042423133751 0 -0.2133212988268752 0.028650058485463668 0 -0.2241114398270079 0.02954614184406373 0 -0.2293701567161037 0.034058760290395083 0 -0.23266514327702961 0.012827042423133751 0 -0.2311648148975837 0.02248161877147373 0 -0.23777103487729001 0.022258832643793108 0 -0.23266514327702961 0.012827042423133751 0 -0.2311648148975837 0.02248161877147373 0 -0.2277506864245461 0.017434628193871 0 -0.2311648148975837 0.02248161877147373 0 -0.2277506864245461 0.017434628193871 0 -0.22395377073599729 0.021119900957663921 0 -0.2311648148975837 0.02248161877147373 0 -0.22395377073599729 0.021119900957663921 0 -0.22558894518619571 0.0261095478416613 0 -0.2181572422588684 0.02182281358300912 0 -0.22148038045601789 0.01266289540310549 0 -0.22395377073599729 0.021119900957663921 0 -0.22148038045601789 0.01266289540310549 0 -0.2277506864245461 0.017434628193871 0 -0.22395377073599729 0.021119900957663921 0 -0.2181572422588684 0.02182281358300912 0 -0.22395377073599729 0.021119900957663921 0 -0.2218866262120063 0.025143047730302698 0 -0.22395377073599729 0.021119900957663921 0 -0.22558894518619571 0.0261095478416613 0 -0.2218866262120063 0.025143047730302698 0 -0.22558894518619571 0.0261095478416613 0 -0.2218866262120063 0.025143047730302698 0 -0.2241114398270079 0.02954614184406373 0 -0.21762173305196239 0.027116834425115411 0 -0.2181572422588684 0.02182281358300912 0 -0.2218866262120063 0.025143047730302698 0 -0.21762173305196239 0.027116834425115411 0 -0.2218866262120063 0.025143047730302698 0 -0.2241114398270079 0.02954614184406373 0 -0.2241114398270079 0.02954614184406373 0 -0.22815584741577061 0.031241319530890061 0 -0.2273990146516047 0.029232692959235949 0 -0.22558894518619571 0.0261095478416613 0 -0.2241114398270079 0.02954614184406373 0 -0.2273990146516047 0.029232692959235949 0 -0.22815584741577061 0.031241319530890061 0 -0.22934589726388971 0.02747258707764744 0 -0.23203699997342739 0.028991483885999959 0 -0.22558894518619571 0.0261095478416613 0 -0.22934589726388971 0.02747258707764744 0 -0.2273990146516047 0.029232692959235949 0 -0.22815584741577061 0.031241319530890061 0 -0.22934589726388971 0.02747258707764744 0 -0.2273990146516047 0.029232692959235949 0 -0.2311648148975837 0.02248161877147373 0 -0.22558894518619571 0.0261095478416613 0 -0.22934589726388971 0.02747258707764744 0 -0.2311648148975837 0.02248161877147373 0 -0.23384600912387521 0.025765089359009469 0 -0.23777103487729001 0.022258832643793108 0 -0.2311648148975837 0.02248161877147373 0 -0.22934589726388971 0.02747258707764744 0 -0.23384600912387521 0.025765089359009469 0 -0.23384600912387521 0.025765089359009469 0 -0.23203699997342739 0.028991483885999959 0 -0.23685912679057899 0.028445276186014029 0 -0.22934589726388971 0.02747258707764744 0 -0.23384600912387521 0.025765089359009469 0 -0.23203699997342739 0.028991483885999959 0 -0.23203699997342739 0.028991483885999959 0 -0.23685912679057899 0.028445276186014029 0 -0.2293701567161037 0.034058760290395083 0 -0.23685912679057899 0.028445276186014029 0 -0.24423794675907409 0.023878014316545071 0 -0.24091856854741289 0.032026589066089302 0 -0.23384600912387521 0.025765089359009469 0 -0.23685912679057899 0.028445276186014029 0 -0.23777103487729001 0.022258832643793108 0 -0.23685912679057899 0.028445276186014029 0 -0.24423794675907409 0.023878014316545071 0 -0.23777103487729001 0.022258832643793108 0 -0.25230682830346818 0.02955531694840258 0 -0.24423794675907409 0.023878014316545071 0 -0.24091856854741289 0.032026589066089302 0 -0.25276540064208891 0.019357371674601519 0 -0.25230682830346818 0.02955531694840258 0 -0.24423794675907409 0.023878014316545071 0 -0.25276540064208891 0.019357371674601519 0 -0.24423794675907409 0.023878014316545071 0 -0.2430634153231698 0.014465403485521911 0 -0.23266514327702961 0.012827042423133751 0 -0.23777103487729001 0.022258832643793108 0 -0.2430634153231698 0.014465403485521911 0 -0.24423794675907409 0.023878014316545071 0 -0.23777103487729001 0.022258832643793108 0 -0.2430634153231698 0.014465403485521911 0 -0.23266514327702961 0.012827042423133751 0 -0.2430634153231698 0.014465403485521911 0 -0.2397929814435005 0.001308928103204989 0 -0.25229657263007749 0.0082721924600334829 0 -0.2430634153231698 0.014465403485521911 0 -0.2397929814435005 0.001308928103204989 0 -0.25229657263007749 0.0082721924600334829 0 -0.25276540064208891 0.019357371674601519 0 -0.2430634153231698 0.014465403485521911 0 -0.25537996419202591 -0.0033143468573220759 0 -0.25229657263007749 0.0082721924600334829 0 -0.2397929814435005 0.001308928103204989 0 -0.23258251214416889 0.04768464777117 0 -0.2263814080716772 0.061286176239582053 0 -0.23846724699435731 0.060387164560292347 0 -0.2187519129444376 0.049852264621849537 0 -0.2263814080716772 0.061286176239582053 0 -0.2164830028008175 0.064433338141805283 0 -0.2187519129444376 0.049852264621849537 0 -0.23258251214416889 0.04768464777117 0 -0.2263814080716772 0.061286176239582053 0 -0.2133212988268752 0.028650058485463668 0 -0.2293701567161037 0.034058760290395083 0 -0.2187519129444376 0.049852264621849537 0 -0.23258251214416889 0.04768464777117 0 -0.2293701567161037 0.034058760290395083 0 -0.2187519129444376 0.049852264621849537 0 -0.2293701567161037 0.034058760290395083 0 -0.21767463145275781 0.038002798379270251 0 -0.2133212988268752 0.028650058485463668 0 -0.2293701567161037 0.034058760290395083 0 -0.21767463145275781 0.038002798379270251 0 -0.2187519129444376 0.049852264621849537 0 -0.2293701567161037 0.034058760290395083 0 -0.2241114398270079 0.02954614184406373 0 -0.22815584741577061 0.031241319530890061 0 -0.2293701567161037 0.034058760290395083 0 -0.22815584741577061 0.031241319530890061 0 -0.23203699997342739 0.028991483885999959 0 -0.2293701567161037 0.034058760290395083 0 -0.2293701567161037 0.034058760290395083 0 -0.2490183198394047 0.040680481043489383 0 -0.23258251214416889 0.04768464777117 0 -0.2293701567161037 0.034058760290395083 0 -0.2490183198394047 0.040680481043489383 0 -0.23258251214416889 0.04768464777117 0 -0.2490183198394047 0.040680481043489383 0 -0.24327110928765119 0.050887892936206387 0 -0.2293701567161037 0.034058760290395083 0 -0.24091856854741289 0.032026589066089302 0 -0.2490183198394047 0.040680481043489383 0 -0.23685912679057899 0.028445276186014029 0 -0.2293701567161037 0.034058760290395083 0 -0.24091856854741289 0.032026589066089302 0 -0.25230682830346818 0.02955531694840258 0 -0.24091856854741289 0.032026589066089302 0 -0.2490183198394047 0.040680481043489383 0 -0.25301635817267382 0.054799278369873833 0 -0.2490183198394047 0.040680481043489383 0 -0.24327110928765119 0.050887892936206387 0 -0.23258251214416889 0.04768464777117 0 -0.24327110928765119 0.050887892936206387 0 -0.23846724699435731 0.060387164560292347 0 -0.25301635817267382 0.054799278369873833 0 -0.24327110928765119 0.050887892936206387 0 -0.23846724699435731 0.060387164560292347 0 -0.25301635817267382 0.054799278369873833 0 -0.23846724699435731 0.060387164560292347 0 -0.24938781436518601 0.068753797982909676 0 -0.23846724699435731 0.060387164560292347 0 -0.24938781436518601 0.068753797982909676 0 -0.23031878060113189 0.074294411793819903 0 -0.24938781436518601 0.068753797982909676 0 -0.24071790972302759 0.086624926504796029 0 -0.23031878060113189 0.074294411793819903 0 -0.25133872639838267 0.099597610871731482 0 -0.25429264043260819 0.080886583836923695 0 -0.24071790972302759 0.086624926504796029 0 -0.25429264043260819 0.080886583836923695 0 -0.24938781436518601 0.068753797982909676 0 -0.24071790972302759 0.086624926504796029 0 -0.2232412586625778 0.093298372967312151 0 -0.23031878060113189 0.074294411793819903 0 -0.2152796026101175 0.081318001150840202 0 -0.24071790972302759 0.086624926504796029 0 -0.2232412586625778 0.093298372967312151 0 -0.23031878060113189 0.074294411793819903 0 -0.2263814080716772 0.061286176239582053 0 -0.23846724699435731 0.060387164560292347 0 -0.23031878060113189 0.074294411793819903 0 -0.23031878060113189 0.074294411793819903 0 -0.2200030758404341 0.070901803410892875 0 -0.2152796026101175 0.081318001150840202 0 -0.2263814080716772 0.061286176239582053 0 -0.23031878060113189 0.074294411793819903 0 -0.2200030758404341 0.070901803410892875 0 -0.2263814080716772 0.061286176239582053 0 -0.2200030758404341 0.070901803410892875 0 -0.2164830028008175 0.064433338141805283 0 -0.2164830028008175 0.064433338141805283 0 -0.20813366917277171 0.065645768953304123 0 -0.2200030758404341 0.070901803410892875 0 -0.2164830028008175 0.064433338141805283 0 -0.21155258511842631 0.073177089728416952 0 -0.2164830028008175 0.064433338141805283 0 -0.20813366917277171 0.065645768953304123 0 -0.21155258511842631 0.073177089728416952 0 -0.20813366917277171 0.065645768953304123 0 -0.21155258511842631 0.073177089728416952 0 -0.19618165806327489 0.083423109847579932 0 -0.2200030758404341 0.070901803410892875 0 -0.21155258511842631 0.073177089728416952 0 -0.2152796026101175 0.081318001150840202 0 -0.21155258511842631 0.073177089728416952 0 -0.2152796026101175 0.081318001150840202 0 -0.19618165806327489 0.083423109847579932 0 -0.2152796026101175 0.081318001150840202 0 -0.19618165806327489 0.083423109847579932 0 -0.20726918332829289 0.09578108786312807 0 -0.2232412586625778 0.093298372967312151 0 -0.2152796026101175 0.081318001150840202 0 -0.20726918332829289 0.09578108786312807 0 -0.18422964695377811 0.1012004507418558 0 -0.19618165806327489 0.083423109847579932 0 -0.1831997386797648 0.089107293361269171 0 -0.18422964695377811 0.1012004507418558 0 -0.19618165806327489 0.083423109847579932 0 -0.19618165806327489 0.083423109847579932 0 -0.19225797743731049 0.098209041556173438 0 -0.20726918332829289 0.09578108786312807 0 -0.20813366917277171 0.065645768953304123 0 -0.19618165806327489 0.083423109847579932 0 -0.18403160084199621 0.069145699794123688 0 -0.19560115456059951 0.059767079453101751 0 -0.20813366917277171 0.065645768953304123 0 -0.18403160084199621 0.069145699794123688 0 -0.20813366917277171 0.065645768953304123 0 -0.19618165806327489 0.083423109847579932 0 -0.18403160084199621 0.069145699794123688 0 -0.20813366917277171 0.065645768953304123 0 -0.1993692752212487 0.1224458584550098 0 -0.1892732801653953 0.1153091945389728 0 -0.19220600597646201 0.13131519097441319 0 -0.1993692752212487 0.1224458584550098 0 -0.1892732801653953 0.1153091945389728 0 -0.20412555420645739 0.11333312689964389 0 -0.1892732801653953 0.1153091945389728 0 -0.1908797391852789 0.1067790351180196 0 -0.20412555420645739 0.11333312689964389 0 -0.18422964695377811 0.1012004507418558 0 -0.19618165806327489 0.083423109847579932 0 -0.19225797743731049 0.098209041556173438 0 -0.18422964695377811 0.1012004507418558 0 -0.1892732801653953 0.1153091945389728 0 -0.1908797391852789 0.1067790351180196 0 -0.19225797743731049 0.098209041556173438 0 -0.20726918332829289 0.09578108786312807 0 -0.20412555420645739 0.11333312689964389 0 -0.18422964695377811 0.1012004507418558 0 -0.1908797391852789 0.1067790351180196 0 -0.19225797743731049 0.098209041556173438 0 -0.1908797391852789 0.1067790351180196 0 -0.19225797743731049 0.098209041556173438 0 -0.20412555420645739 0.11333312689964389 0 -0.19225797743731049 0.098209041556173438 0 -0.20412555420645739 0.11333312689964389 0 -0.21434296357409729 0.1033401852913147 0 -0.20726918332829289 0.09578108786312807 0 -0.20412555420645739 0.11333312689964389 0 -0.2232412586625778 0.093298372967312151 0 -0.21434296357409729 0.1033401852913147 0 -0.20726918332829289 0.09578108786312807 0 -0.21434296357409729 0.1033401852913147 0 -0.20412555420645739 0.11333312689964389 0 -0.22273585809906121 0.11094815343517481 0 -0.20412555420645739 0.11333312689964389 0 -0.2068567760899393 0.12948868437410341 0 -0.21599313097560449 0.1284572122431141 0 -0.1993692752212487 0.1224458584550098 0 -0.20412555420645739 0.11333312689964389 0 -0.2068567760899393 0.12948868437410341 0 -0.20412555420645739 0.11333312689964389 0 -0.22273585809906121 0.11094815343517481 0 -0.21599313097560449 0.1284572122431141 0 -0.20412555420645739 0.11333312689964389 0 -0.21599313097560449 0.1284572122431141 0 -0.22273585809906121 0.11094815343517481 0 -0.2371004406623646 0.12607424858041349 0 -0.21599313097560449 0.1284572122431141 0 -0.22273585809906121 0.11094815343517481 0 -0.23561405001191801 0.1134539734390493 0 -0.2371004406623646 0.12607424858041349 0 -0.2232412586625778 0.093298372967312151 0 -0.22273585809906121 0.11094815343517481 0 -0.23603564386386641 0.1031204432366436 0 -0.2232412586625778 0.093298372967312151 0 -0.21434296357409729 0.1033401852913147 0 -0.22273585809906121 0.11094815343517481 0 -0.24071790972302759 0.086624926504796029 0 -0.2232412586625778 0.093298372967312151 0 -0.23603564386386641 0.1031204432366436 0 -0.22273585809906121 0.11094815343517481 0 -0.23603564386386641 0.1031204432366436 0 -0.23561405001191801 0.1134539734390493 0 -0.25133872639838267 0.099597610871731482 0 -0.24071790972302759 0.086624926504796029 0 -0.23603564386386641 0.1031204432366436 0 -0.25133872639838267 0.099597610871731482 0 -0.23603564386386641 0.1031204432366436 0 -0.2465842574223798 0.1136730485039653 0 -0.25820775034912491 0.1236912849177154 0 -0.2371004406623646 0.12607424858041349 0 -0.25820775034912491 0.1236912849177154 0 -0.2465842574223798 0.1136730485039653 0 -0.2371004406623646 0.12607424858041349 0 -0.23561405001191801 0.1134539734390493 0 -0.2465842574223798 0.1136730485039653 0 -0.2371004406623646 0.12607424858041349 0 -0.23603564386386641 0.1031204432366436 0 -0.23561405001191801 0.1134539734390493 0 -0.2465842574223798 0.1136730485039653 0 -0.24277999027016781 0.1333122883800992 0 -0.2371004406623646 0.12607424858041349 0 -0.2273522301912087 0.1429332918424801 0 -0.25820775034912491 0.1236912849177154 0 -0.24277999027016781 0.1333122883800992 0 -0.2371004406623646 0.12607424858041349 0 -0.24277999027016781 0.1333122883800992 0 -0.2273522301912087 0.1429332918424801 0 -0.2371004406623646 0.12607424858041349 0 -0.2273522301912087 0.1429332918424801 0 -0.21599313097560449 0.1284572122431141 0 -0.2371004406623646 0.12607424858041349 0 -0.21599313097560449 0.1284572122431141 0 -0.2273522301912087 0.1429332918424801 0 -0.21599313097560449 0.1284572122431141 0 -0.2273522301912087 0.1429332918424801 0 -0.22360661457181741 0.1608829327371086 0 -0.20554090465477151 0.1565351911092088 0 -0.2273522301912087 0.1429332918424801 0 -0.24203788772944701 0.16164875012463961 0 -0.22360661457181741 0.1608829327371086 0 -0.24277999027016781 0.1333122883800992 0 -0.2273522301912087 0.1429332918424801 0 -0.24203788772944701 0.16164875012463961 0 -0.2273522301912087 0.1429332918424801 0 -0.24203788772944701 0.16164875012463961 0 -0.25728405863933229 0.1475662721264398 0 -0.24277999027016781 0.1333122883800992 0 -0.24203788772944701 0.16164875012463961 0 -0.25672354526768532 0.18036420840679929 0 -0.24203788772944701 0.16164875012463961 0 -0.25672354526768532 0.18036420840679929 0 -0.24203788772944701 0.16164875012463961 0 -0.2386003623005804 0.1909511444375297 0 -0.24203788772944701 0.16164875012463961 0 -0.22889670975919399 0.1740661169200596 0 -0.2386003623005804 0.1909511444375297 0 -0.22889670975919399 0.1740661169200596 0 -0.22308819977325281 0.18659374417030769 0 -0.2386003623005804 0.1909511444375297 0 -0.22889670975919399 0.1740661169200596 0 -0.22308819977325281 0.18659374417030769 0 -0.21676347570285129 0.17503773195291211 0 -0.24203788772944701 0.16164875012463961 0 -0.22889670975919399 0.1740661169200596 0 -0.22360661457181741 0.1608829327371086 0 -0.22889670975919399 0.1740661169200596 0 -0.22360661457181741 0.1608829327371086 0 -0.21676347570285129 0.17503773195291211 0 -0.22360661457181741 0.1608829327371086 0 -0.2126264727193127 0.16302971440450481 0 -0.20554090465477151 0.1565351911092088 0 -0.2126264727193127 0.16302971440450481 0 -0.20554090465477151 0.1565351911092088 0 -0.1913619921142618 0.1789926325341126 0 -0.22360661457181741 0.1608829327371086 0 -0.2126264727193127 0.16302971440450481 0 -0.21676347570285129 0.17503773195291211 0 -0.2126264727193127 0.16302971440450481 0 -0.20608509573396039 0.17854758961063871 0 -0.1913619921142618 0.1789926325341126 0 -0.22308819977325281 0.18659374417030769 0 -0.21676347570285129 0.17503773195291211 0 -0.2103796186657253 0.1853612412272814 0 -0.21676347570285129 0.17503773195291211 0 -0.20608509573396039 0.17854758961063871 0 -0.2103796186657253 0.1853612412272814 0 -0.2126264727193127 0.16302971440450481 0 -0.21676347570285129 0.17503773195291211 0 -0.20608509573396039 0.17854758961063871 0 -0.20608509573396039 0.17854758961063871 0 -0.2103796186657253 0.1853612412272814 0 -0.1992939194676506 0.1903166279343825 0 -0.20608509573396039 0.17854758961063871 0 -0.1913619921142618 0.1789926325341126 0 -0.1992939194676506 0.1903166279343825 0 -0.20554090465477151 0.1565351911092088 0 -0.19014692523711449 0.15613890059016411 0 -0.18372957911833329 0.17013709037593591 0 -0.20554090465477151 0.1565351911092088 0 -0.18372957911833329 0.17013709037593591 0 -0.2126264727193127 0.16302971440450481 0 -0.1913619921142618 0.1789926325341126 0 -0.20554090465477151 0.1565351911092088 0 -0.1913619921142618 0.1789926325341126 0 -0.18372957911833329 0.17013709037593591 0 -0.19014692523711449 0.15613890059016411 0 -0.19773894950748941 0.15080179019399759 0 -0.18612008828178939 0.14340805299568099 0 -0.20554090465477151 0.1565351911092088 0 -0.19014692523711449 0.15613890059016411 0 -0.19773894950748941 0.15080179019399759 0 -0.20554090465477151 0.1565351911092088 0 -0.19773894950748941 0.15080179019399759 0 -0.20387002238405871 0.14791341403863709 0 -0.19773894950748941 0.15080179019399759 0 -0.19934540910989601 0.1426785033902449 0 -0.20387002238405871 0.14791341403863709 0 -0.19773894950748941 0.15080179019399759 0 -0.19934540910989601 0.1426785033902449 0 -0.18612008828178939 0.14340805299568099 0 -0.19934540910989601 0.1426785033902449 0 -0.19220600597646201 0.13131519097441319 0 -0.18612008828178939 0.14340805299568099 0 -0.1993692752212487 0.1224458584550098 0 -0.1997588673404139 0.13418025613179391 0 -0.2068567760899393 0.12948868437410341 0 -0.1993692752212487 0.1224458584550098 0 -0.19220600597646201 0.13131519097441319 0 -0.1997588673404139 0.13418025613179391 0 -0.19934540910989601 0.1426785033902449 0 -0.19220600597646201 0.13131519097441319 0 -0.1997588673404139 0.13418025613179391 0 -0.19934540910989601 0.1426785033902449 0 -0.1997588673404139 0.13418025613179391 0 -0.21285482626407809 0.14163817146109711 0 -0.1997588673404139 0.13418025613179391 0 -0.2068567760899393 0.12948868437410341 0 -0.21285482626407809 0.14163817146109711 0 -0.2068567760899393 0.12948868437410341 0 -0.21599313097560449 0.1284572122431141 0 -0.2068567760899393 0.12948868437410341 0 -0.21599313097560449 0.1284572122431141 0 -0.21285482626407809 0.14163817146109711 0 -0.2273522301912087 0.1429332918424801 0 -0.21599313097560449 0.1284572122431141 0 -0.21285482626407809 0.14163817146109711 0 -0.2273522301912087 0.1429332918424801 0 -0.20554090465477151 0.1565351911092088 0 -0.2273522301912087 0.1429332918424801 0 -0.20554090465477151 0.1565351911092088 0 -0.21285482626407809 0.14163817146109711 0 -0.20554090465477151 0.1565351911092088 0 -0.21285482626407809 0.14163817146109711 0 -0.20387002238405871 0.14791341403863709 0 -0.19934540910989601 0.1426785033902449 0 -0.21285482626407809 0.14163817146109711 0 -0.20387002238405871 0.14791341403863709 0 -0.25506580223295128 0.2411487079232523 0 -0.22878806516315511 0.2685138469506857 0 -0.2266261490060209 0.23718233066332961 0 -0.25506580223295128 0.2411487079232523 0 -0.2266261490060209 0.23718233066332961 0 -0.25506580223295128 0.2411487079232523 0 -0.2266261490060209 0.23718233066332961 0 -0.2468004677473643 0.2170241222054746 0 -0.2266261490060209 0.23718233066332961 0 -0.22949466004058791 0.21162706524888131 0 -0.2468004677473643 0.2170241222054746 0 -0.2266261490060209 0.23718233066332961 0 -0.22949466004058791 0.21162706524888131 0 -0.21213350641915921 0.21356770154732929 0 -0.22949466004058791 0.21162706524888131 0 -0.22331281472981479 0.19941002739074351 0 -0.21213350641915921 0.21356770154732929 0 -0.22949466004058791 0.21162706524888131 0 -0.2468004677473643 0.2170241222054746 0 -0.2386003623005804 0.1909511444375297 0 -0.25748109765676452 0.1974555209482948 0 -0.2468004677473643 0.2170241222054746 0 -0.2386003623005804 0.1909511444375297 0 -0.22308819977325281 0.18659374417030769 0 -0.2386003623005804 0.1909511444375297 0 -0.22331281472981479 0.19941002739074351 0 -0.22949466004058791 0.21162706524888131 0 -0.2386003623005804 0.1909511444375297 0 -0.22331281472981479 0.19941002739074351 0 -0.22308819977325281 0.18659374417030769 0 -0.22331281472981479 0.19941002739074351 0 -0.2108581259532305 0.196433072052736 0 -0.22331281472981479 0.19941002739074351 0 -0.2108581259532305 0.196433072052736 0 -0.21213350641915921 0.21356770154732929 0 -0.22308819977325281 0.18659374417030769 0 -0.2103796186657253 0.1853612412272814 0 -0.2108581259532305 0.196433072052736 0 -0.2103796186657253 0.1853612412272814 0 -0.2108581259532305 0.196433072052736 0 -0.1992939194676506 0.1903166279343825 0 -0.1992939194676506 0.1903166279343825 0 -0.1967230449097693 0.20663769063286269 0 -0.18724598743461859 0.19531615205254291 0 -0.1967230449097693 0.20663769063286269 0 -0.17875346917220061 0.20567825849763621 0 -0.18724598743461859 0.19531615205254291 0 -0.2108581259532305 0.196433072052736 0 -0.1992939194676506 0.1903166279343825 0 -0.1967230449097693 0.20663769063286269 0 -0.1913619921142618 0.1789926325341126 0 -0.1992939194676506 0.1903166279343825 0 -0.18724598743461859 0.19531615205254291 0 -0.1967230449097693 0.20663769063286269 0 -0.19993589619397911 0.22910899884796551 0 -0.1848750582098124 0.21746278525882101 0 -0.1967230449097693 0.20663769063286269 0 -0.21213350641915921 0.21356770154732929 0 -0.19993589619397911 0.22910899884796551 0 -0.2108581259532305 0.196433072052736 0 -0.1967230449097693 0.20663769063286269 0 -0.21213350641915921 0.21356770154732929 0 -0.2266261490060209 0.23718233066332961 0 -0.21213350641915921 0.21356770154732929 0 -0.19993589619397911 0.22910899884796551 0 -0.19993589619397911 0.22910899884796551 0 -0.17793159131783359 0.23200491972590259 0 -0.1848750582098124 0.21746278525882101 0 -0.19993589619397911 0.22910899884796551 0 -0.1889614215909477 0.24853840731164881 0 -0.17793159131783359 0.23200491972590259 0 -0.19993589619397911 0.22910899884796551 0 -0.1889614215909477 0.24853840731164881 0 -0.2095201173771308 0.2492192741355776 0 -0.2266261490060209 0.23718233066332961 0 -0.19993589619397911 0.22910899884796551 0 -0.2095201173771308 0.2492192741355776 0 -0.16334453339397681 0.24964550431787491 0 -0.17793159131783359 0.23200491972590259 0 -0.15683144258976339 0.232164263883782 0 -0.1889614215909477 0.24853840731164881 0 -0.16334453339397681 0.24964550431787491 0 -0.17793159131783359 0.23200491972590259 0 -0.17793159131783359 0.23200491972590259 0 -0.1678176945900057 0.21406341804545731 0 -0.1848750582098124 0.21746278525882101 0 -0.17793159131783359 0.23200491972590259 0 -0.15683144258976339 0.232164263883782 0 -0.1678176945900057 0.21406341804545731 0 -0.15683144258976339 0.232164263883782 0 -0.1678176945900057 0.21406341804545731 0 -0.14883303090415989 0.21091846879332821 0 -0.1678176945900057 0.21406341804545731 0 -0.17009751150921079 0.19495555066372039 0 -0.14883303090415989 0.21091846879332821 0 -0.1967230449097693 0.20663769063286269 0 -0.17875346917220061 0.20567825849763621 0 -0.1848750582098124 0.21746278525882101 0 -0.1678176945900057 0.21406341804545731 0 -0.17875346917220061 0.20567825849763621 0 -0.1848750582098124 0.21746278525882101 0 -0.1678176945900057 0.21406341804545731 0 -0.17875346917220061 0.20567825849763621 0 -0.17009751150921079 0.19495555066372039 0 -0.17875346917220061 0.20567825849763621 0 -0.18724598743461859 0.19531615205254291 0 -0.17009751150921079 0.19495555066372039 0 -0.1913619921142618 0.1789926325341126 0 -0.18724598743461859 0.19531615205254291 0 -0.17009751150921079 0.19495555066372039 0 -0.17009751150921079 0.19495555066372039 0 -0.15523893101018069 0.1967384745022755 0 -0.14883303090415989 0.21091846879332821 0 -0.17009751150921079 0.19495555066372039 0 -0.14883303090415989 0.21091846879332821 0 -0.17009751150921079 0.19495555066372039 0 -0.15523893101018069 0.1967384745022755 0 -0.16191825358189499 0.18373898964266311 0 -0.1401069280454568 0.19734088890939019 0 -0.16191825358189499 0.18373898964266311 0 -0.1401069280454568 0.19734088890939019 0 -0.16191825358189499 0.18373898964266311 0 -0.1471921085790189 0.1823677290377482 0 -0.15523893101018069 0.1967384745022755 0 -0.1401069280454568 0.19734088890939019 0 -0.16191825358189499 0.18373898964266311 0 -0.15523893101018069 0.1967384745022755 0 -0.1401069280454568 0.19734088890939019 0 -0.14883303090415989 0.21091846879332821 0 -0.1401069280454568 0.19734088890939019 0 -0.1471921085790189 0.1823677290377482 0 -0.13497535261431151 0.18475955556681181 0 -0.1401069280454568 0.19734088890939019 0 -0.1182956025090177 0.21094278817611581 0 -0.1232305665896709 0.19135488313375221 0 -0.1401069280454568 0.19734088890939019 0 -0.13497535261431151 0.18475955556681181 0 -0.1232305665896709 0.19135488313375221 0 -0.13356448223136139 0.21113847507904329 0 -0.12756855029910899 0.22688138692293611 0 -0.1182956025090177 0.21094278817611581 0 -0.1401069280454568 0.19734088890939019 0 -0.1182956025090177 0.21094278817611581 0 -0.13356448223136139 0.21113847507904329 0 -0.14883303090415989 0.21091846879332821 0 -0.12756855029910899 0.22688138692293611 0 -0.1401069280454568 0.19734088890939019 0 -0.13356448223136139 0.21113847507904329 0 -0.1182956025090177 0.21094278817611581 0 -0.1401069280454568 0.19734088890939019 0 -0.13356448223136139 0.21113847507904329 0 -0.14883303090415989 0.21091846879332821 0 -0.15683144258976339 0.232164263883782 0 -0.14883303090415989 0.21091846879332821 0 -0.14283952314335821 0.22874758550535079 0 -0.14883303090415989 0.21091846879332821 0 -0.12756855029910899 0.22688138692293611 0 -0.14883303090415989 0.21091846879332821 0 -0.14283952314335821 0.22874758550535079 0 -0.12756855029910899 0.22688138692293611 0 -0.14283952314335821 0.22874758550535079 0 -0.12756855029910899 0.22688138692293611 0 -0.13812506878039979 0.24502622242135749 0 -0.12756855029910899 0.22688138692293611 0 -0.13812506878039979 0.24502622242135749 0 -0.12756855029910899 0.22688138692293611 0 -0.13812506878039979 0.24502622242135749 0 -0.12460886415576621 0.23840672336615451 0 -0.13812506878039979 0.24502622242135749 0 -0.1222394844647914 0.24910471079974431 0 -0.12460886415576621 0.23840672336615451 0 -0.15683144258976339 0.232164263883782 0 -0.14283952314335821 0.22874758550535079 0 -0.13812506878039979 0.24502622242135749 0 -0.16334453339397681 0.24964550431787491 0 -0.15683144258976339 0.232164263883782 0 -0.13812506878039979 0.24502622242135749 0 -0.17533207119336339 0.1540093093632314 0 -0.16712289737125999 0.16456723843089521 0 -0.15557747197953359 0.14847168223728929 0 -0.16928959433972349 0.1376361882349518 0 -0.17533207119336339 0.1540093093632314 0 -0.15557747197953359 0.14847168223728929 0 -0.17227763584428141 0.1189777916361318 0 -0.16928959433972349 0.1376361882349518 0 -0.1493976711257016 0.12641162965511921 0 -0.16928959433972349 0.1376361882349518 0 -0.15557747197953359 0.14847168223728929 0 -0.1493976711257016 0.12641162965511921 0 -0.17227763584428141 0.1189777916361318 0 -0.16928959433972349 0.1376361882349518 0 -0.18001056856736669 0.12972871477387871 0 -0.16928959433972349 0.1376361882349518 0 -0.18001056856736669 0.12972871477387871 0 -0.18612008828178939 0.14340805299568099 0 -0.1892732801653953 0.1153091945389728 0 -0.19220600597646201 0.13131519097441319 0 -0.18001056856736669 0.12972871477387871 0 -0.19220600597646201 0.13131519097441319 0 -0.18001056856736669 0.12972871477387871 0 -0.18612008828178939 0.14340805299568099 0 -0.16928959433972349 0.1376361882349518 0 -0.18612008828178939 0.14340805299568099 0 -0.17533207119336339 0.1540093093632314 0 -0.19014692523711449 0.15613890059016411 0 -0.18612008828178939 0.14340805299568099 0 -0.17533207119336339 0.1540093093632314 0 -0.19014692523711449 0.15613890059016411 0 -0.17533207119336339 0.1540093093632314 0 -0.17989107517639111 0.16110468703480441 0 -0.17989107517639111 0.16110468703480441 0 -0.18372957911833329 0.17013709037593591 0 -0.16712289737125999 0.16456723843089521 0 -0.19014692523711449 0.15613890059016411 0 -0.17989107517639111 0.16110468703480441 0 -0.18372957911833329 0.17013709037593591 0 -0.17533207119336339 0.1540093093632314 0 -0.17989107517639111 0.16110468703480441 0 -0.16712289737125999 0.16456723843089521 0 -0.18372957911833329 0.17013709037593591 0 -0.16191825358189499 0.18373898964266311 0 -0.1913619921142618 0.1789926325341126 0 -0.17009751150921079 0.19495555066372039 0 -0.18372957911833329 0.17013709037593591 0 -0.17601279298496461 0.1820515631294424 0 -0.16191825358189499 0.18373898964266311 0 -0.1913619921142618 0.1789926325341126 0 -0.17009751150921079 0.19495555066372039 0 -0.17601279298496461 0.1820515631294424 0 -0.1913619921142618 0.1789926325341126 0 -0.18372957911833329 0.17013709037593591 0 -0.17601279298496461 0.1820515631294424 0 -0.16191825358189499 0.18373898964266311 0 -0.16712289737125999 0.16456723843089521 0 -0.15452428370892191 0.1728591506621836 0 -0.18372957911833329 0.17013709037593591 0 -0.16191825358189499 0.18373898964266311 0 -0.16712289737125999 0.16456723843089521 0 -0.17009751150921079 0.19495555066372039 0 -0.17601279298496461 0.1820515631294424 0 -0.16191825358189499 0.18373898964266311 0 -0.16712289737125999 0.16456723843089521 0 -0.1516613886293687 0.16198787634327319 0 -0.15557747197953359 0.14847168223728929 0 -0.16712289737125999 0.16456723843089521 0 -0.1516613886293687 0.16198787634327319 0 -0.15452428370892191 0.1728591506621836 0 -0.1516613886293687 0.16198787634327319 0 -0.14221186206667871 0.1720858131313184 0 -0.13384061138767339 0.15285928380463959 0 -0.1516613886293687 0.16198787634327319 0 -0.15452428370892191 0.1728591506621836 0 -0.14221186206667871 0.1720858131313184 0 -0.16191825358189499 0.18373898964266311 0 -0.15452428370892191 0.1728591506621836 0 -0.1471921085790189 0.1823677290377482 0 -0.15452428370892191 0.1728591506621836 0 -0.14221186206667871 0.1720858131313184 0 -0.1471921085790189 0.1823677290377482 0 -0.14221186206667871 0.1720858131313184 0 -0.1471921085790189 0.1823677290377482 0 -0.13497535261431151 0.18475955556681181 0 -0.14221186206667871 0.1720858131313184 0 -0.13497535261431151 0.18475955556681181 0 -0.12620640114624179 0.17481171848623989 0 -0.13497535261431151 0.18475955556681181 0 -0.12620640114624179 0.17481171848623989 0 -0.1232305665896709 0.19135488313375221 0 -0.14221186206667871 0.1720858131313184 0 -0.12620640114624179 0.17481171848623989 0 -0.13384061138767339 0.15285928380463959 0 -0.12620640114624179 0.17481171848623989 0 -0.13384061138767339 0.15285928380463959 0 -0.1210899227503185 0.16154960773464269 0 -0.1516613886293687 0.16198787634327319 0 -0.13384061138767339 0.15285928380463959 0 -0.15557747197953359 0.14847168223728929 0 -0.13384061138767339 0.15285928380463959 0 -0.15557747197953359 0.14847168223728929 0 -0.14330729280698551 0.14042857911042961 0 -0.15557747197953359 0.14847168223728929 0 -0.1493976711257016 0.12641162965511921 0 -0.14330729280698551 0.14042857911042961 0 -0.1493976711257016 0.12641162965511921 0 -0.14330729280698551 0.14042857911042961 0 -0.12421186667326629 0.12701614479988779 0 -0.13384061138767339 0.15285928380463959 0 -0.14330729280698551 0.14042857911042961 0 -0.12421186667326629 0.12701614479988779 0 -0.12421186667326629 0.12701614479988779 0 -0.099111108217919353 0.13324881416006179 0 -0.11124411524967991 0.14962948917731669 0 -0.12421186667326629 0.12701614479988779 0 -0.11124411524967991 0.14962948917731669 0 -0.12421186667326629 0.12701614479988779 0 -0.099111108217919353 0.13324881416006179 0 -0.10023674445333861 0.1155361956819236 0 -0.11124411524967991 0.14962948917731669 0 -0.089978278137391704 0.1579028492531786 0 -0.091701373076472165 0.14481716264799921 0 -0.099111108217919353 0.13324881416006179 0 -0.11124411524967991 0.14962948917731669 0 -0.091701373076472165 0.14481716264799921 0 -0.13384061138767339 0.15285928380463959 0 -0.12421186667326629 0.12701614479988779 0 -0.11124411524967991 0.14962948917731669 0 -0.13384061138767339 0.15285928380463959 0 -0.11124411524967991 0.14962948917731669 0 -0.1210899227503185 0.16154960773464269 0 -0.11124411524967991 0.14962948917731669 0 -0.1210899227503185 0.16154960773464269 0 -0.1122481878976704 0.16943639698454849 0 -0.12620640114624179 0.17481171848623989 0 -0.1210899227503185 0.16154960773464269 0 -0.1122481878976704 0.16943639698454849 0 -0.12620640114624179 0.17481171848623989 0 -0.1114335670784647 0.18330459381191211 0 -0.1232305665896709 0.19135488313375221 0 -0.1122481878976704 0.16943639698454849 0 -0.1114335670784647 0.18330459381191211 0 -0.10556216789682819 0.17624475895690189 0 -0.12620640114624179 0.17481171848623989 0 -0.1122481878976704 0.16943639698454849 0 -0.1114335670784647 0.18330459381191211 0 -0.098276363826093574 0.17224283355474551 0 -0.1002905527850841 0.17999521147640171 0 -0.085308612402507214 0.1948561779321743 0 -0.1114335670784647 0.18330459381191211 0 -0.10556216789682819 0.17624475895690189 0 -0.1002905527850841 0.17999521147640171 0 -0.1114335670784647 0.18330459381191211 0 -0.1002905527850841 0.17999521147640171 0 -0.1092930776470509 0.19546899982625879 0 -0.1122481878976704 0.16943639698454849 0 -0.10556216789682819 0.17624475895690189 0 -0.098276363826093574 0.17224283355474551 0 -0.10556216789682819 0.17624475895690189 0 -0.098276363826093574 0.17224283355474551 0 -0.1002905527850841 0.17999521147640171 0 -0.11124411524967991 0.14962948917731669 0 -0.1122481878976704 0.16943639698454849 0 -0.098276363826093574 0.17224283355474551 0 -0.11124411524967991 0.14962948917731669 0 -0.098276363826093574 0.17224283355474551 0 -0.11124411524967991 0.14962948917731669 0 -0.098276363826093574 0.17224283355474551 0 -0.089978278137391704 0.1579028492531786 0 -0.089978278137391704 0.1579028492531786 0 -0.084790080109471269 0.1735767488579523 0 -0.073236644846952512 0.1581952149148069 0 -0.098276363826093574 0.17224283355474551 0 -0.089978278137391704 0.1579028492531786 0 -0.084790080109471269 0.1735767488579523 0 -0.098276363826093574 0.17224283355474551 0 -0.085308612402507214 0.1948561779321743 0 -0.098276363826093574 0.17224283355474551 0 -0.08530912347887562 0.1809246403175121 0 -0.085308612402507214 0.1948561779321743 0 -0.098276363826093574 0.17224283355474551 0 -0.084790080109471269 0.1735767488579523 0 -0.08530912347887562 0.1809246403175121 0 -0.084790080109471269 0.1735767488579523 0 -0.08530912347887562 0.1809246403175121 0 -0.072861437577431659 0.18302280092517631 0 -0.084790080109471269 0.1735767488579523 0 -0.072861437577431659 0.18302280092517631 0 -0.08530912347887562 0.1809246403175121 0 -0.072861437577431659 0.18302280092517631 0 -0.085308612402507214 0.1948561779321743 0 -0.070886810071477041 0.18458646872598061 0 -0.072133971034981773 0.16500626563208851 0 -0.070886810071477041 0.18458646872598061 0 -0.072861437577431659 0.18302280092517631 0 -0.072133971034981773 0.16500626563208851 0 -0.070886810071477041 0.18458646872598061 0 -0.064965814605749725 0.1738851860021679 0 -0.072133971034981773 0.16500626563208851 0 -0.070886810071477041 0.18458646872598061 0 -0.072861437577431659 0.18302280092517631 0 -0.070886810071477041 0.18458646872598061 0 -0.064965814605749725 0.1738851860021679 0 -0.057834487212098551 0.18117340186791631 0 -0.072861437577431659 0.18302280092517631 0 -0.073236644846952512 0.1581952149148069 0 -0.072133971034981773 0.16500626563208851 0 -0.072861437577431659 0.18302280092517631 0 -0.073236644846952512 0.1581952149148069 0 -0.084790080109471269 0.1735767488579523 0 -0.072861437577431659 0.18302280092517631 0 -0.073236644846952512 0.1581952149148069 0 -0.072133971034981773 0.16500626563208851 0 -0.065226821557646572 0.16702852179112579 0 -0.065081140041862953 0.16088227616776621 0 -0.064965814605749725 0.1738851860021679 0 -0.072133971034981773 0.16500626563208851 0 -0.065226821557646572 0.16702852179112579 0 -0.064965814605749725 0.1738851860021679 0 -0.065226821557646572 0.16702852179112579 0 -0.058726360547991831 0.1683403593624806 0 -0.065226821557646572 0.16702852179112579 0 -0.065081140041862953 0.16088227616776621 0 -0.058726360547991831 0.1683403593624806 0 -0.073236644846952512 0.1581952149148069 0 -0.065081140041862953 0.16088227616776621 0 -0.064796278182968362 0.1533225517562459 0 -0.073236644846952512 0.1581952149148069 0 -0.072133971034981773 0.16500626563208851 0 -0.065081140041862953 0.16088227616776621 0 -0.073236644846952512 0.1581952149148069 0 -0.073611852116476376 0.13336762890443751 0 -0.081968658702550171 0.14628619266089249 0 -0.073236644846952512 0.1581952149148069 0 -0.064796278182968362 0.1533225517562459 0 -0.066231836376495989 0.1457384304010319 0 -0.073236644846952512 0.1581952149148069 0 -0.073611852116476376 0.13336762890443751 0 -0.065081140041862953 0.16088227616776621 0 -0.064796278182968362 0.1533225517562459 0 -0.059681974115544663 0.154184337292602 0 -0.073236644846952512 0.1581952149148069 0 -0.066231836376495989 0.1457384304010319 0 -0.073611852116476376 0.13336762890443751 0 -0.064796278182968362 0.1533225517562459 0 -0.066231836376495989 0.1457384304010319 0 -0.059965692205663237 0.14786138590479511 0 -0.066231836376495989 0.1457384304010319 0 -0.062616174441613368 0.13948154138884569 0 -0.059965692205663237 0.14786138590479511 0 -0.062616174441613368 0.13948154138884569 0 -0.073611852116476376 0.13336762890443751 0 -0.060124791069678322 0.12674870044246789 0 -0.066231836376495989 0.1457384304010319 0 -0.062616174441613368 0.13948154138884569 0 -0.073611852116476376 0.13336762890443751 0 -0.073611852116476376 0.13336762890443751 0 -0.060124791069678322 0.12674870044246789 0 -0.073611852116476376 0.13336762890443751 0 -0.081315145335459915 0.1371481075840405 0 -0.099111108217919353 0.13324881416006179 0 -0.081315145335459915 0.1371481075840405 0 -0.084165628347530691 0.1216012723361324 0 -0.073611852116476376 0.13336762890443751 0 -0.081315145335459915 0.1371481075840405 0 -0.081968658702550171 0.14628619266089249 0 -0.099111108217919353 0.13324881416006179 0 -0.081315145335459915 0.1371481075840405 0 -0.091701373076472165 0.14481716264799921 0 -0.073611852116476376 0.13336762890443751 0 -0.081315145335459915 0.1371481075840405 0 -0.084165628347530691 0.1216012723361324 0 -0.089978278137391704 0.1579028492531786 0 -0.073236644846952512 0.1581952149148069 0 -0.081968658702550171 0.14628619266089249 0 -0.089978278137391704 0.1579028492531786 0 -0.091701373076472165 0.14481716264799921 0 -0.081968658702550171 0.14628619266089249 0 -0.081315145335459915 0.1371481075840405 0 -0.091701373076472165 0.14481716264799921 0 -0.081968658702550171 0.14628619266089249 0 -0.1050285266412795 0.2360918941337975 0 -0.095250642176439193 0.22970785869457641 0 -0.087452885363448682 0.24508730646051219 0 -0.102842594246254 0.25433061782129768 0 -0.1050285266412795 0.2360918941337975 0 -0.102842594246254 0.25433061782129768 0 -0.1050285266412795 0.2360918941337975 0 -0.087452885363448682 0.24508730646051219 0 -0.102842594246254 0.25433061782129768 0 -0.1050285266412795 0.2360918941337975 0 -0.1118085010851831 0.24786095545684919 0 -0.102842594246254 0.25433061782129768 0 -0.087452885363448682 0.24508730646051219 0 -0.1118085010851831 0.24786095545684919 0 -0.1222394844647914 0.24910471079974431 0 -0.11525780449241479 0.2389413595002424 0 -0.12460886415576621 0.23840672336615451 0 -0.11525780449241479 0.2389413595002424 0 -0.12220325508004611 0.2309090314214681 0 -0.1222394844647914 0.24910471079974431 0 -0.12460886415576621 0.23840672336615451 0 -0.11525780449241479 0.2389413595002424 0 -0.1050285266412795 0.2360918941337975 0 -0.1118085010851831 0.24786095545684919 0 -0.11525780449241479 0.2389413595002424 0 -0.1050285266412795 0.2360918941337975 0 -0.11525780449241479 0.2389413595002424 0 -0.11341197441115319 0.22919240743712249 0 -0.11525780449241479 0.2389413595002424 0 -0.11341197441115319 0.22919240743712249 0 -0.12220325508004611 0.2309090314214681 0 -0.12756855029910899 0.22688138692293611 0 -0.1173558268057238 0.2221665816838076 0 -0.1182956025090177 0.21094278817611581 0 -0.12756855029910899 0.22688138692293611 0 -0.1182956025090177 0.21094278817611581 0 -0.12756855029910899 0.22688138692293611 0 -0.12460886415576621 0.23840672336615451 0 -0.12220325508004611 0.2309090314214681 0 -0.12756855029910899 0.22688138692293611 0 -0.12220325508004611 0.2309090314214681 0 -0.1173558268057238 0.2221665816838076 0 -0.11341197441115319 0.22919240743712249 0 -0.12220325508004611 0.2309090314214681 0 -0.1173558268057238 0.2221665816838076 0 -0.12756855029910899 0.22688138692293611 0 -0.12220325508004611 0.2309090314214681 0 -0.11341197441115319 0.22919240743712249 0 -0.1173558268057238 0.2221665816838076 0 -0.1072144590363005 0.21785317044629679 0 -0.1050285266412795 0.2360918941337975 0 -0.11341197441115319 0.22919240743712249 0 -0.1072144590363005 0.21785317044629679 0 -0.1050285266412795 0.2360918941337975 0 -0.10267731332775221 0.220682608702261 0 -0.1072144590363005 0.21785317044629679 0 -0.1050285266412795 0.2360918941337975 0 -0.1072144590363005 0.21785317044629679 0 -0.10267731332775221 0.220682608702261 0 -0.1072144590363005 0.21785317044629679 0 -0.1050285266412795 0.2360918941337975 0 -0.10267731332775221 0.220682608702261 0 -0.095250642176439193 0.22970785869457641 0 -0.10267731332775221 0.220682608702261 0 -0.095250642176439193 0.22970785869457641 0 -0.094259816047653433 0.21928184831196251 0 -0.094259816047653433 0.21928184831196251 0 -0.1011449759193724 0.2145058812118793 0 -0.094300442999850562 0.2080855298693351 0 -0.10267731332775221 0.220682608702261 0 -0.094259816047653433 0.21928184831196251 0 -0.1011449759193724 0.2145058812118793 0 -0.094300442999850562 0.2080855298693351 0 -0.10464013083611361 0.20442823453392339 0 -0.097441330834569018 0.2000694943071275 0 -0.1011449759193724 0.2145058812118793 0 -0.094300442999850562 0.2080855298693351 0 -0.1029725979426457 0.21009124390094419 0 -0.094300442999850562 0.2080855298693351 0 -0.10464013083611361 0.20442823453392339 0 -0.1029725979426457 0.21009124390094419 0 -0.10464013083611361 0.20442823453392339 0 -0.1029725979426457 0.21009124390094419 0 -0.1076692534659168 0.21405851057701011 0 -0.1011449759193724 0.2145058812118793 0 -0.1029725979426457 0.21009124390094419 0 -0.1076692534659168 0.21405851057701011 0 -0.1011449759193724 0.2145058812118793 0 -0.1076692534659168 0.21405851057701011 0 -0.1072144590363005 0.21785317044629679 0 -0.10267731332775221 0.220682608702261 0 -0.1011449759193724 0.2145058812118793 0 -0.1072144590363005 0.21785317044629679 0 -0.1076692534659168 0.21405851057701011 0 -0.1072144590363005 0.21785317044629679 0 -0.1173558268057238 0.2221665816838076 0 -0.1072144590363005 0.21785317044629679 0 -0.1182956025090177 0.21094278817611581 0 -0.1072144590363005 0.21785317044629679 0 -0.1182956025090177 0.21094278817611581 0 -0.1076692534659168 0.21405851057701011 0 -0.1072144590363005 0.21785317044629679 0 -0.1182956025090177 0.21094278817611581 0 -0.10464013083611361 0.20442823453392339 0 -0.1076692534659168 0.21405851057701011 0 -0.1182956025090177 0.21094278817611581 0 -0.1182956025090177 0.21094278817611581 0 -0.1092930776470509 0.19546899982625879 0 -0.10464013083611361 0.20442823453392339 0 -0.1182956025090177 0.21094278817611581 0 -0.1092930776470509 0.19546899982625879 0 -0.1182956025090177 0.21094278817611581 0 -0.1232305665896709 0.19135488313375221 0 -0.1092930776470509 0.19546899982625879 0 -0.1114335670784647 0.18330459381191211 0 -0.1232305665896709 0.19135488313375221 0 -0.1092930776470509 0.19546899982625879 0 -0.1002905527850841 0.17999521147640171 0 -0.1092930776470509 0.19546899982625879 0 -0.1002905527850841 0.17999521147640171 0 -0.1092930776470509 0.19546899982625879 0 -0.097960232794951071 0.1927343454253026 0 -0.10464013083611361 0.20442823453392339 0 -0.1092930776470509 0.19546899982625879 0 -0.097441330834569018 0.2000694943071275 0 -0.1092930776470509 0.19546899982625879 0 -0.097441330834569018 0.2000694943071275 0 -0.097960232794951071 0.1927343454253026 0 -0.1002905527850841 0.17999521147640171 0 -0.097960232794951071 0.1927343454253026 0 -0.085308612402507214 0.1948561779321743 0 -0.094300442999850562 0.2080855298693351 0 -0.097441330834569018 0.2000694943071275 0 -0.085308612402507214 0.1948561779321743 0 -0.097441330834569018 0.2000694943071275 0 -0.097960232794951071 0.1927343454253026 0 -0.085308612402507214 0.1948561779321743 0 -0.072861437577431659 0.18302280092517631 0 -0.085308612402507214 0.1948561779321743 0 -0.072601149278172558 0.2002461616173889 0 -0.072861437577431659 0.18302280092517631 0 -0.072601149278172558 0.2002461616173889 0 -0.070886810071477041 0.18458646872598061 0 -0.069617870865747625 0.204508586310678 0 -0.060715469893597773 0.20404579614692819 0 -0.070886810071477041 0.18458646872598061 0 -0.072601149278172558 0.2002461616173889 0 -0.069617870865747625 0.204508586310678 0 -0.070886810071477041 0.18458646872598061 0 -0.072861437577431659 0.18302280092517631 0 -0.072601149278172558 0.2002461616173889 0 -0.070886810071477041 0.18458646872598061 0 -0.069617870865747625 0.204508586310678 0 -0.069617870865747625 0.204508586310678 0 -0.06419586367155157 0.21368414470549851 0 -0.068348931660017362 0.22443070389537539 0 -0.072601149278172558 0.2002461616173889 0 -0.069617870865747625 0.204508586310678 0 -0.072340860978918176 0.21746952230960159 0 -0.069617870865747625 0.204508586310678 0 -0.072340860978918176 0.21746952230960159 0 -0.068348931660017362 0.22443070389537539 0 -0.072601149278172558 0.2002461616173889 0 -0.072340860978918176 0.21746952230960159 0 -0.069617870865747625 0.204508586310678 0 -0.068348931660017362 0.22443070389537539 0 -0.085308612402507214 0.1948561779321743 0 -0.072601149278172558 0.2002461616173889 0 -0.072340860978918176 0.21746952230960159 0 -0.069617870865747625 0.204508586310678 0 -0.06419586367155157 0.21368414470549851 0 -0.060715469893597773 0.20404579614692819 0 -0.072340860978918176 0.21746952230960159 0 -0.086012329961777309 0.2129013550117583 0 -0.083851917379960589 0.22481369663571821 0 -0.085308612402507214 0.1948561779321743 0 -0.072340860978918176 0.21746952230960159 0 -0.086012329961777309 0.2129013550117583 0 -0.085308612402507214 0.1948561779321743 0 -0.072340860978918176 0.21746952230960159 0 -0.094300442999850562 0.2080855298693351 0 -0.085308612402507214 0.1948561779321743 0 -0.086012329961777309 0.2129013550117583 0 -0.094259816047653433 0.21928184831196251 0 -0.094300442999850562 0.2080855298693351 0 -0.086012329961777309 0.2129013550117583 0 -0.095250642176439193 0.22970785869457641 0 -0.094259816047653433 0.21928184831196251 0 -0.083851917379960589 0.22481369663571821 0 -0.094259816047653433 0.21928184831196251 0 -0.086012329961777309 0.2129013550117583 0 -0.083851917379960589 0.22481369663571821 0 -0.095250642176439193 0.22970785869457641 0 -0.085601626604734873 0.23397967397568331 0 -0.083851917379960589 0.22481369663571821 0 -0.085601626604734873 0.23397967397568331 0 -0.083851917379960589 0.22481369663571821 0 -0.072063176480647501 0.2358439950997199 0 -0.072340860978918176 0.21746952230960159 0 -0.083851917379960589 0.22481369663571821 0 -0.072063176480647501 0.2358439950997199 0 -0.072340860978918176 0.21746952230960159 0 -0.068348931660017362 0.22443070389537539 0 -0.072063176480647501 0.2358439950997199 0 -0.072340860978918176 0.21746952230960159 0 -0.072063176480647501 0.2358439950997199 0 -0.072340860978918176 0.21746952230960159 0 -0.068348931660017362 0.22443070389537539 0 -0.06419586367155157 0.21368414470549851 0 -0.068348931660017362 0.22443070389537539 0 -0.059840474930323823 0.22850284024357079 0 -0.068348931660017362 0.22443070389537539 0 -0.064432220983191957 0.2312607181722294 0 -0.067785605962976225 0.23327481614619339 0 -0.068348931660017362 0.22443070389537539 0 -0.067785605962976225 0.23327481614619339 0 -0.072063176480647501 0.2358439950997199 0 -0.068348931660017362 0.22443070389537539 0 -0.064432220983191957 0.2312607181722294 0 -0.059840474930323823 0.22850284024357079 0 -0.068348931660017362 0.22443070389537539 0 -0.067785605962976225 0.23327481614619339 0 -0.064432220983191957 0.2312607181722294 0 -0.067785605962976225 0.23327481614619339 0 -0.068348931660017362 0.22443070389537539 0 -0.064432220983191957 0.2312607181722294 0 -0.066231629469996861 0.25767196793819719 0 -0.067785605962976225 0.23327481614619339 0 -0.072063176480647501 0.2358439950997199 0 -0.071727761108341045 0.25803853844034602 0 -0.072063176480647501 0.2358439950997199 0 -0.071727761108341045 0.25803853844034602 0 -0.072063176480647501 0.2358439950997199 0 -0.079546297441093719 0.2495057666221675 0 -0.066231629469996861 0.25767196793819719 0 -0.067785605962976225 0.23327481614619339 0 -0.067785605962976225 0.23327481614619339 0 -0.072063176480647501 0.2358439950997199 0 -0.072063176480647501 0.2358439950997199 0 -0.079546297441093719 0.2495057666221675 0 -0.087452885363448682 0.24508730646051219 0 -0.072063176480647501 0.2358439950997199 0 -0.087452885363448682 0.24508730646051219 0 -0.085601626604734873 0.23397967397568331 0 -0.072063176480647501 0.2358439950997199 0 -0.087452885363448682 0.24508730646051219 0 -0.095250642176439193 0.22970785869457641 0 -0.085601626604734873 0.23397967397568331 0 -0.087452885363448682 0.24508730646051219 0 -0.037653780083210062 0.24501718422763991 0 -0.045859901114375858 0.2437248156932848 0 -0.04817642933439191 0.23441196801452291 0 -0.037653780083210062 0.24501718422763991 0 -0.045859901114375858 0.2437248156932848 0 -0.045441256962230947 0.25037256953796999 0 -0.037653780083210062 0.24501718422763991 0 -0.045859901114375858 0.2437248156932848 0 -0.053349919069790662 0.25058618960334778 0 -0.045859901114375858 0.2437248156932848 0 -0.04817642933439191 0.23441196801452291 0 -0.053349919069790662 0.25058618960334778 0 -0.064432220983191957 0.2312607181722294 0 -0.059840474930323823 0.22850284024357079 0 -0.053349919069790662 0.25058618960334778 0 -0.04817642933439191 0.23441196801452291 0 -0.059840474930323823 0.22850284024357079 0 -0.053349919069790662 0.25058618960334778 0 -0.064432220983191957 0.2312607181722294 0 -0.067785605962976225 0.23327481614619339 0 -0.053349919069790662 0.25058618960334778 0 -0.045441256962230947 0.25037256953796999 0 -0.045859901114375858 0.2437248156932848 0 -0.053349919069790662 0.25058618960334778 0 -0.059840474930323823 0.22850284024357079 0 -0.066231629469996861 0.25767196793819719 0 -0.053349919069790662 0.25058618960334778 0 -0.067785605962976225 0.23327481614619339 0 -0.053349919069790662 0.25058618960334778 0 -0.064432220983191957 0.2312607181722294 0 -0.04817642933439191 0.23441196801452291 0 -0.059840474930323823 0.22850284024357079 0 -0.047920294326680567 0.22134338442569829 0 -0.04817642933439191 0.23441196801452291 0 -0.047920294326680567 0.22134338442569829 0 -0.064432220983191957 0.2312607181722294 0 -0.059840474930323823 0.22850284024357079 0 -0.06419586367155157 0.21368414470549851 0 -0.059840474930323823 0.22850284024357079 0 -0.059840474930323823 0.22850284024357079 0 -0.047920294326680567 0.22134338442569829 0 -0.059840474930323823 0.22850284024357079 0 -0.047920294326680567 0.22134338442569829 0 -0.055616627692797287 0.2141508284097485 0 -0.04817642933439191 0.23441196801452291 0 -0.047920294326680567 0.22134338442569829 0 -0.03887025106756288 0.2159077801326135 0 -0.037653780083210062 0.24501718422763991 0 -0.04817642933439191 0.23441196801452291 0 -0.030437865505320041 0.21661717426603011 0 -0.04817642933439191 0.23441196801452291 0 -0.03887025106756288 0.2159077801326135 0 -0.030437865505320041 0.21661717426603011 0 -0.037653780083210062 0.24501718422763991 0 -0.030437865505320041 0.21661717426603011 0 -0.047561894117250231 0.2030570004713578 0 -0.030437865505320041 0.21661717426603011 0 -0.047561894117250231 0.2030570004713578 0 -0.026258654167241529 0.20016885820686159 0 -0.030437865505320041 0.21661717426603011 0 -0.03887025106756288 0.2159077801326135 0 -0.047561894117250231 0.2030570004713578 0 -0.030437865505320041 0.21661717426603011 0 -0.047920294326680567 0.22134338442569829 0 -0.03887025106756288 0.2159077801326135 0 -0.047561894117250231 0.2030570004713578 0 -0.047920294326680567 0.22134338442569829 0 -0.03887025106756288 0.2159077801326135 0 -0.047920294326680567 0.22134338442569829 0 -0.047561894117250231 0.2030570004713578 0 -0.047920294326680567 0.22134338442569829 0 -0.055616627692797287 0.2141508284097485 0 -0.047561894117250231 0.2030570004713578 0 -0.06419586367155157 0.21368414470549851 0 -0.059840474930323823 0.22850284024357079 0 -0.055616627692797287 0.2141508284097485 0 -0.06419586367155157 0.21368414470549851 0 -0.055616627692797287 0.2141508284097485 0 -0.060715469893597773 0.20404579614692819 0 -0.055616627692797287 0.2141508284097485 0 -0.060715469893597773 0.20404579614692819 0 -0.047561894117250231 0.2030570004713578 0 -0.070886810071477041 0.18458646872598061 0 -0.047561894117250231 0.2030570004713578 0 -0.070886810071477041 0.18458646872598061 0 -0.047561894117250231 0.2030570004713578 0 -0.057834487212098551 0.18117340186791631 0 -0.070886810071477041 0.18458646872598061 0 -0.060715469893597773 0.20404579614692819 0 -0.047561894117250231 0.2030570004713578 0 -0.047561894117250231 0.2030570004713578 0 -0.047031556718023608 0.1759979947775942 0 -0.047561894117250231 0.2030570004713578 0 -0.038301196657113373 0.19135333913459021 0 -0.026258654167241529 0.20016885820686159 0 -0.047561894117250231 0.2030570004713578 0 -0.038301196657113373 0.19135333913459021 0 -0.047031556718023608 0.1759979947775942 0 -0.026258654167241529 0.20016885820686159 0 -0.026892462167339311 0.1817316457557826 0 -0.022079442829162878 0.18372054214769321 0 -0.038301196657113373 0.19135333913459021 0 -0.026258654167241529 0.20016885820686159 0 -0.026892462167339311 0.1817316457557826 0 -0.026258654167241529 0.20016885820686159 0 -0.022079442829162878 0.18372054214769321 0 -0.022079442829162878 0.18372054214769321 0 0.0019515735538277489 0.193650941013737 0 -0.026258654167241529 0.20016885820686159 0 -0.022079442829162878 0.18372054214769321 0 0.0019515735538277489 0.193650941013737 0 -0.026258654167241529 0.20016885820686159 0 -0.011073863881731269 0.21211622881038411 0 0.0019515735538277489 0.193650941013737 0 -0.011073863881731269 0.21211622881038411 0 0.0044275860113074939 0.21386206084711071 0 0.0019515735538277489 0.193650941013737 0 -0.026258654167241529 0.20016885820686159 0 -0.011073863881731269 0.21211622881038411 0 -0.030437865505320041 0.21661717426603011 0 -0.026258654167241529 0.20016885820686159 0 -0.030437865505320041 0.21661717426603011 0 -0.037653780083210062 0.24501718422763991 0 -0.030437865505320041 0.21661717426603011 0 -0.023585252023372711 0.23685088894750239 0 -0.030437865505320041 0.21661717426603011 0 -0.0099967432297582287 0.23280408780701989 0 -0.011073863881731269 0.21211622881038411 0 -0.030437865505320041 0.21661717426603011 0 -0.0099967432297582287 0.23280408780701989 0 -0.030437865505320041 0.21661717426603011 0 -0.0099967432297582287 0.23280408780701989 0 -0.023585252023372711 0.23685088894750239 0 -0.011073863881731269 0.21211622881038411 0 -0.0099967432297582287 0.23280408780701989 0 0.0044275860113074939 0.21386206084711071 0 -0.0099967432297582287 0.23280408780701989 0 -0.01368076861047251 0.24879265446303431 0 0.0044831673581638108 0.23823553642762901 0 -0.037653780083210062 0.24501718422763991 0 -0.01368076861047251 0.24879265446303431 0 -0.037653780083210062 0.24501718422763991 0 -0.01368076861047251 0.24879265446303431 0 -0.023585252023372711 0.23685088894750239 0 -0.015069837235323871 0.25425967632940732 0 -0.037653780083210062 0.24501718422763991 0 -0.01368076861047251 0.24879265446303431 0 -0.0099967432297582287 0.23280408780701989 0 -0.01368076861047251 0.24879265446303431 0 -0.023585252023372711 0.23685088894750239 0 -0.043740828784280407 0.14543934000375591 0 -0.046060309714110577 0.13767236211183631 0 -0.048072250444710342 0.14585990920917491 0 -0.043740828784280407 0.14543934000375591 0 -0.042041610320674473 0.14871013503965599 0 -0.038586107094818238 0.14391701110928301 0 -0.043740828784280407 0.14543934000375591 0 -0.038586107094818238 0.14391701110928301 0 -0.046060309714110577 0.13767236211183631 0 -0.043740828784280407 0.14543934000375591 0 -0.046501219318797367 0.14893898908383041 0 -0.042041610320674473 0.14871013503965599 0 -0.043740828784280407 0.14543934000375591 0 -0.046501219318797367 0.14893898908383041 0 -0.048072250444710342 0.14585990920917491 0 -0.039193154407868178 0.1550264695203443 0 -0.042041610320674473 0.14871013503965599 0 -0.038586107094818238 0.14391701110928301 0 -0.046501219318797367 0.14893898908383041 0 -0.039193154407868178 0.1550264695203443 0 -0.042041610320674473 0.14871013503965599 0 -0.039193154407868178 0.1550264695203443 0 -0.038586107094818238 0.14391701110928301 0 -0.030027078542261339 0.15081623959851601 0 -0.039193154407868178 0.1550264695203443 0 -0.03297659533437676 0.16228240742289299 0 -0.030027078542261339 0.15081623959851601 0 -0.038586107094818238 0.14391701110928301 0 -0.031372324914102752 0.13935934277023421 0 -0.030027078542261339 0.15081623959851601 0 -0.038778238160515767 0.13443716603757719 0 -0.031372324914102752 0.13935934277023421 0 -0.029806663249450551 0.1282409266149358 0 -0.038778238160515767 0.13443716603757719 0 -0.029806663249450551 0.1282409266149358 0 -0.042970508734694803 0.118330041462753 0 -0.038586107094818238 0.14391701110928301 0 -0.038778238160515767 0.13443716603757719 0 -0.031372324914102752 0.13935934277023421 0 -0.038778238160515767 0.13443716603757719 0 -0.0470596427306606 0.1296320458687589 0 -0.042970508734694803 0.118330041462753 0 -0.038778238160515767 0.13443716603757719 0 -0.046060309714110577 0.13767236211183631 0 -0.0470596427306606 0.1296320458687589 0 -0.038586107094818238 0.14391701110928301 0 -0.038778238160515767 0.13443716603757719 0 -0.046060309714110577 0.13767236211183631 0 -0.046060309714110577 0.13767236211183631 0 -0.060124791069678322 0.12674870044246789 0 -0.048072250444710342 0.14585990920917491 0 -0.062616174441613368 0.13948154138884569 0 -0.060124791069678322 0.12674870044246789 0 -0.055815489294176727 0.14332211809908699 0 -0.060124791069678322 0.12674870044246789 0 -0.055815489294176727 0.14332211809908699 0 -0.048072250444710342 0.14585990920917491 0 -0.060124791069678322 0.12674870044246789 0 -0.048072250444710342 0.14585990920917491 0 -0.046060309714110577 0.13767236211183631 0 -0.0470596427306606 0.1296320458687589 0 -0.060124791069678322 0.12674870044246789 0 -0.062616174441613368 0.13948154138884569 0 -0.059965692205663237 0.14786138590479511 0 -0.055815489294176727 0.14332211809908699 0 -0.059965692205663237 0.14786138590479511 0 -0.055815489294176727 0.14332211809908699 0 -0.055151182277392248 0.1509911060133505 0 -0.055815489294176727 0.14332211809908699 0 -0.051853642667917532 0.1494593366249137 0 -0.055151182277392248 0.1509911060133505 0 -0.055815489294176727 0.14332211809908699 0 -0.048072250444710342 0.14585990920917491 0 -0.051853642667917532 0.1494593366249137 0 -0.046501219318797367 0.14893898908383041 0 -0.048072250444710342 0.14585990920917491 0 -0.051853642667917532 0.1494593366249137 0 -0.051853642667917532 0.1494593366249137 0 -0.055151182277392248 0.1509911060133505 0 -0.053728072004510963 0.15818456071912559 0 -0.046501219318797367 0.14893898908383041 0 -0.051853642667917532 0.1494593366249137 0 -0.053728072004510963 0.15818456071912559 0 -0.055151182277392248 0.1509911060133505 0 -0.059681974115544663 0.154184337292602 0 -0.053728072004510963 0.15818456071912559 0 -0.059965692205663237 0.14786138590479511 0 -0.055151182277392248 0.1509911060133505 0 -0.059681974115544663 0.154184337292602 0 -0.064796278182968362 0.1533225517562459 0 -0.059965692205663237 0.14786138590479511 0 -0.059681974115544663 0.154184337292602 0 -0.059304386677477602 0.1603978833854936 0 -0.058726360547991831 0.1683403593624806 0 -0.053728072004510963 0.15818456071912559 0 -0.065081140041862953 0.16088227616776621 0 -0.059681974115544663 0.154184337292602 0 -0.059304386677477602 0.1603978833854936 0 -0.065081140041862953 0.16088227616776621 0 -0.059304386677477602 0.1603978833854936 0 -0.058726360547991831 0.1683403593624806 0 -0.058726360547991831 0.1683403593624806 0 -0.053728072004510963 0.15818456071912559 0 -0.047031556718023608 0.1759979947775942 0 -0.046501219318797367 0.14893898908383041 0 -0.053728072004510963 0.15818456071912559 0 -0.047031556718023608 0.1759979947775942 0 -0.059681974115544663 0.154184337292602 0 -0.059304386677477602 0.1603978833854936 0 -0.053728072004510963 0.15818456071912559 0 -0.047561894117250231 0.2030570004713578 0 -0.057834487212098551 0.18117340186791631 0 -0.047031556718023608 0.1759979947775942 0 -0.064965814605749725 0.1738851860021679 0 -0.058726360547991831 0.1683403593624806 0 -0.057834487212098551 0.18117340186791631 0 -0.058726360547991831 0.1683403593624806 0 -0.057834487212098551 0.18117340186791631 0 -0.047031556718023608 0.1759979947775942 0 -0.038301196657113373 0.19135333913459021 0 -0.047031556718023608 0.1759979947775942 0 -0.036464324404210699 0.18067706177592069 0 -0.032899554276718257 0.17244644916619661 0 -0.036464324404210699 0.18067706177592069 0 -0.026892462167339311 0.1817316457557826 0 -0.047031556718023608 0.1759979947775942 0 -0.032899554276718257 0.17244644916619661 0 -0.036464324404210699 0.18067706177592069 0 -0.038301196657113373 0.19135333913459021 0 -0.036464324404210699 0.18067706177592069 0 -0.026892462167339311 0.1817316457557826 0 -0.046501219318797367 0.14893898908383041 0 -0.039193154407868178 0.1550264695203443 0 -0.047031556718023608 0.1759979947775942 0 -0.046501219318797367 0.14893898908383041 0 -0.047031556718023608 0.1759979947775942 0 -0.039193154407868178 0.1550264695203443 0 -0.047031556718023608 0.1759979947775942 0 -0.03297659533437676 0.16228240742289299 0 -0.047031556718023608 0.1759979947775942 0 -0.032899554276718257 0.17244644916619661 0 -0.03297659533437676 0.16228240742289299 0 -0.032899554276718257 0.17244644916619661 0 -0.03297659533437676 0.16228240742289299 0 -0.016694109493111411 0.1625252357538127 0 -0.03297659533437676 0.16228240742289299 0 -0.016694109493111411 0.1625252357538127 0 -0.030027078542261339 0.15081623959851601 0 -0.016694109493111411 0.1625252357538127 0 -0.022079442829162878 0.18372054214769321 0 -0.016694109493111411 0.1625252357538127 0 -0.026892462167339311 0.1817316457557826 0 -0.022079442829162878 0.18372054214769321 0 -0.032899554276718257 0.17244644916619661 0 -0.016694109493111411 0.1625252357538127 0 -0.026892462167339311 0.1817316457557826 0 -0.026892462167339311 0.1817316457557826 0 -0.022079442829162878 0.18372054214769321 0 -0.016694109493111411 0.1625252357538127 0 -0.022079442829162878 0.18372054214769321 0 -0.0048120788223905506 0.17858148515489011 0 -0.022079442829162878 0.18372054214769321 0 -0.0048120788223905506 0.17858148515489011 0 0.0019515735538277489 0.193650941013737 0 -0.016694109493111411 0.1625252357538127 0 -0.0048120788223905506 0.17858148515489011 0 -0.00070336967280846575 0.1642978841142787 0 -0.016694109493111411 0.1625252357538127 0 -0.011308776157061259 0.14132992935993191 0 -0.016694109493111411 0.1625252357538127 0 -0.00070336967280846575 0.1642978841142787 0 -0.011308776157061259 0.14132992935993191 0 -0.00070336967280846575 0.1642978841142787 0 -0.011308776157061259 0.14132992935993191 0 -0.00070336967280846575 0.1642978841142787 0 -0.011308776157061259 0.14132992935993191 0 0.0030039891894815562 0.15161017628605661 0 -0.011308776157061259 0.14132992935993191 0 0.00038689558867741687 0.14221945409500009 0 0.0030039891894815562 0.15161017628605661 0 -0.016694109493111411 0.1625252357538127 0 -0.022961908939062279 0.1413153883364858 0 -0.030027078542261339 0.15081623959851601 0 -0.016694109493111411 0.1625252357538127 0 -0.011308776157061259 0.14132992935993191 0 -0.022961908939062279 0.1413153883364858 0 -0.031372324914102752 0.13935934277023421 0 -0.022961908939062279 0.1413153883364858 0 -0.030027078542261339 0.15081623959851601 0 -0.011308776157061259 0.14132992935993191 0 -0.022961908939062279 0.1413153883364858 0 -0.018562501278387829 0.12562065592148411 0 -0.022961908939062279 0.1413153883364858 0 -0.029806663249450551 0.1282409266149358 0 -0.018562501278387829 0.12562065592148411 0 -0.031372324914102752 0.13935934277023421 0 -0.022961908939062279 0.1413153883364858 0 -0.029806663249450551 0.1282409266149358 0 -0.011308776157061259 0.14132992935993191 0 -0.018562501278387829 0.12562065592148411 0 -0.011308776157061259 0.14132992935993191 0 -0.018562501278387829 0.12562065592148411 0 -0.01034049878410178 0.1375190351564633 0 -0.018562501278387829 0.12562065592148411 0 -0.0086080458088180212 0.12867572478784511 0 -0.01034049878410178 0.1375190351564633 0 -0.011308776157061259 0.14132992935993191 0 -0.01034049878410178 0.1375190351564633 0 -0.0035354357301469932 0.13621453203073661 0 -0.011308776157061259 0.14132992935993191 0 -0.01034049878410178 0.1375190351564633 0 -0.0086080458088180212 0.12867572478784511 0 -0.01034049878410178 0.1375190351564633 0 -0.0035354357301469932 0.13621453203073661 0 -0.011308776157061259 0.14132992935993191 0 -0.0035354357301469932 0.13621453203073661 0 0.00038689558867741687 0.14221945409500009 0 -0.0086080458088180212 0.12867572478784511 0 -0.0035354357301469932 0.13621453203073661 0 -0.00074169112318280927 0.1271885440150792 0 -0.0086080458088180212 0.12867572478784511 0 -0.00074169112318280927 0.1271885440150792 0 -0.0075495683861862093 0.1175268655262842 0 -0.018562501278387829 0.12562065592148411 0 -0.0086080458088180212 0.12867572478784511 0 -0.0075495683861862093 0.1175268655262842 0 -0.0010079970578314029 0.097736462038016503 0 -0.025816226399712601 0.10991138248303541 0 -0.019326448580962542 0.092197861461375791 0 -0.0075495683861862093 0.1175268655262842 0 -0.0010079970578314029 0.097736462038016503 0 -0.025816226399712601 0.10991138248303541 0 -0.0010079970578314029 0.097736462038016503 0 -0.025816226399712601 0.10991138248303541 0 -0.025816226399712601 0.10991138248303541 0 -0.019326448580962542 0.092197861461375791 0 -0.035600826502002997 0.088721034638054128 0 -0.025816226399712601 0.10991138248303541 0 -0.035600826502002997 0.088721034638054128 0 -0.018562501278387829 0.12562065592148411 0 -0.0075495683861862093 0.1175268655262842 0 -0.025816226399712601 0.10991138248303541 0 -0.029806663249450551 0.1282409266149358 0 -0.018562501278387829 0.12562065592148411 0 -0.025816226399712601 0.10991138248303541 0 -0.018562501278387829 0.12562065592148411 0 -0.025816226399712601 0.10991138248303541 0 -0.013512818089652731 0.072972381861569138 0 -0.02654760097591774 0.066108747830457643 0 0.00058338188650974149 0.068693108180541515 0 -0.02654760097591774 0.066108747830457643 0 0.00058338188650974149 0.068693108180541515 0 -0.02654760097591774 0.066108747830457643 0 -0.010441330557525779 0.058859046213765212 0 0.00058338188650974149 0.068693108180541515 0 -0.0057033238604127373 0.075142253150693866 0 -0.010754504976532121 0.08274821667816637 0 0.0008706457380241589 0.076155305882498497 0 -0.0057033238604127373 0.075142253150693866 0 -0.013512818089652731 0.072972381861569138 0 0.00058338188650974149 0.068693108180541515 0 -0.0057033238604127373 0.075142253150693866 0 0.0008706457380241589 0.076155305882498497 0 0.00058338188650974149 0.068693108180541515 0 -0.0057033238604127373 0.075142253150693866 0 -0.013512818089652731 0.072972381861569138 0 -0.010754504976532121 0.08274821667816637 0 -0.0010079970578314029 0.097736462038016503 0 -0.010754504976532121 0.08274821667816637 0 0.0008706457380241589 0.076155305882498497 0 -0.0010079970578314029 0.097736462038016503 0 -0.010754504976532121 0.08274821667816637 0 -0.019326448580962542 0.092197861461375791 0 -0.019326448580962542 0.092197861461375791 0 -0.023263292290622212 0.080815506013379279 0 -0.035600826502002997 0.088721034638054128 0 -0.023263292290622212 0.080815506013379279 0 -0.032746635512737203 0.076058170182797216 0 -0.035600826502002997 0.088721034638054128 0 -0.013512818089652731 0.072972381861569138 0 -0.010754504976532121 0.08274821667816637 0 -0.023263292290622212 0.080815506013379279 0 -0.010754504976532121 0.08274821667816637 0 -0.019326448580962542 0.092197861461375791 0 -0.023263292290622212 0.080815506013379279 0 -0.013512818089652731 0.072972381861569138 0 -0.023263292290622212 0.080815506013379279 0 -0.02654760097591774 0.066108747830457643 0 -0.023263292290622212 0.080815506013379279 0 -0.02654760097591774 0.066108747830457643 0 -0.032746635512737203 0.076058170182797216 0 -0.02654760097591774 0.066108747830457643 0 -0.045385426604293337 0.067530686793072864 0 -0.032746635512737203 0.076058170182797216 0 -0.045385426604293337 0.067530686793072864 0 -0.035600826502002997 0.088721034638054128 0 -0.02654760097591774 0.066108747830457643 0 -0.053678583838345229 0.063524387480373562 0 -0.02654760097591774 0.066108747830457643 0 -0.045385426604293337 0.067530686793072864 0 -0.053678583838345229 0.063524387480373562 0 -0.045385426604293337 0.067530686793072864 0 -0.035600826502002997 0.088721034638054128 0 -0.047204213631998511 0.077764062163756809 0 -0.045385426604293337 0.067530686793072864 0 -0.032746635512737203 0.076058170182797216 0 -0.035600826502002997 0.088721034638054128 0 -0.035600826502002997 0.088721034638054128 0 -0.048561420448899467 0.085933254328159139 0 -0.047204213631998511 0.077764062163756809 0 -0.035600826502002997 0.088721034638054128 0 -0.048561420448899467 0.085933254328159139 0 -0.047380611585594083 0.095024561164162094 0 -0.056457417535862198 0.08603354745180912 0 -0.048561420448899467 0.085933254328159139 0 -0.047380611585594083 0.095024561164162094 0 -0.056457417535862198 0.08603354745180912 0 -0.060857795863390497 0.087032123187722146 0 -0.064147684400115548 0.095853742934892627 0 -0.056457417535862198 0.08603354745180912 0 -0.061741248724494067 0.078652582733543572 0 -0.061094736548203903 0.07131553735355993 0 -0.056457417535862198 0.08603354745180912 0 -0.060857795863390497 0.087032123187722146 0 -0.061741248724494067 0.078652582733543572 0 -0.048561420448899467 0.085933254328159139 0 -0.05161085265061334 0.079026948914675252 0 -0.047204213631998511 0.077764062163756809 0 -0.056457417535862198 0.08603354745180912 0 -0.048561420448899467 0.085933254328159139 0 -0.05161085265061334 0.079026948914675252 0 -0.056457417535862198 0.08603354745180912 0 -0.05161085265061334 0.079026948914675252 0 -0.053877738264833788 0.07162492501563815 0 -0.056457417535862198 0.08603354745180912 0 -0.055735164895275108 0.062154780143131257 0 -0.056457417535862198 0.08603354745180912 0 -0.053877738264833788 0.07162492501563815 0 -0.055735164895275108 0.062154780143131257 0 -0.056457417535862198 0.08603354745180912 0 -0.061094736548203903 0.07131553735355993 0 -0.055735164895275108 0.062154780143131257 0 -0.045385426604293337 0.067530686793072864 0 -0.047204213631998511 0.077764062163756809 0 -0.049326199325513249 0.071047722993314077 0 -0.047204213631998511 0.077764062163756809 0 -0.049326199325513249 0.071047722993314077 0 -0.05091956577740709 0.074283793351009902 0 -0.05161085265061334 0.079026948914675252 0 -0.047204213631998511 0.077764062163756809 0 -0.05091956577740709 0.074283793351009902 0 -0.049326199325513249 0.071047722993314077 0 -0.051671710587110793 0.071093016108034687 0 -0.05091956577740709 0.074283793351009902 0 -0.051671710587110793 0.071093016108034687 0 -0.053877738264833788 0.07162492501563815 0 -0.05091956577740709 0.074283793351009902 0 -0.051671710587110793 0.071093016108034687 0 -0.053877738264833788 0.07162492501563815 0 -0.053045527380370321 0.068796917290151 0 -0.05161085265061334 0.079026948914675252 0 -0.053877738264833788 0.07162492501563815 0 -0.05091956577740709 0.074283793351009902 0 -0.061741248724494067 0.078652582733543572 0 -0.061094736548203903 0.07131553735355993 0 -0.063375305930626624 0.073706072155830166 0 -0.061094736548203903 0.07131553735355993 0 -0.06509328983950699 0.061926611503934907 0 -0.055735164895275108 0.062154780143131257 0 -0.045385426604293337 0.067530686793072864 0 -0.053678583838345229 0.063524387480373562 0 -0.048987638547322493 0.066648384498404156 0 -0.053678583838345229 0.063524387480373562 0 -0.054024397772955597 0.066687355216957581 0 -0.055735164895275108 0.062154780143131257 0 -0.053678583838345229 0.063524387480373562 0 -0.051886937316367919 0.066159087349471554 0 -0.048987638547322493 0.066648384498404156 0 -0.053678583838345229 0.063524387480373562 0 -0.055735164895275108 0.062154780143131257 0 -0.053877738264833788 0.07162492501563815 0 -0.054024397772955597 0.066687355216957581 0 -0.055735164895275108 0.062154780143131257 0 -0.053678583838345229 0.063524387480373562 0 -0.048987638547322493 0.066648384498404156 0 -0.053678583838345229 0.063524387480373562 0 -0.051886937316367919 0.066159087349471554 0 -0.054024397772955597 0.066687355216957581 0 -0.053877738264833788 0.07162492501563815 0 -0.054024397772955597 0.066687355216957581 0 -0.053045527380370321 0.068796917290151 0 -0.054024397772955597 0.066687355216957581 0 -0.053045527380370321 0.068796917290151 0 -0.051483146230799713 0.068581568483770186 0 -0.049326199325513249 0.071047722993314077 0 -0.051671710587110793 0.071093016108034687 0 -0.051483146230799713 0.068581568483770186 0 -0.051671710587110793 0.071093016108034687 0 -0.053045527380370321 0.068796917290151 0 -0.051483146230799713 0.068581568483770186 0 -0.051886937316367919 0.066159087349471554 0 -0.054024397772955597 0.066687355216957581 0 -0.051483146230799713 0.068581568483770186 0 -0.049326199325513249 0.071047722993314077 0 -0.051483146230799713 0.068581568483770186 0 -0.048987638547322493 0.066648384498404156 0 -0.045385426604293337 0.067530686793072864 0 -0.049326199325513249 0.071047722993314077 0 -0.048987638547322493 0.066648384498404156 0 -0.051886937316367919 0.066159087349471554 0 -0.051483146230799713 0.068581568483770186 0 -0.048987638547322493 0.066648384498404156 0 -0.025816226399712601 0.10991138248303541 0 -0.042970508734694803 0.118330041462753 0 -0.029806663249450551 0.1282409266149358 0 -0.025816226399712601 0.10991138248303541 0 -0.042970508734694803 0.118330041462753 0 -0.042970508734694803 0.118330041462753 0 -0.039802870863396213 0.1044854858218611 0 -0.057179670176449107 0.109912314760487 0 -0.025816226399712601 0.10991138248303541 0 -0.042970508734694803 0.118330041462753 0 -0.039802870863396213 0.1044854858218611 0 -0.025816226399712601 0.10991138248303541 0 -0.035600826502002997 0.088721034638054128 0 -0.039802870863396213 0.1044854858218611 0 -0.035600826502002997 0.088721034638054128 0 -0.039802870863396213 0.1044854858218611 0 -0.047380611585594083 0.095024561164162094 0 -0.056457417535862198 0.08603354745180912 0 -0.047380611585594083 0.095024561164162094 0 -0.057179670176449107 0.109912314760487 0 -0.056457417535862198 0.08603354745180912 0 -0.057179670176449107 0.109912314760487 0 -0.064147684400115548 0.095853742934892627 0 -0.056457417535862198 0.08603354745180912 0 -0.057179670176449107 0.109912314760487 0 -0.039802870863396213 0.1044854858218611 0 -0.047380611585594083 0.095024561164162094 0 -0.057179670176449107 0.109912314760487 0 -0.060124791069678322 0.12674870044246789 0 -0.042970508734694803 0.118330041462753 0 -0.060124791069678322 0.12674870044246789 0 -0.042970508734694803 0.118330041462753 0 -0.057179670176449107 0.109912314760487 0 -0.0470596427306606 0.1296320458687589 0 -0.060124791069678322 0.12674870044246789 0 -0.042970508734694803 0.118330041462753 0 -0.073611852116476376 0.13336762890443751 0 -0.060124791069678322 0.12674870044246789 0 -0.074045465830377716 0.1046752696361823 0 -0.060124791069678322 0.12674870044246789 0 -0.074045465830377716 0.1046752696361823 0 -0.060124791069678322 0.12674870044246789 0 -0.057179670176449107 0.109912314760487 0 -0.074045465830377716 0.1046752696361823 0 -0.073611852116476376 0.13336762890443751 0 -0.074045465830377716 0.1046752696361823 0 -0.073611852116476376 0.13336762890443751 0 -0.084165628347530691 0.1216012723361324 0 -0.074045465830377716 0.1046752696361823 0 -0.084165628347530691 0.1216012723361324 0 -0.089901314313172664 0.1042571436022733 0 -0.10023674445333861 0.1155361956819236 0 -0.084165628347530691 0.1216012723361324 0 -0.089901314313172664 0.1042571436022733 0 -0.074045465830377716 0.1046752696361823 0 -0.089901314313172664 0.1042571436022733 0 -0.087623327518894595 0.083145423157403947 0 -0.10343540541572301 0.096327557199727007 0 -0.089901314313172664 0.1042571436022733 0 -0.074045465830377716 0.1046752696361823 0 -0.087623327518894595 0.083145423157403947 0 -0.074045465830377716 0.1046752696361823 0 -0.087623327518894595 0.083145423157403947 0 -0.057179670176449107 0.109912314760487 0 -0.074045465830377716 0.1046752696361823 0 -0.064147684400115548 0.095853742934892627 0 -0.074045465830377716 0.1046752696361823 0 -0.064147684400115548 0.095853742934892627 0 -0.074341688981829912 0.08507408818707933 0 -0.074045465830377716 0.1046752696361823 0 -0.074341688981829912 0.08507408818707933 0 -0.060857795863390497 0.087032123187722146 0 -0.074341688981829912 0.08507408818707933 0 -0.060857795863390497 0.087032123187722146 0 -0.064147684400115548 0.095853742934892627 0 -0.074341688981829912 0.08507408818707933 0 -0.066534978489662708 0.079108445233846816 0 -0.074341688981829912 0.08507408818707933 0 -0.068080391328377177 0.072387673415755763 0 -0.060857795863390497 0.087032123187722146 0 -0.061741248724494067 0.078652582733543572 0 -0.066534978489662708 0.079108445233846816 0 -0.060857795863390497 0.087032123187722146 0 -0.066534978489662708 0.079108445233846816 0 -0.074341688981829912 0.08507408818707933 0 -0.074341688981829912 0.08507408818707933 0 -0.074714783782692432 0.060386284908982402 0 -0.074341688981829912 0.08507408818707933 0 -0.080680745806312737 0.074193106564943989 0 -0.074714783782692432 0.060386284908982402 0 -0.074341688981829912 0.08507408818707933 0 -0.068080391328377177 0.072387673415755763 0 -0.074714783782692432 0.060386284908982402 0 -0.065532296705178308 0.066348102939302114 0 -0.074714783782692432 0.060386284908982402 0 -0.06509328983950699 0.061926611503934907 0 -0.061094736548203903 0.07131553735355993 0 -0.065532296705178308 0.066348102939302114 0 -0.06509328983950699 0.061926611503934907 0 -0.065532296705178308 0.066348102939302114 0 -0.068080391328377177 0.072387673415755763 0 -0.074714783782692432 0.060386284908982402 0 -0.061094736548203903 0.07131553735355993 0 -0.065532296705178308 0.066348102939302114 0 -0.064520682628096501 0.070939346466111997 0 -0.065532296705178308 0.066348102939302114 0 -0.068080391328377177 0.072387673415755763 0 -0.064520682628096501 0.070939346466111997 0 -0.068080391328377177 0.072387673415755763 0 -0.064520682628096501 0.070939346466111997 0 -0.063375305930626624 0.073706072155830166 0 -0.061094736548203903 0.07131553735355993 0 -0.064520682628096501 0.070939346466111997 0 -0.063375305930626624 0.073706072155830166 0 -0.061741248724494067 0.078652582733543572 0 -0.066534978489662708 0.079108445233846816 0 -0.063375305930626624 0.073706072155830166 0 -0.066534978489662708 0.079108445233846816 0 -0.068080391328377177 0.072387673415755763 0 -0.063375305930626624 0.073706072155830166 0 -0.086043182941834412 0.0681666300063129 0 -0.087623327518894595 0.083145423157403947 0 -0.1002445187121974 0.063132529006277513 0 -0.080680745806312737 0.074193106564943989 0 -0.086043182941834412 0.0681666300063129 0 -0.074714783782692432 0.060386284908982402 0 -0.080680745806312737 0.074193106564943989 0 -0.086043182941834412 0.0681666300063129 0 -0.087623327518894595 0.083145423157403947 0 -0.086043182941834412 0.0681666300063129 0 -0.1002445187121974 0.063132529006277513 0 -0.086143465818363435 0.057753794365245539 0 -0.074045465830377716 0.1046752696361823 0 -0.074341688981829912 0.08507408818707933 0 -0.087623327518894595 0.083145423157403947 0 -0.074341688981829912 0.08507408818707933 0 -0.080680745806312737 0.074193106564943989 0 -0.087623327518894595 0.083145423157403947 0 -0.074341688981829912 0.08507408818707933 0 -0.087623327518894595 0.083145423157403947 0 -0.087623327518894595 0.083145423157403947 0 -0.1117253958496696 0.079645492316581787 0 -0.087623327518894595 0.083145423157403947 0 -0.1117253958496696 0.079645492316581787 0 -0.10343540541572301 0.096327557199727007 0 -0.087623327518894595 0.083145423157403947 0 -0.1002445187121974 0.063132529006277513 0 -0.1117253958496696 0.079645492316581787 0 -0.087623327518894595 0.083145423157403947 0 -0.1002445187121974 0.063132529006277513 0 -0.1002445187121974 0.063132529006277513 0 -0.1117253958496696 0.079645492316581787 0 -0.1155279387451971 0.058784820337056759 0 -0.1236179063483689 0.068109104510717458 0 -0.1117253958496696 0.079645492316581787 0 -0.1155279387451971 0.058784820337056759 0 -0.13582746418044511 0.07614556147576243 0 -0.1236179063483689 0.068109104510717458 0 -0.1117253958496696 0.079645492316581787 0 -0.13582746418044511 0.07614556147576243 0 -0.1117253958496696 0.079645492316581787 0 -0.12528968029428239 0.09151819051175078 0 -0.13582746418044511 0.07614556147576243 0 -0.1117253958496696 0.079645492316581787 0 -0.12528968029428239 0.09151819051175078 0 -0.1117253958496696 0.079645492316581787 0 -0.10343540541572301 0.096327557199727007 0 -0.12528968029428239 0.09151819051175078 0 -0.1181426053162586 0.1068152534780261 0 -0.10343540541572301 0.096327557199727007 0 -0.12421186667326629 0.12701614479988779 0 -0.1181426053162586 0.1068152534780261 0 -0.10023674445333861 0.1155361956819236 0 -0.099111108217919353 0.13324881416006179 0 -0.084165628347530691 0.1216012723361324 0 -0.10023674445333861 0.1155361956819236 0 -0.1181426053162586 0.1068152534780261 0 -0.10023674445333861 0.1155361956819236 0 -0.10343540541572301 0.096327557199727007 0 -0.089901314313172664 0.1042571436022733 0 -0.10023674445333861 0.1155361956819236 0 -0.10343540541572301 0.096327557199727007 0 -0.1080282679212924 0.022426888587669409 0 -0.091305967541573163 0.01957656053142939 0 -0.1080282679212924 0.022426888587669409 0 -0.098063217132251843 0.033965854294767402 0 -0.091305967541573163 0.01957656053142939 0 -0.1192272432507404 0.019871391370585571 0 -0.098063217132251843 0.033965854294767402 0 -0.1080282679212924 0.022426888587669409 0 -0.11011813711497111 0.0083671370953676306 0 -0.091305967541573163 0.01957656053142939 0 -0.1080282679212924 0.022426888587669409 0 -0.1192272432507404 0.019871391370585571 0 -0.098063217132251843 0.033965854294767402 0 -0.1014228131153851 -0.0043859886528729566 0 -0.11011813711497111 0.0083671370953676306 0 -0.091305967541573163 0.01957656053142939 0 -0.1014228131153851 -0.0043859886528729566 0 -0.091305967541573163 0.01957656053142939 0 -0.12470345280778559 -0.0046060833266749566 0 -0.11011813711497111 0.0083671370953676306 0 -0.1192272432507404 0.019871391370585571 0 -0.1192272432507404 0.019871391370585571 0 -0.1214102998521855 0.033587953871668602 0 -0.098063217132251843 0.033965854294767402 0 -0.1080282679212924 0.022426888587669409 0 -0.11011813711497111 0.0083671370953676306 0 -0.1192272432507404 0.019871391370585571 0 -0.1214102998521855 0.033587953871668602 0 -0.11286570990549651 0.04311963485514874 0 -0.098063217132251843 0.033965854294767402 0 -0.1214102998521855 0.033587953871668602 0 -0.1240751716511294 0.046421578455218437 0 -0.11286570990549651 0.04311963485514874 0 -0.1240751716511294 0.046421578455218437 0 -0.11286570990549651 0.04311963485514874 0 -0.1155279387451971 0.058784820337056759 0 -0.1313908266181639 0.057860543913468912 0 -0.1240751716511294 0.046421578455218437 0 -0.1155279387451971 0.058784820337056759 0 -0.1313908266181639 0.057860543913468912 0 -0.1236179063483689 0.068109104510717458 0 -0.1155279387451971 0.058784820337056759 0 -0.1002445187121974 0.063132529006277513 0 -0.11286570990549651 0.04311963485514874 0 -0.1155279387451971 0.058784820337056759 0 -0.1002445187121974 0.063132529006277513 0 -0.11286570990549651 0.04311963485514874 0 -0.1002445187121974 0.063132529006277513 0 -0.11286570990549651 0.04311963485514874 0 -0.092815652641329696 0.049023210685705629 0 -0.11286570990549651 0.04311963485514874 0 -0.098063217132251843 0.033965854294767402 0 -0.092815652641329696 0.049023210685705629 0 -0.098063217132251843 0.033965854294767402 0 -0.083644359247809108 0.03772368596006901 0 -0.076899191013763302 0.048060317218949239 0 -0.098063217132251843 0.033965854294767402 0 -0.076899191013763302 0.048060317218949239 0 -0.098063217132251843 0.033965854294767402 0 -0.092815652641329696 0.049023210685705629 0 -0.076899191013763302 0.048060317218949239 0 -0.083644359247809108 0.03772368596006901 0 -0.072426744463611664 0.035811000467901387 0 -0.078901366994303071 0.02750222366739364 0 -0.086143465818363435 0.057753794365245539 0 -0.092815652641329696 0.049023210685705629 0 -0.076899191013763302 0.048060317218949239 0 -0.1002445187121974 0.063132529006277513 0 -0.086143465818363435 0.057753794365245539 0 -0.092815652641329696 0.049023210685705629 0 -0.086143465818363435 0.057753794365245539 0 -0.074714783782692432 0.060386284908982402 0 -0.076899191013763302 0.048060317218949239 0 -0.086043182941834412 0.0681666300063129 0 -0.086143465818363435 0.057753794365245539 0 -0.074714783782692432 0.060386284908982402 0 -0.076899191013763302 0.048060317218949239 0 -0.055735164895275108 0.062154780143131257 0 -0.076899191013763302 0.048060317218949239 0 -0.06509328983950699 0.061926611503934907 0 -0.055735164895275108 0.062154780143131257 0 -0.076899191013763302 0.048060317218949239 0 -0.0632853203537352 0.050054345800853807 0 -0.055735164895275108 0.062154780143131257 0 -0.074714783782692432 0.060386284908982402 0 -0.076899191013763302 0.048060317218949239 0 -0.06509328983950699 0.061926611503934907 0 -0.076899191013763302 0.048060317218949239 0 -0.0632853203537352 0.050054345800853807 0 -0.06528048625160858 0.044666746670563952 0 -0.083644359247809108 0.03772368596006901 0 -0.076899191013763302 0.048060317218949239 0 -0.072426744463611664 0.035811000467901387 0 -0.076899191013763302 0.048060317218949239 0 -0.072426744463611664 0.035811000467901387 0 -0.06528048625160858 0.044666746670563952 0 -0.06528048625160858 0.044666746670563952 0 -0.062953012208252987 0.029506903039056339 0 -0.072426744463611664 0.035811000467901387 0 -0.06528048625160858 0.044666746670563952 0 -0.062953012208252987 0.029506903039056339 0 -0.06528048625160858 0.044666746670563952 0 -0.062953012208252987 0.029506903039056339 0 -0.059544412831866927 0.037006371769700362 0 -0.072426744463611664 0.035811000467901387 0 -0.070174482936861501 0.024825799310277501 0 -0.062953012208252987 0.029506903039056339 0 -0.070174482936861501 0.024825799310277501 0 -0.062953012208252987 0.029506903039056339 0 -0.060625538164902071 0.01434705940754797 0 -0.070174482936861501 0.024825799310277501 0 -0.075965752853237478 0.01696180996948965 0 -0.060625538164902071 0.01434705940754797 0 -0.075965752853237478 0.01696180996948965 0 -0.060625538164902071 0.01434705940754797 0 -0.070174482936861501 0.024825799310277501 0 -0.075965752853237478 0.01696180996948965 0 -0.078901366994303071 0.02750222366739364 0 -0.072426744463611664 0.035811000467901387 0 -0.070174482936861501 0.024825799310277501 0 -0.078901366994303071 0.02750222366739364 0 -0.083644359247809108 0.03772368596006901 0 -0.091305967541573163 0.01957656053142939 0 -0.098063217132251843 0.033965854294767402 0 -0.083644359247809108 0.03772368596006901 0 -0.091305967541573163 0.01957656053142939 0 -0.083644359247809108 0.03772368596006901 0 -0.078901366994303071 0.02750222366739364 0 -0.091305967541573163 0.01957656053142939 0 -0.075965752853237478 0.01696180996948965 0 -0.078901366994303071 0.02750222366739364 0 -0.091305967541573163 0.01957656053142939 0 -0.075965752853237478 0.01696180996948965 0 -0.091305967541573163 0.01957656053142939 0 -0.1014228131153851 -0.0043859886528729566 0 -0.091305967541573163 0.01957656053142939 0 -0.084275503061411641 0.0039398238969450472 0 -0.075965752853237478 0.01696180996948965 0 -0.091305967541573163 0.01957656053142939 0 -0.084275503061411641 0.0039398238969450472 0 -0.075965752853237478 0.01696180996948965 0 -0.071365404289364456 0.00062721705378197237 0 -0.060625538164902071 0.01434705940754797 0 -0.075965752853237478 0.01696180996948965 0 -0.084275503061411641 0.0039398238969450472 0 -0.071365404289364456 0.00062721705378197237 0 -0.057409893885416799 -0.0065978205539030804 0 -0.071365404289364456 0.00062721705378197237 0 -0.060625538164902071 0.01434705940754797 0 -0.055147189569754992 -0.0021387397046248322 0 -0.060625538164902071 0.01434705940754797 0 -0.033097787594703942 0.0096549346404016176 0 -0.057409893885416799 -0.0065978205539030804 0 -0.055147189569754992 -0.0021387397046248322 0 -0.060625538164902071 0.01434705940754797 0 -0.057409893885416799 -0.0065978205539030804 0 -0.060625538164902071 0.01434705940754797 0 -0.062953012208252987 0.029506903039056339 0 -0.060625538164902071 0.01434705940754797 0 -0.062953012208252987 0.029506903039056339 0 -0.060625538164902071 0.01434705940754797 0 -0.054717713613312333 0.02851629819841037 0 -0.054717713613312333 0.02851629819841037 0 -0.046519192877166979 0.020694491951849109 0 -0.043918769909669413 0.029115709654401179 0 -0.060625538164902071 0.01434705940754797 0 -0.054717713613312333 0.02851629819841037 0 -0.046519192877166979 0.020694491951849109 0 -0.046519192877166979 0.020694491951849109 0 -0.037757688123295753 0.022081225075083151 0 -0.033097787594703942 0.0096549346404016176 0 -0.046519192877166979 0.020694491951849109 0 -0.043918769909669413 0.029115709654401179 0 -0.037757688123295753 0.022081225075083151 0 -0.035260774688781728 0.02931696874705543 0 -0.037757688123295753 0.022081225075083151 0 -0.026812522761371221 0.02709411019265379 0 -0.043918769909669413 0.029115709654401179 0 -0.035260774688781728 0.02931696874705543 0 -0.037757688123295753 0.022081225075083151 0 -0.037757688123295753 0.022081225075083151 0 -0.033097787594703942 0.0096549346404016176 0 -0.02695823660923875 0.019042833632498691 0 -0.060625538164902071 0.01434705940754797 0 -0.033097787594703942 0.0096549346404016176 0 -0.055147189569754992 -0.0021387397046248322 0 -0.029463887190312722 -0.0033467651117375062 0 -0.033097787594703942 0.0096549346404016176 0 -0.060625538164902071 0.01434705940754797 0 -0.046519192877166979 0.020694491951849109 0 -0.033097787594703942 0.0096549346404016176 0 -0.055735164895275108 0.062154780143131257 0 -0.048785193081954253 0.053947679377206841 0 -0.055226439254293817 0.045335539170770787 0 -0.0632853203537352 0.050054345800853807 0 -0.055735164895275108 0.062154780143131257 0 -0.055226439254293817 0.045335539170770787 0 -0.055735164895275108 0.062154780143131257 0 -0.055226439254293817 0.045335539170770787 0 -0.053678583838345229 0.063524387480373562 0 -0.055735164895275108 0.062154780143131257 0 -0.048785193081954253 0.053947679377206841 0 -0.048785193081954253 0.053947679377206841 0 -0.055226439254293817 0.045335539170770787 0 -0.04207143762942446 0.045350739154437429 0 -0.054717713613312333 0.02851629819841037 0 -0.055226439254293817 0.045335539170770787 0 -0.054717713613312333 0.02851629819841037 0 -0.055226439254293817 0.045335539170770787 0 -0.047020358570869489 0.037243788064803128 0 -0.054717713613312333 0.02851629819841037 0 -0.055226439254293817 0.045335539170770787 0 -0.059544412831866927 0.037006371769700362 0 -0.055226439254293817 0.045335539170770787 0 -0.047020358570869489 0.037243788064803128 0 -0.04207143762942446 0.045350739154437429 0 -0.0632853203537352 0.050054345800853807 0 -0.06528048625160858 0.044666746670563952 0 -0.055226439254293817 0.045335539170770787 0 -0.06528048625160858 0.044666746670563952 0 -0.055226439254293817 0.045335539170770787 0 -0.059544412831866927 0.037006371769700362 0 -0.062953012208252987 0.029506903039056339 0 -0.054717713613312333 0.02851629819841037 0 -0.059544412831866927 0.037006371769700362 0 -0.054717713613312333 0.02851629819841037 0 -0.043918769909669413 0.029115709654401179 0 -0.047020358570869489 0.037243788064803128 0 -0.043918769909669413 0.029115709654401179 0 -0.047020358570869489 0.037243788064803128 0 -0.036288570832707409 0.037424127209039419 0 -0.035260774688781728 0.02931696874705543 0 -0.036288570832707409 0.037424127209039419 0 -0.024795708716753049 0.037439145881189913 0 -0.043918769909669413 0.029115709654401179 0 -0.035260774688781728 0.02931696874705543 0 -0.036288570832707409 0.037424127209039419 0 -0.036288570832707409 0.037424127209039419 0 -0.04207143762942446 0.045350739154437429 0 -0.030625289474842141 0.044348119221236333 0 -0.047020358570869489 0.037243788064803128 0 -0.036288570832707409 0.037424127209039419 0 -0.04207143762942446 0.045350739154437429 0 -0.02654760097591774 0.066108747830457643 0 -0.048785193081954253 0.053947679377206841 0 -0.033900617481605722 0.052144371460519978 0 -0.02654760097591774 0.066108747830457643 0 -0.053678583838345229 0.063524387480373562 0 -0.048785193081954253 0.053947679377206841 0 -0.048785193081954253 0.053947679377206841 0 -0.04207143762942446 0.045350739154437429 0 -0.033900617481605722 0.052144371460519978 0 -0.04207143762942446 0.045350739154437429 0 -0.033900617481605722 0.052144371460519978 0 -0.030625289474842141 0.044348119221236333 0 -0.02654760097591774 0.066108747830457643 0 -0.021451961654600529 0.050312773111188883 0 -0.010441330557525779 0.058859046213765212 0 -0.02654760097591774 0.066108747830457643 0 -0.033900617481605722 0.052144371460519978 0 -0.021451961654600529 0.050312773111188883 0 -0.033900617481605722 0.052144371460519978 0 -0.021451961654600529 0.050312773111188883 0 -0.030625289474842141 0.044348119221236333 0 -0.021451961654600529 0.050312773111188883 0 -0.024795708716753049 0.037439145881189913 0 -0.012926502307817949 0.045469986544674948 0 -0.036288570832707409 0.037424127209039419 0 -0.030625289474842141 0.044348119221236333 0 -0.024795708716753049 0.037439145881189913 0 -0.021451961654600529 0.050312773111188883 0 -0.030625289474842141 0.044348119221236333 0 -0.024795708716753049 0.037439145881189913 0 -0.035260774688781728 0.02931696874705543 0 -0.024795708716753049 0.037439145881189913 0 -0.026812522761371221 0.02709411019265379 0 -0.024795708716753049 0.037439145881189913 0 -0.0151521216588009 0.03260883839630109 0 -0.026812522761371221 0.02709411019265379 0 -0.024795708716753049 0.037439145881189913 0 -0.0151521216588009 0.03260883839630109 0 -0.012926502307817949 0.045469986544674948 0 -0.0151521216588009 0.03260883839630109 0 -0.0062985704424687369 0.03923704008544885 0 -0.0072786743432509456 0.03092245569401289 0 -3.8859931269809771e-05 0.027719798552577741 0 -0.0072786743432509456 0.03092245569401289 0 0.0041311244706536063 0.037187358634262549 0 -0.0062985704424687369 0.03923704008544885 0 -0.0072786743432509456 0.03092245569401289 0 0.0041311244706536063 0.037187358634262549 0 -0.0062985704424687369 0.03923704008544885 0 -0.0036203543111806421 0.051064949989090121 0 0.002247678540354155 0.045190845346159289 0 -0.0062985704424687369 0.03923704008544885 0 -0.012926502307817949 0.045469986544674948 0 -0.0036203543111806421 0.051064949989090121 0 -0.0151521216588009 0.03260883839630109 0 -0.0062985704424687369 0.03923704008544885 0 -0.012926502307817949 0.045469986544674948 0 -0.012926502307817949 0.045469986544674948 0 -0.0036203543111806421 0.051064949989090121 0 -0.010441330557525779 0.058859046213765212 0 -0.021451961654600529 0.050312773111188883 0 -0.012926502307817949 0.045469986544674948 0 -0.010441330557525779 0.058859046213765212 0 -0.0036203543111806421 0.051064949989090121 0 -0.00060082634844675447 0.059339562597417038 0 -0.010441330557525779 0.058859046213765212 0 -0.00060082634844675447 0.059339562597417038 0 -0.010441330557525779 0.058859046213765212 0 0.00058338188650974149 0.068693108180541515 0 -0.029463887190312722 -0.0033467651117375062 0 -0.033097787594703942 0.0096549346404016176 0 -0.0055700370245055711 0.0049628098732567346 0 -0.033097787594703942 0.0096549346404016176 0 -0.0173653101375205 0.015358842944252179 0 -0.0055700370245055711 0.0049628098732567346 0 -0.033097787594703942 0.0096549346404016176 0 -0.0173653101375205 0.015358842944252179 0 -0.02695823660923875 0.019042833632498691 0 -0.033097787594703942 0.0096549346404016176 0 -0.0055700370245055711 0.0049628098732567346 0 -0.037757688123295753 0.022081225075083151 0 -0.02695823660923875 0.019042833632498691 0 -0.026812522761371221 0.02709411019265379 0 -0.02695823660923875 0.019042833632498691 0 -0.026812522761371221 0.02709411019265379 0 -0.01919504393902129 0.023402143621146811 0 -0.0151521216588009 0.03260883839630109 0 -0.026812522761371221 0.02709411019265379 0 -0.01919504393902129 0.023402143621146811 0 -0.0173653101375205 0.015358842944252179 0 -0.02695823660923875 0.019042833632498691 0 -0.01919504393902129 0.023402143621146811 0 -0.0173653101375205 0.015358842944252179 0 -0.0096870285281750804 0.022906092940028301 0 -0.0070020017169459998 0.01414707748864759 0 -0.0173653101375205 0.015358842944252179 0 -0.01919504393902129 0.023402143621146811 0 -0.0096870285281750804 0.022906092940028301 0 -0.0151521216588009 0.03260883839630109 0 -0.0096870285281750804 0.022906092940028301 0 -0.0072786743432509456 0.03092245569401289 0 -0.0151521216588009 0.03260883839630109 0 -0.01919504393902129 0.023402143621146811 0 -0.0096870285281750804 0.022906092940028301 0 -0.0096870285281750804 0.022906092940028301 0 -3.8859931269809771e-05 0.027719798552577741 0 -0.0072786743432509456 0.03092245569401289 0 -0.0096870285281750804 0.022906092940028301 0 -3.8859931269809771e-05 0.027719798552577741 0 -0.0017775426417137731 0.017867627263828172 0 -0.0096870285281750804 0.022906092940028301 0 -0.0017775426417137731 0.017867627263828172 0 -0.0070020017169459998 0.01414707748864759 0 -0.0017775426417137731 0.017867627263828172 0 -0.00095399987968280845 0.01147662331624408 0 -0.0070020017169459998 0.01414707748864759 0 -0.00095399987968280845 0.01147662331624408 0 -0.0070020017169459998 0.01414707748864759 0 -0.0055700370245055711 0.0049628098732567346 0 -0.0173653101375205 0.015358842944252179 0 -0.0070020017169459998 0.01414707748864759 0 -0.0055700370245055711 0.0049628098732567346 0 -0.00095399987968280845 0.01147662331624408 0 -0.0055700370245055711 0.0049628098732567346 0 0.0050642399356044168 0.0067179476538266718 0 -0.0055700370245055711 0.0049628098732567346 0 0.0050642399356044168 0.0067179476538266718 0 0.02195771354569279 0.00027068510611185341 0 0.0050642399356044168 0.0067179476538266718 0 0.02195771354569279 0.00027068510611185341 0 0.01600560503876839 0.005481748362517515 0 -0.0055700370245055711 0.0049628098732567346 0 0.02195771354569279 0.00027068510611185341 0 -0.0037805848108704472 -0.0045547905188501802 0 -0.0055700370245055711 0.0049628098732567346 0 0.02195771354569279 0.00027068510611185341 0 0.0050642399356044168 0.0067179476538266718 0 0.01600560503876839 0.005481748362517515 0 0.01564988937870115 0.008496454742550336 0 0.01048115310955532 0.016035962826543831 0 0.017543732670180411 0.0171615668797633 0 0.01564988937870115 0.008496454742550336 0 0.0050642399356044168 0.0067179476538266718 0 0.0089461513616016647 0.01114802045102207 0 0.01564988937870115 0.008496454742550336 0 0.0089461513616016647 0.01114802045102207 0 0.01048115310955532 0.016035962826543831 0 0.01564988937870115 0.008496454742550336 0 0.0089461513616016647 0.01114802045102207 0 0.0045153420491468874 0.0136876543016612 0 0.01048115310955532 0.016035962826543831 0 0.0050642399356044168 0.0067179476538266718 0 0.0089461513616016647 0.01114802045102207 0 0.0045153420491468874 0.0136876543016612 0 -0.00095399987968280845 0.01147662331624408 0 0.0050642399356044168 0.0067179476538266718 0 0.0045153420491468874 0.0136876543016612 0 -0.0017775426417137731 0.017867627263828172 0 -0.00095399987968280845 0.01147662331624408 0 0.0045153420491468874 0.0136876543016612 0 -0.0017775426417137731 0.017867627263828172 0 0.0045153420491468874 0.0136876543016612 0 0.0049881407826487716 0.020716353192873901 0 -3.8859931269809771e-05 0.027719798552577741 0 -0.0017775426417137731 0.017867627263828172 0 0.0049881407826487716 0.020716353192873901 0 0.0045153420491468874 0.0136876543016612 0 0.0049881407826487716 0.020716353192873901 0 0.01048115310955532 0.016035962826543831 0 -3.8859931269809771e-05 0.027719798552577741 0 0.0081304455806060615 0.026435064458912211 0 0.0079856734183715097 0.03212105728172597 0 -3.8859931269809771e-05 0.027719798552577741 0 0.0049881407826487716 0.020716353192873901 0 0.0081304455806060615 0.026435064458912211 0 0.0081304455806060615 0.026435064458912211 0 0.01376415578664833 0.028700767963039511 0 0.0079856734183715097 0.03212105728172597 0 0.0081304455806060615 0.026435064458912211 0 0.01376415578664833 0.028700767963039511 0 0.01255428945724511 0.022072845731092781 0 0.01376415578664833 0.028700767963039511 0 0.01255428945724511 0.022072845731092781 0 0.01916839385342935 0.024477846738442451 0 0.0049881407826487716 0.020716353192873901 0 0.0081304455806060615 0.026435064458912211 0 0.01255428945724511 0.022072845731092781 0 0.0049881407826487716 0.020716353192873901 0 0.01048115310955532 0.016035962826543831 0 0.01255428945724511 0.022072845731092781 0 0.01048115310955532 0.016035962826543831 0 0.01255428945724511 0.022072845731092781 0 0.017543732670180411 0.0171615668797633 0 0.017543732670180411 0.0171615668797633 0 0.0257994418812049 0.019364344210664922 0 0.023463378769256811 0.012357843682270759 0 0.017543732670180411 0.0171615668797633 0 0.01916839385342935 0.024477846738442451 0 0.0257994418812049 0.019364344210664922 0 0.01255428945724511 0.022072845731092781 0 0.017543732670180411 0.0171615668797633 0 0.01916839385342935 0.024477846738442451 0 0.01916839385342935 0.024477846738442451 0 0.02770326633788921 0.027256273474278388 0 0.020540453802791708 0.031683096839066387 0 0.01376415578664833 0.028700767963039511 0 0.01916839385342935 0.024477846738442451 0 0.020540453802791708 0.031683096839066387 0 0.01916839385342935 0.024477846738442451 0 0.02770326633788921 0.027256273474278388 0 0.0257994418812049 0.019364344210664922 0 0.0257994418812049 0.019364344210664922 0 0.031931747711186363 0.013323949476079591 0 0.034986131945287241 0.02160858501315506 0 0.02770326633788921 0.027256273474278388 0 0.0257994418812049 0.019364344210664922 0 0.034986131945287241 0.02160858501315506 0 0.0257994418812049 0.019364344210664922 0 0.023463378769256811 0.012357843682270759 0 0.031931747711186363 0.013323949476079591 0 0.023463378769256811 0.012357843682270759 0 0.02752310910411386 0.0076120665755113016 0 0.031931747711186363 0.013323949476079591 0 0.023463378769256811 0.012357843682270759 0 0.02752310910411386 0.0076120665755113016 0 0.02135057729507521 0.0064419059475812022 0 0.02752310910411386 0.0076120665755113016 0 0.02195771354569279 0.00027068510611185341 0 0.03704068486499465 0.0056634933642452454 0 0.02752310910411386 0.0076120665755113016 0 0.02135057729507521 0.0064419059475812022 0 0.02195771354569279 0.00027068510611185341 0 0.02135057729507521 0.0064419059475812022 0 0.02195771354569279 0.00027068510611185341 0 0.01600560503876839 0.005481748362517515 0 0.02135057729507521 0.0064419059475812022 0 0.01600560503876839 0.005481748362517515 0 0.01564988937870115 0.008496454742550336 0 0.017543732670180411 0.0171615668797633 0 0.023463378769256811 0.012357843682270759 0 0.01564988937870115 0.008496454742550336 0 0.023463378769256811 0.012357843682270759 0 0.02135057729507521 0.0064419059475812022 0 0.01564988937870115 0.008496454742550336 0 0.013655421299077011 0.062036394183622431 0 0.0060982775645236978 0.054964218203853332 0 0.016532909339780751 0.054697802865331983 0 0.013655421299077011 0.062036394183622431 0 0.005200182148118019 0.062070433690284643 0 0.0060982775645236978 0.054964218203853332 0 -0.0036203543111806421 0.051064949989090121 0 -0.00060082634844675447 0.059339562597417038 0 0.0060982775645236978 0.054964218203853332 0 -0.00060082634844675447 0.059339562597417038 0 0.005200182148118019 0.062070433690284643 0 0.0060982775645236978 0.054964218203853332 0 0.0060982775645236978 0.054964218203853332 0 0.0096932941904509622 0.046100171246030289 0 0.002247678540354155 0.045190845346159289 0 -0.0036203543111806421 0.051064949989090121 0 0.0060982775645236978 0.054964218203853332 0 0.002247678540354155 0.045190845346159289 0 0.0060982775645236978 0.054964218203853332 0 0.0096932941904509622 0.046100171246030289 0 0.016532909339780751 0.054697802865331983 0 0.0096932941904509622 0.046100171246030289 0 0.020338963029098749 0.044954500170984443 0 0.016532909339780751 0.054697802865331983 0 0.0096932941904509622 0.046100171246030289 0 0.014043353638770011 0.041396703381813699 0 0.0041311244706536063 0.037187358634262549 0 0.0096932941904509622 0.046100171246030289 0 0.014043353638770011 0.041396703381813699 0 0.020338963029098749 0.044954500170984443 0 0.0096932941904509622 0.046100171246030289 0 0.002247678540354155 0.045190845346159289 0 0.0041311244706536063 0.037187358634262549 0 -0.0062985704424687369 0.03923704008544885 0 0.002247678540354155 0.045190845346159289 0 0.0041311244706536063 0.037187358634262549 0 -3.8859931269809771e-05 0.027719798552577741 0 0.0041311244706536063 0.037187358634262549 0 0.0079856734183715097 0.03212105728172597 0 0.014043353638770011 0.041396703381813699 0 0.0041311244706536063 0.037187358634262549 0 0.01365173384053326 0.035261135218780527 0 0.0041311244706536063 0.037187358634262549 0 0.0079856734183715097 0.03212105728172597 0 0.01365173384053326 0.035261135218780527 0 0.01376415578664833 0.028700767963039511 0 0.0079856734183715097 0.03212105728172597 0 0.01365173384053326 0.035261135218780527 0 0.01948513628611814 0.038055046960570549 0 0.020540453802791708 0.031683096839066387 0 0.02885117711939696 0.036979799192207667 0 0.01376415578664833 0.028700767963039511 0 0.01365173384053326 0.035261135218780527 0 0.020540453802791708 0.031683096839066387 0 0.01365173384053326 0.035261135218780527 0 0.01948513628611814 0.038055046960570549 0 0.020540453802791708 0.031683096839066387 0 0.014043353638770011 0.041396703381813699 0 0.01365173384053326 0.035261135218780527 0 0.01948513628611814 0.038055046960570549 0 0.02770326633788921 0.027256273474278388 0 0.020540453802791708 0.031683096839066387 0 0.02885117711939696 0.036979799192207667 0 0.02885117711939696 0.036979799192207667 0 0.029942600976039568 0.046216318443505877 0 0.020338963029098749 0.044954500170984443 0 0.01948513628611814 0.038055046960570549 0 0.02885117711939696 0.036979799192207667 0 0.020338963029098749 0.044954500170984443 0 0.014043353638770011 0.041396703381813699 0 0.01948513628611814 0.038055046960570549 0 0.020338963029098749 0.044954500170984443 0 0.020338963029098749 0.044954500170984443 0 0.016532909339780751 0.054697802865331983 0 0.024731973733742901 0.051858254981941618 0 0.029942600976039568 0.046216318443505877 0 0.024731973733742901 0.051858254981941618 0 0.033706152772870979 0.054017737361368418 0 0.029942600976039568 0.046216318443505877 0 0.020338963029098749 0.044954500170984443 0 0.024731973733742901 0.051858254981941618 0 0.024731973733742901 0.051858254981941618 0 0.025803412106592649 0.060515333631097713 0 0.033706152772870979 0.054017737361368418 0 0.013655421299077011 0.062036394183622431 0 0.016532909339780751 0.054697802865331983 0 0.025803412106592649 0.060515333631097713 0 0.016532909339780751 0.054697802865331983 0 0.024731973733742901 0.051858254981941618 0 0.025803412106592649 0.060515333631097713 0 0.043079692443665878 0.054299117395612051 0 0.055025863673827259 0.055699086985823709 0 0.040946979778779473 0.06397700773202461 0 0.033706152772870979 0.054017737361368418 0 0.043079692443665878 0.054299117395612051 0 0.040946979778779473 0.06397700773202461 0 0.025803412106592649 0.060515333631097713 0 0.033706152772870979 0.054017737361368418 0 0.040946979778779473 0.06397700773202461 0 0.029942600976039568 0.046216318443505877 0 0.033706152772870979 0.054017737361368418 0 0.042639773549185807 0.043502637503231488 0 0.033706152772870979 0.054017737361368418 0 0.043079692443665878 0.054299117395612051 0 0.042639773549185807 0.043502637503231488 0 0.042639773549185807 0.043502637503231488 0 0.037738533288155747 0.031339612408780741 0 0.049484392809002277 0.02639565561664985 0 0.02885117711939696 0.036979799192207667 0 0.029942600976039568 0.046216318443505877 0 0.042639773549185807 0.043502637503231488 0 0.02885117711939696 0.036979799192207667 0 0.042639773549185807 0.043502637503231488 0 0.037738533288155747 0.031339612408780741 0 0.02770326633788921 0.027256273474278388 0 0.02885117711939696 0.036979799192207667 0 0.037738533288155747 0.031339612408780741 0 0.042639773549185807 0.043502637503231488 0 0.060360837052947688 0.037280296658570571 0 0.055025863673827259 0.055699086985823709 0 0.042639773549185807 0.043502637503231488 0 0.060360837052947688 0.037280296658570571 0 0.049484392809002277 0.02639565561664985 0 0.043079692443665878 0.054299117395612051 0 0.042639773549185807 0.043502637503231488 0 0.055025863673827259 0.055699086985823709 0 0.02195771354569279 0.00027068510611185341 0 0.03704068486499465 0.0056634933642452454 0 0.049485464115891477 -0.0044214396610316922 0 0.041520090846527052 0.014264811507737511 0 0.03704068486499465 0.0056634933642452454 0 0.050705301798887457 0.009804714611996555 0 0.03704068486499465 0.0056634933642452454 0 0.050705301798887457 0.009804714611996555 0 0.049485464115891477 -0.0044214396610316922 0 0.02752310910411386 0.0076120665755113016 0 0.03704068486499465 0.0056634933642452454 0 0.031931747711186363 0.013323949476079591 0 0.041520090846527052 0.014264811507737511 0 0.03704068486499465 0.0056634933642452454 0 0.031931747711186363 0.013323949476079591 0 0.041520090846527052 0.014264811507737511 0 0.031931747711186363 0.013323949476079591 0 0.034986131945287241 0.02160858501315506 0 0.02770326633788921 0.027256273474278388 0 0.037738533288155747 0.031339612408780741 0 0.034986131945287241 0.02160858501315506 0 0.037738533288155747 0.031339612408780741 0 0.034986131945287241 0.02160858501315506 0 0.049484392809002277 0.02639565561664985 0 0.041520090846527052 0.014264811507737511 0 0.034986131945287241 0.02160858501315506 0 0.049484392809002277 0.02639565561664985 0 0.060360837052947688 0.037280296658570571 0 0.049484392809002277 0.02639565561664985 0 0.063987884188526009 0.01504346202290696 0 0.049484392809002277 0.02639565561664985 0 0.050705301798887457 0.009804714611996555 0 0.063987884188526009 0.01504346202290696 0 0.041520090846527052 0.014264811507737511 0 0.049484392809002277 0.02639565561664985 0 0.050705301798887457 0.009804714611996555 0 0.063987884188526009 0.01504346202290696 0 0.049485464115891477 -0.0044214396610316922 0 0.050705301798887457 0.009804714611996555 0 0.063987884188526009 0.01504346202290696 0 0.049485464115891477 -0.0044214396610316922 0 0.063722833214531371 0.0012779862689838799 0 0.063987884188526009 0.01504346202290696 0 0.049485464115891477 -0.0044214396610316922 0 0.063722833214531371 0.0012779862689838799 0 0.063987884188526009 0.01504346202290696 0 0.075980605946258856 0.005337783885724247 0 0.063987884188526009 0.01504346202290696 0 0.075980605946258856 0.005337783885724247 0 0.088072124082277894 0.01326935295464899 0 0.075980605946258856 0.005337783885724247 0 0.088072124082277894 0.01326935295464899 0 0.096943631097903618 -0.01251071815590111 0 0.088072124082277894 0.01326935295464899 0 0.078490304261161103 0.034508363706845332 0 0.10109097237402399 0.03108108960838786 0 0.060360837052947688 0.037280296658570571 0 0.063987884188526009 0.01504346202290696 0 0.078490304261161103 0.034508363706845332 0 0.063987884188526009 0.01504346202290696 0 0.078490304261161103 0.034508363706845332 0 0.063987884188526009 0.01504346202290696 0 0.088072124082277894 0.01326935295464899 0 0.078490304261161103 0.034508363706845332 0 0.060360837052947688 0.037280296658570571 0 0.072253343498573291 0.048718726283335533 0 0.078490304261161103 0.034508363706845332 0 0.055025863673827259 0.055699086985823709 0 0.072253343498573291 0.048718726283335533 0 0.071925214028914969 0.063755865574115653 0 0.060360837052947688 0.037280296658570571 0 0.055025863673827259 0.055699086985823709 0 0.072253343498573291 0.048718726283335533 0 0.072253343498573291 0.048718726283335533 0 0.092992724333796101 0.053973265390783579 0 0.071925214028914969 0.063755865574115653 0 0.092992724333796101 0.053973265390783579 0 0.078490304261161103 0.034508363706845332 0 0.10109097237402399 0.03108108960838786 0 0.092992724333796101 0.053973265390783579 0 0.078490304261161103 0.034508363706845332 0 0.072253343498573291 0.048718726283335533 0 0.092992724333796101 0.053973265390783579 0 0.078490304261161103 0.034508363706845332 0 0.092992724333796101 0.053973265390783579 0 0.11252852835466309 0.048519100547279627 0 0.10109097237402399 0.03108108960838786 0 0.092992724333796101 0.053973265390783579 0 0.11252852835466309 0.048519100547279627 0 0.10696001067640409 0.073854650715534986 0 0.11252852835466309 0.048519100547279627 0 0.1218844397962445 0.063850842824124454 0 0.1315586501983603 0.046849318201028597 0 0.11252852835466309 0.048519100547279627 0 0.1218844397962445 0.063850842824124454 0 0.10696001067640409 0.073854650715534986 0 0.11252852835466309 0.048519100547279627 0 0.12316692863345589 0.026054144435575698 0 0.10109097237402399 0.03108108960838786 0 0.11252852835466309 0.048519100547279627 0 0.12316692863345589 0.026054144435575698 0 0.1315586501983603 0.046849318201028597 0 0.12316692863345589 0.026054144435575698 0 0.111748691765997 0.0062994286708312674 0 0.10109097237402399 0.03108108960838786 0 0.12316692863345589 0.026054144435575698 0 0.111748691765997 0.0062994286708312674 0 0.13901877174334179 0.0058069614355472322 0 0.088072124082277894 0.01326935295464899 0 0.111748691765997 0.0062994286708312674 0 0.096943631097903618 -0.01251071815590111 0 0.088072124082277894 0.01326935295464899 0 0.111748691765997 0.0062994286708312674 0 0.10109097237402399 0.03108108960838786 0 0.1049309149624791 0.10171036192771379 0 0.095263339037144928 0.1148773264796832 0 0.086991710403399064 0.099247132944805888 0 0.095263339037144928 0.1148773264796832 0 0.10984246150268789 0.11529597629730109 0 0.11908437462151041 0.1246492547752462 0 0.095263339037144928 0.1148773264796832 0 0.11908437462151041 0.1246492547752462 0 0.1011992594238136 0.13432757037802651 0 0.095263339037144928 0.1148773264796832 0 0.11908437462151041 0.1246492547752462 0 0.1049309149624791 0.10171036192771379 0 0.095263339037144928 0.1148773264796832 0 0.10984246150268789 0.11529597629730109 0 0.1049309149624791 0.10171036192771379 0 0.1214337654292612 0.1206876101045128 0 0.1049309149624791 0.10171036192771379 0 0.1214337654292612 0.1206876101045128 0 0.1200850186641071 0.10971888276308971 0 0.1049309149624791 0.10171036192771379 0 0.10984246150268789 0.11529597629730109 0 0.1214337654292612 0.1206876101045128 0 0.10984246150268789 0.11529597629730109 0 0.1214337654292612 0.1206876101045128 0 0.11908437462151041 0.1246492547752462 0 0.1214337654292612 0.1206876101045128 0 0.1200850186641071 0.10971888276308971 0 0.12920432287192471 0.1142256489593122 0 0.1200850186641071 0.10971888276308971 0 0.1253062105446589 0.10636848884423419 0 0.12920432287192471 0.1142256489593122 0 0.1200850186641071 0.10971888276308971 0 0.1189882972733952 0.1024226391398724 0 0.1253062105446589 0.10636848884423419 0 0.1189882972733952 0.1024226391398724 0 0.12567030407927129 0.098681093654136853 0 0.1253062105446589 0.10636848884423419 0 0.1049309149624791 0.10171036192771379 0 0.1200850186641071 0.10971888276308971 0 0.1189882972733952 0.1024226391398724 0 0.1049309149624791 0.10171036192771379 0 0.1189882972733952 0.1024226391398724 0 0.1171506858609986 0.090705155522805281 0 0.1189882972733952 0.1024226391398724 0 0.1171506858609986 0.090705155522805281 0 0.12567030407927129 0.098681093654136853 0 0.1171506858609986 0.090705155522805281 0 0.10696001067640409 0.073854650715534986 0 0.12841296365015989 0.078558082126259296 0 0.1171506858609986 0.090705155522805281 0 0.10696001067640409 0.073854650715534986 0 0.10436741899889471 0.087250820479242194 0 0.1218844397962445 0.063850842824124454 0 0.10696001067640409 0.073854650715534986 0 0.12841296365015989 0.078558082126259296 0 0.092992724333796101 0.053973265390783579 0 0.10696001067640409 0.073854650715534986 0 0.088428064495697067 0.082733113750914744 0 0.1049309149624791 0.10171036192771379 0 0.10436741899889471 0.087250820479242194 0 0.088428064495697067 0.082733113750914744 0 0.10696001067640409 0.073854650715534986 0 0.10436741899889471 0.087250820479242194 0 0.088428064495697067 0.082733113750914744 0 0.1049309149624791 0.10171036192771379 0 0.088428064495697067 0.082733113750914744 0 0.1049309149624791 0.10171036192771379 0 0.1171506858609986 0.090705155522805281 0 0.10436741899889471 0.087250820479242194 0 0.088428064495697067 0.082733113750914744 0 0.067244527098883122 0.087786029510364599 0 0.086991710403399064 0.099247132944805888 0 0.088428064495697067 0.082733113750914744 0 0.071925214028914969 0.063755865574115653 0 0.092992724333796101 0.053973265390783579 0 0.088428064495697067 0.082733113750914744 0 0.071925214028914969 0.063755865574115653 0 0.071925214028914969 0.063755865574115653 0 0.067244527098883122 0.087786029510364599 0 0.054845347611364621 0.073861828880709246 0 0.088428064495697067 0.082733113750914744 0 0.071925214028914969 0.063755865574115653 0 0.067244527098883122 0.087786029510364599 0 0.067244527098883122 0.087786029510364599 0 0.071442303452779438 0.1051053981841203 0 0.086991710403399064 0.099247132944805888 0 0.1049309149624791 0.10171036192771379 0 0.088428064495697067 0.082733113750914744 0 0.086991710403399064 0.099247132944805888 0 0.095263339037144928 0.1148773264796832 0 0.071442303452779438 0.1051053981841203 0 0.086991710403399064 0.099247132944805888 0 0.095263339037144928 0.1148773264796832 0 0.071442303452779438 0.1051053981841203 0 0.095263339037144928 0.1148773264796832 0 0.071442303452779438 0.1051053981841203 0 0.083503428854915782 0.12891477582055669 0 0.071442303452779438 0.1051053981841203 0 0.083503428854915782 0.12891477582055669 0 0.064311449026543455 0.13511771870872949 0 0.071442303452779438 0.1051053981841203 0 0.049036282041468149 0.1181328813302224 0 0.064311449026543455 0.13511771870872949 0 0.067244527098883122 0.087786029510364599 0 0.071442303452779438 0.1051053981841203 0 0.047621267868414002 0.095333469888557426 0 0.071442303452779438 0.1051053981841203 0 0.049036282041468149 0.1181328813302224 0 0.047621267868414002 0.095333469888557426 0 0.071442303452779438 0.1051053981841203 0 0.047621267868414002 0.095333469888557426 0 0.049036282041468149 0.1181328813302224 0 0.047621267868414002 0.095333469888557426 0 0.029133689476611751 0.1068191049588739 0 0.047621267868414002 0.095333469888557426 0 0.023800232284048501 0.085561541592994839 0 0.029133689476611751 0.1068191049588739 0 0.049036282041468149 0.1181328813302224 0 0.0306044288722967 0.1234706617642817 0 0.029133689476611751 0.1068191049588739 0 0.055025863673827259 0.055699086985823709 0 0.071925214028914969 0.063755865574115653 0 0.054845347611364621 0.073861828880709246 0 0.055025863673827259 0.055699086985823709 0 0.054845347611364621 0.073861828880709246 0 0.040946979778779473 0.06397700773202461 0 0.067244527098883122 0.087786029510364599 0 0.047621267868414002 0.095333469888557426 0 0.054845347611364621 0.073861828880709246 0 0.047621267868414002 0.095333469888557426 0 0.054845347611364621 0.073861828880709246 0 0.038411981967420017 0.07839065940281445 0 0.047621267868414002 0.095333469888557426 0 0.023800232284048501 0.085561541592994839 0 0.047621267868414002 0.095333469888557426 0 0.038411981967420017 0.07839065940281445 0 0.023800232284048501 0.085561541592994839 0 0.054845347611364621 0.073861828880709246 0 0.027714364748937199 0.071277468530625387 0 0.054845347611364621 0.073861828880709246 0 0.038411981967420017 0.07839065940281445 0 0.027714364748937199 0.071277468530625387 0 0.054845347611364621 0.073861828880709246 0 0.040946979778779473 0.06397700773202461 0 0.027714364748937199 0.071277468530625387 0 0.025803412106592649 0.060515333631097713 0 0.040946979778779473 0.06397700773202461 0 0.027714364748937199 0.071277468530625387 0 0.013655421299077011 0.062036394183622431 0 0.025803412106592649 0.060515333631097713 0 0.027714364748937199 0.071277468530625387 0 0.027714364748937199 0.071277468530625387 0 0.023800232284048501 0.085561541592994839 0 0.01362757528827758 0.075404108964452099 0 0.038411981967420017 0.07839065940281445 0 0.023800232284048501 0.085561541592994839 0 0.038411981967420017 0.07839065940281445 0 0.027714364748937199 0.071277468530625387 0 0.023800232284048501 0.085561541592994839 0 -0.0010079970578314029 0.097736462038016503 0 0.023800232284048501 0.085561541592994839 0 0.023800232284048501 0.085561541592994839 0 0.01362757528827758 0.075404108964452099 0 0.0008706457380241589 0.076155305882498497 0 0.023800232284048501 0.085561541592994839 0 0.0008706457380241589 0.076155305882498497 0 -0.0010079970578314029 0.097736462038016503 0 0.023800232284048501 0.085561541592994839 0 0.0008706457380241589 0.076155305882498497 0 0.027714364748937199 0.071277468530625387 0 0.00058338188650974149 0.068693108180541515 0 0.013655421299077011 0.062036394183622431 0 0.027714364748937199 0.071277468530625387 0 0.00058338188650974149 0.068693108180541515 0 0.027714364748937199 0.071277468530625387 0 0.01362757528827758 0.075404108964452099 0 0.00058338188650974149 0.068693108180541515 0 0.01362757528827758 0.075404108964452099 0 0.0008706457380241589 0.076155305882498497 0 0.00058338188650974149 0.068693108180541515 0 0.013655421299077011 0.062036394183622431 0 0.005200182148118019 0.062070433690284643 0 0.00058338188650974149 0.068693108180541515 0 -0.00060082634844675447 0.059339562597417038 0 0.005200182148118019 0.062070433690284643 0 0.00058338188650974149 0.068693108180541515 0 0.0306044288722967 0.1234706617642817 0 0.029133689476611751 0.1068191049588739 0 0.0089234202042218491 0.119636660019085 0 0.029133689476611751 0.1068191049588739 0 0.015212336226762669 0.1024384421522426 0 0.0089234202042218491 0.119636660019085 0 0.023800232284048501 0.085561541592994839 0 0.029133689476611751 0.1068191049588739 0 0.015212336226762669 0.1024384421522426 0 -0.0010079970578314029 0.097736462038016503 0 0.023800232284048501 0.085561541592994839 0 0.015212336226762669 0.1024384421522426 0 -0.0010079970578314029 0.097736462038016503 0 0.015212336226762669 0.1024384421522426 0 0.0089234202042218491 0.119636660019085 0 -0.00074169112318280927 0.1271885440150792 0 -0.0075495683861862093 0.1175268655262842 0 0.0089234202042218491 0.119636660019085 0 -0.0075495683861862093 0.1175268655262842 0 -0.0010079970578314029 0.097736462038016503 0 0.0089234202042218491 0.119636660019085 0 -0.0035354357301469932 0.13621453203073661 0 -0.00074169112318280927 0.1271885440150792 0 0.0064243703255477897 0.13434232116053221 0 -0.00074169112318280927 0.1271885440150792 0 0.0089234202042218491 0.119636660019085 0 0.0064243703255477897 0.13434232116053221 0 0.0064243703255477897 0.13434232116053221 0 0.011764257538606481 0.14525505972588529 0 0.00038689558867741687 0.14221945409500009 0 -0.0035354357301469932 0.13621453203073661 0 0.0064243703255477897 0.13434232116053221 0 0.00038689558867741687 0.14221945409500009 0 0.0064243703255477897 0.13434232116053221 0 0.019118703931521971 0.1325358551507983 0 0.011764257538606481 0.14525505972588529 0 0.0089234202042218491 0.119636660019085 0 0.0064243703255477897 0.13434232116053221 0 0.019118703931521971 0.1325358551507983 0 0.0306044288722967 0.1234706617642817 0 0.0089234202042218491 0.119636660019085 0 0.019118703931521971 0.1325358551507983 0 0.0306044288722967 0.1234706617642817 0 0.019118703931521971 0.1325358551507983 0 0.033939586267659798 0.13805348686062111 0 0.019118703931521971 0.1325358551507983 0 0.026902788272917241 0.15208661628889561 0 0.033939586267659798 0.13805348686062111 0 0.019118703931521971 0.1325358551507983 0 0.026902788272917241 0.15208661628889561 0 0.011764257538606481 0.14525505972588529 0 0.026902788272917241 0.15208661628889561 0 0.011764257538606481 0.14525505972588529 0 0.01351409608450996 0.15659444804796091 0 0.011764257538606481 0.14525505972588529 0 0.0030039891894815562 0.15161017628605661 0 0.01351409608450996 0.15659444804796091 0 0.011764257538606481 0.14525505972588529 0 0.00038689558867741687 0.14221945409500009 0 0.0030039891894815562 0.15161017628605661 0 -0.00070336967280846575 0.1642978841142787 0 0.0030039891894815562 0.15161017628605661 0 0.01351409608450996 0.15659444804796091 0 -0.00070336967280846575 0.1642978841142787 0 0.01351409608450996 0.15659444804796091 0 0.020193097168975511 0.1695445213161092 0 -0.0048120788223905506 0.17858148515489011 0 -0.00070336967280846575 0.1642978841142787 0 0.0099020368114460834 0.18726583886862469 0 -0.00070336967280846575 0.1642978841142787 0 0.0099020368114460834 0.18726583886862469 0 0.020193097168975511 0.1695445213161092 0 -0.00070336967280846575 0.1642978841142787 0 0.0099020368114460834 0.18726583886862469 0 -0.0048120788223905506 0.17858148515489011 0 0.0099020368114460834 0.18726583886862469 0 0.0019515735538277489 0.193650941013737 0 0.0099020368114460834 0.18726583886862469 0 0.02939156878000904 0.18474958718378801 0 0.020193097168975511 0.1695445213161092 0 0.02939156878000904 0.18474958718378801 0 0.020193097168975511 0.1695445213161092 0 0.042458280654134942 0.17151816826310221 0 0.026902788272917241 0.15208661628889561 0 0.020193097168975511 0.1695445213161092 0 0.042458280654134942 0.17151816826310221 0 0.026902788272917241 0.15208661628889561 0 0.01351409608450996 0.15659444804796091 0 0.020193097168975511 0.1695445213161092 0 0.026902788272917241 0.15208661628889561 0 0.042458280654134942 0.17151816826310221 0 0.046947180209351347 0.14876104515662261 0 0.02939156878000904 0.18474958718378801 0 0.042458280654134942 0.17151816826310221 0 0.047898068817545443 0.19458896960933139 0 0.042458280654134942 0.17151816826310221 0 0.047898068817545443 0.19458896960933139 0 0.069291165280368924 0.18817398160348831 0 0.042458280654134942 0.17151816826310221 0 0.069291165280368924 0.18817398160348831 0 0.065287155513898923 0.162069137775329 0 0.042458280654134942 0.17151816826310221 0 0.046947180209351347 0.14876104515662261 0 0.065287155513898923 0.162069137775329 0 0.046947180209351347 0.14876104515662261 0 0.064311449026543455 0.13511771870872949 0 0.065287155513898923 0.162069137775329 0 0.046947180209351347 0.14876104515662261 0 0.048783821520953778 0.1337211430430584 0 0.064311449026543455 0.13511771870872949 0 0.049036282041468149 0.1181328813302224 0 0.048783821520953778 0.1337211430430584 0 0.064311449026543455 0.13511771870872949 0 0.049036282041468149 0.1181328813302224 0 0.0306044288722967 0.1234706617642817 0 0.048783821520953778 0.1337211430430584 0 0.0306044288722967 0.1234706617642817 0 0.048783821520953778 0.1337211430430584 0 0.033939586267659798 0.13805348686062111 0 0.046947180209351347 0.14876104515662261 0 0.048783821520953778 0.1337211430430584 0 0.033939586267659798 0.13805348686062111 0 0.026902788272917241 0.15208661628889561 0 0.046947180209351347 0.14876104515662261 0 0.033939586267659798 0.13805348686062111 0 0.015274373677380861 0.22715770672463129 0 0.03820791988652511 0.22954042994069479 0 0.033949902252661937 0.25099025126797392 0 0.015274373677380861 0.22715770672463129 0 0.010292242862265389 0.2525681246984261 0 0.033949902252661937 0.25099025126797392 0 0.0044831673581638108 0.23823553642762901 0 0.015274373677380861 0.22715770672463129 0 0.010292242862265389 0.2525681246984261 0 -0.01368076861047251 0.24879265446303431 0 0.0044831673581638108 0.23823553642762901 0 0.010292242862265389 0.2525681246984261 0 -0.0099967432297582287 0.23280408780701989 0 0.0044831673581638108 0.23823553642762901 0 0.015274373677380861 0.22715770672463129 0 -0.0099967432297582287 0.23280408780701989 0 0.015274373677380861 0.22715770672463129 0 0.0044275860113074939 0.21386206084711071 0 0.015274373677380861 0.22715770672463129 0 0.025982589936818359 0.20358133987978089 0 0.03820791988652511 0.22954042994069479 0 0.025982589936818359 0.20358133987978089 0 0.0044275860113074939 0.21386206084711071 0 0.0019515735538277489 0.193650941013737 0 0.015274373677380861 0.22715770672463129 0 0.025982589936818359 0.20358133987978089 0 0.0044275860113074939 0.21386206084711071 0 0.025982589936818359 0.20358133987978089 0 0.0019515735538277489 0.193650941013737 0 0.0099020368114460834 0.18726583886862469 0 0.025982589936818359 0.20358133987978089 0 0.0019515735538277489 0.193650941013737 0 0.0099020368114460834 0.18726583886862469 0 0.02939156878000904 0.18474958718378801 0 0.025982589936818359 0.20358133987978089 0 0.02939156878000904 0.18474958718378801 0 0.025982589936818359 0.20358133987978089 0 0.047898068817545443 0.19458896960933139 0 0.050013606319808918 0.2135117387458248 0 0.074044622702799462 0.2234421376118686 0 0.047898068817545443 0.19458896960933139 0 0.050013606319808918 0.2135117387458248 0 0.070251201934132479 0.20599900198000409 0 0.025982589936818359 0.20358133987978089 0 0.047898068817545443 0.19458896960933139 0 0.050013606319808918 0.2135117387458248 0 0.025982589936818359 0.20358133987978089 0 0.050013606319808918 0.2135117387458248 0 0.025982589936818359 0.20358133987978089 0 0.050013606319808918 0.2135117387458248 0 0.03820791988652511 0.22954042994069479 0 0.050013606319808918 0.2135117387458248 0 0.05693647339102198 0.2308008482095571 0 0.074044622702799462 0.2234421376118686 0 0.050013606319808918 0.2135117387458248 0 0.03820791988652511 0.22954042994069479 0 0.05693647339102198 0.2308008482095571 0 0.03820791988652511 0.22954042994069479 0 0.05693647339102198 0.2308008482095571 0 0.057607561643058448 0.24941237783752099 0 0.03820791988652511 0.22954042994069479 0 0.057607561643058448 0.24941237783752099 0 0.033949902252661937 0.25099025126797392 0 0.081265221033454946 0.2478345044070682 0 0.1049228804238513 0.24625663097661221 0 0.094133730228923601 0.2499439320252386 0 0.081265221033454946 0.2478345044070682 0 0.1049228804238513 0.24625663097661221 0 0.081265221033454946 0.2478345044070682 0 0.074044622702799462 0.2234421376118686 0 0.098075639085788868 0.2333725364779152 0 0.05693647339102198 0.2308008482095571 0 0.057607561643058448 0.24941237783752099 0 0.081265221033454946 0.2478345044070682 0 0.057607561643058448 0.24941237783752099 0 0.081265221033454946 0.2478345044070682 0 0.05693647339102198 0.2308008482095571 0 0.081265221033454946 0.2478345044070682 0 0.074044622702799462 0.2234421376118686 0 0.074044622702799462 0.2234421376118686 0 0.089243624144056302 0.22038407673143101 0 0.098075639085788868 0.2333725364779152 0 0.074044622702799462 0.2234421376118686 0 0.098075639085788868 0.2333725364779152 0 0.089243624144056302 0.22038407673143101 0 0.086897437797116936 0.19955261901017821 0 0.098621896780098889 0.20959671046503001 0 0.089243624144056302 0.22038407673143101 0 0.070251201934132479 0.20599900198000409 0 0.086897437797116936 0.19955261901017821 0 0.050013606319808918 0.2135117387458248 0 0.074044622702799462 0.2234421376118686 0 0.070251201934132479 0.20599900198000409 0 0.074044622702799462 0.2234421376118686 0 0.089243624144056302 0.22038407673143101 0 0.070251201934132479 0.20599900198000409 0 0.047898068817545443 0.19458896960933139 0 0.070251201934132479 0.20599900198000409 0 0.069291165280368924 0.18817398160348831 0 0.070251201934132479 0.20599900198000409 0 0.069291165280368924 0.18817398160348831 0 0.086897437797116936 0.19955261901017821 0 0.086897437797116936 0.19955261901017821 0 0.1078421805067222 0.19867399850315881 0 0.098621896780098889 0.20959671046503001 0 0.086897437797116936 0.19955261901017821 0 0.1078421805067222 0.19867399850315881 0 0.098642525816580701 0.175840131792695 0 0.1078421805067222 0.19867399850315881 0 0.1237934323733194 0.18715704302237679 0 0.13276537079288711 0.20502016790050309 0 0.11704183519686361 0.2215078652136224 0 0.12434045286256951 0.2269613531924709 0 0.13276537079288711 0.20502016790050309 0 0.1078421805067222 0.19867399850315881 0 0.11704183519686361 0.2215078652136224 0 0.1078421805067222 0.19867399850315881 0 0.11704183519686361 0.2215078652136224 0 0.13276537079288711 0.20502016790050309 0 0.1078421805067222 0.19867399850315881 0 0.098621896780098889 0.20959671046503001 0 0.11704183519686361 0.2215078652136224 0 0.098621896780098889 0.20959671046503001 0 0.10385912357778 0.22185453335093511 0 0.11704183519686361 0.2215078652136224 0 0.089243624144056302 0.22038407673143101 0 0.098621896780098889 0.20959671046503001 0 0.10385912357778 0.22185453335093511 0 0.089243624144056302 0.22038407673143101 0 0.1008659363758598 0.22784983138269929 0 0.10385912357778 0.22185453335093511 0 0.089243624144056302 0.22038407673143101 0 0.098075639085788868 0.2333725364779152 0 0.1008659363758598 0.22784983138269929 0 0.098075639085788868 0.2333725364779152 0 0.1004511313248924 0.23230707934381101 0 0.1008659363758598 0.22784983138269929 0 0.098075639085788868 0.2333725364779152 0 0.1007613618212676 0.23448236460926741 0 0.098075639085788868 0.2333725364779152 0 0.1004511313248924 0.23230707934381101 0 0.1007613618212676 0.23448236460926741 0 0.1008659363758598 0.22784983138269929 0 0.10457303259014281 0.23263867624071249 0 0.10585915696258701 0.22751536948562509 0 0.1004511313248924 0.23230707934381101 0 0.10457303259014281 0.23263867624071249 0 0.1007613618212676 0.23448236460926741 0 0.1004511313248924 0.23230707934381101 0 0.1008659363758598 0.22784983138269929 0 0.10457303259014281 0.23263867624071249 0 0.10457303259014281 0.23263867624071249 0 0.10989234403348 0.22971401169978381 0 0.11036772144022861 0.2342470908591833 0 0.10585915696258701 0.22751536948562509 0 0.1101053482356724 0.22551979475399511 0 0.10989234403348 0.22971401169978381 0 0.10457303259014281 0.23263867624071249 0 0.10585915696258701 0.22751536948562509 0 0.10989234403348 0.22971401169978381 0 0.10585915696258701 0.22751536948562509 0 0.10385912357778 0.22185453335093511 0 0.1101053482356724 0.22551979475399511 0 0.1008659363758598 0.22784983138269929 0 0.10585915696258701 0.22751536948562509 0 0.10385912357778 0.22185453335093511 0 0.11704183519686361 0.2215078652136224 0 0.12624148988700501 0.24434173192408601 0 0.11704183519686361 0.2215078652136224 0 0.12624148988700501 0.24434173192408601 0 0.1255878481319892 0.2356816044366209 0 0.11704183519686361 0.2215078652136224 0 0.1199273940317131 0.23594822895953929 0 0.12624148988700501 0.24434173192408601 0 0.10385912357778 0.22185453335093511 0 0.1101053482356724 0.22551979475399511 0 0.11704183519686361 0.2215078652136224 0 0.1101053482356724 0.22551979475399511 0 0.11704183519686361 0.2215078652136224 0 0.1137607443496408 0.22792648068673341 0 0.11704183519686361 0.2215078652136224 0 0.12434045286256951 0.2269613531924709 0 0.1255878481319892 0.2356816044366209 0 0.11704183519686361 0.2215078652136224 0 0.1161933485932751 0.2317740987918594 0 0.1199273940317131 0.23594822895953929 0 0.11704183519686361 0.2215078652136224 0 0.1161933485932751 0.2317740987918594 0 0.1137607443496408 0.22792648068673341 0 0.1161933485932751 0.2317740987918594 0 0.1133700203784116 0.2318333871634288 0 0.1137607443496408 0.22792648068673341 0 0.1161933485932751 0.2317740987918594 0 0.1133700203784116 0.2318333871634288 0 0.11448806984755371 0.2353806612416674 0 0.1101053482356724 0.22551979475399511 0 0.1137607443496408 0.22792648068673341 0 0.10989234403348 0.22971401169978381 0 0.1133700203784116 0.2318333871634288 0 0.1137607443496408 0.22792648068673341 0 0.10989234403348 0.22971401169978381 0 0.1133700203784116 0.2318333871634288 0 0.11036772144022861 0.2342470908591833 0 0.11448806984755371 0.2353806612416674 0 0.1133700203784116 0.2318333871634288 0 0.10989234403348 0.22971401169978381 0 0.11036772144022861 0.2342470908591833 0 0.1103474118349351 0.23846205740914489 0 0.1141564815513251 0.2398671570946784 0 0.11448806984755371 0.2353806612416674 0 0.12008009323077901 0.24785128397275361 0 0.1049228804238513 0.24625663097661221 0 0.12624148988700501 0.24434173192408601 0 0.1176053118307837 0.24232167176754141 0 0.1049228804238513 0.24625663097661221 0 0.12624148988700501 0.24434173192408601 0 0.1049228804238513 0.24625663097661221 0 0.12624148988700501 0.24434173192408601 0 0.1103474118349351 0.23846205740914489 0 0.1141564815513251 0.2398671570946784 0 0.1049228804238513 0.24625663097661221 0 0.11036772144022861 0.2342470908591833 0 0.1103474118349351 0.23846205740914489 0 0.11448806984755371 0.2353806612416674 0 0.1141564815513251 0.2398671570946784 0 0.1167741729668391 0.2365096907847494 0 0.1191055708103286 0.23957830783600231 0 0.1141564815513251 0.2398671570946784 0 0.1191055708103286 0.23957830783600231 0 0.1176053118307837 0.24232167176754141 0 0.1141564815513251 0.2398671570946784 0 0.11448806984755371 0.2353806612416674 0 0.1167741729668391 0.2365096907847494 0 0.1161933485932751 0.2317740987918594 0 0.11448806984755371 0.2353806612416674 0 0.1167741729668391 0.2365096907847494 0 0.1161933485932751 0.2317740987918594 0 0.1167741729668391 0.2365096907847494 0 0.1199273940317131 0.23594822895953929 0 0.1199273940317131 0.23594822895953929 0 0.1222437667911361 0.24135602943475051 0 0.12624148988700501 0.24434173192408601 0 0.1167741729668391 0.2365096907847494 0 0.1199273940317131 0.23594822895953929 0 0.1191055708103286 0.23957830783600231 0 0.1199273940317131 0.23594822895953929 0 0.1191055708103286 0.23957830783600231 0 0.1222437667911361 0.24135602943475051 0 0.1191055708103286 0.23957830783600231 0 0.1222437667911361 0.24135602943475051 0 0.1176053118307837 0.24232167176754141 0 0.1222437667911361 0.24135602943475051 0 0.1176053118307837 0.24232167176754141 0 0.12624148988700501 0.24434173192408601 0 0.12008009323077901 0.24785128397275361 0 0.1243937442617858 0.25004166130603311 0 0.1194715899708394 0.25199818021347231 0 0.12008009323077901 0.24785128397275361 0 0.12624148988700501 0.24434173192408601 0 0.12504815011385531 0.24707615519647119 0 0.12008009323077901 0.24785128397275361 0 0.12504815011385531 0.24707615519647119 0 0.1243937442617858 0.25004166130603311 0 0.1141564815513251 0.2398671570946784 0 0.1176053118307837 0.24232167176754141 0 0.1049228804238513 0.24625663097661221 0 0.12008009323077901 0.24785128397275361 0 0.1049228804238513 0.24625663097661221 0 0.1194715899708394 0.25199818021347231 0 0.081265221033454946 0.2478345044070682 0 0.098075639085788868 0.2333725364779152 0 0.1049228804238513 0.24625663097661221 0 0.1103474118349351 0.23846205740914489 0 0.1049228804238513 0.24625663097661221 0 0.10646868525923189 0.23715666592755641 0 0.1049228804238513 0.24625663097661221 0 0.10646868525923189 0.23715666592755641 0 0.1007613618212676 0.23448236460926741 0 0.11036772144022861 0.2342470908591833 0 0.1103474118349351 0.23846205740914489 0 0.10646868525923189 0.23715666592755641 0 0.10457303259014281 0.23263867624071249 0 0.11036772144022861 0.2342470908591833 0 0.10646868525923189 0.23715666592755641 0 0.10457303259014281 0.23263867624071249 0 0.10646868525923189 0.23715666592755641 0 0.1007613618212676 0.23448236460926741 0 0.098075639085788868 0.2333725364779152 0 0.1049228804238513 0.24625663097661221 0 0.1007613618212676 0.23448236460926741 0 0.098075639085788868 0.2333725364779152 0 0.1049228804238513 0.24625663097661221 0 0.095263339037144928 0.1148773264796832 0 0.083503428854915782 0.12891477582055669 0 0.1011992594238136 0.13432757037802651 0 0.089442871126439213 0.1530062650822312 0 0.083503428854915782 0.12891477582055669 0 0.1011992594238136 0.13432757037802651 0 0.089442871126439213 0.1530062650822312 0 0.083503428854915782 0.12891477582055669 0 0.064311449026543455 0.13511771870872949 0 0.089442871126439213 0.1530062650822312 0 0.064311449026543455 0.13511771870872949 0 0.065287155513898923 0.162069137775329 0 0.069291165280368924 0.18817398160348831 0 0.065287155513898923 0.162069137775329 0 0.07995140293262322 0.17245134572882129 0 0.086897437797116936 0.19955261901017821 0 0.07995140293262322 0.17245134572882129 0 0.098642525816580701 0.175840131792695 0 0.069291165280368924 0.18817398160348831 0 0.086897437797116936 0.19955261901017821 0 0.07995140293262322 0.17245134572882129 0 0.089442871126439213 0.1530062650822312 0 0.065287155513898923 0.162069137775329 0 0.07995140293262322 0.17245134572882129 0 0.089442871126439213 0.1530062650822312 0 0.07995140293262322 0.17245134572882129 0 0.098642525816580701 0.175840131792695 0 0.089442871126439213 0.1530062650822312 0 0.098642525816580701 0.175840131792695 0 0.11284989372635509 0.15084126949239279 0 0.089442871126439213 0.1530062650822312 0 0.098642525816580701 0.175840131792695 0 0.1078421805067222 0.19867399850315881 0 0.098642525816580701 0.175840131792695 0 0.098642525816580701 0.175840131792695 0 0.1237934323733194 0.18715704302237679 0 0.12052032374614929 0.16852953239240651 0 0.1078421805067222 0.19867399850315881 0 0.098642525816580701 0.175840131792695 0 0.1237934323733194 0.18715704302237679 0 0.12052032374614929 0.16852953239240651 0 0.11284989372635509 0.15084126949239279 0 0.13085238238207231 0.15591952847804791 0 0.098642525816580701 0.175840131792695 0 0.12052032374614929 0.16852953239240651 0 0.11284989372635509 0.15084126949239279 0 0.11284989372635509 0.15084126949239279 0 0.1235783582481218 0.1383494041676103 0 0.13085238238207231 0.15591952847804791 0 0.11284989372635509 0.15084126949239279 0 0.1137707679383597 0.13626228828385931 0 0.1235783582481218 0.1383494041676103 0 0.089442871126439213 0.1530062650822312 0 0.11284989372635509 0.15084126949239279 0 0.1011992594238136 0.13432757037802651 0 0.11284989372635509 0.15084126949239279 0 0.1011992594238136 0.13432757037802651 0 0.1137707679383597 0.13626228828385931 0 0.1214337654292612 0.1206876101045128 0 0.11908437462151041 0.1246492547752462 0 0.1235783582481218 0.1383494041676103 0 0.11908437462151041 0.1246492547752462 0 0.1011992594238136 0.13432757037802651 0 0.1137707679383597 0.13626228828385931 0 0.11908437462151041 0.1246492547752462 0 0.1137707679383597 0.13626228828385931 0 0.1235783582481218 0.1383494041676103 0 0.1214337654292612 0.1206876101045128 0 0.1235783582481218 0.1383494041676103 0 0.1379366158960432 0.13966485828131189 0 0.1214337654292612 0.1206876101045128 0 0.1379366158960432 0.13966485828131189 0 0.1214337654292612 0.1206876101045128 0 0.1379366158960432 0.13966485828131189 0 0.13579381173382071 0.1217654569702047 0 0.1379366158960432 0.13966485828131189 0 0.1456965733615152 0.12855459717088771 0 0.13579381173382071 0.1217654569702047 0 0.1456965733615152 0.12855459717088771 0 0.15804012458383959 0.13919661202459971 0 0.15515114505718969 0.1232226789215896 0 0.1379366158960432 0.13966485828131189 0 0.1456965733615152 0.12855459717088771 0 0.15804012458383959 0.13919661202459971 0 0.1496152066535221 0.16113779731656749 0 0.15804012458383959 0.13919661202459971 0 0.1379366158960432 0.13966485828131189 0 0.1496152066535221 0.16113779731656749 0 0.15804012458383959 0.13919661202459971 0 0.1379366158960432 0.13966485828131189 0 0.13085238238207231 0.15591952847804791 0 0.1496152066535221 0.16113779731656749 0 0.1235783582481218 0.1383494041676103 0 0.1379366158960432 0.13966485828131189 0 0.13085238238207231 0.15591952847804791 0 0.13085238238207231 0.15591952847804791 0 0.13319432677565349 0.17116457676358679 0 0.1496152066535221 0.16113779731656749 0 0.12052032374614929 0.16852953239240651 0 0.13085238238207231 0.15591952847804791 0 0.13319432677565349 0.17116457676358679 0 0.1237934323733194 0.18715704302237679 0 0.12052032374614929 0.16852953239240651 0 0.13319432677565349 0.17116457676358679 0 0.1237934323733194 0.18715704302237679 0 0.13319432677565349 0.17116457676358679 0 0.1411902887232046 0.18307898260853531 0 0.1411902887232046 0.18307898260853531 0 0.1496152066535221 0.16113779731656749 0 0.15802063845286979 0.18244091336529139 0 0.1411902887232046 0.18307898260853531 0 0.1496152066535221 0.16113779731656749 0 0.13319432677565349 0.17116457676358679 0 0.1411902887232046 0.18307898260853531 0 0.1496152066535221 0.16113779731656749 0 0.1496152066535221 0.16113779731656749 0 0.17046350373579139 0.16564022398455791 0 0.15802063845286979 0.18244091336529139 0 0.1496152066535221 0.16113779731656749 0 0.17046350373579139 0.16564022398455791 0 0.16839024249770371 0.15094502940529531 0 0.15802063845286979 0.18244091336529139 0 0.17482027660076169 0.18059162717772831 0 0.1683901438877104 0.19327963807563581 0 0.17046350373579139 0.16564022398455791 0 0.15802063845286979 0.18244091336529139 0 0.17482027660076169 0.18059162717772831 0 0.17046350373579139 0.16564022398455791 0 0.17482027660076169 0.18059162717772831 0 0.18931452128178969 0.172156246240001 0 0.17482027660076169 0.18059162717772831 0 0.1873110077552127 0.1894206465310192 0 0.18931452128178969 0.172156246240001 0 0.17046350373579139 0.16564022398455791 0 0.18194360367539661 0.14786018779245411 0 0.18931452128178969 0.172156246240001 0 0.18194360367539661 0.14786018779245411 0 0.18931452128178969 0.172156246240001 0 0.18194360367539661 0.14786018779245411 0 0.18522108444289559 0.13185151400460279 0 0.1929880036566709 0.15308149429542431 0 0.17046350373579139 0.16564022398455791 0 0.18194360367539661 0.14786018779245411 0 0.16839024249770371 0.15094502940529531 0 0.18194360367539661 0.14786018779245411 0 0.16947450543498241 0.13811715812132541 0 0.16839024249770371 0.15094502940529531 0 0.18194360367539661 0.14786018779245411 0 0.1745726860690035 0.12356412934490719 0 0.18194360367539661 0.14786018779245411 0 0.18522108444289559 0.13185151400460279 0 0.1745726860690035 0.12356412934490719 0 0.18194360367539661 0.14786018779245411 0 0.16947450543498241 0.13811715812132541 0 0.1745726860690035 0.12356412934490719 0 0.16442587034896861 0.1290198320393709 0 0.15804012458383959 0.13919661202459971 0 0.15515114505718969 0.1232226789215896 0 0.16947450543498241 0.13811715812132541 0 0.16442587034896861 0.1290198320393709 0 0.1745726860690035 0.12356412934490719 0 0.16947450543498241 0.13811715812132541 0 0.16442587034896861 0.1290198320393709 0 0.15804012458383959 0.13919661202459971 0 0.1496152066535221 0.16113779731656749 0 0.15804012458383959 0.13919661202459971 0 0.16839024249770371 0.15094502940529531 0 0.16947450543498241 0.13811715812132541 0 0.15804012458383959 0.13919661202459971 0 0.16839024249770371 0.15094502940529531 0 0.14531794354398009 0.2383769528027487 0 0.1491329735256666 0.2280142233559849 0 0.1443619108738301 0.25247881771211322 0 0.1491329735256666 0.2280142233559849 0 0.1573252455148316 0.24401431122676481 0 0.1443619108738301 0.25247881771211322 0 0.1491329735256666 0.2280142233559849 0 0.1443619108738301 0.25247881771211322 0 0.1573252455148316 0.24401431122676481 0 0.1443619108738301 0.25247881771211322 0 0.14531794354398009 0.2383769528027487 0 0.142637050000158 0.23613652006653699 0 0.14360464658032041 0.23330569595844769 0 0.14531794354398009 0.2383769528027487 0 0.142637050000158 0.23613652006653699 0 0.14277971427743411 0.23855152524813319 0 0.142637050000158 0.23613652006653699 0 0.14277971427743411 0.23855152524813319 0 0.14039477848573029 0.23755821111130129 0 0.142637050000158 0.23613652006653699 0 0.14039477848573029 0.23755821111130129 0 0.1403850977366104 0.23370419805840731 0 0.14531794354398009 0.2383769528027487 0 0.14316758688636499 0.2404678500502927 0 0.14403716052124341 0.24452272881869161 0 0.14531794354398009 0.2383769528027487 0 0.14316758688636499 0.2404678500502927 0 0.14277971427743411 0.23855152524813319 0 0.14316758688636499 0.2404678500502927 0 0.14277971427743411 0.23855152524813319 0 0.14152714110386469 0.2400575319925683 0 0.14277971427743411 0.23855152524813319 0 0.14152714110386469 0.2400575319925683 0 0.14039477848573029 0.23755821111130129 0 0.14152714110386469 0.2400575319925683 0 0.14214945930329259 0.24269244719585659 0 0.14040062615607179 0.24183918100281901 0 0.14316758688636499 0.2404678500502927 0 0.14152714110386469 0.2400575319925683 0 0.14214945930329259 0.24269244719585659 0 0.14531794354398009 0.2383769528027487 0 0.1439631473146373 0.2471711770375882 0 0.1443619108738301 0.25247881771211322 0 0.14531794354398009 0.2383769528027487 0 0.14403716052124341 0.24452272881869161 0 0.1439631473146373 0.2471711770375882 0 0.14316758688636499 0.2404678500502927 0 0.14214945930329259 0.24269244719585659 0 0.14403716052124341 0.24452272881869161 0 0.14214945930329259 0.24269244719585659 0 0.13972667657756169 0.24399188760368959 0 0.14040062615607179 0.24183918100281901 0 0.14214945930329259 0.24269244719585659 0 0.1419361283077416 0.24532812235129831 0 0.13972667657756169 0.24399188760368959 0 0.14214945930329259 0.24269244719585659 0 0.1419361283077416 0.24532812235129831 0 0.14403716052124341 0.24452272881869161 0 0.1419361283077416 0.24532812235129831 0 0.14403716052124341 0.24452272881869161 0 0.1439631473146373 0.2471711770375882 0 0.14259854284534321 0.24886567522877809 0 0.1439631473146373 0.2471711770375882 0 0.1443619108738301 0.25247881771211322 0 0.14259854284534321 0.24886567522877809 0 0.1439631473146373 0.2471711770375882 0 0.14123165767596271 0.24737362051809089 0 0.1419361283077416 0.24532812235129831 0 0.1439631473146373 0.2471711770375882 0 0.14123165767596271 0.24737362051809089 0 0.1419361283077416 0.24532812235129831 0 0.14123165767596271 0.24737362051809089 0 0.13914001890768121 0.24629405703643081 0 0.14259854284534321 0.24886567522877809 0 0.14123165767596271 0.24737362051809089 0 0.14041315158971951 0.24942753197291989 0 0.14259854284534321 0.24886567522877809 0 0.14041315158971951 0.24942753197291989 0 0.14204595666316641 0.25034823350876839 0 0.14123165767596271 0.24737362051809089 0 0.14041315158971951 0.24942753197291989 0 0.13838221720006039 0.24839597527095261 0 0.14041315158971951 0.24942753197291989 0 0.13838221720006039 0.24839597527095261 0 0.13828035729737059 0.25097015831794101 0 0.14123165767596271 0.24737362051809089 0 0.13914001890768121 0.24629405703643081 0 0.13838221720006039 0.24839597527095261 0 0.13914001890768121 0.24629405703643081 0 0.13711938065537921 0.24537741286346759 0 0.13641174447844279 0.24735960786331621 0 0.13914001890768121 0.24629405703643081 0 0.13838221720006039 0.24839597527095261 0 0.13641174447844279 0.24735960786331621 0 0.13838221720006039 0.24839597527095261 0 0.13828035729737059 0.25097015831794101 0 0.1350215923220012 0.25045035956268641 0 0.13972667657756169 0.24399188760368959 0 0.13852595525822409 0.2416455522168317 0 0.14040062615607179 0.24183918100281901 0 0.13914001890768121 0.24629405703643081 0 0.13972667657756169 0.24399188760368959 0 0.13711938065537921 0.24537741286346759 0 0.1419361283077416 0.24532812235129831 0 0.13914001890768121 0.24629405703643081 0 0.13972667657756169 0.24399188760368959 0 0.13972667657756169 0.24399188760368959 0 0.13711938065537921 0.24537741286346759 0 0.13713399693885511 0.24326407271926659 0 0.13972667657756169 0.24399188760368959 0 0.13713399693885511 0.24326407271926659 0 0.13852595525822409 0.2416455522168317 0 0.13713399693885511 0.24326407271926659 0 0.13543461958093969 0.24272498333297149 0 0.13627190150178201 0.2409095652466626 0 0.13713399693885511 0.24326407271926659 0 0.13543461958093969 0.24272498333297149 0 0.134977252094692 0.24463679257801149 0 0.13711938065537921 0.24537741286346759 0 0.13713399693885511 0.24326407271926659 0 0.134977252094692 0.24463679257801149 0 0.13711938065537921 0.24537741286346759 0 0.134977252094692 0.24463679257801149 0 0.13436858183098871 0.24675332890163951 0 0.134977252094692 0.24463679257801149 0 0.13436858183098871 0.24675332890163951 0 0.1324384787146804 0.24584956469359551 0 0.134977252094692 0.24463679257801149 0 0.13305670652874541 0.2437271252596426 0 0.1324384787146804 0.24584956469359551 0 0.13543461958093969 0.24272498333297149 0 0.13305670652874541 0.2437271252596426 0 0.13364765219749161 0.24177464497753079 0 0.13543461958093969 0.24272498333297149 0 0.134977252094692 0.24463679257801149 0 0.13305670652874541 0.2437271252596426 0 0.13641174447844279 0.24735960786331621 0 0.13436858183098871 0.24675332890163951 0 0.1350215923220012 0.25045035956268641 0 0.13838221720006039 0.24839597527095261 0 0.13641174447844279 0.24735960786331621 0 0.1350215923220012 0.25045035956268641 0 0.13711938065537921 0.24537741286346759 0 0.13641174447844279 0.24735960786331621 0 0.13436858183098871 0.24675332890163951 0 0.13436858183098871 0.24675332890163951 0 0.13165815118821411 0.24781687312107081 0 0.1324384787146804 0.24584956469359551 0 0.13436858183098871 0.24675332890163951 0 0.13165815118821411 0.24781687312107081 0 0.1350215923220012 0.25045035956268641 0 0.13165815118821411 0.24781687312107081 0 0.1350215923220012 0.25045035956268641 0 0.12912149283636359 0.25051101303651058 0 0.12898036779691119 0.24690819745947831 0 0.13165815118821411 0.24781687312107081 0 0.12912149283636359 0.25051101303651058 0 0.12898036779691119 0.24690819745947831 0 0.13165815118821411 0.24781687312107081 0 0.13039531606722601 0.2452432857319192 0 0.13165815118821411 0.24781687312107081 0 0.1324384787146804 0.24584956469359551 0 0.13039531606722601 0.2452432857319192 0 0.1324384787146804 0.24584956469359551 0 0.1307482234844653 0.2429431790494529 0 0.13039531606722601 0.2452432857319192 0 0.13305670652874541 0.2437271252596426 0 0.1307482234844653 0.2429431790494529 0 0.1316044895500372 0.2411683660158547 0 0.13305670652874541 0.2437271252596426 0 0.1324384787146804 0.24584956469359551 0 0.1307482234844653 0.2429431790494529 0 0.1307482234844653 0.2429431790494529 0 0.1283521534197716 0.24463700677024269 0 0.12880419203480831 0.24255428046228911 0 0.12898036779691119 0.24690819745947831 0 0.13039531606722601 0.2452432857319192 0 0.1283521534197716 0.24463700677024269 0 0.1307482234844653 0.2429431790494529 0 0.13039531606722601 0.2452432857319192 0 0.1283521534197716 0.24463700677024269 0 0.12898036779691119 0.24690819745947831 0 0.1283521534197716 0.24463700677024269 0 0.12624148988700501 0.24434173192408601 0 0.1283521534197716 0.24463700677024269 0 0.12880419203480831 0.24255428046228911 0 0.12624148988700501 0.24434173192408601 0 0.12880419203480831 0.24255428046228911 0 0.12624148988700501 0.24434173192408601 0 0.12771848155429069 0.24079574657382319 0 0.12624148988700501 0.24434173192408601 0 0.12504815011385531 0.24707615519647119 0 0.12720072216483541 0.24773338144816051 0 0.12720072216483541 0.24773338144816051 0 0.1243937442617858 0.25004166130603311 0 0.12912149283636359 0.25051101303651058 0 0.12504815011385531 0.24707615519647119 0 0.12720072216483541 0.24773338144816051 0 0.1243937442617858 0.25004166130603311 0 0.12898036779691119 0.24690819745947831 0 0.12720072216483541 0.24773338144816051 0 0.12912149283636359 0.25051101303651058 0 0.12898036779691119 0.24690819745947831 0 0.12624148988700501 0.24434173192408601 0 0.12720072216483541 0.24773338144816051 0 0.12624148988700501 0.24434173192408601 0 0.1255878481319892 0.2356816044366209 0 0.12771848155429069 0.24079574657382319 0 0.12851764059564391 0.23811121522218531 0 0.1255878481319892 0.2356816044366209 0 0.12771848155429069 0.24079574657382319 0 0.12851764059564391 0.23811121522218531 0 0.1255878481319892 0.2356816044366209 0 0.12891845670501689 0.23537971561461141 0 0.12880419203480831 0.24255428046228911 0 0.12771848155429069 0.24079574657382319 0 0.12965045232819111 0.2407421686663673 0 0.12851764059564391 0.23811121522218531 0 0.12771848155429069 0.24079574657382319 0 0.12965045232819111 0.2407421686663673 0 0.12851764059564391 0.23811121522218531 0 0.12965045232819111 0.2407421686663673 0 0.13165876541933799 0.23815762682404379 0 0.1307482234844653 0.2429431790494529 0 0.12965045232819111 0.2407421686663673 0 0.1316044895500372 0.2411683660158547 0 0.1307482234844653 0.2429431790494529 0 0.12880419203480831 0.24255428046228911 0 0.12965045232819111 0.2407421686663673 0 0.13305670652874541 0.2437271252596426 0 0.1316044895500372 0.2411683660158547 0 0.13364765219749161 0.24177464497753079 0 0.12965045232819111 0.2407421686663673 0 0.1316044895500372 0.2411683660158547 0 0.13165876541933799 0.23815762682404379 0 0.1316044895500372 0.2411683660158547 0 0.13165876541933799 0.23815762682404379 0 0.13453808453848959 0.2394320219837982 0 0.13165876541933799 0.23815762682404379 0 0.12891845670501689 0.23537971561461141 0 0.13215302146381641 0.23316594045333289 0 0.12851764059564391 0.23811121522218531 0 0.13165876541933799 0.23815762682404379 0 0.12891845670501689 0.23537971561461141 0 0.13512868432091851 0.2369220790806176 0 0.13656232797571699 0.23434323750299099 0 0.13215302146381641 0.23316594045333289 0 0.13165876541933799 0.23815762682404379 0 0.13512868432091851 0.2369220790806176 0 0.13215302146381641 0.23316594045333289 0 0.13165876541933799 0.23815762682404379 0 0.13512868432091851 0.2369220790806176 0 0.13453808453848959 0.2394320219837982 0 0.13512868432091851 0.2369220790806176 0 0.13792666748851931 0.23641190677799559 0 0.13656232797571699 0.23434323750299099 0 0.1316044895500372 0.2411683660158547 0 0.13364765219749161 0.24177464497753079 0 0.13453808453848959 0.2394320219837982 0 0.13512868432091851 0.2369220790806176 0 0.13453808453848959 0.2394320219837982 0 0.13738023863279419 0.2388289773978097 0 0.13453808453848959 0.2394320219837982 0 0.13627190150178201 0.2409095652466626 0 0.13738023863279419 0.2388289773978097 0 0.13543461958093969 0.24272498333297149 0 0.13364765219749161 0.24177464497753079 0 0.13627190150178201 0.2409095652466626 0 0.13364765219749161 0.24177464497753079 0 0.13453808453848959 0.2394320219837982 0 0.13627190150178201 0.2409095652466626 0 0.13627190150178201 0.2409095652466626 0 0.13852595525822409 0.2416455522168317 0 0.13738023863279419 0.2388289773978097 0 0.13713399693885511 0.24326407271926659 0 0.13627190150178201 0.2409095652466626 0 0.13852595525822409 0.2416455522168317 0 0.13852595525822409 0.2416455522168317 0 0.13738023863279419 0.2388289773978097 0 0.13943522396440419 0.23978810669039799 0 0.13738023863279419 0.2388289773978097 0 0.13943522396440419 0.23978810669039799 0 0.14039477848573029 0.23755821111130129 0 0.14152714110386469 0.2400575319925683 0 0.13943522396440419 0.23978810669039799 0 0.14039477848573029 0.23755821111130129 0 0.14152714110386469 0.2400575319925683 0 0.13943522396440419 0.23978810669039799 0 0.14040062615607179 0.24183918100281901 0 0.13852595525822409 0.2416455522168317 0 0.13943522396440419 0.23978810669039799 0 0.14040062615607179 0.24183918100281901 0 0.13792666748851931 0.23641190677799559 0 0.1403850977366104 0.23370419805840731 0 0.13656232797571699 0.23434323750299099 0 0.13512868432091851 0.2369220790806176 0 0.13738023863279419 0.2388289773978097 0 0.13792666748851931 0.23641190677799559 0 0.13738023863279419 0.2388289773978097 0 0.13792666748851931 0.23641190677799559 0 0.14039477848573029 0.23755821111130129 0 0.13792666748851931 0.23641190677799559 0 0.14039477848573029 0.23755821111130129 0 0.1403850977366104 0.23370419805840731 0 0.1403850977366104 0.23370419805840731 0 0.1382917589767842 0.23068828407379219 0 0.1418184857483738 0.22889905086288709 0 0.12434045286256951 0.2269613531924709 0 0.1349444003804644 0.22660354314857589 0 0.13276537079288711 0.20502016790050309 0 0.1403850977366104 0.23370419805840731 0 0.1382917589767842 0.23068828407379219 0 0.13656232797571699 0.23434323750299099 0 0.1382917589767842 0.23068828407379219 0 0.1349444003804644 0.22660354314857589 0 0.1418184857483738 0.22889905086288709 0 0.1382917589767842 0.23068828407379219 0 0.1349444003804644 0.22660354314857589 0 0.13656232797571699 0.23434323750299099 0 0.1349444003804644 0.22660354314857589 0 0.13656232797571699 0.23434323750299099 0 0.13215302146381641 0.23316594045333289 0 0.12434045286256951 0.2269613531924709 0 0.1349444003804644 0.22660354314857589 0 0.1299499668453318 0.22969598890633369 0 0.12434045286256951 0.2269613531924709 0 0.1255878481319892 0.2356816044366209 0 0.12836199267447701 0.23205311883095531 0 0.12891845670501689 0.23537971561461141 0 0.13215302146381641 0.23316594045333289 0 0.12836199267447701 0.23205311883095531 0 0.13215302146381641 0.23316594045333289 0 0.1299499668453318 0.22969598890633369 0 0.12836199267447701 0.23205311883095531 0 0.1349444003804644 0.22660354314857589 0 0.13215302146381641 0.23316594045333289 0 0.1299499668453318 0.22969598890633369 0 0.12434045286256951 0.2269613531924709 0 0.1299499668453318 0.22969598890633369 0 0.12836199267447701 0.23205311883095531 0 0.1255878481319892 0.2356816044366209 0 0.12891845670501689 0.23537971561461141 0 0.12836199267447701 0.23205311883095531 0 0.1349444003804644 0.22660354314857589 0 0.14284739291658399 0.22119563557565869 0 0.1418184857483738 0.22889905086288709 0 0.14284739291658399 0.22119563557565869 0 0.1451091310011853 0.22716139864178209 0 0.1491329735256666 0.2280142233559849 0 0.14284739291658399 0.22119563557565869 0 0.1418184857483738 0.22889905086288709 0 0.1451091310011853 0.22716139864178209 0 0.14531794354398009 0.2383769528027487 0 0.14663767181411691 0.2305366847725977 0 0.1491329735256666 0.2280142233559849 0 0.14531794354398009 0.2383769528027487 0 0.14360464658032041 0.23330569595844769 0 0.14663767181411691 0.2305366847725977 0 0.1403850977366104 0.23370419805840731 0 0.1418184857483738 0.22889905086288709 0 0.14360464658032041 0.23330569595844769 0 0.1418184857483738 0.22889905086288709 0 0.14360464658032041 0.23330569595844769 0 0.14663767181411691 0.2305366847725977 0 0.142637050000158 0.23613652006653699 0 0.1403850977366104 0.23370419805840731 0 0.14360464658032041 0.23330569595844769 0 0.1418184857483738 0.22889905086288709 0 0.14663767181411691 0.2305366847725977 0 0.1451091310011853 0.22716139864178209 0 0.14663767181411691 0.2305366847725977 0 0.1451091310011853 0.22716139864178209 0 0.1491329735256666 0.2280142233559849 0 0.14663767181411691 0.2305366847725977 0 0.1491329735256666 0.2280142233559849 0 0.14284739291658399 0.22119563557565869 0 0.1491329735256666 0.2280142233559849 0 0.15357680598926829 0.20522756836063821 0 0.14284739291658399 0.22119563557565869 0 0.15357680598926829 0.20522756836063821 0 0.13276537079288711 0.20502016790050309 0 0.1491329735256666 0.2280142233559849 0 0.15357680598926829 0.20522756836063821 0 0.1349444003804644 0.22660354314857589 0 0.14284739291658399 0.22119563557565869 0 0.13276537079288711 0.20502016790050309 0 0.12434045286256951 0.2269613531924709 0 0.13276537079288711 0.20502016790050309 0 0.1411902887232046 0.18307898260853531 0 0.13276537079288711 0.20502016790050309 0 0.1237934323733194 0.18715704302237679 0 0.1411902887232046 0.18307898260853531 0 0.13276537079288711 0.20502016790050309 0 0.1411902887232046 0.18307898260853531 0 0.15802063845286979 0.18244091336529139 0 0.15357680598926829 0.20522756836063821 0 0.1411902887232046 0.18307898260853531 0 0.15357680598926829 0.20522756836063821 0 0.13276537079288711 0.20502016790050309 0 0.15802063845286979 0.18244091336529139 0 0.15357680598926829 0.20522756836063821 0 0.15802063845286979 0.18244091336529139 0 0.15357680598926829 0.20522756836063821 0 0.1683901438877104 0.19327963807563581 0 0.15357680598926829 0.20522756836063821 0 0.1683901438877104 0.19327963807563581 0 0.16822199064043961 0.20871743494350201 0 0.1873110077552127 0.1894206465310192 0 0.16822199064043961 0.20871743494350201 0 0.1683901438877104 0.19327963807563581 0 0.1873110077552127 0.1894206465310192 0 0.16822199064043961 0.20871743494350201 0 0.1873110077552127 0.1894206465310192 0 0.18461037170364589 0.20822876729908771 0 0.16822199064043961 0.20871743494350201 0 0.17482027660076169 0.18059162717772831 0 0.1683901438877104 0.19327963807563581 0 0.1873110077552127 0.1894206465310192 0 0.18461037170364589 0.20822876729908771 0 0.16822199064043961 0.20871743494350201 0 0.1792255013352734 0.2193543876822362 0 0.18461037170364589 0.20822876729908771 0 0.1792255013352734 0.2193543876822362 0 0.19458599020051751 0.2183583632264762 0 0.1491329735256666 0.2280142233559849 0 0.15357680598926829 0.20522756836063821 0 0.16822199064043961 0.20871743494350201 0 0.1491329735256666 0.2280142233559849 0 0.16822199064043961 0.20871743494350201 0 0.1491329735256666 0.2280142233559849 0 0.1683723458939079 0.22846339265393559 0 0.1573252455148316 0.24401431122676481 0 0.1491329735256666 0.2280142233559849 0 0.16822199064043961 0.20871743494350201 0 0.1683723458939079 0.22846339265393559 0 0.16822199064043961 0.20871743494350201 0 0.1683723458939079 0.22846339265393559 0 0.1792255013352734 0.2193543876822362 0 0.1683723458939079 0.22846339265393559 0 0.1792255013352734 0.2193543876822362 0 0.18509672030685559 0.23514531266043431 0 0.1792255013352734 0.2193543876822362 0 0.18509672030685559 0.23514531266043431 0 0.19458599020051751 0.2183583632264762 0 0.18509672030685559 0.23514531266043431 0 0.17556005456088261 0.25282021001762578 0 0.1957303775968901 0.25102851163789047 0 0.1683723458939079 0.22846339265393559 0 0.18509672030685559 0.23514531266043431 0 0.17080413916406459 0.240584434929147 0 0.18509672030685559 0.23514531266043431 0 0.17080413916406459 0.240584434929147 0 0.17556005456088261 0.25282021001762578 0 0.17080413916406459 0.240584434929147 0 0.1573252455148316 0.24401431122676481 0 0.17556005456088261 0.25282021001762578 0 0.1683723458939079 0.22846339265393559 0 0.17080413916406459 0.240584434929147 0 0.1573252455148316 0.24401431122676481 0 0.21412688225170901 0.23387614180209779 0 0.1957303775968901 0.25102851163789047 0 0.2247480759374858 0.25363381999817292 0 0.18509672030685559 0.23514531266043431 0 0.21412688225170901 0.23387614180209779 0 0.1957303775968901 0.25102851163789047 0 0.18509672030685559 0.23514531266043431 0 0.21412688225170901 0.23387614180209779 0 0.19458599020051751 0.2183583632264762 0 0.21412688225170901 0.23387614180209779 0 0.21223506190825639 0.21152448372493149 0 0.19458599020051751 0.2183583632264762 0 0.21412688225170901 0.23387614180209779 0 0.21223506190825639 0.21152448372493149 0 0.2279112224870419 0.21916443938546121 0 0.21223506190825639 0.21152448372493149 0 0.19641988268526939 0.20513442394551781 0 0.20402209798668169 0.19568136624044591 0 0.21223506190825639 0.21152448372493149 0 0.19458599020051751 0.2183583632264762 0 0.19641988268526939 0.20513442394551781 0 0.18461037170364589 0.20822876729908771 0 0.19458599020051751 0.2183583632264762 0 0.19641988268526939 0.20513442394551781 0 0.1873110077552127 0.1894206465310192 0 0.19641988268526939 0.20513442394551781 0 0.20402209798668169 0.19568136624044591 0 0.1873110077552127 0.1894206465310192 0 0.20402209798668169 0.19568136624044591 0 0.20853784115913371 0.17841680103871649 0 0.1873110077552127 0.1894206465310192 0 0.18461037170364589 0.20822876729908771 0 0.19641988268526939 0.20513442394551781 0 0.20402209798668169 0.19568136624044591 0 0.21299794467301841 0.18880624635040291 0 0.22326928902826951 0.19353198252320619 0 0.21223506190825639 0.21152448372493149 0 0.20402209798668169 0.19568136624044591 0 0.22326928902826951 0.19353198252320619 0 0.20402209798668169 0.19568136624044591 0 0.21299794467301841 0.18880624635040291 0 0.20853784115913371 0.17841680103871649 0 0.22326928902826951 0.19353198252320619 0 0.2395965010490009 0.1901287184252386 0 0.23230108824805251 0.20600370467088019 0 0.2395965010490009 0.1901287184252386 0 0.24499284631802409 0.20546513931468269 0 0.23230108824805251 0.20600370467088019 0 0.2395965010490009 0.1901287184252386 0 0.2480553895173794 0.1960497071960107 0 0.25471357890003588 0.1899694505898043 0 0.2395965010490009 0.1901287184252386 0 0.2480553895173794 0.1960497071960107 0 0.24499284631802409 0.20546513931468269 0 0.2480553895173794 0.1960497071960107 0 0.24499284631802409 0.20546513931468269 0 0.25621476709212559 0.19942681763336759 0 0.24499284631802409 0.20546513931468269 0 0.2440714161500688 0.21658378946281839 0 0.23230108824805251 0.20600370467088019 0 0.2440714161500688 0.21658378946281839 0 0.23230108824805251 0.20600370467088019 0 0.2279112224870419 0.21916443938546121 0 0.24499284631802409 0.20546513931468269 0 0.2440714161500688 0.21658378946281839 0 0.25531256262919139 0.2096802635697369 0 0.21223506190825639 0.21152448372493149 0 0.23230108824805251 0.20600370467088019 0 0.2279112224870419 0.21916443938546121 0 0.21223506190825639 0.21152448372493149 0 0.22326928902826951 0.19353198252320619 0 0.23230108824805251 0.20600370467088019 0 0.21412688225170901 0.23387614180209779 0 0.2351920442440612 0.2280271130284848 0 0.23975313719016039 0.24094104287280149 0 0.21412688225170901 0.23387614180209779 0 0.2279112224870419 0.21916443938546121 0 0.2351920442440612 0.2280271130284848 0 0.24817913602054109 0.22671455816346611 0 0.23975313719016039 0.24094104287280149 0 0.25615816462987429 0.2346886777627154 0 0.2440714161500688 0.21658378946281839 0 0.2279112224870419 0.21916443938546121 0 0.2351920442440612 0.2280271130284848 0 0.2440714161500688 0.21658378946281839 0 0.24817913602054109 0.22671455816346611 0 0.2351920442440612 0.2280271130284848 0 0.24817913602054109 0.22671455816346611 0 0.2351920442440612 0.2280271130284848 0 0.23975313719016039 0.24094104287280149 0 0.23975313719016039 0.24094104287280149 0 0.25376577427808128 0.2562391283584553 0 0.25530153693490393 0.2469867472089167 0 0.21412688225170901 0.23387614180209779 0 0.23975313719016039 0.24094104287280149 0 0.2247480759374858 0.25363381999817292 0 0.20672645887295779 0.14247633744443519 0 0.21519473815608631 0.1497442289385503 0 0.21031694870416071 0.13272848401827941 0 0.21519473815608631 0.1497442289385503 0 0.21031694870416071 0.13272848401827941 0 0.22720244970410061 0.14545703240569041 0 0.20672645887295779 0.14247633744443519 0 0.20773335068687859 0.14908658870599709 0 0.21519473815608631 0.1497442289385503 0 0.20672645887295779 0.14247633744443519 0 0.20773335068687859 0.14908658870599709 0 0.20229036192054911 0.1484850187634173 0 0.2061675272540745 0.15510858685210371 0 0.20773335068687859 0.14908658870599709 0 0.20229036192054911 0.1484850187634173 0 0.2061675272540745 0.15510858685210371 0 0.20773335068687859 0.14908658870599709 0 0.21519473815608631 0.1497442289385503 0 0.2061675272540745 0.15510858685210371 0 0.21519473815608631 0.1497442289385503 0 0.21255314437466499 0.16322621669546319 0 0.21031694870416071 0.13272848401827941 0 0.20150671214797949 0.13501853353805729 0 0.20009355874064219 0.12502193661796601 0 0.21031694870416071 0.13272848401827941 0 0.20009355874064219 0.12502193661796601 0 0.20672645887295779 0.14247633744443519 0 0.21031694870416071 0.13272848401827941 0 0.20672645887295779 0.14247633744443519 0 0.21031694870416071 0.13272848401827941 0 0.20150671214797949 0.13501853353805729 0 0.20672645887295779 0.14247633744443519 0 0.20150671214797949 0.13501853353805729 0 0.19749002129225929 0.14233947225320001 0 0.18522108444289559 0.13185151400460279 0 0.20150671214797949 0.13501853353805729 0 0.19749002129225929 0.14233947225320001 0 0.18522108444289559 0.13185151400460279 0 0.20150671214797949 0.13501853353805729 0 0.20009355874064219 0.12502193661796601 0 0.18522108444289559 0.13185151400460279 0 0.18928627325935041 0.1189834273631236 0 0.20009355874064219 0.12502193661796601 0 0.18522108444289559 0.13185151400460279 0 0.19749002129225929 0.14233947225320001 0 0.1929880036566709 0.15308149429542431 0 0.18522108444289559 0.13185151400460279 0 0.1929880036566709 0.15308149429542431 0 0.20672645887295779 0.14247633744443519 0 0.19749002129225929 0.14233947225320001 0 0.20229036192054911 0.1484850187634173 0 0.19749002129225929 0.14233947225320001 0 0.20229036192054911 0.1484850187634173 0 0.1929880036566709 0.15308149429542431 0 0.2061675272540745 0.15510858685210371 0 0.20229036192054911 0.1484850187634173 0 0.1929880036566709 0.15308149429542431 0 0.18194360367539661 0.14786018779245411 0 0.1929880036566709 0.15308149429542431 0 0.18931452128178969 0.172156246240001 0 0.1929880036566709 0.15308149429542431 0 0.18931452128178969 0.172156246240001 0 0.20075492287044611 0.1743114745862456 0 0.1929880036566709 0.15308149429542431 0 0.20075492287044611 0.1743114745862456 0 0.1929880036566709 0.15308149429542431 0 0.20075492287044611 0.1743114745862456 0 0.20511796833822621 0.1631990775003748 0 0.2061675272540745 0.15510858685210371 0 0.1929880036566709 0.15308149429542431 0 0.20511796833822621 0.1631990775003748 0 0.1873110077552127 0.1894206465310192 0 0.18931452128178969 0.172156246240001 0 0.20075492287044611 0.1743114745862456 0 0.1873110077552127 0.1894206465310192 0 0.20853784115913371 0.17841680103871649 0 0.20640002486998579 0.17012385811853639 0 0.1873110077552127 0.1894206465310192 0 0.20075492287044611 0.1743114745862456 0 0.20640002486998579 0.17012385811853639 0 0.1873110077552127 0.1894206465310192 0 0.20640002486998579 0.17012385811853639 0 0.21299794467301841 0.18880624635040291 0 0.20853784115913371 0.17841680103871649 0 0.23370518571323259 0.17518596584353149 0 0.20853784115913371 0.17841680103871649 0 0.21255314437466499 0.16322621669546319 0 0.2237054071467473 0.16167692789720051 0 0.2061675272540745 0.15510858685210371 0 0.20511796833822621 0.1631990775003748 0 0.21255314437466499 0.16322621669546319 0 0.20853784115913371 0.17841680103871649 0 0.20640002486998579 0.17012385811853639 0 0.21255314437466499 0.16322621669546319 0 0.20075492287044611 0.1743114745862456 0 0.20511796833822621 0.1631990775003748 0 0.20640002486998579 0.17012385811853639 0 0.20511796833822621 0.1631990775003748 0 0.20640002486998579 0.17012385811853639 0 0.21255314437466499 0.16322621669546319 0 0.21519473815608631 0.1497442289385503 0 0.21255314437466499 0.16322621669546319 0 0.2237054071467473 0.16167692789720051 0 0.2237054071467473 0.16167692789720051 0 0.23370518571323259 0.17518596584353149 0 0.24408795070403941 0.15818558079310291 0 0.20853784115913371 0.17841680103871649 0 0.2237054071467473 0.16167692789720051 0 0.23370518571323259 0.17518596584353149 0 0.21299794467301841 0.18880624635040291 0 0.22326928902826951 0.19353198252320619 0 0.23370518571323259 0.17518596584353149 0 0.20853784115913371 0.17841680103871649 0 0.23370518571323259 0.17518596584353149 0 0.22326928902826951 0.19353198252320619 0 0.2395965010490009 0.1901287184252386 0 0.23370518571323259 0.17518596584353149 0 0.23370518571323259 0.17518596584353149 0 0.25887253026733148 0.1719551306483465 0 0.23370518571323259 0.17518596584353149 0 0.25075303062354087 0.18101709102735691 0 0.25887253026733148 0.1719551306483465 0 0.2395965010490009 0.1901287184252386 0 0.23370518571323259 0.17518596584353149 0 0.25075303062354087 0.18101709102735691 0 0.2395965010490009 0.1901287184252386 0 0.25075303062354087 0.18101709102735691 0 0.25471357890003588 0.1899694505898043 0 0.23370518571323259 0.17518596584353149 0 0.24408795070403941 0.15818558079310291 0 0.25887253026733148 0.1719551306483465 0 0.24408795070403941 0.15818558079310291 0 0.2497719483883557 0.145866114883938 0 0.22720244970410061 0.14545703240569041 0 0.24408795070403941 0.15818558079310291 0 0.22720244970410061 0.14545703240569041 0 0.2497719483883557 0.145866114883938 0 0.22720244970410061 0.14545703240569041 0 0.24269133559777911 0.13137959778602609 0 0.21519473815608631 0.1497442289385503 0 0.2237054071467473 0.16167692789720051 0 0.22720244970410061 0.14545703240569041 0 0.2237054071467473 0.16167692789720051 0 0.24408795070403941 0.15818558079310291 0 0.22720244970410061 0.14545703240569041 0 0.21031694870416071 0.13272848401827941 0 0.22720244970410061 0.14545703240569041 0 0.22573205208364 0.1239519970355296 0 0.22720244970410061 0.14545703240569041 0 0.24269133559777911 0.13137959778602609 0 0.22573205208364 0.1239519970355296 0 0.21031694870416071 0.13272848401827941 0 0.22720244970410061 0.14545703240569041 0 0.24269133559777911 0.13137959778602609 0 0.24680236178082729 0.10780736320091069 0 0.22573205208364 0.1239519970355296 0 0.24680236178082729 0.10780736320091069 0 0.22573205208364 0.1239519970355296 0 0.24680236178082729 0.10780736320091069 0 0.22006239306220199 0.10627048869145909 0 0.24819657032849199 0.087805226663106861 0 0.24680236178082729 0.10780736320091069 0 0.22006239306220199 0.10627048869145909 0 0.22573205208364 0.1239519970355296 0 0.21031694870416071 0.13272848401827941 0 0.20591929052721419 0.114739060913395 0 0.20009355874064219 0.12502193661796601 0 0.21031694870416071 0.13272848401827941 0 0.22006239306220199 0.10627048869145909 0 0.22573205208364 0.1239519970355296 0 0.21031694870416071 0.13272848401827941 0 0.22006239306220199 0.10627048869145909 0 0.20591929052721419 0.114739060913395 0 0.21031694870416071 0.13272848401827941 0 0.22006239306220199 0.10627048869145909 0 0.22006239306220199 0.10627048869145909 0 0.20503075601321591 0.1012591175961193 0 0.21180321984181039 0.085752904586728879 0 0.22006239306220199 0.10627048869145909 0 0.20591929052721419 0.114739060913395 0 0.20503075601321591 0.1012591175961193 0 0.20503075601321591 0.1012591175961193 0 0.1943762846247436 0.1084387251161444 0 0.19702039674447061 0.091427550369156618 0 0.1943762846247436 0.1084387251161444 0 0.19702039674447061 0.091427550369156618 0 0.1839230269969456 0.096819746828948144 0 0.20591929052721419 0.114739060913395 0 0.20503075601321591 0.1012591175961193 0 0.1943762846247436 0.1084387251161444 0 0.1943762846247436 0.1084387251161444 0 0.18928627325935041 0.1189834273631236 0 0.20009355874064219 0.12502193661796601 0 0.20591929052721419 0.114739060913395 0 0.1943762846247436 0.1084387251161444 0 0.20009355874064219 0.12502193661796601 0 0.19989493621741811 0.073301416157415533 0 0.18336841683116911 0.083222163258303616 0 0.183882594368703 0.068179824452650348 0 0.19989493621741811 0.073301416157415533 0 0.19515186333693249 0.052322574832778593 0 0.183882594368703 0.068179824452650348 0 0.19989493621741811 0.073301416157415533 0 0.19702039674447061 0.091427550369156618 0 0.21180321984181039 0.085752904586728879 0 0.19989493621741811 0.073301416157415533 0 0.19702039674447061 0.091427550369156618 0 0.18336841683116911 0.083222163258303616 0 0.19702039674447061 0.091427550369156618 0 0.1839230269969456 0.096819746828948144 0 0.18336841683116911 0.083222163258303616 0 0.20503075601321591 0.1012591175961193 0 0.19702039674447061 0.091427550369156618 0 0.21180321984181039 0.085752904586728879 0 0.19989493621741811 0.073301416157415533 0 0.21180321984181039 0.085752904586728879 0 0.21785894626095739 0.06320944739633233 0 0.19989493621741811 0.073301416157415533 0 0.21785894626095739 0.06320944739633233 0 0.19515186333693249 0.052322574832778593 0 0.21785894626095739 0.06320944739633233 0 0.22980783742024369 0.079812493364638915 0 0.23955328177828539 0.053354498037818762 0 0.21180321984181039 0.085752904586728879 0 0.21785894626095739 0.06320944739633233 0 0.22980783742024369 0.079812493364638915 0 0.22006239306220199 0.10627048869145909 0 0.22980783742024369 0.079812493364638915 0 0.24819657032849199 0.087805226663106861 0 0.22006239306220199 0.10627048869145909 0 0.22980783742024369 0.079812493364638915 0 0.22006239306220199 0.10627048869145909 0 0.21180321984181039 0.085752904586728879 0 0.22980783742024369 0.079812493364638915 0 0.22980783742024369 0.079812493364638915 0 0.24819657032849199 0.087805226663106861 0 0.25731429581274329 0.06984633570370237 0 0.22980783742024369 0.079812493364638915 0 0.23955328177828539 0.053354498037818762 0 0.25731429581274329 0.06984633570370237 0 0.22980783742024369 0.079812493364638915 0 0.23955328177828539 0.053354498037818762 0 0.23955328177828539 0.053354498037818762 0 0.2492987261363272 0.026896502710998641 0 0.23955328177828539 0.053354498037818762 0 0.2322231146269067 0.034883510666197742 0 0.2492987261363272 0.026896502710998641 0 0.23955328177828539 0.053354498037818762 0 0.2492987261363272 0.026896502710998641 0 0.25982628070769548 0.046958846885473977 0 0.2322231146269067 0.034883510666197742 0 0.22403570944878601 0.01683066639787395 0 0.21600474114422849 0.042452375518099619 0 0.23955328177828539 0.053354498037818762 0 0.2322231146269067 0.034883510666197742 0 0.21600474114422849 0.042452375518099619 0 0.21785894626095739 0.06320944739633233 0 0.23955328177828539 0.053354498037818762 0 0.21600474114422849 0.042452375518099619 0 0.22403570944878601 0.01683066639787395 0 0.25439399030610349 0.0079726127039095041 0 0.2414431017406225 -0.0042112777133020444 0 0.2492987261363272 0.026896502710998641 0 0.22403570944878601 0.01683066639787395 0 0.25439399030610349 0.0079726127039095041 0 0.2322231146269067 0.034883510666197742 0 0.2492987261363272 0.026896502710998641 0 0.22403570944878601 0.01683066639787395 0 0.22403570944878601 0.01683066639787395 0 0.2414431017406225 -0.0042112777133020444 0 0.22403570944878601 0.01683066639787395 0 0.19639849458081471 0.0066490508137971582 0 0.21151018488638801 -0.0065786541425667854 0 0.22403570944878601 0.01683066639787395 0 0.19714783558868129 0.028036351356561819 0 0.21600474114422849 0.042452375518099619 0 0.22403570944878601 0.01683066639787395 0 0.19714783558868129 0.028036351356561819 0 0.19639849458081471 0.0066490508137971582 0 0.21785894626095739 0.06320944739633233 0 0.21600474114422849 0.042452375518099619 0 0.19515186333693249 0.052322574832778593 0 0.19714783558868129 0.028036351356561819 0 0.21600474114422849 0.042452375518099619 0 0.19515186333693249 0.052322574832778593 0 0.19714783558868129 0.028036351356561819 0 0.19515186333693249 0.052322574832778593 0 0.17849227912652069 0.039272259673519029 0 0.19515186333693249 0.052322574832778593 0 0.17132543264893341 0.056452164821374232 0 0.183882594368703 0.068179824452650348 0 0.19515186333693249 0.052322574832778593 0 0.17849227912652069 0.039272259673519029 0 0.17132543264893341 0.056452164821374232 0 0.17849227912652069 0.039272259673519029 0 0.16136613224882021 0.040204518305629863 0 0.1683778517679409 0.0192053426712499 0 0.17849227912652069 0.039272259673519029 0 0.16136613224882021 0.040204518305629863 0 0.17132543264893341 0.056452164821374232 0 0.16136613224882021 0.040204518305629863 0 0.17132543264893341 0.056452164821374232 0 0.15036980440011841 0.054646620288008707 0 0.17132543264893341 0.056452164821374232 0 0.15036980440011841 0.054646620288008707 0 0.15922335590443851 0.069156326915318839 0 0.19639849458081471 0.0066490508137971582 0 0.1683778517679409 0.0192053426712499 0 0.17968128775432959 -0.0050233086812581373 0 0.1683778517679409 0.0192053426712499 0 0.17968128775432959 -0.0050233086812581373 0 0.19714783558868129 0.028036351356561819 0 0.19639849458081471 0.0066490508137971582 0 0.1683778517679409 0.0192053426712499 0 0.19714783558868129 0.028036351356561819 0 0.17849227912652069 0.039272259673519029 0 0.1683778517679409 0.0192053426712499 0 0.16136613224882021 0.040204518305629863 0 0.1683778517679409 0.0192053426712499 0 0.14618061134049329 0.030222383640390951 0 0.1683778517679409 0.0192053426712499 0 0.17968128775432959 -0.0050233086812581373 0 0.1596816684900709 -0.0045255925504788857 0 0.1683778517679409 0.0192053426712499 0 0.13901877174334179 0.0058069614355472322 0 0.1596816684900709 -0.0045255925504788857 0 0.1683778517679409 0.0192053426712499 0 0.14618061134049329 0.030222383640390951 0 0.13901877174334179 0.0058069614355472322 0 0.12316692863345589 0.026054144435575698 0 0.14618061134049329 0.030222383640390951 0 0.13901877174334179 0.0058069614355472322 0 0.16136613224882021 0.040204518305629863 0 0.14618061134049329 0.030222383640390951 0 0.15036980440011841 0.054646620288008707 0 0.14618061134049329 0.030222383640390951 0 0.15036980440011841 0.054646620288008707 0 0.1315586501983603 0.046849318201028597 0 0.12316692863345589 0.026054144435575698 0 0.14618061134049329 0.030222383640390951 0 0.1315586501983603 0.046849318201028597 0 0.15036980440011841 0.054646620288008707 0 0.1315586501983603 0.046849318201028597 0 0.13603356041663739 0.062781129069419087 0 0.1218844397962445 0.063850842824124454 0 0.1315586501983603 0.046849318201028597 0 0.13603356041663739 0.062781129069419087 0 0.13603356041663739 0.062781129069419087 0 0.1466177520256905 0.072083663629715772 0 0.12841296365015989 0.078558082126259296 0 0.1218844397962445 0.063850842824124454 0 0.13603356041663739 0.062781129069419087 0 0.12841296365015989 0.078558082126259296 0 0.15036980440011841 0.054646620288008707 0 0.1466177520256905 0.072083663629715772 0 0.15922335590443851 0.069156326915318839 0 0.15036980440011841 0.054646620288008707 0 0.13603356041663739 0.062781129069419087 0 0.1466177520256905 0.072083663629715772 0 0.1466177520256905 0.072083663629715772 0 0.15922335590443851 0.069156326915318839 0 0.1587207357609583 0.082671257288481431 0 0.15285987724235231 0.091518950942817895 0 0.1442129313240619 0.085476713817538935 0 0.1587207357609583 0.082671257288481431 0 0.1466177520256905 0.072083663629715772 0 0.1442129313240619 0.085476713817538935 0 0.1587207357609583 0.082671257288481431 0 0.15285987724235231 0.091518950942817895 0 0.1442129313240619 0.085476713817538935 0 0.14346504771796489 0.095572598611168291 0 0.1442129313240619 0.085476713817538935 0 0.13259698984574009 0.091114651797796611 0 0.14346504771796489 0.095572598611168291 0 0.1442129313240619 0.085476713817538935 0 0.12841296365015989 0.078558082126259296 0 0.13259698984574009 0.091114651797796611 0 0.1466177520256905 0.072083663629715772 0 0.1442129313240619 0.085476713817538935 0 0.12841296365015989 0.078558082126259296 0 0.1171506858609986 0.090705155522805281 0 0.12841296365015989 0.078558082126259296 0 0.13259698984574009 0.091114651797796611 0 0.1171506858609986 0.090705155522805281 0 0.13259698984574009 0.091114651797796611 0 0.12567030407927129 0.098681093654136853 0 0.13259698984574009 0.091114651797796611 0 0.12567030407927129 0.098681093654136853 0 0.13542256486792201 0.099433627488762721 0 0.1325831098345962 0.10679417970475991 0 0.1253062105446589 0.10636848884423419 0 0.12920432287192471 0.1142256489593122 0 0.12567030407927129 0.098681093654136853 0 0.1325831098345962 0.10679417970475991 0 0.1253062105446589 0.10636848884423419 0 0.12567030407927129 0.098681093654136853 0 0.1325831098345962 0.10679417970475991 0 0.13542256486792201 0.099433627488762721 0 0.1325831098345962 0.10679417970475991 0 0.13542256486792201 0.099433627488762721 0 0.1427973728620375 0.105005613675952 0 0.1325831098345962 0.10679417970475991 0 0.13782912025084099 0.1128874798904935 0 0.1427973728620375 0.105005613675952 0 0.13259698984574009 0.091114651797796611 0 0.13542256486792201 0.099433627488762721 0 0.14346504771796489 0.095572598611168291 0 0.13542256486792201 0.099433627488762721 0 0.14346504771796489 0.095572598611168291 0 0.1427973728620375 0.105005613675952 0 0.1214337654292612 0.1206876101045128 0 0.12920432287192471 0.1142256489593122 0 0.13579381173382071 0.1217654569702047 0 0.13782912025084099 0.1128874798904935 0 0.13579381173382071 0.1217654569702047 0 0.14588105847523811 0.11596926064119729 0 0.12920432287192471 0.1142256489593122 0 0.13782912025084099 0.1128874798904935 0 0.13579381173382071 0.1217654569702047 0 0.1325831098345962 0.10679417970475991 0 0.12920432287192471 0.1142256489593122 0 0.13782912025084099 0.1128874798904935 0 0.1456965733615152 0.12855459717088771 0 0.13579381173382071 0.1217654569702047 0 0.14588105847523811 0.11596926064119729 0 0.14588105847523811 0.11596926064119729 0 0.1534755849872223 0.1109137153352895 0 0.1427973728620375 0.105005613675952 0 0.13782912025084099 0.1128874798904935 0 0.14588105847523811 0.11596926064119729 0 0.1427973728620375 0.105005613675952 0 0.14588105847523811 0.11596926064119729 0 0.1534755849872223 0.1109137153352895 0 0.15515114505718969 0.1232226789215896 0 0.1456965733615152 0.12855459717088771 0 0.14588105847523811 0.11596926064119729 0 0.15515114505718969 0.1232226789215896 0 0.14346504771796489 0.095572598611168291 0 0.1427973728620375 0.105005613675952 0 0.1529100204382515 0.1002528228758283 0 0.1534755849872223 0.1109137153352895 0 0.1427973728620375 0.105005613675952 0 0.1529100204382515 0.1002528228758283 0 0.1534755849872223 0.1109137153352895 0 0.1529100204382515 0.1002528228758283 0 0.15958191852502759 0.1039622184947743 0 0.15285987724235231 0.091518950942817895 0 0.1529100204382515 0.1002528228758283 0 0.16093456015069901 0.093694427047200934 0 0.15285987724235231 0.091518950942817895 0 0.14346504771796489 0.095572598611168291 0 0.1529100204382515 0.1002528228758283 0 0.1529100204382515 0.1002528228758283 0 0.15958191852502759 0.1039622184947743 0 0.16093456015069901 0.093694427047200934 0 0.16720176846261031 0.099268070897360366 0 0.1774541652291203 0.11062153371378131 0 0.16968724601534499 0.089391553422959791 0 0.15958191852502759 0.1039622184947743 0 0.16720176846261031 0.099268070897360366 0 0.16093456015069901 0.093694427047200934 0 0.15958191852502759 0.1039622184947743 0 0.16720176846261031 0.099268070897360366 0 0.1625702757440444 0.11469088411519029 0 0.16720176846261031 0.099268070897360366 0 0.16093456015069901 0.093694427047200934 0 0.16968724601534499 0.089391553422959791 0 0.16720176846261031 0.099268070897360366 0 0.1745726860690035 0.12356412934490719 0 0.16720176846261031 0.099268070897360366 0 0.1625702757440444 0.11469088411519029 0 0.1745726860690035 0.12356412934490719 0 0.16442587034896861 0.1290198320393709 0 0.15515114505718969 0.1232226789215896 0 0.1625702757440444 0.11469088411519029 0 0.1534755849872223 0.1109137153352895 0 0.15515114505718969 0.1232226789215896 0 0.1625702757440444 0.11469088411519029 0 0.1534755849872223 0.1109137153352895 0 0.15958191852502759 0.1039622184947743 0 0.1625702757440444 0.11469088411519029 0 0.16442587034896861 0.1290198320393709 0 0.1625702757440444 0.11469088411519029 0 0.1745726860690035 0.12356412934490719 0 0.1943762846247436 0.1084387251161444 0 0.18928627325935041 0.1189834273631236 0 0.1774541652291203 0.11062153371378131 0 0.18522108444289559 0.13185151400460279 0 0.18928627325935041 0.1189834273631236 0 0.1774541652291203 0.11062153371378131 0 0.18522108444289559 0.13185151400460279 0 0.1774541652291203 0.11062153371378131 0 0.18522108444289559 0.13185151400460279 0 0.1774541652291203 0.11062153371378131 0 0.1745726860690035 0.12356412934490719 0 0.16720176846261031 0.099268070897360366 0 0.1774541652291203 0.11062153371378131 0 0.1745726860690035 0.12356412934490719 0 0.1943762846247436 0.1084387251161444 0 0.1774541652291203 0.11062153371378131 0 0.1839230269969456 0.096819746828948144 0 0.1774541652291203 0.11062153371378131 0 0.16968724601534499 0.089391553422959791 0 0.1774541652291203 0.11062153371378131 0 0.1839230269969456 0.096819746828948144 0 0.16968724601534499 0.089391553422959791 0 0.1839230269969456 0.096819746828948144 0 0.18336841683116911 0.083222163258303616 0 0.16968724601534499 0.089391553422959791 0 0.18336841683116911 0.083222163258303616 0 0.17130159934842151 0.077819588484143193 0 0.16968724601534499 0.089391553422959791 0 0.17132543264893341 0.056452164821374232 0 0.183882594368703 0.068179824452650348 0 0.17130159934842151 0.077819588484143193 0 0.18336841683116911 0.083222163258303616 0 0.183882594368703 0.068179824452650348 0 0.17130159934842151 0.077819588484143193 0 0.17132543264893341 0.056452164821374232 0 0.17130159934842151 0.077819588484143193 0 0.15922335590443851 0.069156326915318839 0 0.17130159934842151 0.077819588484143193 0 0.15922335590443851 0.069156326915318839 0 0.1587207357609583 0.082671257288481431 0 0.15285987724235231 0.091518950942817895 0 0.1587207357609583 0.082671257288481431 0 0.16093456015069901 0.093694427047200934 0 0.1587207357609583 0.082671257288481431 0 0.16093456015069901 0.093694427047200934 0 0.16968724601534499 0.089391553422959791 0 0.17130159934842151 0.077819588484143193 0 0.1587207357609583 0.082671257288481431 0 0.16968724601534499 0.089391553422959791 0 0.097812311883621036 0.48526178404939702 0 0.1024619942423341 0.46441886247103592 0 0.088634834907405993 0.47227436216828428 0 0.097812311883621036 0.48526178404939702 0 0.1109313248280587 0.48038627566150921 0 0.1024619942423341 0.46441886247103592 0 0.1062908314195916 0.5 0 0.097812311883621036 0.48526178404939702 0 0.1209089265155784 0.49055785899466942 0 0.1062908314195916 0.5 0 0.097812311883621036 0.48526178404939702 0 0.077245609517296199 0.5 0 0.1062908314195916 0.5 0 0.1209089265155784 0.49055785899466942 0 0.135336053321887 0.5 0 0.097812311883621036 0.48526178404939702 0 0.1209089265155784 0.49055785899466942 0 0.097812311883621036 0.48526178404939702 0 0.1209089265155784 0.49055785899466942 0 0.1109313248280587 0.48038627566150921 0 0.1109313248280587 0.48038627566150921 0 0.12310175456961669 0.47627924164735752 0 0.1024619942423341 0.46441886247103592 0 0.1209089265155784 0.49055785899466942 0 0.1109313248280587 0.48038627566150921 0 0.12310175456961669 0.47627924164735752 0 0.12310175456961669 0.47627924164735752 0 0.1024619942423341 0.46441886247103592 0 0.12310175456961669 0.47627924164735752 0 0.1024619942423341 0.46441886247103592 0 0.12914023368394451 0.46430113757102448 0 0.12427296261541031 0.45059466218880112 0 0.1024619942423341 0.46441886247103592 0 0.12914023368394451 0.46430113757102448 0 0.12427296261541031 0.45059466218880112 0 0.10223026774733721 0.4411303279604365 0 0.1243924963286317 0.43374985511904263 0 0.12427296261541031 0.45059466218880112 0 0.10223026774733721 0.4411303279604365 0 0.1024619942423341 0.46441886247103592 0 0.10223026774733721 0.4411303279604365 0 0.1024619942423341 0.46441886247103592 0 0.081822233915051418 0.45255848329471438 0 0.081822233915051418 0.45255848329471438 0 0.067581489833198644 0.46349089495542151 0 0.088634834907405993 0.47227436216828428 0 0.1024619942423341 0.46441886247103592 0 0.081822233915051418 0.45255848329471438 0 0.088634834907405993 0.47227436216828428 0 0.1024619942423341 0.46441886247103592 0 0.081822233915051418 0.45255848329471438 0 0.10223026774733721 0.4411303279604365 0 0.081822233915051418 0.45255848329471438 0 0.076596762527261039 0.43688657693499577 0 0.081822233915051418 0.45255848329471438 0 0.056594297121595333 0.44811582188839211 0 0.076596762527261039 0.43688657693499577 0 0.056594297121595333 0.44811582188839211 0 0.061860057264888892 0.42942040534693537 0 0.076596762527261039 0.43688657693499577 0 0.081822233915051418 0.45255848329471438 0 0.067581489833198644 0.46349089495542151 0 0.056594297121595333 0.44811582188839211 0 0.067581489833198644 0.46349089495542151 0 0.07471569725166366 0.47996570910412462 0 0.088634834907405993 0.47227436216828428 0 0.07471569725166366 0.47996570910412462 0 0.062945194250916742 0.48865883581574421 0 0.051619082619706338 0.47466963415885222 0 0.07471569725166366 0.47996570910412462 0 0.051619082619706338 0.47466963415885222 0 0.067581489833198644 0.46349089495542151 0 0.07471569725166366 0.47996570910412462 0 0.051619082619706338 0.47466963415885222 0 0.097812311883621036 0.48526178404939702 0 0.07471569725166366 0.47996570910412462 0 0.088634834907405993 0.47227436216828428 0 0.097812311883621036 0.48526178404939702 0 0.07471569725166366 0.47996570910412462 0 0.097812311883621036 0.48526178404939702 0 0.07471569725166366 0.47996570910412462 0 0.077245609517296199 0.5 0 0.07471569725166366 0.47996570910412462 0 0.077245609517296199 0.5 0 0.062945194250916742 0.48865883581574421 0 0.077245609517296199 0.5 0 0.062945194250916742 0.48865883581574421 0 0.048200387615000777 0.5 0 0.062945194250916742 0.48865883581574421 0 0.048200387615000777 0.5 0 0.051619082619706338 0.47466963415885222 0 0.051619082619706338 0.47466963415885222 0 0.033877800276231433 0.48215639961694179 0 0.031846167499078717 0.462372708680304 0 0.048200387615000777 0.5 0 0.033877800276231433 0.48215639961694179 0 0.019155165712705091 0.4999999999999975 0 0.048200387615000777 0.5 0 0.051619082619706338 0.47466963415885222 0 0.033877800276231433 0.48215639961694179 0 0.033877800276231433 0.48215639961694179 0 0.019155165712705091 0.4999999999999975 0 0.018568197934666211 0.4737396552455525 0 0.033877800276231433 0.48215639961694179 0 0.018568197934666211 0.4737396552455525 0 0.031846167499078717 0.462372708680304 0 0.018568197934666211 0.4737396552455525 0 0.0036080210499636681 0.48169505634828769 0 0.0041572681536312089 0.46313827509128441 0 0.019155165712705091 0.4999999999999975 0 0.0036080210499636681 0.48169505634828769 0 0.019155165712705091 0.4999999999999975 0 0.018568197934666211 0.4737396552455525 0 0.0036080210499636681 0.48169505634828769 0 -0.0075750716008230468 0.5 0 0.019155165712705091 0.4999999999999975 0 0.0036080210499636681 0.48169505634828769 0 -0.0056788975283216074 0.45314311847938649 0 0.0081710322401465675 0.43902006880664718 0 0.0060525274966358907 0.43394064196042442 0 -0.0056788975283216074 0.45314311847938649 0 0.0060525274966358907 0.43394064196042442 0 0.013929177776412741 0.44695376038717388 0 0.0070132975125512843 0.45172378675669028 0 0.015317695118172841 0.45703237083623088 0 0.013929177776412741 0.44695376038717388 0 0.0081710322401465675 0.43902006880664718 0 0.0070132975125512843 0.45172378675669028 0 0.013929177776412741 0.44695376038717388 0 0.0081710322401465675 0.43902006880664718 0 0.020320166557919381 0.43950330400725018 0 -0.0056788975283216074 0.45314311847938649 0 0.0081710322401465675 0.43902006880664718 0 0.0070132975125512843 0.45172378675669028 0 -0.0056788975283216074 0.45314311847938649 0 0.0081710322401465675 0.43902006880664718 0 0.018568197934666211 0.4737396552455525 0 0.0041572681536312089 0.46313827509128441 0 0.015317695118172841 0.45703237083623088 0 -0.0056788975283216074 0.45314311847938649 0 0.0070132975125512843 0.45172378675669028 0 0.0041572681536312089 0.46313827509128441 0 0.0070132975125512843 0.45172378675669028 0 0.0041572681536312089 0.46313827509128441 0 0.015317695118172841 0.45703237083623088 0 0.018568197934666211 0.4737396552455525 0 0.015317695118172841 0.45703237083623088 0 0.031846167499078717 0.462372708680304 0 0.015317695118172841 0.45703237083623088 0 0.022412396710285051 0.44847548961875161 0 0.031846167499078717 0.462372708680304 0 0.022412396710285051 0.44847548961875161 0 0.03506726405413807 0.43817018208977032 0 0.031846167499078717 0.462372708680304 0 0.013929177776412741 0.44695376038717388 0 0.015317695118172841 0.45703237083623088 0 0.022412396710285051 0.44847548961875161 0 0.013929177776412741 0.44695376038717388 0 0.022412396710285051 0.44847548961875161 0 0.020320166557919381 0.43950330400725018 0 0.022412396710285051 0.44847548961875161 0 0.020320166557919381 0.43950330400725018 0 0.03506726405413807 0.43817018208977032 0 0.03506726405413807 0.43817018208977032 0 0.031846167499078717 0.462372708680304 0 0.056594297121595333 0.44811582188839211 0 0.03506726405413807 0.43817018208977032 0 0.031846167499078717 0.462372708680304 0 0.03506726405413807 0.43817018208977032 0 0.056594297121595333 0.44811582188839211 0 0.047174138007546697 0.42757250254246709 0 0.051619082619706338 0.47466963415885222 0 0.031846167499078717 0.462372708680304 0 0.056594297121595333 0.44811582188839211 0 0.067581489833198644 0.46349089495542151 0 0.051619082619706338 0.47466963415885222 0 0.056594297121595333 0.44811582188839211 0 0.056594297121595333 0.44811582188839211 0 0.047174138007546697 0.42757250254246709 0 0.061860057264888892 0.42942040534693537 0 0.047174138007546697 0.42757250254246709 0 0.061860057264888892 0.42942040534693537 0 0.055609239761021473 0.41124050951896401 0 0.047174138007546697 0.42757250254246709 0 0.055609239761021473 0.41124050951896401 0 0.038288360609197422 0.41396765549923659 0 0.03506726405413807 0.43817018208977032 0 0.047174138007546697 0.42757250254246709 0 0.038288360609197422 0.41396765549923659 0 0.03506726405413807 0.43817018208977032 0 0.038288360609197422 0.41396765549923659 0 0.03506726405413807 0.43817018208977032 0 0.038288360609197422 0.41396765549923659 0 0.0220209620086145 0.42489701913390793 0 0.020320166557919381 0.43950330400725018 0 0.03506726405413807 0.43817018208977032 0 0.0220209620086145 0.42489701913390793 0 0.0081710322401465675 0.43902006880664718 0 0.020320166557919381 0.43950330400725018 0 0.0220209620086145 0.42489701913390793 0 0.038288360609197422 0.41396765549923659 0 0.018821029035075591 0.41061432609642312 0 0.029059549657656222 0.40140974931211648 0 0.038288360609197422 0.41396765549923659 0 0.0220209620086145 0.42489701913390793 0 0.018821029035075591 0.41061432609642312 0 0.0220209620086145 0.42489701913390793 0 0.018821029035075591 0.41061432609642312 0 0.007698142858603943 0.42186184439159558 0 0.018821029035075591 0.41061432609642312 0 0.001738985615909209 0.40767877470127428 0 0.007698142858603943 0.42186184439159558 0 -0.0046041233353045982 0.42054886433158079 0 0.001738985615909209 0.40767877470127428 0 0.007698142858603943 0.42186184439159558 0 0.007698142858603943 0.42186184439159558 0 0.001571042455832043 0.42695653658648552 0 0.0060525274966358907 0.43394064196042442 0 0.0220209620086145 0.42489701913390793 0 0.007698142858603943 0.42186184439159558 0 0.0060525274966358907 0.43394064196042442 0 0.0081710322401465675 0.43902006880664718 0 0.0220209620086145 0.42489701913390793 0 0.0060525274966358907 0.43394064196042442 0 -0.0046041233353045982 0.42054886433158079 0 0.007698142858603943 0.42186184439159558 0 0.001571042455832043 0.42695653658648552 0 -0.0043858365965349757 0.43091195994427978 0 0.001571042455832043 0.42695653658648552 0 0.0060525274966358907 0.43394064196042442 0 0.0081710322401465675 0.43902006880664718 0 0.0220209620086145 0.42489701913390793 0 -0.006197098098082339 0.38887427719183432 0 0.01761935182209512 0.39129188674410309 0 0.0092361384877125696 0.36858803067752749 0 -0.006197098098082339 0.38887427719183432 0 0.0092361384877125696 0.36858803067752749 0 -0.006197098098082339 0.38887427719183432 0 0.001738985615909209 0.40767877470127428 0 0.01761935182209512 0.39129188674410309 0 0.018821029035075591 0.41061432609642312 0 0.001738985615909209 0.40767877470127428 0 0.01761935182209512 0.39129188674410309 0 0.01761935182209512 0.39129188674410309 0 0.029059549657656222 0.40140974931211648 0 0.041509457164256768 0.38976512890870302 0 0.018821029035075591 0.41061432609642312 0 0.01761935182209512 0.39129188674410309 0 0.029059549657656222 0.40140974931211648 0 0.01761935182209512 0.39129188674410309 0 0.027632810693984041 0.37469485433322419 0 0.0092361384877125696 0.36858803067752749 0 0.01761935182209512 0.39129188674410309 0 0.041509457164256768 0.38976512890870302 0 0.027632810693984041 0.37469485433322419 0 0.041509457164256768 0.38976512890870302 0 0.04473055371931612 0.36556260231816923 0 0.041509457164256768 0.38976512890870302 0 0.04473055371931612 0.36556260231816923 0 0.027632810693984041 0.37469485433322419 0 0.038288360609197422 0.41396765549923659 0 0.041509457164256768 0.38976512890870302 0 0.055609239761021473 0.41124050951896401 0 0.038288360609197422 0.41396765549923659 0 0.041509457164256768 0.38976512890870302 0 0.038288360609197422 0.41396765549923659 0 0.029059549657656222 0.40140974931211648 0 0.041509457164256768 0.38976512890870302 0 0.055609239761021473 0.41124050951896401 0 0.041509457164256768 0.38976512890870302 0 0.061154443135443867 0.39081635661596381 0 0.041509457164256768 0.38976512890870302 0 0.061154443135443867 0.39081635661596381 0 0.060040271578410249 0.37267405173945889 0 0.041509457164256768 0.38976512890870302 0 0.060040271578410249 0.37267405173945889 0 0.04473055371931612 0.36556260231816923 0 0.061154443135443867 0.39081635661596381 0 0.075075793088175802 0.37988519375570629 0 0.060040271578410249 0.37267405173945889 0 0.075075793088175802 0.37988519375570629 0 0.086508594005036243 0.39210844190671368 0 0.093421763068598729 0.3732746329651811 0 0.086508594005036243 0.39210844190671368 0 0.072355359819658793 0.4032620226490824 0 0.097464306129530401 0.40627607045229042 0 0.075075793088175802 0.37988519375570629 0 0.086508594005036243 0.39210844190671368 0 0.072355359819658793 0.4032620226490824 0 0.075075793088175802 0.37988519375570629 0 0.072355359819658793 0.4032620226490824 0 0.055609239761021473 0.41124050951896401 0 0.061154443135443867 0.39081635661596381 0 0.072355359819658793 0.4032620226490824 0 0.061154443135443867 0.39081635661596381 0 0.075075793088175802 0.37988519375570629 0 0.072355359819658793 0.4032620226490824 0 0.061860057264888892 0.42942040534693537 0 0.055609239761021473 0.41124050951896401 0 0.072355359819658793 0.4032620226490824 0 0.061860057264888892 0.42942040534693537 0 0.072355359819658793 0.4032620226490824 0 0.087598047920335723 0.4245623763575736 0 0.061860057264888892 0.42942040534693537 0 0.076596762527261039 0.43688657693499577 0 0.087598047920335723 0.4245623763575736 0 0.10223026774733721 0.4411303279604365 0 0.076596762527261039 0.43688657693499577 0 0.087598047920335723 0.4245623763575736 0 0.072355359819658793 0.4032620226490824 0 0.087598047920335723 0.4245623763575736 0 0.097464306129530401 0.40627607045229042 0 0.087598047920335723 0.4245623763575736 0 0.11304778029845911 0.42145253789261988 0 0.097464306129530401 0.40627607045229042 0 0.10223026774733721 0.4411303279604365 0 0.087598047920335723 0.4245623763575736 0 0.11304778029845911 0.42145253789261988 0 0.10223026774733721 0.4411303279604365 0 0.1243924963286317 0.43374985511904263 0 0.11304778029845911 0.42145253789261988 0 0.1243924963286317 0.43374985511904263 0 0.11304778029845911 0.42145253789261988 0 0.1369231587652131 0.4148184148180396 0 0.11304778029845911 0.42145253789261988 0 0.12124423323304589 0.40464992307237418 0 0.097464306129530401 0.40627607045229042 0 0.11304778029845911 0.42145253789261988 0 0.12124423323304589 0.40464992307237418 0 0.1369231587652131 0.4148184148180396 0 0.12124423323304589 0.40464992307237418 0 0.10530203828580589 0.39081501087735721 0 0.12511485180878659 0.38669155364253999 0 0.10530203828580589 0.39081501087735721 0 0.11572839933565 0.36901112731387931 0 0.12511485180878659 0.38669155364253999 0 0.10530203828580589 0.39081501087735721 0 0.11572839933565 0.36901112731387931 0 0.093421763068598729 0.3732746329651811 0 0.086508594005036243 0.39210844190671368 0 0.10530203828580589 0.39081501087735721 0 0.093421763068598729 0.3732746329651811 0 0.086508594005036243 0.39210844190671368 0 0.10530203828580589 0.39081501087735721 0 0.097464306129530401 0.40627607045229042 0 0.12124423323304589 0.40464992307237418 0 0.10530203828580589 0.39081501087735721 0 0.097464306129530401 0.40627607045229042 0 0.1013897441253909 0.35051354911707838 0 0.11572839933565 0.36901112731387931 0 0.093421763068598729 0.3732746329651811 0 0.11572839933565 0.36901112731387931 0 0.11950838885500729 0.35295264304180468 0 0.1335444958012677 0.35713356896564219 0 0.1013897441253909 0.35051354911707838 0 0.11572839933565 0.36901112731387931 0 0.11950838885500729 0.35295264304180468 0 0.1013897441253909 0.35051354911707838 0 0.11950838885500729 0.35295264304180468 0 0.1193185522089424 0.33837469460089648 0 0.11950838885500729 0.35295264304180468 0 0.1193185522089424 0.33837469460089648 0 0.1288537052033524 0.34405262424154759 0 0.1193185522089424 0.33837469460089648 0 0.1186596399420512 0.32518763369556519 0 0.1025984126411506 0.33217160592188177 0 0.1193185522089424 0.33837469460089648 0 0.1186596399420512 0.32518763369556519 0 0.12912453341153041 0.33299194894352813 0 0.1186596399420512 0.32518763369556519 0 0.10770230056735849 0.31765813870021659 0 0.1025984126411506 0.33217160592188177 0 0.11795154367990079 0.31285788244540341 0 0.1186596399420512 0.32518763369556519 0 0.13159280756532371 0.3183841303460837 0 0.11795154367990079 0.31285788244540341 0 0.1186596399420512 0.32518763369556519 0 0.10770230056735849 0.31765813870021659 0 0.10770230056735849 0.31765813870021659 0 0.1025984126411506 0.33217160592188177 0 0.093611812646468368 0.32088958161890829 0 0.10770230056735849 0.31765813870021659 0 0.093611812646468368 0.32088958161890829 0 0.098626063533215541 0.30876786225500108 0 0.1013897441253909 0.35051354911707838 0 0.1025984126411506 0.33217160592188177 0 0.080516659625209819 0.33313153596895412 0 0.1013897441253909 0.35051354911707838 0 0.1193185522089424 0.33837469460089648 0 0.1025984126411506 0.33217160592188177 0 0.1025984126411506 0.33217160592188177 0 0.080516659625209819 0.33313153596895412 0 0.093611812646468368 0.32088958161890829 0 0.080516659625209819 0.33313153596895412 0 0.093611812646468368 0.32088958161890829 0 0.083237092893726827 0.30975470707557801 0 0.080516659625209819 0.33313153596895412 0 0.083237092893726827 0.30975470707557801 0 0.093611812646468368 0.32088958161890829 0 0.083237092893726827 0.30975470707557801 0 0.098626063533215541 0.30876786225500108 0 0.080516659625209819 0.33313153596895412 0 0.063109662235112246 0.31789764175099672 0 0.083237092893726827 0.30975470707557801 0 0.080516659625209819 0.33313153596895412 0 0.063109662235112246 0.31789764175099672 0 0.063855688578372094 0.33721765494684458 0 0.080516659625209819 0.33313153596895412 0 0.063855688578372094 0.33721765494684458 0 0.07779622635669281 0.35650836486233017 0 0.063855688578372094 0.33721765494684458 0 0.07779622635669281 0.35650836486233017 0 0.05997515600657613 0.35350666397588137 0 0.1013897441253909 0.35051354911707838 0 0.080516659625209819 0.33313153596895412 0 0.07779622635669281 0.35650836486233017 0 0.080516659625209819 0.33313153596895412 0 0.07779622635669281 0.35650836486233017 0 0.1013897441253909 0.35051354911707838 0 0.07779622635669281 0.35650836486233017 0 0.093421763068598729 0.3732746329651811 0 0.075075793088175802 0.37988519375570629 0 0.07779622635669281 0.35650836486233017 0 0.093421763068598729 0.3732746329651811 0 0.07779622635669281 0.35650836486233017 0 0.060040271578410249 0.37267405173945889 0 0.05997515600657613 0.35350666397588137 0 0.075075793088175802 0.37988519375570629 0 0.07779622635669281 0.35650836486233017 0 0.060040271578410249 0.37267405173945889 0 0.075075793088175802 0.37988519375570629 0 0.07779622635669281 0.35650836486233017 0 0.060040271578410249 0.37267405173945889 0 0.05997515600657613 0.35350666397588137 0 0.04473055371931612 0.36556260231816923 0 0.05997515600657613 0.35350666397588137 0 0.04473055371931612 0.36556260231816923 0 0.047951650274375458 0.3413600757276356 0 0.063855688578372094 0.33721765494684458 0 0.05997515600657613 0.35350666397588137 0 0.047951650274375458 0.3413600757276356 0 0.04473055371931612 0.36556260231816923 0 0.047951650274375458 0.3413600757276356 0 0.04473055371931612 0.36556260231816923 0 0.024669375073507482 0.34830178416322077 0 0.047951650274375458 0.3413600757276356 0 0.04473055371931612 0.36556260231816923 0 0.027632810693984041 0.37469485433322419 0 0.024669375073507482 0.34830178416322077 0 0.027632810693984041 0.37469485433322419 0 0.024669375073507482 0.34830178416322077 0 0.0092361384877125696 0.36858803067752749 0 0.024669375073507482 0.34830178416322077 0 0.0092361384877125696 0.36858803067752749 0 -0.0069400381463707471 0.35673085073994759 0 0.0065766348852069924 0.3498664669526052 0 0.0092361384877125696 0.36858803067752749 0 0.024669375073507482 0.34830178416322077 0 0.0065766348852069924 0.3498664669526052 0 0.0078668993514150222 0.33388449334639941 0 0.024669375073507482 0.34830178416322077 0 0.0065766348852069924 0.3498664669526052 0 0.0092361384877125696 0.36858803067752749 0 0.0099744516145248013 0.32166174431860478 0 0.0078668993514150222 0.33388449334639941 0 0.022386496304973458 0.32777665776924392 0 0.0099744516145248013 0.32166174431860478 0 0.02028330536135799 0.31679865294512449 0 0.0066862934846831923 0.3120948041403328 0 0.0099744516145248013 0.32166174431860478 0 0.001640553041194217 0.31653633429737832 0 0.0066862934846831923 0.3120948041403328 0 0.001640553041194217 0.31653633429737832 0 0.0021809559534737852 0.31154143232201797 0 0.0066862934846831923 0.3120948041403328 0 0.0099744516145248013 0.32166174431860478 0 0.0005881388663088069 0.323179086459774 0 0.0078668993514150222 0.33388449334639941 0 0.0099744516145248013 0.32166174431860478 0 0.001640553041194217 0.31653633429737832 0 0.0005881388663088069 0.323179086459774 0 -0.0019492003402293669 0.34182717583593059 0 0.0065766348852069924 0.3498664669526052 0 0.0078668993514150222 0.33388449334639941 0 -0.0019492003402293669 0.34182717583593059 0 -0.003384044066198042 0.33179074559994298 0 0.0078668993514150222 0.33388449334639941 0 -0.003384044066198042 0.33179074559994298 0 0.0005881388663088069 0.323179086459774 0 0.0078668993514150222 0.33388449334639941 0 0.024669375073507482 0.34830178416322077 0 0.022386496304973458 0.32777665776924392 0 0.040102611659302387 0.32801553764891411 0 0.024669375073507482 0.34830178416322077 0 0.0078668993514150222 0.33388449334639941 0 0.022386496304973458 0.32777665776924392 0 0.022386496304973458 0.32777665776924392 0 0.02028330536135799 0.31679865294512449 0 0.031720402573412347 0.31844172173615892 0 0.0099744516145248013 0.32166174431860478 0 0.022386496304973458 0.32777665776924392 0 0.02028330536135799 0.31679865294512449 0 0.02028330536135799 0.31679865294512449 0 0.031720402573412347 0.31844172173615892 0 0.03064888282919611 0.30401833676128198 0 0.022386496304973458 0.32777665776924392 0 0.031720402573412347 0.31844172173615892 0 0.040102611659302387 0.32801553764891411 0 0.031720402573412347 0.31844172173615892 0 0.045283354367441582 0.31556221763832631 0 0.03064888282919611 0.30401833676128198 0 0.031720402573412347 0.31844172173615892 0 0.040102611659302387 0.32801553764891411 0 0.045283354367441582 0.31556221763832631 0 0.040102611659302387 0.32801553764891411 0 0.045283354367441582 0.31556221763832631 0 0.05226322562125181 0.32844916351181008 0 0.024669375073507482 0.34830178416322077 0 0.040102611659302387 0.32801553764891411 0 0.024669375073507482 0.34830178416322077 0 0.040102611659302387 0.32801553764891411 0 0.047951650274375458 0.3413600757276356 0 0.040102611659302387 0.32801553764891411 0 0.047951650274375458 0.3413600757276356 0 0.05226322562125181 0.32844916351181008 0 0.063855688578372094 0.33721765494684458 0 0.047951650274375458 0.3413600757276356 0 0.05226322562125181 0.32844916351181008 0 0.063109662235112246 0.31789764175099672 0 0.045283354367441582 0.31556221763832631 0 0.05226322562125181 0.32844916351181008 0 0.063109662235112246 0.31789764175099672 0 0.063855688578372094 0.33721765494684458 0 0.05226322562125181 0.32844916351181008 0 0.063109662235112246 0.31789764175099672 0 0.045283354367441582 0.31556221763832631 0 0.054611472173709028 0.29594186938223133 0 0.054611472173709028 0.29594186938223133 0 0.04151409299547814 0.27732892706730361 0 0.056079507430009327 0.28082843577884647 0 0.054611472173709028 0.29594186938223133 0 0.056079507430009327 0.28082843577884647 0 0.066115564417110737 0.28389611949775789 0 0.054611472173709028 0.29594186938223133 0 0.03064888282919611 0.30401833676128198 0 0.030791284849696281 0.28797757585195932 0 0.054611472173709028 0.29594186938223133 0 0.030791284849696281 0.28797757585195932 0 0.04151409299547814 0.27732892706730361 0 0.054611472173709028 0.29594186938223133 0 0.03064888282919611 0.30401833676128198 0 0.045283354367441582 0.31556221763832631 0 0.054611472173709028 0.29594186938223133 0 0.03064888282919611 0.30401833676128198 0 0.02028330536135799 0.31679865294512449 0 0.03064888282919611 0.30401833676128198 0 0.0066862934846831923 0.3120948041403328 0 0.03064888282919611 0.30401833676128198 0 0.0066862934846831923 0.3120948041403328 0 0.03064888282919611 0.30401833676128198 0 0.015815348062033979 0.29622107302558509 0 0.0066862934846831923 0.3120948041403328 0 0.03064888282919611 0.30401833676128198 0 0.030791284849696281 0.28797757585195932 0 0.015815348062033979 0.29622107302558509 0 0.030791284849696281 0.28797757585195932 0 0.015815348062033979 0.29622107302558509 0 0.015345424557816199 0.28221461304220941 0 0.015815348062033979 0.29622107302558509 0 0.0056590684270016872 0.29069243878221251 0 0.0077651505362812366 0.29928355996104178 0 0.015815348062033979 0.29622107302558509 0 0.015345424557816199 0.28221461304220941 0 0.0056590684270016872 0.29069243878221251 0 0.015345424557816199 0.28221461304220941 0 0.0056590684270016872 0.29069243878221251 0 0.0036022908640532341 0.28003696460785432 0 -0.0073978362223277166 0.28689032226821071 0 0.0056590684270016872 0.29069243878221251 0 0.0036022908640532341 0.28003696460785432 0 0.0056590684270016872 0.29069243878221251 0 0.0077651505362812366 0.29928355996104178 0 0.00015927102486981489 0.29745675896918089 0 0.0077651505362812366 0.29928355996104178 0 0.00015927102486981489 0.29745675896918089 0 0.0048028054488206129 0.30550447276361348 0 0.015815348062033979 0.29622107302558509 0 0.0077651505362812366 0.29928355996104178 0 0.0066862934846831923 0.3120948041403328 0 0.0077651505362812366 0.29928355996104178 0 0.0066862934846831923 0.3120948041403328 0 0.0048028054488206129 0.30550447276361348 0 -0.0049034890932287863 0.31236688705127519 0 0.0021809559534737852 0.31154143232201797 0 0.0048028054488206129 0.30550447276361348 0 0.0021809559534737852 0.31154143232201797 0 0.0066862934846831923 0.3120948041403328 0 0.0048028054488206129 0.30550447276361348 0 -0.0060435029931193646 0.2694932765028964 0 0.010292242862265389 0.2525681246984261 0 0.01306813282474412 0.26953469552069298 0 -0.0060435029931193646 0.2694932765028964 0 0.0036022908640532341 0.28003696460785432 0 0.01306813282474412 0.26953469552069298 0 0.015345424557816199 0.28221461304220941 0 0.0036022908640532341 0.28003696460785432 0 0.01306813282474412 0.26953469552069298 0 0.01306813282474412 0.26953469552069298 0 0.026902396621463601 0.27347931653131008 0 0.024003353803029769 0.2633590462593593 0 0.015345424557816199 0.28221461304220941 0 0.01306813282474412 0.26953469552069298 0 0.026902396621463601 0.27347931653131008 0 0.030791284849696281 0.28797757585195932 0 0.015345424557816199 0.28221461304220941 0 0.026902396621463601 0.27347931653131008 0 0.026902396621463601 0.27347931653131008 0 0.024003353803029769 0.2633590462593593 0 0.03427396259753248 0.2669729532344669 0 0.010292242862265389 0.2525681246984261 0 0.024003353803029769 0.2633590462593593 0 0.033139822705026432 0.25616635255332632 0 0.010292242862265389 0.2525681246984261 0 0.01306813282474412 0.26953469552069298 0 0.024003353803029769 0.2633590462593593 0 0.010292242862265389 0.2525681246984261 0 0.033139822705026432 0.25616635255332632 0 0.033949902252661937 0.25099025126797392 0 0.024003353803029769 0.2633590462593593 0 0.033139822705026432 0.25616635255332632 0 0.03427396259753248 0.2669729532344669 0 0.010292242862265389 0.2525681246984261 0 0.033949902252661937 0.25099025126797392 0 0.010292242862265389 0.2525681246984261 0 0.033139822705026432 0.25616635255332632 0 0.033139822705026432 0.25616635255332632 0 0.043692585901091818 0.26607285035189487 0 0.055987402547787377 0.25976458040822709 0 0.033139822705026432 0.25616635255332632 0 0.033949902252661937 0.25099025126797392 0 0.055987402547787377 0.25976458040822709 0 0.057607561643058448 0.24941237783752099 0 0.033949902252661937 0.25099025126797392 0 0.033139822705026432 0.25616635255332632 0 0.055987402547787377 0.25976458040822709 0 0.033139822705026432 0.25616635255332632 0 0.03427396259753248 0.2669729532344669 0 0.043692585901091818 0.26607285035189487 0 0.030791284849696281 0.28797757585195932 0 0.026902396621463601 0.27347931653131008 0 0.04151409299547814 0.27732892706730361 0 0.026902396621463601 0.27347931653131008 0 0.03427396259753248 0.2669729532344669 0 0.04151409299547814 0.27732892706730361 0 0.043692585901091818 0.26607285035189487 0 0.04151409299547814 0.27732892706730361 0 0.053496989854195542 0.27179509672454932 0 0.03427396259753248 0.2669729532344669 0 0.043692585901091818 0.26607285035189487 0 0.04151409299547814 0.27732892706730361 0 0.04151409299547814 0.27732892706730361 0 0.053496989854195542 0.27179509672454932 0 0.056079507430009327 0.28082843577884647 0 0.043692585901091818 0.26607285035189487 0 0.053496989854195542 0.27179509672454932 0 0.055987402547787377 0.25976458040822709 0 0.053496989854195542 0.27179509672454932 0 0.061182601618360657 0.26863394601220508 0 0.055987402547787377 0.25976458040822709 0 0.053496989854195542 0.27179509672454932 0 0.061182601618360657 0.26863394601220508 0 0.06465941770955326 0.27518016622239061 0 0.056079507430009327 0.28082843577884647 0 0.06465941770955326 0.27518016622239061 0 0.066115564417110737 0.28389611949775789 0 0.053496989854195542 0.27179509672454932 0 0.056079507430009327 0.28082843577884647 0 0.06465941770955326 0.27518016622239061 0 0.057607561643058448 0.24941237783752099 0 0.033949902252661937 0.25099025126797392 0 0.055987402547787377 0.25976458040822709 0 0.061182601618360657 0.26863394601220508 0 0.055987402547787377 0.25976458040822709 0 0.068335178103150235 0.26846197012310918 0 0.057607561643058448 0.24941237783752099 0 0.055987402547787377 0.25976458040822709 0 0.068423791903712283 0.25509356772898611 0 0.055987402547787377 0.25976458040822709 0 0.078834982390548328 0.26336280826312808 0 0.057607561643058448 0.24941237783752099 0 0.081265221033454946 0.2478345044070682 0 0.068423791903712283 0.25509356772898611 0 0.055987402547787377 0.25976458040822709 0 0.078834982390548328 0.26336280826312808 0 0.068335178103150235 0.26846197012310918 0 0.055987402547787377 0.25976458040822709 0 0.068423791903712283 0.25509356772898611 0 0.078834982390548328 0.26336280826312808 0 0.081265221033454946 0.2478345044070682 0 0.068423791903712283 0.25509356772898611 0 0.078834982390548328 0.26336280826312808 0 0.078834982390548328 0.26336280826312808 0 0.10168256223330931 0.26696103611802902 0 0.081265221033454946 0.2478345044070682 0 0.078834982390548328 0.26336280826312808 0 0.088979123971559035 0.25702557020336592 0 0.078834982390548328 0.26336280826312808 0 0.088979123971559035 0.25702557020336592 0 0.10168256223330931 0.26696103611802902 0 0.081265221033454946 0.2478345044070682 0 0.094133730228923601 0.2499439320252386 0 0.088979123971559035 0.25702557020336592 0 0.078834982390548328 0.26336280826312808 0 0.096283043085207534 0.27376292121262469 0 0.10168256223330931 0.26696103611802902 0 0.087355403787320623 0.27499192928933669 0 0.08624369147506665 0.27983666862128842 0 0.10253665086273479 0.27978893462412951 0 0.078834982390548328 0.26336280826312808 0 0.087355403787320623 0.27499192928933669 0 0.096283043085207534 0.27376292121262469 0 0.078834982390548328 0.26336280826312808 0 0.087355403787320623 0.27499192928933669 0 0.07650864973198919 0.27670040856850692 0 0.087355403787320623 0.27499192928933669 0 0.08624369147506665 0.27983666862128842 0 0.07650864973198919 0.27670040856850692 0 0.078834982390548328 0.26336280826312808 0 0.07650864973198919 0.27670040856850692 0 0.068335178103150235 0.26846197012310918 0 0.07650864973198919 0.27670040856850692 0 0.068335178103150235 0.26846197012310918 0 0.06465941770955326 0.27518016622239061 0 0.061182601618360657 0.26863394601220508 0 0.068335178103150235 0.26846197012310918 0 0.06465941770955326 0.27518016622239061 0 0.07650864973198919 0.27670040856850692 0 0.06465941770955326 0.27518016622239061 0 0.066115564417110737 0.28389611949775789 0 0.054611472173709028 0.29594186938223133 0 0.06972341808185685 0.30119216574250729 0 0.078574061518221938 0.28786540200318061 0 0.054611472173709028 0.29594186938223133 0 0.078574061518221938 0.28786540200318061 0 0.054611472173709028 0.29594186938223133 0 0.066115564417110737 0.28389611949775789 0 0.078574061518221938 0.28786540200318061 0 0.06972341808185685 0.30119216574250729 0 0.081944944392469798 0.29858864039282368 0 0.078574061518221938 0.28786540200318061 0 0.07650864973198919 0.27670040856850692 0 0.066115564417110737 0.28389611949775789 0 0.078574061518221938 0.28786540200318061 0 0.063109662235112246 0.31789764175099672 0 0.054611472173709028 0.29594186938223133 0 0.06972341808185685 0.30119216574250729 0 0.063109662235112246 0.31789764175099672 0 0.06972341808185685 0.30119216574250729 0 0.083237092893726827 0.30975470707557801 0 0.06972341808185685 0.30119216574250729 0 0.083237092893726827 0.30975470707557801 0 0.081944944392469798 0.29858864039282368 0 0.083237092893726827 0.30975470707557801 0 0.081944944392469798 0.29858864039282368 0 0.093088862082737867 0.29827092976994107 0 0.083237092893726827 0.30975470707557801 0 0.093088862082737867 0.29827092976994107 0 0.098626063533215541 0.30876786225500108 0 0.078574061518221938 0.28786540200318061 0 0.088124784779528703 0.28919927056820333 0 0.10253665086273479 0.27978893462412951 0 0.08624369147506665 0.27983666862128842 0 0.078574061518221938 0.28786540200318061 0 0.10253665086273479 0.27978893462412951 0 0.078574061518221938 0.28786540200318061 0 0.10253665086273479 0.27978893462412951 0 0.08624369147506665 0.27983666862128842 0 0.07650864973198919 0.27670040856850692 0 0.078574061518221938 0.28786540200318061 0 0.081944944392469798 0.29858864039282368 0 0.078574061518221938 0.28786540200318061 0 0.088124784779528703 0.28919927056820333 0 0.081944944392469798 0.29858864039282368 0 0.093088862082737867 0.29827092976994107 0 0.088124784779528703 0.28919927056820333 0 0.093088862082737867 0.29827092976994107 0 0.088124784779528703 0.28919927056820333 0 0.099290996135621798 0.2905122564806159 0 0.088124784779528703 0.28919927056820333 0 0.099290996135621798 0.2905122564806159 0 0.10253665086273479 0.27978893462412951 0 0.088124784779528703 0.28919927056820333 0 0.10253665086273479 0.27978893462412951 0 0.093088862082737867 0.29827092976994107 0 0.099290996135621798 0.2905122564806159 0 0.10385283442102761 0.29745051655551208 0 0.1083374392040988 0.28880317715077042 0 0.10385283442102761 0.29745051655551208 0 0.1109983109874742 0.29732830079785838 0 0.099290996135621798 0.2905122564806159 0 0.1083374392040988 0.28880317715077042 0 0.10385283442102761 0.29745051655551208 0 0.1083374392040988 0.28880317715077042 0 0.10253665086273479 0.27978893462412951 0 0.1092333112159426 0.27753185972651823 0 0.099290996135621798 0.2905122564806159 0 0.1083374392040988 0.28880317715077042 0 0.10253665086273479 0.27978893462412951 0 0.093088862082737867 0.29827092976994107 0 0.098626063533215541 0.30876786225500108 0 0.10385283442102761 0.29745051655551208 0 0.098626063533215541 0.30876786225500108 0 0.10385283442102761 0.29745051655551208 0 0.1113899109341374 0.30510151444885031 0 0.10385283442102761 0.29745051655551208 0 0.1113899109341374 0.30510151444885031 0 0.1109983109874742 0.29732830079785838 0 0.10770230056735849 0.31765813870021659 0 0.098626063533215541 0.30876786225500108 0 0.1113899109341374 0.30510151444885031 0 0.11795154367990079 0.31285788244540341 0 0.1204130593906332 0.29795799503630088 0 0.13159280756532371 0.3183841303460837 0 0.11795154367990079 0.31285788244540341 0 0.1113899109341374 0.30510151444885031 0 0.1204130593906332 0.29795799503630088 0 0.11795154367990079 0.31285788244540341 0 0.10770230056735849 0.31765813870021659 0 0.1113899109341374 0.30510151444885031 0 0.1113899109341374 0.30510151444885031 0 0.1109983109874742 0.29732830079785838 0 0.1204130593906332 0.29795799503630088 0 0.1204130593906332 0.29795799503630088 0 0.1196739284139124 0.2740129034482871 0 0.1092333112159426 0.27753185972651823 0 0.1083374392040988 0.28880317715077042 0 0.1204130593906332 0.29795799503630088 0 0.1092333112159426 0.27753185972651823 0 0.1204130593906332 0.29795799503630088 0 0.1092333112159426 0.27753185972651823 0 0.1204130593906332 0.29795799503630088 0 0.1196739284139124 0.2740129034482871 0 0.13196094985899071 0.29713274654857019 0 0.1083374392040988 0.28880317715077042 0 0.1109983109874742 0.29732830079785838 0 0.1204130593906332 0.29795799503630088 0 0.1196739284139124 0.2740129034482871 0 0.1215894476224209 0.27336728756016082 0 0.1270667152088438 0.27765839622302518 0 0.1196739284139124 0.2740129034482871 0 0.1215894476224209 0.27336728756016082 0 0.1196739284139124 0.2740129034482871 0 0.1092333112159426 0.27753185972651823 0 0.1175379416872884 0.26999372937875782 0 0.1092333112159426 0.27753185972651823 0 0.10838027097209289 0.27597329908871993 0 0.1196739284139124 0.2740129034482871 0 0.1175379416872884 0.26999372937875782 0 0.1092333112159426 0.27753185972651823 0 0.1175379416872884 0.26999372937875782 0 0.10624370582803951 0.26054189786733228 0 0.10838027097209289 0.27597329908871993 0 0.1175379416872884 0.26999372937875782 0 0.10838027097209289 0.27597329908871993 0 0.1175379416872884 0.26999372937875782 0 0.13057551891849831 0.26148074563784818 0 0.1175379416872884 0.26999372937875782 0 0.1215894476224209 0.27336728756016082 0 0.12895750457270869 0.26959749535915228 0 0.1196739284139124 0.2740129034482871 0 0.1175379416872884 0.26999372937875782 0 0.1215894476224209 0.27336728756016082 0 0.1196739284139124 0.2740129034482871 0 0.1175379416872884 0.26999372937875782 0 0.1049228804238513 0.24625663097661221 0 0.1175379416872884 0.26999372937875782 0 0.10624370582803951 0.26054189786733228 0 0.1175379416872884 0.26999372937875782 0 0.1218527202382514 0.26092344621917302 0 0.13057551891849831 0.26148074563784818 0 0.1175379416872884 0.26999372937875782 0 0.1218527202382514 0.26092344621917302 0 0.1160967455614962 0.2556012162986796 0 0.1049228804238513 0.24625663097661221 0 0.1175379416872884 0.26999372937875782 0 0.1160967455614962 0.2556012162986796 0 0.1049228804238513 0.24625663097661221 0 0.1175379416872884 0.26999372937875782 0 0.1243937442617858 0.25004166130603311 0 0.1194715899708394 0.25199818021347231 0 0.12544041725404201 0.25507995396883087 0 0.1218527202382514 0.26092344621917302 0 0.12071536825615729 0.25590069917503888 0 0.12544041725404201 0.25507995396883087 0 0.12071536825615729 0.25590069917503888 0 0.1194715899708394 0.25199818021347231 0 0.12544041725404201 0.25507995396883087 0 0.1218527202382514 0.26092344621917302 0 0.12071536825615729 0.25590069917503888 0 0.1160967455614962 0.2556012162986796 0 0.12071536825615729 0.25590069917503888 0 0.1194715899708394 0.25199818021347231 0 0.1160967455614962 0.2556012162986796 0 0.1049228804238513 0.24625663097661221 0 0.1194715899708394 0.25199818021347231 0 0.1160967455614962 0.2556012162986796 0 0.094133730228923601 0.2499439320252386 0 0.088979123971559035 0.25702557020336592 0 0.10168256223330931 0.26696103611802902 0 0.094133730228923601 0.2499439320252386 0 0.10624370582803951 0.26054189786733228 0 0.10838027097209289 0.27597329908871993 0 0.094133730228923601 0.2499439320252386 0 0.10838027097209289 0.27597329908871993 0 0.094133730228923601 0.2499439320252386 0 0.10838027097209289 0.27597329908871993 0 0.10168256223330931 0.26696103611802902 0 0.1049228804238513 0.24625663097661221 0 0.094133730228923601 0.2499439320252386 0 0.10624370582803951 0.26054189786733228 0 0.087355403787320623 0.27499192928933669 0 0.096283043085207534 0.27376292121262469 0 0.10253665086273479 0.27978893462412951 0 0.096283043085207534 0.27376292121262469 0 0.10253665086273479 0.27978893462412951 0 0.10838027097209289 0.27597329908871993 0 0.10253665086273479 0.27978893462412951 0 0.1092333112159426 0.27753185972651823 0 0.10253665086273479 0.27978893462412951 0 0.10838027097209289 0.27597329908871993 0 0.10253665086273479 0.27978893462412951 0 0.1092333112159426 0.27753185972651823 0 0.10838027097209289 0.27597329908871993 0 0.1092333112159426 0.27753185972651823 0 0.10838027097209289 0.27597329908871993 0 0.096283043085207534 0.27376292121262469 0 0.10838027097209289 0.27597329908871993 0 0.10168256223330931 0.26696103611802902 0 0.14087151274909901 0.27037654417144458 0 0.1472467686032686 0.28167751943633462 0 0.1590106400025342 0.27870529424610951 0 0.14087151274909901 0.27037654417144458 0 0.137637115967055 0.28696157166610509 0 0.1472467686032686 0.28167751943633462 0 0.14087151274909901 0.27037654417144458 0 0.1443619108738301 0.25247881771211322 0 0.1590106400025342 0.27870529424610951 0 0.1443619108738301 0.25247881771211322 0 0.1590106400025342 0.27870529424610951 0 0.15546590024771509 0.25532561954491562 0 0.1443619108738301 0.25247881771211322 0 0.1590106400025342 0.27870529424610951 0 0.14087151274909901 0.27037654417144458 0 0.1443619108738301 0.25247881771211322 0 0.1573252455148316 0.24401431122676481 0 0.15546590024771509 0.25532561954491562 0 0.1443619108738301 0.25247881771211322 0 0.1443619108738301 0.25247881771211322 0 0.14204595666316641 0.25034823350876839 0 0.1401670312829249 0.25151985074522798 0 0.14041315158971951 0.24942753197291989 0 0.14204595666316641 0.25034823350876839 0 0.1401670312829249 0.25151985074522798 0 0.14259854284534321 0.24886567522877809 0 0.1443619108738301 0.25247881771211322 0 0.14204595666316641 0.25034823350876839 0 0.1443619108738301 0.25247881771211322 0 0.14204595666316641 0.25034823350876839 0 0.14087151274909901 0.27037654417144458 0 0.1443619108738301 0.25247881771211322 0 0.13057551891849831 0.26148074563784818 0 0.1443619108738301 0.25247881771211322 0 0.13057551891849831 0.26148074563784818 0 0.1443619108738301 0.25247881771211322 0 0.13662379559331919 0.25414596372308951 0 0.13057551891849831 0.26148074563784818 0 0.1443619108738301 0.25247881771211322 0 0.1401670312829249 0.25151985074522798 0 0.13662379559331919 0.25414596372308951 0 0.14041315158971951 0.24942753197291989 0 0.13828035729737059 0.25097015831794101 0 0.1401670312829249 0.25151985074522798 0 0.13828035729737059 0.25097015831794101 0 0.1401670312829249 0.25151985074522798 0 0.13662379559331919 0.25414596372308951 0 0.13662379559331919 0.25414596372308951 0 0.1350215923220012 0.25045035956268641 0 0.13077498251412609 0.25497968982481117 0 0.13828035729737059 0.25097015831794101 0 0.13662379559331919 0.25414596372308951 0 0.1350215923220012 0.25045035956268641 0 0.1350215923220012 0.25045035956268641 0 0.12912149283636359 0.25051101303651058 0 0.13077498251412609 0.25497968982481117 0 0.13077498251412609 0.25497968982481117 0 0.12544041725404201 0.25507995396883087 0 0.13057551891849831 0.26148074563784818 0 0.13662379559331919 0.25414596372308951 0 0.13077498251412609 0.25497968982481117 0 0.13057551891849831 0.26148074563784818 0 0.12912149283636359 0.25051101303651058 0 0.13077498251412609 0.25497968982481117 0 0.12544041725404201 0.25507995396883087 0 0.1243937442617858 0.25004166130603311 0 0.12912149283636359 0.25051101303651058 0 0.12544041725404201 0.25507995396883087 0 0.1218527202382514 0.26092344621917302 0 0.12544041725404201 0.25507995396883087 0 0.13057551891849831 0.26148074563784818 0 0.1175379416872884 0.26999372937875782 0 0.13057551891849831 0.26148074563784818 0 0.12895750457270869 0.26959749535915228 0 0.14087151274909901 0.27037654417144458 0 0.137637115967055 0.28696157166610509 0 0.14087151274909901 0.27037654417144458 0 0.1332853947535983 0.27978500510323201 0 0.137637115967055 0.28696157166610509 0 0.14087151274909901 0.27037654417144458 0 0.13057551891849831 0.26148074563784818 0 0.12895750457270869 0.26959749535915228 0 0.14087151274909901 0.27037654417144458 0 0.12895750457270869 0.26959749535915228 0 0.1332853947535983 0.27978500510323201 0 0.12895750457270869 0.26959749535915228 0 0.1332853947535983 0.27978500510323201 0 0.1270667152088438 0.27765839622302518 0 0.1215894476224209 0.27336728756016082 0 0.12895750457270869 0.26959749535915228 0 0.1270667152088438 0.27765839622302518 0 0.1196739284139124 0.2740129034482871 0 0.13196094985899071 0.29713274654857019 0 0.1196739284139124 0.2740129034482871 0 0.1270667152088438 0.27765839622302518 0 0.13196094985899071 0.29713274654857019 0 0.1332853947535983 0.27978500510323201 0 0.1270667152088438 0.27765839622302518 0 0.13196094985899071 0.29713274654857019 0 0.1332853947535983 0.27978500510323201 0 0.137637115967055 0.28696157166610509 0 0.13196094985899071 0.29713274654857019 0 0.137637115967055 0.28696157166610509 0 0.13196094985899071 0.29713274654857019 0 0.14365610637095899 0.29974045243296282 0 0.13196094985899071 0.29713274654857019 0 0.14424797130406919 0.32025258964885323 0 0.13159280756532371 0.3183841303460837 0 0.13196094985899071 0.29713274654857019 0 0.14424797130406919 0.32025258964885323 0 0.13196094985899071 0.29713274654857019 0 0.14365610637095899 0.29974045243296282 0 0.14424797130406919 0.32025258964885323 0 0.1204130593906332 0.29795799503630088 0 0.13159280756532371 0.3183841303460837 0 0.1204130593906332 0.29795799503630088 0 0.13196094985899071 0.29713274654857019 0 0.13159280756532371 0.3183841303460837 0 0.14365610637095899 0.29974045243296282 0 0.15296668903029359 0.30368868663960619 0 0.14424797130406919 0.32025258964885323 0 0.15296668903029359 0.30368868663960619 0 0.15920065970910599 0.31281292939005467 0 0.14424797130406919 0.32025258964885323 0 0.14365610637095899 0.29974045243296282 0 0.15296668903029359 0.30368868663960619 0 0.15146780569438639 0.29066666766167948 0 0.137637115967055 0.28696157166610509 0 0.1472467686032686 0.28167751943633462 0 0.15146780569438639 0.29066666766167948 0 0.137637115967055 0.28696157166610509 0 0.14365610637095899 0.29974045243296282 0 0.15146780569438639 0.29066666766167948 0 0.1472467686032686 0.28167751943633462 0 0.15146780569438639 0.29066666766167948 0 0.1590106400025342 0.27870529424610951 0 0.17391537047392899 0.30361907181543429 0 0.1869964277111536 0.27812606629616021 0 0.2004640181506038 0.30943886487345201 0 0.17391537047392899 0.30361907181543429 0 0.1590106400025342 0.27870529424610951 0 0.15146780569438639 0.29066666766167948 0 0.17391537047392899 0.30361907181543429 0 0.1590106400025342 0.27870529424610951 0 0.15296668903029359 0.30368868663960619 0 0.15146780569438639 0.29066666766167948 0 0.17391537047392899 0.30361907181543429 0 0.15296668903029359 0.30368868663960619 0 0.17391537047392899 0.30361907181543429 0 0.15920065970910599 0.31281292939005467 0 0.17391537047392899 0.30361907181543429 0 0.1869964277111536 0.27812606629616021 0 0.1590106400025342 0.27870529424610951 0 0.15546590024771509 0.25532561954491562 0 0.1590106400025342 0.27870529424610951 0 0.16694323571279471 0.26554402592919502 0 0.1869964277111536 0.27812606629616021 0 0.1590106400025342 0.27870529424610951 0 0.16694323571279471 0.26554402592919502 0 0.15546590024771509 0.25532561954491562 0 0.16694323571279471 0.26554402592919502 0 0.17556005456088261 0.25282021001762578 0 0.1573252455148316 0.24401431122676481 0 0.15546590024771509 0.25532561954491562 0 0.17556005456088261 0.25282021001762578 0 0.1869964277111536 0.27812606629616021 0 0.17556005456088261 0.25282021001762578 0 0.1957303775968901 0.25102851163789047 0 0.1869964277111536 0.27812606629616021 0 0.16694323571279471 0.26554402592919502 0 0.17556005456088261 0.25282021001762578 0 0.1869964277111536 0.27812606629616021 0 0.1957303775968901 0.25102851163789047 0 0.20859310347495191 0.27005830743708981 0 0.1869964277111536 0.27812606629616021 0 0.20859310347495191 0.27005830743708981 0 0.21468433307135321 0.29238275457262769 0 0.20859310347495191 0.27005830743708981 0 0.22976672920207361 0.27898172925180431 0 0.21468433307135321 0.29238275457262769 0 0.1957303775968901 0.25102851163789047 0 0.2247480759374858 0.25363381999817292 0 0.1957303775968901 0.25102851163789047 0 0.20859310347495191 0.27005830743708981 0 0.2247480759374858 0.25363381999817292 0 0.2247480759374858 0.25363381999817292 0 0.22976672920207361 0.27898172925180431 0 0.24818291015165639 0.27185899357569421 0 0.20859310347495191 0.27005830743708981 0 0.2247480759374858 0.25363381999817292 0 0.22976672920207361 0.27898172925180431 0 0.22976672920207361 0.27898172925180431 0 0.24818291015165639 0.27185899357569421 0 0.24476088505220339 0.28838227761736962 0 0.2247480759374858 0.25363381999817292 0 0.25376577427808128 0.2562391283584553 0 0.2247480759374858 0.25363381999817292 0 0.24818291015165639 0.27185899357569421 0 0.25376577427808128 0.2562391283584553 0 0.23975313719016039 0.24094104287280149 0 0.2247480759374858 0.25363381999817292 0 0.25376577427808128 0.2562391283584553 0 0.24936287331975429 0.30425101235067858 0 0.23136697213319921 0.29791466132909827 0 0.2236342183071425 0.31777387285034198 0 0.24936287331975429 0.30425101235067858 0 0.24476088505220339 0.28838227761736962 0 0.23136697213319921 0.29791466132909827 0 0.22976672920207361 0.27898172925180431 0 0.24476088505220339 0.28838227761736962 0 0.23136697213319921 0.29791466132909827 0 0.22976672920207361 0.27898172925180431 0 0.23136697213319921 0.29791466132909827 0 0.21468433307135321 0.29238275457262769 0 0.23136697213319921 0.29791466132909827 0 0.21468433307135321 0.29238275457262769 0 0.2236342183071425 0.31777387285034198 0 0.1869964277111536 0.27812606629616021 0 0.21468433307135321 0.29238275457262769 0 0.2004640181506038 0.30943886487345201 0 0.21468433307135321 0.29238275457262769 0 0.2004640181506038 0.30943886487345201 0 0.2236342183071425 0.31777387285034198 0 0.17391537047392899 0.30361907181543429 0 0.2004640181506038 0.30943886487345201 0 0.18882010094532381 0.32853284938475907 0 0.2004640181506038 0.30943886487345201 0 0.18882010094532381 0.32853284938475907 0 0.2126249060589302 0.33517881555297319 0 0.18882010094532381 0.32853284938475907 0 0.2126249060589302 0.33517881555297319 0 0.2037248314167186 0.35344662695408402 0 0.18882010094532381 0.32853284938475907 0 0.2037248314167186 0.35344662695408402 0 0.2004640181506038 0.30943886487345201 0 0.2126249060589302 0.33517881555297319 0 0.2236342183071425 0.31777387285034198 0 0.2126249060589302 0.33517881555297319 0 0.2236342183071425 0.31777387285034198 0 0.2345470438696666 0.34223768178528952 0 0.2236342183071425 0.31777387285034198 0 0.2345470438696666 0.34223768178528952 0 0.25447644981259437 0.32863660406410278 0 0.2345470438696666 0.34223768178528952 0 0.2595900263054346 0.35302219577752708 0 0.25447644981259437 0.32863660406410278 0 0.24936287331975429 0.30425101235067858 0 0.2236342183071425 0.31777387285034198 0 0.25447644981259437 0.32863660406410278 0 0.23534969233987901 0.36059926727266151 0 0.246670792481233 0.36870527606286629 0 0.2595900263054346 0.35302219577752708 0 0.23534969233987901 0.36059926727266151 0 0.23813136220717021 0.37316407394409251 0 0.246670792481233 0.36870527606286629 0 0.23813136220717021 0.37316407394409251 0 0.246670792481233 0.36870527606286629 0 0.24529423467437711 0.38121207215925851 0 0.2345470438696666 0.34223768178528952 0 0.23534969233987901 0.36059926727266151 0 0.2595900263054346 0.35302219577752708 0 0.2345470438696666 0.34223768178528952 0 0.23534969233987901 0.36059926727266151 0 0.22024731155368379 0.35599416430982872 0 0.2126249060589302 0.33517881555297319 0 0.2345470438696666 0.34223768178528952 0 0.22024731155368379 0.35599416430982872 0 0.23534969233987901 0.36059926727266151 0 0.22024731155368379 0.35599416430982872 0 0.2268639341744543 0.37163858768994151 0 0.23534969233987901 0.36059926727266151 0 0.23813136220717021 0.37316407394409251 0 0.2268639341744543 0.37163858768994151 0 0.22024731155368379 0.35599416430982872 0 0.20837346146245431 0.37286400660402219 0 0.2037248314167186 0.35344662695408402 0 0.22024731155368379 0.35599416430982872 0 0.2268639341744543 0.37163858768994151 0 0.20837346146245431 0.37286400660402219 0 0.2126249060589302 0.33517881555297319 0 0.22024731155368379 0.35599416430982872 0 0.2037248314167186 0.35344662695408402 0 0.18882010094532381 0.32853284938475907 0 0.2037248314167186 0.35344662695408402 0 0.18714289961731029 0.35805741253673351 0 0.20837346146245431 0.37286400660402219 0 0.2037248314167186 0.35344662695408402 0 0.18714289961731029 0.35805741253673351 0 0.20837346146245431 0.37286400660402219 0 0.18633460989848119 0.3736667424822579 0 0.18714289961731029 0.35805741253673351 0 0.18633460989848119 0.3736667424822579 0 0.17729258649539201 0.35828068411803132 0 0.18714289961731029 0.35805741253673351 0 0.17230449471873019 0.36677759292220691 0 0.16979870464824359 0.35664108568927511 0 0.17729258649539201 0.35828068411803132 0 0.18633460989848119 0.3736667424822579 0 0.17230449471873019 0.36677759292220691 0 0.17729258649539201 0.35828068411803132 0 0.1598871069648794 0.36716630027733749 0 0.1539523039147048 0.35923640096564918 0 0.15514727985487359 0.37531332599848399 0 0.17230449471873019 0.36677759292220691 0 0.16508091835153399 0.37169809974097928 0 0.16924369602496059 0.3827410036574489 0 0.16508091835153399 0.37169809974097928 0 0.16882201419422641 0.36649227584941912 0 0.1598871069648794 0.36716630027733749 0 0.17230449471873019 0.36677759292220691 0 0.16508091835153399 0.37169809974097928 0 0.16882201419422641 0.36649227584941912 0 0.17230449471873019 0.36677759292220691 0 0.16882201419422641 0.36649227584941912 0 0.16979870464824359 0.35664108568927511 0 0.16882201419422641 0.36649227584941912 0 0.1598871069648794 0.36716630027733749 0 0.1539523039147048 0.35923640096564918 0 0.16508091835153399 0.37169809974097928 0 0.1598871069648794 0.36716630027733749 0 0.15514727985487359 0.37531332599848399 0 0.16882201419422641 0.36649227584941912 0 0.15653499274914789 0.34337243274913609 0 0.1539523039147048 0.35923640096564918 0 0.16979870464824359 0.35664108568927511 0 0.1740394350837218 0.34828244280758219 0 0.15653499274914789 0.34337243274913609 0 0.16882201419422641 0.36649227584941912 0 0.15653499274914789 0.34337243274913609 0 0.16882201419422641 0.36649227584941912 0 0.16979870464824359 0.35664108568927511 0 0.15653499274914789 0.34337243274913609 0 0.18882010094532381 0.32853284938475907 0 0.1740394350837218 0.34828244280758219 0 0.18714289961731029 0.35805741253673351 0 0.16979870464824359 0.35664108568927511 0 0.1740394350837218 0.34828244280758219 0 0.17729258649539201 0.35828068411803132 0 0.1740394350837218 0.34828244280758219 0 0.17729258649539201 0.35828068411803132 0 0.18714289961731029 0.35805741253673351 0 0.18882010094532381 0.32853284938475907 0 0.16567260802813241 0.32369136945632537 0 0.16844301565747741 0.33693938598190282 0 0.18882010094532381 0.32853284938475907 0 0.1740394350837218 0.34828244280758219 0 0.16844301565747741 0.33693938598190282 0 0.17391537047392899 0.30361907181543429 0 0.18882010094532381 0.32853284938475907 0 0.16567260802813241 0.32369136945632537 0 0.17391537047392899 0.30361907181543429 0 0.18882010094532381 0.32853284938475907 0 0.17391537047392899 0.30361907181543429 0 0.16567260802813241 0.32369136945632537 0 0.15920065970910599 0.31281292939005467 0 0.16567260802813241 0.32369136945632537 0 0.15920065970910599 0.31281292939005467 0 0.14424797130406919 0.32025258964885323 0 0.16567260802813241 0.32369136945632537 0 0.15653499274914789 0.34337243274913609 0 0.16844301565747741 0.33693938598190282 0 0.1740394350837218 0.34828244280758219 0 0.15653499274914789 0.34337243274913609 0 0.16844301565747741 0.33693938598190282 0 0.15653499274914789 0.34337243274913609 0 0.14424797130406919 0.32025258964885323 0 0.16567260802813241 0.32369136945632537 0 0.15653499274914789 0.34337243274913609 0 0.14424797130406919 0.32025258964885323 0 0.15653499274914789 0.34337243274913609 0 0.1427725557400143 0.33881026565586653 0 0.14424797130406919 0.32025258964885323 0 0.1427725557400143 0.33881026565586653 0 0.14424797130406919 0.32025258964885323 0 0.13159280756532371 0.3183841303460837 0 0.1186596399420512 0.32518763369556519 0 0.13159280756532371 0.3183841303460837 0 0.12912453341153041 0.33299194894352813 0 0.1427725557400143 0.33881026565586653 0 0.13159280756532371 0.3183841303460837 0 0.12912453341153041 0.33299194894352813 0 0.1427725557400143 0.33881026565586653 0 0.13159280756532371 0.3183841303460837 0 0.1427725557400143 0.33881026565586653 0 0.12912453341153041 0.33299194894352813 0 0.1288537052033524 0.34405262424154759 0 0.1193185522089424 0.33837469460089648 0 0.12912453341153041 0.33299194894352813 0 0.1288537052033524 0.34405262424154759 0 0.1427725557400143 0.33881026565586653 0 0.1288537052033524 0.34405262424154759 0 0.1335444958012677 0.35713356896564219 0 0.11950838885500729 0.35295264304180468 0 0.1288537052033524 0.34405262424154759 0 0.1335444958012677 0.35713356896564219 0 0.11572839933565 0.36901112731387931 0 0.1335444958012677 0.35713356896564219 0 0.1376818072938602 0.37425684328978931 0 0.1376818072938602 0.37425684328978931 0 0.1539523039147048 0.35923640096564918 0 0.15514727985487359 0.37531332599848399 0 0.1335444958012677 0.35713356896564219 0 0.1376818072938602 0.37425684328978931 0 0.1539523039147048 0.35923640096564918 0 0.15653499274914789 0.34337243274913609 0 0.1427725557400143 0.33881026565586653 0 0.1539523039147048 0.35923640096564918 0 0.1427725557400143 0.33881026565586653 0 0.1539523039147048 0.35923640096564918 0 0.1427725557400143 0.33881026565586653 0 0.1335444958012677 0.35713356896564219 0 0.1539523039147048 0.35923640096564918 0 0.14601974965678741 0.39282470576807232 0 0.15223086508772049 0.407685016642376 0 0.16490248354313361 0.40089824947794223 0 0.14601974965678741 0.39282470576807232 0 0.1369231587652131 0.4148184148180396 0 0.15223086508772049 0.407685016642376 0 0.1376818072938602 0.37425684328978931 0 0.14601974965678741 0.39282470576807232 0 0.15514727985487359 0.37531332599848399 0 0.11572839933565 0.36901112731387931 0 0.1376818072938602 0.37425684328978931 0 0.12511485180878659 0.38669155364253999 0 0.1376818072938602 0.37425684328978931 0 0.14601974965678741 0.39282470576807232 0 0.12511485180878659 0.38669155364253999 0 0.12124423323304589 0.40464992307237418 0 0.14601974965678741 0.39282470576807232 0 0.12511485180878659 0.38669155364253999 0 0.12124423323304589 0.40464992307237418 0 0.14601974965678741 0.39282470576807232 0 0.1369231587652131 0.4148184148180396 0 0.1243924963286317 0.43374985511904263 0 0.1369231587652131 0.4148184148180396 0 0.1443792090245829 0.43881948472884058 0 0.1369231587652131 0.4148184148180396 0 0.16107806838574801 0.42219869650545022 0 0.1443792090245829 0.43881948472884058 0 0.1369231587652131 0.4148184148180396 0 0.15223086508772049 0.407685016642376 0 0.16107806838574801 0.42219869650545022 0 0.16107806838574801 0.42219869650545022 0 0.17834669085368349 0.41076904033809908 0 0.16490248354313361 0.40089824947794223 0 0.15223086508772049 0.407685016642376 0 0.16107806838574801 0.42219869650545022 0 0.16490248354313361 0.40089824947794223 0 0.16107806838574801 0.42219869650545022 0 0.16354273359832719 0.43734855014497032 0 0.1443792090245829 0.43881948472884058 0 0.16107806838574801 0.42219869650545022 0 0.16354273359832719 0.43734855014497032 0 0.18450734251648401 0.42804379818540611 0 0.16107806838574801 0.42219869650545022 0 0.18450734251648401 0.42804379818540611 0 0.16354273359832719 0.43734855014497032 0 0.18450734251648401 0.42804379818540611 0 0.17480146778640351 0.44625417746530738 0 0.18450734251648401 0.42804379818540611 0 0.17834669085368349 0.41076904033809908 0 0.19605924267105601 0.41151846421764432 0 0.16107806838574801 0.42219869650545022 0 0.18450734251648401 0.42804379818540611 0 0.17834669085368349 0.41076904033809908 0 0.16490248354313361 0.40089824947794223 0 0.16924369602496059 0.3827410036574489 0 0.18418186869489311 0.38914802856992547 0 0.17834669085368349 0.41076904033809908 0 0.16490248354313361 0.40089824947794223 0 0.18418186869489311 0.38914802856992547 0 0.17834669085368349 0.41076904033809908 0 0.18418186869489311 0.38914802856992547 0 0.19605924267105601 0.41151846421764432 0 0.14601974965678741 0.39282470576807232 0 0.16490248354313361 0.40089824947794223 0 0.16924369602496059 0.3827410036574489 0 0.14601974965678741 0.39282470576807232 0 0.15514727985487359 0.37531332599848399 0 0.16924369602496059 0.3827410036574489 0 0.16508091835153399 0.37169809974097928 0 0.15514727985487359 0.37531332599848399 0 0.16924369602496059 0.3827410036574489 0 0.17230449471873019 0.36677759292220691 0 0.16924369602496059 0.3827410036574489 0 0.18418186869489311 0.38914802856992547 0 0.18633460989848119 0.3736667424822579 0 0.17230449471873019 0.36677759292220691 0 0.18418186869489311 0.38914802856992547 0 0.17230449471873019 0.36677759292220691 0 0.18418186869489311 0.38914802856992547 0 0.18633460989848119 0.3736667424822579 0 0.18418186869489311 0.38914802856992547 0 0.20058264334411111 0.39264119034550882 0 0.20837346146245431 0.37286400660402219 0 0.18633460989848119 0.3736667424822579 0 0.20058264334411111 0.39264119034550882 0 0.18418186869489311 0.38914802856992547 0 0.19605924267105601 0.41151846421764432 0 0.20058264334411111 0.39264119034550882 0 0.2116361461029363 0.40445017875469591 0 0.19605924267105601 0.41151846421764432 0 0.18418186869489311 0.38914802856992547 0 0.20058264334411111 0.39264119034550882 0 0.19605924267105601 0.41151846421764432 0 0.20058264334411111 0.39264119034550882 0 0.21671874204281699 0.39187709560108192 0 0.2116361461029363 0.40445017875469591 0 0.21671874204281699 0.39187709560108192 0 0.2116361461029363 0.40445017875469591 0 0.22692556413919701 0.40000303368052231 0 0.20837346146245431 0.37286400660402219 0 0.21671874204281699 0.39187709560108192 0 0.2239305940649044 0.38235688975574678 0 0.20837346146245431 0.37286400660402219 0 0.20058264334411111 0.39264119034550882 0 0.21671874204281699 0.39187709560108192 0 0.2268639341744543 0.37163858768994151 0 0.20837346146245431 0.37286400660402219 0 0.2239305940649044 0.38235688975574678 0 0.23813136220717021 0.37316407394409251 0 0.2268639341744543 0.37163858768994151 0 0.2364781573659078 0.3836651665357344 0 0.2268639341744543 0.37163858768994151 0 0.2239305940649044 0.38235688975574678 0 0.2364781573659078 0.3836651665357344 0 0.2239305940649044 0.38235688975574678 0 0.23121867527888851 0.39173959234795402 0 0.2364781573659078 0.3836651665357344 0 0.21671874204281699 0.39187709560108192 0 0.2239305940649044 0.38235688975574678 0 0.23121867527888851 0.39173959234795402 0 0.22692556413919701 0.40000303368052231 0 0.23764146343608381 0.40129475356239458 0 0.22012717539615351 0.41248091403237502 0 0.21671874204281699 0.39187709560108192 0 0.22692556413919701 0.40000303368052231 0 0.23121867527888851 0.39173959234795402 0 0.2116361461029363 0.40445017875469591 0 0.22692556413919701 0.40000303368052231 0 0.22012717539615351 0.41248091403237502 0 0.22692556413919701 0.40000303368052231 0 0.23767379343177311 0.39901581279923581 0 0.23764146343608381 0.40129475356239458 0 0.22692556413919701 0.40000303368052231 0 0.23121867527888851 0.39173959234795402 0 0.23767379343177311 0.39901581279923581 0 0.23764146343608381 0.40129475356239458 0 0.25515575147601421 0.39010859309241408 0 0.23700320198057989 0.39082753298329359 0 0.23767379343177311 0.39901581279923581 0 0.24264218184575001 0.38888956025025001 0 0.23767379343177311 0.39901581279923581 0 0.25515575147601421 0.39010859309241408 0 0.25118869811502348 0.38821180014509332 0 0.23767379343177311 0.39901581279923581 0 0.23764146343608381 0.40129475356239458 0 0.25515575147601421 0.39010859309241408 0 0.23121867527888851 0.39173959234795402 0 0.23700320198057989 0.39082753298329359 0 0.23767379343177311 0.39901581279923581 0 0.23764146343608381 0.40129475356239458 0 0.24995095369317111 0.39620072566853132 0 0.25515575147601421 0.39010859309241408 0 0.23764146343608381 0.40129475356239458 0 0.24105258334039639 0.40564219575119442 0 0.23183619594644869 0.4115096176479966 0 0.23764146343608381 0.40129475356239458 0 0.24105258334039639 0.40564219575119442 0 0.24356990306139689 0.40128392484801201 0 0.23764146343608381 0.40129475356239458 0 0.24356990306139689 0.40128392484801201 0 0.24995095369317111 0.39620072566853132 0 0.24105258334039639 0.40564219575119442 0 0.24356990306139689 0.40128392484801201 0 0.24563461177593651 0.40199802440992771 0 0.24105258334039639 0.40564219575119442 0 0.24563461177593651 0.40199802440992771 0 0.2474090061986832 0.40646211069571608 0 0.24563461177593651 0.40199802440992771 0 0.24995095369317111 0.39620072566853132 0 0.25004975604466068 0.40127158124585871 0 0.24356990306139689 0.40128392484801201 0 0.24563461177593651 0.40199802440992771 0 0.24995095369317111 0.39620072566853132 0 0.24563461177593651 0.40199802440992771 0 0.2474090061986832 0.40646211069571608 0 0.25004975604466068 0.40127158124585871 0 0.23767379343177311 0.39901581279923581 0 0.25118869811502348 0.38821180014509332 0 0.23767379343177311 0.39901581279923581 0 0.24264218184575001 0.38888956025025001 0 0.25118869811502348 0.38821180014509332 0 0.24264218184575001 0.38888956025025001 0 0.24785067346605749 0.385029010107866 0 0.25118869811502348 0.38821180014509332 0 0.24264218184575001 0.38888956025025001 0 0.24785067346605749 0.385029010107866 0 0.24529423467437711 0.38121207215925851 0 0.246670792481233 0.36870527606286629 0 0.24529423467437711 0.38121207215925851 0 0.25355866323752352 0.37612312171136558 0 0.24785067346605749 0.385029010107866 0 0.24529423467437711 0.38121207215925851 0 0.25227757922907917 0.38180260787686238 0 0.23813136220717021 0.37316407394409251 0 0.24529423467437711 0.38121207215925851 0 0.2364781573659078 0.3836651665357344 0 0.24264218184575001 0.38888956025025001 0 0.24529423467437711 0.38121207215925851 0 0.2364781573659078 0.3836651665357344 0 0.23121867527888851 0.39173959234795402 0 0.23700320198057989 0.39082753298329359 0 0.2364781573659078 0.3836651665357344 0 0.23700320198057989 0.39082753298329359 0 0.24264218184575001 0.38888956025025001 0 0.2364781573659078 0.3836651665357344 0 0.24124550947380199 0.43102988490364491 0 0.24150496855590439 0.4190374530466322 0 0.2241087305113301 0.42892305736655029 0 0.24124550947380199 0.43102988490364491 0 0.25151076163888869 0.43866935593718998 0 0.25304994479985798 0.42761618794987027 0 0.24124550947380199 0.43102988490364491 0 0.23605314186302889 0.44090337021798148 0 0.25151076163888869 0.43866935593718998 0 0.24124550947380199 0.43102988490364491 0 0.24150496855590439 0.4190374530466322 0 0.25304994479985798 0.42761618794987027 0 0.24150496855590439 0.4190374530466322 0 0.25140306968762238 0.41271565753001971 0 0.25304994479985798 0.42761618794987027 0 0.24257462414137479 0.41097843220614633 0 0.24150496855590439 0.4190374530466322 0 0.25140306968762238 0.41271565753001971 0 0.2474090061986832 0.40646211069571608 0 0.24257462414137479 0.41097843220614633 0 0.25140306968762238 0.41271565753001971 0 0.24105258334039639 0.40564219575119442 0 0.2474090061986832 0.40646211069571608 0 0.24257462414137479 0.41097843220614633 0 0.24105258334039639 0.40564219575119442 0 0.24257462414137479 0.41097843220614633 0 0.23183619594644869 0.4115096176479966 0 0.24257462414137479 0.41097843220614633 0 0.24150496855590439 0.4190374530466322 0 0.23183619594644869 0.4115096176479966 0 0.23764146343608381 0.40129475356239458 0 0.22012717539615351 0.41248091403237502 0 0.23764146343608381 0.40129475356239458 0 0.23183619594644869 0.4115096176479966 0 0.22012717539615351 0.41248091403237502 0 0.23183619594644869 0.4115096176479966 0 0.22012717539615351 0.41248091403237502 0 0.2241087305113301 0.42892305736655029 0 0.24150496855590439 0.4190374530466322 0 0.23183619594644869 0.4115096176479966 0 0.2241087305113301 0.42892305736655029 0 0.22012717539615351 0.41248091403237502 0 0.2241087305113301 0.42892305736655029 0 0.21487305918230709 0.42547900548672091 0 0.2241087305113301 0.42892305736655029 0 0.20793661664721971 0.4338888998653625 0 0.23605314186302889 0.44090337021798148 0 0.20793661664721971 0.4338888998653625 0 0.23605314186302889 0.44090337021798148 0 0.24124550947380199 0.43102988490364491 0 0.2241087305113301 0.42892305736655029 0 0.23605314186302889 0.44090337021798148 0 0.2241087305113301 0.42892305736655029 0 0.21487305918230709 0.42547900548672091 0 0.20793661664721971 0.4338888998653625 0 0.21487305918230709 0.42547900548672091 0 0.20793661664721971 0.4338888998653625 0 0.20940350902428351 0.41818037465104341 0 0.2059171868190583 0.43715724390971761 0 0.20793661664721971 0.4338888998653625 0 0.2008944684868369 0.43904622282782507 0 0.20793661664721971 0.4338888998653625 0 0.2091115386453615 0.43610180627070888 0 0.2059171868190583 0.43715724390971761 0 0.20793661664721971 0.4338888998653625 0 0.2091115386453615 0.43610180627070888 0 0.20793661664721971 0.4338888998653625 0 0.20940350902428351 0.41818037465104341 0 0.19605924267105601 0.41151846421764432 0 0.2116361461029363 0.40445017875469591 0 0.22012717539615351 0.41248091403237502 0 0.20940350902428351 0.41818037465104341 0 0.22012717539615351 0.41248091403237502 0 0.21487305918230709 0.42547900548672091 0 0.20940350902428351 0.41818037465104341 0 0.2116361461029363 0.40445017875469591 0 0.20940350902428351 0.41818037465104341 0 0.19605924267105601 0.41151846421764432 0 0.18450734251648401 0.42804379818540611 0 0.20793661664721971 0.4338888998653625 0 0.2008944684868369 0.43904622282782507 0 0.20793661664721971 0.4338888998653625 0 0.19605924267105601 0.41151846421764432 0 0.18450734251648401 0.42804379818540611 0 0.20793661664721971 0.4338888998653625 0 0.18450734251648401 0.42804379818540611 0 0.20793661664721971 0.4338888998653625 0 0.19605924267105601 0.41151846421764432 0 0.18450734251648401 0.42804379818540611 0 0.18863655108727331 0.44323525299701089 0 0.2008944684868369 0.43904622282782507 0 0.18863655108727331 0.44323525299701089 0 0.19957693304141841 0.45219772336365432 0 0.18490629246302731 0.45416438021168598 0 0.19957693304141841 0.45219772336365432 0 0.2008944684868369 0.43904622282782507 0 0.20708325445230269 0.44425267344075309 0 0.18863655108727331 0.44323525299701089 0 0.19957693304141841 0.45219772336365432 0 0.2008944684868369 0.43904622282782507 0 0.19957693304141841 0.45219772336365432 0 0.19137329433235131 0.46690188062811439 0 0.2143073262087706 0.46725806051305913 0 0.19957693304141841 0.45219772336365432 0 0.19137329433235131 0.46690188062811439 0 0.18490629246302731 0.45416438021168598 0 0.2143073262087706 0.46725806051305913 0 0.21064551516360619 0.45104464828115159 0 0.2217404716690988 0.44322631776875859 0 0.19957693304141841 0.45219772336365432 0 0.2143073262087706 0.46725806051305913 0 0.21064551516360619 0.45104464828115159 0 0.20708325445230269 0.44425267344075309 0 0.21086138068543681 0.44284349848726912 0 0.20572612349681499 0.43959204667497359 0 0.2091115386453615 0.43610180627070888 0 0.21086138068543681 0.44284349848726912 0 0.20572612349681499 0.43959204667497359 0 0.2059171868190583 0.43715724390971761 0 0.2008944684868369 0.43904622282782507 0 0.20572612349681499 0.43959204667497359 0 0.2008944684868369 0.43904622282782507 0 0.20708325445230269 0.44425267344075309 0 0.20572612349681499 0.43959204667497359 0 0.2059171868190583 0.43715724390971761 0 0.2091115386453615 0.43610180627070888 0 0.20572612349681499 0.43959204667497359 0 0.19957693304141841 0.45219772336365432 0 0.20708325445230269 0.44425267344075309 0 0.21064551516360619 0.45104464828115159 0 0.20708325445230269 0.44425267344075309 0 0.21086138068543681 0.44284349848726912 0 0.21064551516360619 0.45104464828115159 0 0.21086138068543681 0.44284349848726912 0 0.21064551516360619 0.45104464828115159 0 0.2217404716690988 0.44322631776875859 0 0.2091115386453615 0.43610180627070888 0 0.21086138068543681 0.44284349848726912 0 0.2217404716690988 0.44322631776875859 0 0.20793661664721971 0.4338888998653625 0 0.2091115386453615 0.43610180627070888 0 0.2217404716690988 0.44322631776875859 0 0.20793661664721971 0.4338888998653625 0 0.2217404716690988 0.44322631776875859 0 0.23605314186302889 0.44090337021798148 0 0.2217404716690988 0.44322631776875859 0 0.24117942549472979 0.46264850750935671 0 0.23605314186302889 0.44090337021798148 0 0.2143073262087706 0.46725806051305913 0 0.24117942549472979 0.46264850750935671 0 0.2143073262087706 0.46725806051305913 0 0.2217404716690988 0.44322631776875859 0 0.24117942549472979 0.46264850750935671 0 0.24117942549472979 0.46264850750935671 0 0.23605314186302889 0.44090337021798148 0 0.25044804825627182 0.44832552466992942 0 0.23605314186302889 0.44090337021798148 0 0.25151076163888869 0.43866935593718998 0 0.25044804825627182 0.44832552466992942 0 0.24609029091591761 0.5 0 0.24526596292353051 0.48089910258822882 0 0.22743878084138591 0.48235786242852963 0 0.24117942549472979 0.46264850750935671 0 0.24526596292353051 0.48089910258822882 0 0.22743878084138591 0.48235786242852963 0 0.24117942549472979 0.46264850750935671 0 0.24526596292353051 0.48089910258822882 0 0.25719316374993118 0.47101281443680271 0 0.2143073262087706 0.46725806051305913 0 0.24117942549472979 0.46264850750935671 0 0.22743878084138591 0.48235786242852963 0 0.24609029091591761 0.5 0 0.22743878084138591 0.48235786242852963 0 0.2188539523520058 0.5 0 0.2188539523520058 0.5 0 0.20313979765261231 0.48332560531795221 0 0.19161761378809411 0.5 0 0.22743878084138591 0.48235786242852963 0 0.2188539523520058 0.5 0 0.20313979765261231 0.48332560531795221 0 0.2143073262087706 0.46725806051305913 0 0.22743878084138591 0.48235786242852963 0 0.20313979765261231 0.48332560531795221 0 0.19137329433235131 0.46690188062811439 0 0.20313979765261231 0.48332560531795221 0 0.17699951443442041 0.48342920390360072 0 0.19137329433235131 0.46690188062811439 0 0.2143073262087706 0.46725806051305913 0 0.20313979765261231 0.48332560531795221 0 0.20313979765261231 0.48332560531795221 0 0.19161761378809411 0.5 0 0.17699951443442041 0.48342920390360072 0 0.19161761378809411 0.5 0 0.16438127522418239 0.50000000000000044 0 0.17699951443442041 0.48342920390360072 0 0.16438127522418239 0.50000000000000044 0 0.15840000788164399 0.48619376636504141 0 0.17699951443442041 0.48342920390360072 0 0.1620560445473968 0.47555956366516672 0 0.17699951443442041 0.48342920390360072 0 0.17175955787616801 0.46327097731238359 0 0.15840000788164399 0.48619376636504141 0 0.1620560445473968 0.47555956366516672 0 0.17699951443442041 0.48342920390360072 0 0.1620560445473968 0.47555956366516672 0 0.15713630264902251 0.46454892067335479 0 0.1504364645044575 0.47482809876141707 0 0.15840000788164399 0.48619376636504141 0 0.1620560445473968 0.47555956366516672 0 0.1504364645044575 0.47482809876141707 0 0.19137329433235131 0.46690188062811439 0 0.17699951443442041 0.48342920390360072 0 0.17175955787616801 0.46327097731238359 0 0.18490629246302731 0.45416438021168598 0 0.17480146778640351 0.44625417746530738 0 0.17175955787616801 0.46327097731238359 0 0.19137329433235131 0.46690188062811439 0 0.18490629246302731 0.45416438021168598 0 0.17175955787616801 0.46327097731238359 0 0.18450734251648401 0.42804379818540611 0 0.18863655108727331 0.44323525299701089 0 0.17480146778640351 0.44625417746530738 0 0.18863655108727331 0.44323525299701089 0 0.18490629246302731 0.45416438021168598 0 0.17480146778640351 0.44625417746530738 0 0.16354273359832719 0.43734855014497032 0 0.17480146778640351 0.44625417746530738 0 0.15871211671682481 0.45172427227574002 0 0.17480146778640351 0.44625417746530738 0 0.15871211671682481 0.45172427227574002 0 0.17175955787616801 0.46327097731238359 0 0.15871211671682481 0.45172427227574002 0 0.17175955787616801 0.46327097731238359 0 0.15713630264902251 0.46454892067335479 0 0.1620560445473968 0.47555956366516672 0 0.17175955787616801 0.46327097731238359 0 0.15713630264902251 0.46454892067335479 0 0.15713630264902251 0.46454892067335479 0 0.14375105758180259 0.46101306549370369 0 0.1504364645044575 0.47482809876141707 0 0.15871211671682481 0.45172427227574002 0 0.15713630264902251 0.46454892067335479 0 0.14375105758180259 0.46101306549370369 0 0.16354273359832719 0.43734855014497032 0 0.15871211671682481 0.45172427227574002 0 0.1443792090245829 0.43881948472884058 0 0.15871211671682481 0.45172427227574002 0 0.14375105758180259 0.46101306549370369 0 0.1443792090245829 0.43881948472884058 0 0.12427296261541031 0.45059466218880112 0 0.1243924963286317 0.43374985511904263 0 0.1443792090245829 0.43881948472884058 0 0.12427296261541031 0.45059466218880112 0 0.14375105758180259 0.46101306549370369 0 0.1443792090245829 0.43881948472884058 0 0.12427296261541031 0.45059466218880112 0 0.14375105758180259 0.46101306549370369 0 0.12914023368394451 0.46430113757102448 0 0.14375105758180259 0.46101306549370369 0 0.12914023368394451 0.46430113757102448 0 0.13774921946613339 0.47427435849373117 0 0.12310175456961669 0.47627924164735752 0 0.14374151489689951 0.48813962082367901 0 0.12310175456961669 0.47627924164735752 0 0.12914023368394451 0.46430113757102448 0 0.13774921946613339 0.47427435849373117 0 0.12310175456961669 0.47627924164735752 0 0.13774921946613339 0.47427435849373117 0 0.14374151489689951 0.48813962082367901 0 0.1209089265155784 0.49055785899466942 0 0.135336053321887 0.5 0 0.14400554114753561 0.49585393393994182 0 0.1209089265155784 0.49055785899466942 0 0.14400554114753561 0.49585393393994182 0 0.1209089265155784 0.49055785899466942 0 0.12310175456961669 0.47627924164735752 0 0.14374151489689951 0.48813962082367901 0 0.1209089265155784 0.49055785899466942 0 0.14400554114753561 0.49585393393994182 0 0.14374151489689951 0.48813962082367901 0 0.16438127522418239 0.50000000000000044 0 0.14374151489689951 0.48813962082367901 0 0.16438127522418239 0.50000000000000044 0 0.15840000788164399 0.48619376636504141 0 0.14374151489689951 0.48813962082367901 0 0.16438127522418239 0.50000000000000044 0 0.135336053321887 0.5 0 0.14400554114753561 0.49585393393994182 0 0.16438127522418239 0.50000000000000044 0 0.14400554114753561 0.49585393393994182 0 0.14374151489689951 0.48813962082367901 0 0.15840000788164399 0.48619376636504141 0 0.14374151489689951 0.48813962082367901 0 0.1504364645044575 0.47482809876141707 0 0.14375105758180259 0.46101306549370369 0 0.13774921946613339 0.47427435849373117 0 0.1504364645044575 0.47482809876141707 0 0.13774921946613339 0.47427435849373117 0 0.14374151489689951 0.48813962082367901 0 0.1504364645044575 0.47482809876141707 0 0.36877755766426512 0.47054572945530332 0 0.346864202122113 0.46281035374483342 0 0.34268768494839302 0.4853167424743331 0 0.35772252615405209 0.5 0 0.36877755766426512 0.47054572945530332 0 0.34268768494839302 0.4853167424743331 0 0.35772252615405209 0.5 0 0.36877755766426512 0.47054572945530332 0 0.38764574570045163 0.5 0 0.36877755766426512 0.47054572945530332 0 0.35284003441975992 0.44196199883051079 0 0.38086335578200059 0.43865929797511738 0 0.35284003441975992 0.44196199883051079 0 0.38086335578200059 0.43865929797511738 0 0.36877755766426512 0.47054572945530332 0 0.35284003441975992 0.44196199883051079 0 0.346864202122113 0.46281035374483342 0 0.346864202122113 0.46281035374483342 0 0.32481671305751908 0.44526469968590421 0 0.32872010539934832 0.46895587462778859 0 0.35284003441975992 0.44196199883051079 0 0.32481671305751908 0.44526469968590421 0 0.33518639731393551 0.42792258754846157 0 0.35284003441975992 0.44196199883051079 0 0.346864202122113 0.46281035374483342 0 0.32481671305751908 0.44526469968590421 0 0.35284003441975992 0.44196199883051079 0 0.32481671305751908 0.44526469968590421 0 0.31320307213532322 0.45895883780989882 0 0.31712289012103168 0.47545018757382779 0 0.32872010539934832 0.46895587462778859 0 0.32481671305751908 0.44526469968590421 0 0.31320307213532322 0.45895883780989882 0 0.32872010539934832 0.46895587462778859 0 0.31712289012103168 0.47545018757382779 0 0.32872010539934832 0.46895587462778859 0 0.32545072518042062 0.4846519975366439 0 0.31712289012103168 0.47545018757382779 0 0.32545072518042062 0.4846519975366439 0 0.31183739896237977 0.48878990462240568 0 0.346864202122113 0.46281035374483342 0 0.32872010539934832 0.46895587462778859 0 0.34268768494839302 0.4853167424743331 0 0.32872010539934832 0.46895587462778859 0 0.34268768494839302 0.4853167424743331 0 0.32545072518042062 0.4846519975366439 0 0.35772252615405209 0.5 0 0.34268768494839302 0.4853167424743331 0 0.32779930660765272 0.49999999999999839 0 0.34268768494839302 0.4853167424743331 0 0.32779930660765272 0.49999999999999839 0 0.32545072518042062 0.4846519975366439 0 0.32779930660765272 0.49999999999999839 0 0.32545072518042062 0.4846519975366439 0 0.31183739896237977 0.48878990462240568 0 0.32779930660765272 0.49999999999999839 0 0.31183739896237977 0.48878990462240568 0 0.300562968043741 0.5 0 0.32779930660765272 0.49999999999999839 0 0.31183739896237977 0.48878990462240568 0 0.31183739896237977 0.48878990462240568 0 0.29587549131710589 0.47757980924481441 0 0.29659198408467441 0.49107926217759418 0 0.31183739896237977 0.48878990462240568 0 0.300562968043741 0.5 0 0.29659198408467441 0.49107926217759418 0 0.31712289012103168 0.47545018757382779 0 0.31183739896237977 0.48878990462240568 0 0.30452965492371431 0.47090226513023059 0 0.31183739896237977 0.48878990462240568 0 0.29587549131710589 0.47757980924481441 0 0.31183739896237977 0.48878990462240568 0 0.30452965492371431 0.47090226513023059 0 0.29587549131710589 0.47757980924481441 0 0.29587549131710589 0.47757980924481441 0 0.29659198408467441 0.49107926217759418 0 0.28026686449641369 0.48257497031404561 0 0.29587549131710589 0.47757980924481441 0 0.29659198408467441 0.49107926217759418 0 0.29587549131710589 0.47757980924481441 0 0.28196350804889753 0.46780938187523491 0 0.29587549131710589 0.47757980924481441 0 0.28026686449641369 0.48257497031404561 0 0.28196350804889753 0.46780938187523491 0 0.300562968043741 0.5 0 0.29659198408467441 0.49107926217759418 0 0.27332662947982928 0.5 0 0.29659198408467441 0.49107926217759418 0 0.27332662947982928 0.5 0 0.28026686449641369 0.48257497031404561 0 0.27332662947982928 0.5 0 0.28026686449641369 0.48257497031404561 0 0.26213885328632303 0.48279110116766111 0 0.28026686449641369 0.48257497031404561 0 0.26994868040609882 0.47175680046472251 0 0.26213885328632303 0.48279110116766111 0 0.28026686449641369 0.48257497031404561 0 0.26994868040609882 0.47175680046472251 0 0.28196350804889753 0.46780938187523491 0 0.24526596292353051 0.48089910258822882 0 0.26213885328632303 0.48279110116766111 0 0.25719316374993118 0.47101281443680271 0 0.26994868040609882 0.47175680046472251 0 0.26213885328632303 0.48279110116766111 0 0.25719316374993118 0.47101281443680271 0 0.24609029091591761 0.5 0 0.24526596292353051 0.48089910258822882 0 0.26213885328632303 0.48279110116766111 0 0.24609029091591761 0.5 0 0.27332662947982928 0.5 0 0.26213885328632303 0.48279110116766111 0 0.2615266696302988 0.44563833776633438 0 0.26197024265441288 0.45376805191878461 0 0.26774323969420122 0.45069865164003109 0 0.2615266696302988 0.44563833776633438 0 0.25044804825627182 0.44832552466992942 0 0.26197024265441288 0.45376805191878461 0 0.2615266696302988 0.44563833776633438 0 0.25151076163888869 0.43866935593718998 0 0.26453644906506868 0.4353701567158037 0 0.2615266696302988 0.44563833776633438 0 0.27013494314296349 0.44427033029229462 0 0.26453644906506868 0.4353701567158037 0 0.2615266696302988 0.44563833776633438 0 0.25151076163888869 0.43866935593718998 0 0.25044804825627182 0.44832552466992942 0 0.24117942549472979 0.46264850750935671 0 0.25719316374993118 0.47101281443680271 0 0.26805152478068939 0.45803895450565518 0 0.24117942549472979 0.46264850750935671 0 0.26805152478068939 0.45803895450565518 0 0.24117942549472979 0.46264850750935671 0 0.25044804825627182 0.44832552466992942 0 0.26197024265441288 0.45376805191878461 0 0.24117942549472979 0.46264850750935671 0 0.26197024265441288 0.45376805191878461 0 0.26805152478068939 0.45803895450565518 0 0.26994868040609882 0.47175680046472251 0 0.25719316374993118 0.47101281443680271 0 0.26805152478068939 0.45803895450565518 0 0.26197024265441288 0.45376805191878461 0 0.26805152478068939 0.45803895450565518 0 0.26805152478068939 0.45803895450565518 0 0.27736074592454729 0.45085764354925262 0 0.26774323969420122 0.45069865164003109 0 0.26805152478068939 0.45803895450565518 0 0.2898584815353934 0.45429825967044363 0 0.26805152478068939 0.45803895450565518 0 0.27736074592454729 0.45085764354925262 0 0.2898584815353934 0.45429825967044363 0 0.26805152478068939 0.45803895450565518 0 0.2898584815353934 0.45429825967044363 0 0.28196350804889753 0.46780938187523491 0 0.26197024265441288 0.45376805191878461 0 0.26805152478068939 0.45803895450565518 0 0.26774323969420122 0.45069865164003109 0 0.26994868040609882 0.47175680046472251 0 0.26805152478068939 0.45803895450565518 0 0.28196350804889753 0.46780938187523491 0 0.26805152478068939 0.45803895450565518 0 0.28196350804889753 0.46780938187523491 0 0.27736074592454729 0.45085764354925262 0 0.26774323969420122 0.45069865164003109 0 0.27013494314296349 0.44427033029229462 0 0.2615266696302988 0.44563833776633438 0 0.26774323969420122 0.45069865164003109 0 0.27013494314296349 0.44427033029229462 0 0.27013494314296349 0.44427033029229462 0 0.27952231661206117 0.43699862919104471 0 0.26453644906506868 0.4353701567158037 0 0.27736074592454729 0.45085764354925262 0 0.27013494314296349 0.44427033029229462 0 0.27952231661206117 0.43699862919104471 0 0.27736074592454729 0.45085764354925262 0 0.28628121519057831 0.44422482139825931 0 0.27952231661206117 0.43699862919104471 0 0.27736074592454729 0.45085764354925262 0 0.29435091604820679 0.44885525958215089 0 0.27736074592454729 0.45085764354925262 0 0.28628121519057831 0.44422482139825931 0 0.29435091604820679 0.44885525958215089 0 0.28628121519057831 0.44422482139825931 0 0.29389088217749898 0.44018775327058862 0 0.27952231661206117 0.43699862919104471 0 0.27736074592454729 0.45085764354925262 0 0.29435091604820679 0.44885525958215089 0 0.2898584815353934 0.45429825967044363 0 0.29435091604820679 0.44885525958215089 0 0.2967933916952783 0.4485674005412979 0 0.29389088217749898 0.44018775327058862 0 0.29435091604820679 0.44885525958215089 0 0.2967933916952783 0.4485674005412979 0 0.2967933916952783 0.4485674005412979 0 0.29389088217749898 0.44018775327058862 0 0.28628121519057831 0.44422482139825931 0 0.29435091604820679 0.44885525958215089 0 0.29389088217749898 0.44018775327058862 0 0.29435091604820679 0.44885525958215089 0 0.29389088217749898 0.44018775327058862 0 0.29587549131710589 0.47757980924481441 0 0.2898584815353934 0.45429825967044363 0 0.28196350804889753 0.46780938187523491 0 0.29587549131710589 0.47757980924481441 0 0.29435091604820679 0.44885525958215089 0 0.2898584815353934 0.45429825967044363 0 0.29587549131710589 0.47757980924481441 0 0.29435091604820679 0.44885525958215089 0 0.31320307213532322 0.45895883780989882 0 0.31712289012103168 0.47545018757382779 0 0.30452965492371431 0.47090226513023059 0 0.30452965492371431 0.47090226513023059 0 0.2967933916952783 0.4485674005412979 0 0.30452965492371431 0.47090226513023059 0 0.29587549131710589 0.47757980924481441 0 0.29435091604820679 0.44885525958215089 0 0.31320307213532322 0.45895883780989882 0 0.30452965492371431 0.47090226513023059 0 0.2967933916952783 0.4485674005412979 0 0.30452965492371431 0.47090226513023059 0 0.29435091604820679 0.44885525958215089 0 0.2967933916952783 0.4485674005412979 0 0.32481671305751908 0.44526469968590421 0 0.31320307213532322 0.45895883780989882 0 0.2967933916952783 0.4485674005412979 0 0.32481671305751908 0.44526469968590421 0 0.2967933916952783 0.4485674005412979 0 0.32481671305751908 0.44526469968590421 0 0.2967933916952783 0.4485674005412979 0 0.30903965173906423 0.43963308518686628 0 0.2967933916952783 0.4485674005412979 0 0.29389088217749898 0.44018775327058862 0 0.30903965173906423 0.43963308518686628 0 0.29389088217749898 0.44018775327058862 0 0.3122921934265192 0.4248272130921899 0 0.29236830286256188 0.41150080941186429 0 0.29389088217749898 0.44018775327058862 0 0.30903965173906423 0.43963308518686628 0 0.3122921934265192 0.4248272130921899 0 0.3122921934265192 0.4248272130921899 0 0.29236830286256188 0.41150080941186429 0 0.31170404326174911 0.39520012455862508 0 0.29236830286256188 0.41150080941186429 0 0.28681726795698098 0.41976597972120372 0 0.27974365373646398 0.39934420617181848 0 0.28681726795698098 0.41976597972120372 0 0.27974365373646398 0.39934420617181848 0 0.29389088217749898 0.44018775327058862 0 0.29236830286256188 0.41150080941186429 0 0.28681726795698098 0.41976597972120372 0 0.29389088217749898 0.44018775327058862 0 0.28681726795698098 0.41976597972120372 0 0.27952231661206117 0.43699862919104471 0 0.29389088217749898 0.44018775327058862 0 0.29236830286256188 0.41150080941186429 0 0.29389088217749898 0.44018775327058862 0 0.28681726795698098 0.41976597972120372 0 0.28681726795698098 0.41976597972120372 0 0.27952231661206117 0.43699862919104471 0 0.2704440057336569 0.42422930268491549 0 0.27952231661206117 0.43699862919104471 0 0.2704440057336569 0.42422930268491549 0 0.26453644906506868 0.4353701567158037 0 0.2704440057336569 0.42422930268491549 0 0.26453644906506868 0.4353701567158037 0 0.2620945542395261 0.42601689265171322 0 0.28681726795698098 0.41976597972120372 0 0.27043450052689688 0.4110378862642961 0 0.27974365373646398 0.39934420617181848 0 0.28681726795698098 0.41976597972120372 0 0.2704440057336569 0.42422930268491549 0 0.27043450052689688 0.4110378862642961 0 0.2704440057336569 0.42422930268491549 0 0.27043450052689688 0.4110378862642961 0 0.26034781735952078 0.41685192325626341 0 0.27043450052689688 0.4110378862642961 0 0.26034781735952078 0.41685192325626341 0 0.25948107731225378 0.40705279069613393 0 0.26034781735952078 0.41685192325626341 0 0.25948107731225378 0.40705279069613393 0 0.25140306968762238 0.41271565753001971 0 0.25948107731225378 0.40705279069613393 0 0.25140306968762238 0.41271565753001971 0 0.25301497344078211 0.40456560599219638 0 0.2474090061986832 0.40646211069571608 0 0.25140306968762238 0.41271565753001971 0 0.25301497344078211 0.40456560599219638 0 0.26034781735952078 0.41685192325626341 0 0.25140306968762238 0.41271565753001971 0 0.25304994479985798 0.42761618794987027 0 0.25151076163888869 0.43866935593718998 0 0.25304994479985798 0.42761618794987027 0 0.26453644906506868 0.4353701567158037 0 0.25304994479985798 0.42761618794987027 0 0.26453644906506868 0.4353701567158037 0 0.2620945542395261 0.42601689265171322 0 0.26034781735952078 0.41685192325626341 0 0.25304994479985798 0.42761618794987027 0 0.2620945542395261 0.42601689265171322 0 0.2704440057336569 0.42422930268491549 0 0.26034781735952078 0.41685192325626341 0 0.2620945542395261 0.42601689265171322 0 0.26538223603200439 0.38064404942700819 0 0.25515575147601421 0.39010859309241408 0 0.27267003951594482 0.37892243262243402 0 0.25515575147601421 0.39010859309241408 0 0.27267003951594482 0.37892243262243402 0 0.25515575147601421 0.39010859309241408 0 0.26653280527435158 0.38861753290444279 0 0.27267003951594482 0.37892243262243402 0 0.26470360279827437 0.37740778749095127 0 0.25118869811502348 0.38821180014509332 0 0.26538223603200439 0.38064404942700819 0 0.26470360279827437 0.37740778749095127 0 0.25118869811502348 0.38821180014509332 0 0.26538223603200439 0.38064404942700819 0 0.26470360279827437 0.37740778749095127 0 0.26470360279827437 0.37740778749095127 0 0.25227757922907917 0.38180260787686238 0 0.25118869811502348 0.38821180014509332 0 0.24529423467437711 0.38121207215925851 0 0.25355866323752352 0.37612312171136558 0 0.25227757922907917 0.38180260787686238 0 0.26470360279827437 0.37740778749095127 0 0.25355866323752352 0.37612312171136558 0 0.25227757922907917 0.38180260787686238 0 0.24785067346605749 0.385029010107866 0 0.25227757922907917 0.38180260787686238 0 0.25118869811502348 0.38821180014509332 0 0.26538223603200439 0.38064404942700819 0 0.25515575147601421 0.39010859309241408 0 0.25118869811502348 0.38821180014509332 0 0.24995095369317111 0.39620072566853132 0 0.25515575147601421 0.39010859309241408 0 0.25534244482523522 0.39476787705141941 0 0.25534244482523522 0.39476787705141941 0 0.25659150695252858 0.39857514677456252 0 0.25967156717922701 0.3941870426701698 0 0.24995095369317111 0.39620072566853132 0 0.25534244482523522 0.39476787705141941 0 0.25659150695252858 0.39857514677456252 0 0.25515575147601421 0.39010859309241408 0 0.25534244482523522 0.39476787705141941 0 0.25967156717922701 0.3941870426701698 0 0.25948107731225378 0.40705279069613393 0 0.25301497344078211 0.40456560599219638 0 0.25659150695252858 0.39857514677456252 0 0.2474090061986832 0.40646211069571608 0 0.25301497344078211 0.40456560599219638 0 0.25004975604466068 0.40127158124585871 0 0.25301497344078211 0.40456560599219638 0 0.25004975604466068 0.40127158124585871 0 0.25659150695252858 0.39857514677456252 0 0.24995095369317111 0.39620072566853132 0 0.25004975604466068 0.40127158124585871 0 0.25659150695252858 0.39857514677456252 0 0.27043450052689688 0.4110378862642961 0 0.25948107731225378 0.40705279069613393 0 0.2657731810625053 0.39898311505544248 0 0.25948107731225378 0.40705279069613393 0 0.25659150695252858 0.39857514677456252 0 0.2657731810625053 0.39898311505544248 0 0.25515575147601421 0.39010859309241408 0 0.25967156717922701 0.3941870426701698 0 0.26653280527435158 0.38861753290444279 0 0.25967156717922701 0.3941870426701698 0 0.2657731810625053 0.39898311505544248 0 0.26653280527435158 0.38861753290444279 0 0.25659150695252858 0.39857514677456252 0 0.25967156717922701 0.3941870426701698 0 0.2657731810625053 0.39898311505544248 0 0.2657731810625053 0.39898311505544248 0 0.27974365373646398 0.39934420617181848 0 0.26653280527435158 0.38861753290444279 0 0.27043450052689688 0.4110378862642961 0 0.2657731810625053 0.39898311505544248 0 0.27974365373646398 0.39934420617181848 0 0.27974365373646398 0.39934420617181848 0 0.27267003951594482 0.37892243262243402 0 0.27974365373646398 0.39934420617181848 0 0.26653280527435158 0.38861753290444279 0 0.27267003951594482 0.37892243262243402 0 0.27974365373646398 0.39934420617181848 0 0.27267003951594482 0.37892243262243402 0 0.28252745662049061 0.38922051377901667 0 0.26538223603200439 0.38064404942700819 0 0.26470360279827437 0.37740778749095127 0 0.27267003951594482 0.37892243262243402 0 0.27267003951594482 0.37892243262243402 0 0.28417159710781142 0.37885058088535162 0 0.28252745662049061 0.38922051377901667 0 0.27267003951594482 0.37892243262243402 0 0.28417159710781142 0.37885058088535162 0 0.29005002266061092 0.36782205103806409 0 0.28417159710781142 0.37885058088535162 0 0.29084572354762228 0.38281386555314012 0 0.29005002266061092 0.36782205103806409 0 0.28417159710781142 0.37885058088535162 0 0.29084572354762228 0.38281386555314012 0 0.28417159710781142 0.37885058088535162 0 0.28252745662049061 0.38922051377901667 0 0.29084572354762228 0.38281386555314012 0 0.29084572354762228 0.38281386555314012 0 0.29005002266061092 0.36782205103806409 0 0.29236830286256188 0.41150080941186429 0 0.27974365373646398 0.39934420617181848 0 0.28252745662049061 0.38922051377901667 0 0.29236830286256188 0.41150080941186429 0 0.28252745662049061 0.38922051377901667 0 0.29084572354762228 0.38281386555314012 0 0.29236830286256188 0.41150080941186429 0 0.29084572354762228 0.38281386555314012 0 0.29236830286256188 0.41150080941186429 0 0.29084572354762228 0.38281386555314012 0 0.31170404326174911 0.39520012455862508 0 0.29084572354762228 0.38281386555314012 0 0.31170404326174911 0.39520012455862508 0 0.3109245665821907 0.37821127627698081 0 0.29084572354762228 0.38281386555314012 0 0.31170404326174911 0.39520012455862508 0 0.29084572354762228 0.38281386555314012 0 0.3109245665821907 0.37821127627698081 0 0.29931456377869869 0.37222313164017051 0 0.3109245665821907 0.37821127627698081 0 0.32700489161507312 0.38675477444000922 0 0.32856861382066122 0.37034723661492119 0 0.31170404326174911 0.39520012455862508 0 0.3109245665821907 0.37821127627698081 0 0.32700489161507312 0.38675477444000922 0 0.32700489161507312 0.38675477444000922 0 0.34438767579843582 0.38640754729802279 0 0.32856861382066122 0.37034723661492119 0 0.3325623629758761 0.40758638356410942 0 0.34438767579843582 0.38640754729802279 0 0.34929888867759112 0.40203369400090461 0 0.32700489161507312 0.38675477444000922 0 0.3325623629758761 0.40758638356410942 0 0.34438767579843582 0.38640754729802279 0 0.31170404326174911 0.39520012455862508 0 0.32700489161507312 0.38675477444000922 0 0.3325623629758761 0.40758638356410942 0 0.31170404326174911 0.39520012455862508 0 0.3325623629758761 0.40758638356410942 0 0.3122921934265192 0.4248272130921899 0 0.33518639731393551 0.42792258754846157 0 0.3325623629758761 0.40758638356410942 0 0.3122921934265192 0.4248272130921899 0 0.31170404326174911 0.39520012455862508 0 0.3325623629758761 0.40758638356410942 0 0.32481671305751908 0.44526469968590421 0 0.30903965173906423 0.43963308518686628 0 0.3122921934265192 0.4248272130921899 0 0.32481671305751908 0.44526469968590421 0 0.3122921934265192 0.4248272130921899 0 0.33518639731393551 0.42792258754846157 0 0.3325623629758761 0.40758638356410942 0 0.35342068269000321 0.41997264256959371 0 0.33518639731393551 0.42792258754846157 0 0.3325623629758761 0.40758638356410942 0 0.35342068269000321 0.41997264256959371 0 0.3325623629758761 0.40758638356410942 0 0.35342068269000321 0.41997264256959371 0 0.34929888867759112 0.40203369400090461 0 0.35284003441975992 0.44196199883051079 0 0.33518639731393551 0.42792258754846157 0 0.35342068269000321 0.41997264256959371 0 0.35342068269000321 0.41997264256959371 0 0.37649774249058748 0.41557642998314498 0 0.38086335578200059 0.43865929797511738 0 0.35284003441975992 0.44196199883051079 0 0.35342068269000321 0.41997264256959371 0 0.38086335578200059 0.43865929797511738 0 0.35342068269000321 0.41997264256959371 0 0.3668248332460492 0.39416820257189239 0 0.37649774249058748 0.41557642998314498 0 0.3668248332460492 0.39416820257189239 0 0.36105533763489162 0.36928349394367371 0 0.3668248332460492 0.39416820257189239 0 0.36105533763489162 0.36928349394367371 0 0.38914475094166479 0.3737032734489204 0 0.3668248332460492 0.39416820257189239 0 0.34438767579843582 0.38640754729802279 0 0.36105533763489162 0.36928349394367371 0 0.3668248332460492 0.39416820257189239 0 0.34438767579843582 0.38640754729802279 0 0.34929888867759112 0.40203369400090461 0 0.35342068269000321 0.41997264256959371 0 0.3668248332460492 0.39416820257189239 0 0.34929888867759112 0.40203369400090461 0 0.35528584202373398 0.34439878531545459 0 0.36105533763489162 0.36928349394367371 0 0.35528584202373398 0.34439878531545459 0 0.34426241597605328 0.3617075304779539 0 0.36105533763489162 0.36928349394367371 0 0.34438767579843582 0.38640754729802279 0 0.34426241597605328 0.3617075304779539 0 0.36105533763489162 0.36928349394367371 0 0.35528584202373398 0.34439878531545459 0 0.36105533763489162 0.36928349394367371 0 0.37886266102280108 0.35019441646859872 0 0.35528584202373398 0.34439878531545459 0 0.36774978834910349 0.33166204010182182 0 0.37886266102280108 0.35019441646859872 0 0.36774978834910349 0.33166204010182182 0 0.36901307458494381 0.31499790822539708 0 0.34951634641257651 0.31951407668723569 0 0.36774978834910349 0.33166204010182182 0 0.36901307458494381 0.31499790822539708 0 0.38607101770146218 0.3292050138124229 0 0.36901307458494381 0.31499790822539708 0 0.34951634641257651 0.31951407668723569 0 0.35780076864639082 0.30379175874055708 0 0.35528584202373398 0.34439878531545459 0 0.34951634641257651 0.31951407668723569 0 0.3308880279692587 0.3288836338847772 0 0.35528584202373398 0.34439878531545459 0 0.36774978834910349 0.33166204010182182 0 0.34951634641257651 0.31951407668723569 0 0.35528584202373398 0.34439878531545459 0 0.34951634641257651 0.31951407668723569 0 0.35528584202373398 0.34439878531545459 0 0.3308880279692587 0.3288836338847772 0 0.32939433148801089 0.3495845338433155 0 0.34951634641257651 0.31951407668723569 0 0.3308880279692587 0.3288836338847772 0 0.32099314227787951 0.30961466816668182 0 0.3308880279692587 0.3288836338847772 0 0.31234063666961048 0.33932604523570631 0 0.32099314227787951 0.30961466816668182 0 0.3308880279692587 0.3288836338847772 0 0.32939433148801089 0.3495845338433155 0 0.31234063666961048 0.33932604523570631 0 0.32939433148801089 0.3495845338433155 0 0.31439850726347951 0.36284435962969158 0 0.31234063666961048 0.33932604523570631 0 0.35528584202373398 0.34439878531545459 0 0.34426241597605328 0.3617075304779539 0 0.32939433148801089 0.3495845338433155 0 0.34438767579843582 0.38640754729802279 0 0.34426241597605328 0.3617075304779539 0 0.32856861382066122 0.37034723661492119 0 0.34426241597605328 0.3617075304779539 0 0.32939433148801089 0.3495845338433155 0 0.32856861382066122 0.37034723661492119 0 0.32939433148801089 0.3495845338433155 0 0.32856861382066122 0.37034723661492119 0 0.31439850726347951 0.36284435962969158 0 0.3109245665821907 0.37821127627698081 0 0.32856861382066122 0.37034723661492119 0 0.31439850726347951 0.36284435962969158 0 0.3109245665821907 0.37821127627698081 0 0.31439850726347951 0.36284435962969158 0 0.29931456377869869 0.37222313164017051 0 0.31439850726347951 0.36284435962969158 0 0.29921761162942911 0.36196682465979341 0 0.29931456377869869 0.37222313164017051 0 0.31439850726347951 0.36284435962969158 0 0.29921761162942911 0.36196682465979341 0 0.31234063666961048 0.33932604523570631 0 0.28950642145853861 0.35758005115508013 0 0.31234063666961048 0.33932604523570631 0 0.29921761162942911 0.36196682465979341 0 0.28950642145853861 0.35758005115508013 0 0.31234063666961048 0.33932604523570631 0 0.28950642145853861 0.35758005115508013 0 0.27708013075948801 0.3482856172285943 0 0.28796734871693858 0.32858235435231042 0 0.27267003951594482 0.37892243262243402 0 0.29005002266061092 0.36782205103806409 0 0.29084572354762228 0.38281386555314012 0 0.29931456377869869 0.37222313164017051 0 0.29005002266061092 0.36782205103806409 0 0.29921761162942911 0.36196682465979341 0 0.29931456377869869 0.37222313164017051 0 0.29005002266061092 0.36782205103806409 0 0.29921761162942911 0.36196682465979341 0 0.28950642145853861 0.35758005115508013 0 0.29005002266061092 0.36782205103806409 0 0.28950642145853861 0.35758005115508013 0 0.29005002266061092 0.36782205103806409 0 0.29921761162942911 0.36196682465979341 0 0.29005002266061092 0.36782205103806409 0 0.28950642145853861 0.35758005115508013 0 0.29005002266061092 0.36782205103806409 0 0.27710501212840638 0.36749391932301562 0 0.28950642145853861 0.35758005115508013 0 0.27710501212840638 0.36749391932301562 0 0.26470360279827437 0.37740778749095127 0 0.27710501212840638 0.36749391932301562 0 0.2595900263054346 0.35302219577752708 0 0.27267003951594482 0.37892243262243402 0 0.29005002266061092 0.36782205103806409 0 0.27710501212840638 0.36749391932301562 0 0.26470360279827437 0.37740778749095127 0 0.27267003951594482 0.37892243262243402 0 0.27710501212840638 0.36749391932301562 0 0.26470360279827437 0.37740778749095127 0 0.27710501212840638 0.36749391932301562 0 0.27710501212840638 0.36749391932301562 0 0.27708013075948801 0.3482856172285943 0 0.2595900263054346 0.35302219577752708 0 0.27708013075948801 0.3482856172285943 0 0.2595900263054346 0.35302219577752708 0 0.27042096272877081 0.33463702893495839 0 0.28950642145853861 0.35758005115508013 0 0.27710501212840638 0.36749391932301562 0 0.27708013075948801 0.3482856172285943 0 0.26470360279827437 0.37740778749095127 0 0.25355866323752352 0.37612312171136558 0 0.2595900263054346 0.35302219577752708 0 0.26470360279827437 0.37740778749095127 0 0.2595900263054346 0.35302219577752708 0 0.246670792481233 0.36870527606286629 0 0.25355866323752352 0.37612312171136558 0 0.2595900263054346 0.35302219577752708 0 0.24936287331975429 0.30425101235067858 0 0.25447644981259437 0.32863660406410278 0 0.26909862224451359 0.31411819757187381 0 0.24936287331975429 0.30425101235067858 0 0.25447644981259437 0.32863660406410278 0 0.25447644981259437 0.32863660406410278 0 0.27042096272877081 0.33463702893495839 0 0.26909862224451359 0.31411819757187381 0 0.2595900263054346 0.35302219577752708 0 0.25447644981259437 0.32863660406410278 0 0.2595900263054346 0.35302219577752708 0 0.25447644981259437 0.32863660406410278 0 0.27042096272877081 0.33463702893495839 0 0.27708013075948801 0.3482856172285943 0 0.27042096272877081 0.33463702893495839 0 0.28796734871693858 0.32858235435231042 0 0.27042096272877081 0.33463702893495839 0 0.26909862224451359 0.31411819757187381 0 0.28796734871693858 0.32858235435231042 0 0.26909862224451359 0.31411819757187381 0 0.28796734871693858 0.32858235435231042 0 0.28642827597533949 0.29958465754954078 0 0.28796734871693858 0.32858235435231042 0 0.30068490484227622 0.31336766922204939 0 0.28642827597533949 0.29958465754954078 0 0.28796734871693858 0.32858235435231042 0 0.28642827597533949 0.29958465754954078 0 0.28950642145853861 0.35758005115508013 0 0.28796734871693858 0.32858235435231042 0 0.28950642145853861 0.35758005115508013 0 0.28796734871693858 0.32858235435231042 0 0.31234063666961048 0.33932604523570631 0 0.28796734871693858 0.32858235435231042 0 0.31234063666961048 0.33932604523570631 0 0.30068490484227622 0.31336766922204939 0 0.31234063666961048 0.33932604523570631 0 0.30068490484227622 0.31336766922204939 0 0.32099314227787951 0.30961466816668182 0 0.30068490484227622 0.31336766922204939 0 0.30694606684793302 0.29207928035575959 0 0.32099314227787951 0.30961466816668182 0 0.30068490484227622 0.31336766922204939 0 0.30694606684793302 0.29207928035575959 0 0.28642827597533949 0.29958465754954078 0 0.30694606684793302 0.29207928035575959 0 0.28642827597533949 0.29958465754954078 0 0.28498925099079953 0.28025545404466617 0 0.26909862224451359 0.31411819757187381 0 0.28642827597533949 0.29958465754954078 0 0.26512494045433338 0.28890499157957228 0 0.28642827597533949 0.29958465754954078 0 0.26512494045433338 0.28890499157957228 0 0.28498925099079953 0.28025545404466617 0 0.24818291015165639 0.27185899357569421 0 0.24476088505220339 0.28838227761736962 0 0.26512494045433338 0.28890499157957228 0 0.24936287331975429 0.30425101235067858 0 0.24476088505220339 0.28838227761736962 0 0.26512494045433338 0.28890499157957228 0 0.24936287331975429 0.30425101235067858 0 0.26909862224451359 0.31411819757187381 0 0.26512494045433338 0.28890499157957228 0 0.25376577427808128 0.2562391283584553 0 0.26912176461869219 0.24690757237928929 0 0.25530153693490393 0.2469867472089167 0 0.24818291015165639 0.27185899357569421 0 0.26512494045433338 0.28890499157957228 0 0.26671005857432001 0.27123225948055357 0 0.24818291015165639 0.27185899357569421 0 0.25376577427808128 0.2562391283584553 0 0.26671005857432001 0.27123225948055357 0 0.26671005857432001 0.27123225948055357 0 0.28278347261867692 0.25884443671873769 0 0.28498925099079953 0.28025545404466617 0 0.26512494045433338 0.28890499157957228 0 0.26671005857432001 0.27123225948055357 0 0.28498925099079953 0.28025545404466617 0 0.25376577427808128 0.2562391283584553 0 0.28278347261867692 0.25884443671873769 0 0.25376577427808128 0.2562391283584553 0 0.28278347261867692 0.25884443671873769 0 0.26912176461869219 0.24690757237928929 0 0.25376577427808128 0.2562391283584553 0 0.26671005857432001 0.27123225948055357 0 0.28278347261867692 0.25884443671873769 0 0.28278347261867692 0.25884443671873769 0 0.30194269147419411 0.27088709858383342 0 0.30146467536468602 0.25021594144589671 0 0.28278347261867692 0.25884443671873769 0 0.28498925099079953 0.28025545404466617 0 0.30194269147419411 0.27088709858383342 0 0.30694606684793302 0.29207928035575959 0 0.30194269147419411 0.27088709858383342 0 0.32173137490931569 0.27819847563105421 0 0.30694606684793302 0.29207928035575959 0 0.28498925099079953 0.28025545404466617 0 0.30194269147419411 0.27088709858383342 0 0.30146467536468602 0.25021594144589671 0 0.31924956552896577 0.25938538138266742 0 0.31538450869092283 0.24427669968039431 0 0.30194269147419411 0.27088709858383342 0 0.30146467536468602 0.25021594144589671 0 0.31924956552896577 0.25938538138266742 0 0.31924956552896577 0.25938538138266742 0 0.32593120003520498 0.24928429442965511 0 0.31538450869092283 0.24427669968039431 0 0.31924956552896577 0.25938538138266742 0 0.3329649822690478 0.25700753017131572 0 0.32593120003520498 0.24928429442965511 0 0.3329649822690478 0.25700753017131572 0 0.33759176045048761 0.24838750703047241 0 0.32593120003520498 0.24928429442965511 0 0.31924956552896577 0.25938538138266742 0 0.3329649822690478 0.25700753017131572 0 0.33417752924314292 0.26793653251188282 0 0.3329649822690478 0.25700753017131572 0 0.33417752924314292 0.26793653251188282 0 0.34518142854538009 0.25777564478709541 0 0.3329649822690478 0.25700753017131572 0 0.34518142854538009 0.25777564478709541 0 0.33759176045048761 0.24838750703047241 0 0.3462408118975176 0.25091156327815561 0 0.34518142854538009 0.25777564478709541 0 0.33759176045048761 0.24838750703047241 0 0.33417752924314292 0.26793653251188282 0 0.33918209720607179 0.28243456273815648 0 0.35272271040324388 0.26877810422437731 0 0.33417752924314292 0.26793653251188282 0 0.32173137490931569 0.27819847563105421 0 0.33918209720607179 0.28243456273815648 0 0.30194269147419411 0.27088709858383342 0 0.31924956552896577 0.25938538138266742 0 0.32173137490931569 0.27819847563105421 0 0.31924956552896577 0.25938538138266742 0 0.33417752924314292 0.26793653251188282 0 0.32173137490931569 0.27819847563105421 0 0.30694606684793302 0.29207928035575959 0 0.32173137490931569 0.27819847563105421 0 0.32529564352881629 0.29333051430394469 0 0.30694606684793302 0.29207928035575959 0 0.32529564352881629 0.29333051430394469 0 0.32099314227787951 0.30961466816668182 0 0.34951634641257651 0.31951407668723569 0 0.32099314227787951 0.30961466816668182 0 0.34129985622164632 0.29932108571532812 0 0.32529564352881629 0.29333051430394469 0 0.32099314227787951 0.30961466816668182 0 0.34129985622164632 0.29932108571532812 0 0.32173137490931569 0.27819847563105421 0 0.32529564352881629 0.29333051430394469 0 0.33918209720607179 0.28243456273815648 0 0.32529564352881629 0.29333051430394469 0 0.34129985622164632 0.29932108571532812 0 0.33918209720607179 0.28243456273815648 0 0.34129985622164632 0.29932108571532812 0 0.33918209720607179 0.28243456273815648 0 0.35986546893026589 0.2870426640423519 0 0.34129985622164632 0.29932108571532812 0 0.35780076864639082 0.30379175874055708 0 0.35986546893026589 0.2870426640423519 0 0.34951634641257651 0.31951407668723569 0 0.34129985622164632 0.29932108571532812 0 0.35780076864639082 0.30379175874055708 0 0.36901307458494381 0.31499790822539708 0 0.35780076864639082 0.30379175874055708 0 0.37264861077365352 0.29819187054260787 0 0.35780076864639082 0.30379175874055708 0 0.37264861077365352 0.29819187054260787 0 0.35986546893026589 0.2870426640423519 0 0.37264861077365352 0.29819187054260787 0 0.35986546893026589 0.2870426640423519 0 0.3758594923236841 0.28404401702109661 0 0.35986546893026589 0.2870426640423519 0 0.36780983675575968 0.27205620071725078 0 0.35272271040324388 0.26877810422437731 0 0.35986546893026589 0.2870426640423519 0 0.36780983675575968 0.27205620071725078 0 0.3758594923236841 0.28404401702109661 0 0.36780983675575968 0.27205620071725078 0 0.38006758922625489 0.27279064708013723 0 0.3758594923236841 0.28404401702109661 0 0.36780983675575968 0.27205620071725078 0 0.36408430899470923 0.26159363922086432 0 0.35272271040324388 0.26877810422437731 0 0.36780983675575968 0.27205620071725078 0 0.36408430899470923 0.26159363922086432 0 0.37565902099549903 0.26489344899689871 0 0.36780983675575968 0.27205620071725078 0 0.37565902099549903 0.26489344899689871 0 0.38006758922625489 0.27279064708013723 0 0.37011917829529278 0.25163757421081712 0 0.36408430899470923 0.26159363922086432 0 0.37565902099549903 0.26489344899689871 0 0.37011917829529278 0.25163757421081712 0 0.36408430899470923 0.26159363922086432 0 0.35512444659002668 0.25480827031026182 0 0.33417752924314292 0.26793653251188282 0 0.34518142854538009 0.25777564478709541 0 0.35272271040324388 0.26877810422437731 0 0.36408430899470923 0.26159363922086432 0 0.35512444659002668 0.25480827031026182 0 0.35272271040324388 0.26877810422437731 0 0.35512444659002668 0.25480827031026182 0 0.3462408118975176 0.25091156327815561 0 0.34518142854538009 0.25777564478709541 0 0.35512444659002668 0.25480827031026182 0 0.34518142854538009 0.25777564478709541 0 0.35272271040324388 0.26877810422437731 0 0.33918209720607179 0.28243456273815648 0 0.35986546893026589 0.2870426640423519 0 0.35272271040324388 0.26877810422437731 0 0.40281471466278562 0.27376675476038898 0 0.40332458944413829 0.26395123811910759 0 0.38646694647903918 0.26270216448560302 0 0.40281471466278562 0.27376675476038898 0 0.38646694647903918 0.26270216448560302 0 0.38978580879152558 0.27269258137868302 0 0.40281471466278562 0.27376675476038898 0 0.38646694647903918 0.26270216448560302 0 0.39527033507956261 0.27900545431596557 0 0.38978580879152558 0.27269258137868302 0 0.38697851885116619 0.28093033536058221 0 0.39527033507956261 0.27900545431596557 0 0.40281471466278562 0.27376675476038898 0 0.38978580879152558 0.27269258137868302 0 0.39527033507956261 0.27900545431596557 0 0.40281471466278562 0.27376675476038898 0 0.39878468326547012 0.28755665558224441 0 0.40332458944413829 0.26395123811910759 0 0.40283323196787102 0.25492583153775922 0 0.39678785447368259 0.25534977859903651 0 0.40332458944413829 0.26395123811910759 0 0.38646694647903918 0.26270216448560302 0 0.38672188386971562 0.25779440616496241 0 0.40332458944413829 0.26395123811910759 0 0.39678785447368259 0.25534977859903651 0 0.38672188386971562 0.25779440616496241 0 0.40332458944413829 0.26395123811910759 0 0.38672188386971562 0.25779440616496241 0 0.40332458944413829 0.26395123811910759 0 0.40283323196787102 0.25492583153775922 0 0.4100966285239741 0.25413930845292282 0 0.40283323196787102 0.25492583153775922 0 0.4100966285239741 0.25413930845292282 0 0.39965183542691551 0.2483911979605406 0 0.40283323196787102 0.25492583153775922 0 0.39678785447368259 0.25534977859903651 0 0.39965183542691551 0.2483911979605406 0 0.39678785447368259 0.25534977859903651 0 0.39139925032212047 0.25129699245501858 0 0.39965183542691551 0.2483911979605406 0 0.39678785447368259 0.25534977859903651 0 0.39139925032212047 0.25129699245501858 0 0.38672188386971562 0.25779440616496241 0 0.37011917829529278 0.25163757421081712 0 0.38646694647903918 0.26270216448560302 0 0.38672188386971562 0.25779440616496241 0 0.37011917829529278 0.25163757421081712 0 0.38646694647903918 0.26270216448560302 0 0.37565902099549903 0.26489344899689871 0 0.37011917829529278 0.25163757421081712 0 0.38672188386971562 0.25779440616496241 0 0.38366519138630029 0.25066367921554511 0 0.37011917829529278 0.25163757421081712 0 0.38646694647903918 0.26270216448560302 0 0.37011917829529278 0.25163757421081712 0 0.38672188386971562 0.25779440616496241 0 0.39139925032212047 0.25129699245501858 0 0.38672188386971562 0.25779440616496241 0 0.38366519138630029 0.25066367921554511 0 0.38646694647903918 0.26270216448560302 0 0.37565902099549903 0.26489344899689871 0 0.38368381990132489 0.2683584984228703 0 0.37565902099549903 0.26489344899689871 0 0.38006758922625489 0.27279064708013723 0 0.38368381990132489 0.2683584984228703 0 0.38646694647903918 0.26270216448560302 0 0.38368381990132489 0.2683584984228703 0 0.38978580879152558 0.27269258137868302 0 0.38006758922625489 0.27279064708013723 0 0.38368381990132489 0.2683584984228703 0 0.38978580879152558 0.27269258137868302 0 0.38006758922625489 0.27279064708013723 0 0.38978580879152558 0.27269258137868302 0 0.38697851885116619 0.28093033536058221 0 0.38006758922625489 0.27279064708013723 0 0.38697851885116619 0.28093033536058221 0 0.3758594923236841 0.28404401702109661 0 0.37264861077365352 0.29819187054260787 0 0.3758594923236841 0.28404401702109661 0 0.38761351817062079 0.29347020386387151 0 0.38697851885116619 0.28093033536058221 0 0.3758594923236841 0.28404401702109661 0 0.38761351817062079 0.29347020386387151 0 0.36901307458494381 0.31499790822539708 0 0.37264861077365352 0.29819187054260787 0 0.38694942786459507 0.30934361990439008 0 0.37264861077365352 0.29819187054260787 0 0.38761351817062079 0.29347020386387151 0 0.38694942786459507 0.30934361990439008 0 0.38694942786459507 0.30934361990439008 0 0.40446037594515638 0.30075472477230841 0 0.40243962086597451 0.31961954690418792 0 0.38761351817062079 0.29347020386387151 0 0.38694942786459507 0.30934361990439008 0 0.40446037594515638 0.30075472477230841 0 0.38761351817062079 0.29347020386387151 0 0.40446037594515638 0.30075472477230841 0 0.39878468326547012 0.28755665558224441 0 0.38697851885116619 0.28093033536058221 0 0.38761351817062079 0.29347020386387151 0 0.39878468326547012 0.28755665558224441 0 0.39527033507956261 0.27900545431596557 0 0.38697851885116619 0.28093033536058221 0 0.39878468326547012 0.28755665558224441 0 0.40446037594515638 0.30075472477230841 0 0.39878468326547012 0.28755665558224441 0 0.412062587200553 0.28736505209618668 0 0.40281471466278562 0.27376675476038898 0 0.39878468326547012 0.28755665558224441 0 0.412062587200553 0.28736505209618668 0 0.412062587200553 0.28736505209618668 0 0.42072807747916802 0.30577807364085929 0 0.42876108441117827 0.28890000864454041 0 0.40446037594515638 0.30075472477230841 0 0.412062587200553 0.28736505209618668 0 0.42072807747916802 0.30577807364085929 0 0.40446037594515638 0.30075472477230841 0 0.42072807747916802 0.30577807364085929 0 0.40243962086597451 0.31961954690418792 0 0.42072807747916802 0.30577807364085929 0 0.42876108441117827 0.28890000864454041 0 0.44204420128763539 0.31061977496201149 0 0.42876108441117827 0.28890000864454041 0 0.44204420128763539 0.31061977496201149 0 0.42876108441117827 0.28890000864454041 0 0.41547796753472122 0.26718024232706927 0 0.42876108441117827 0.28890000864454041 0 0.41547796753472122 0.26718024232706927 0 0.42888598096485309 0.26290540039406568 0 0.42876108441117827 0.28890000864454041 0 0.42888598096485309 0.26290540039406568 0 0.44553790501761881 0.27989921265375411 0 0.40281471466278562 0.27376675476038898 0 0.412062587200553 0.28736505209618668 0 0.41547796753472122 0.26718024232706927 0 0.412062587200553 0.28736505209618668 0 0.42876108441117827 0.28890000864454041 0 0.41547796753472122 0.26718024232706927 0 0.40281471466278562 0.27376675476038898 0 0.40332458944413829 0.26395123811910759 0 0.41547796753472122 0.26718024232706927 0 0.4100966285239741 0.25413930845292282 0 0.42888598096485309 0.26290540039406568 0 0.41991785031408768 0.24738075242205379 0 0.41547796753472122 0.26718024232706927 0 0.4100966285239741 0.25413930845292282 0 0.42888598096485309 0.26290540039406568 0 0.40332458944413829 0.26395123811910759 0 0.41547796753472122 0.26718024232706927 0 0.4100966285239741 0.25413930845292282 0 0.42888598096485309 0.26290540039406568 0 0.41991785031408768 0.24738075242205379 0 0.43752244361671061 0.24216136226966281 0 0.44697479743853169 0.26041490130989958 0 0.46725173377110663 0.24760942947930911 0 0.43752244361671061 0.24216136226966281 0 0.42888598096485309 0.26290540039406568 0 0.44697479743853169 0.26041490130989958 0 0.43752244361671061 0.24216136226966281 0 0.44697479743853169 0.26041490130989958 0 0.44553790501761881 0.27989921265375411 0 0.46265432237271231 0.26793700185230901 0 0.42888598096485309 0.26290540039406568 0 0.44697479743853169 0.26041490130989958 0 0.44553790501761881 0.27989921265375411 0 0.44553790501761881 0.27989921265375411 0 0.46265432237271231 0.26793700185230901 0 0.46390704363080232 0.28861818875969819 0 0.44697479743853169 0.26041490130989958 0 0.46265432237271231 0.26793700185230901 0 0.46725173377110663 0.24760942947930911 0 0.48224923920548002 0.27043962230224378 0 0.46725173377110663 0.24760942947930911 0 0.46265432237271231 0.26793700185230901 0 0.48224923920548002 0.27043962230224378 0 0.46725173377110663 0.24760942947930911 0 0.48224923920548002 0.27043962230224378 0 0.46725173377110663 0.24760942947930911 0 0.48592415648076481 0.2393923229360943 0 0.46265432237271231 0.26793700185230901 0 0.48224923920548002 0.27043962230224378 0 0.46390704363080232 0.28861818875969819 0 0.48224923920548002 0.27043962230224378 0 0.5 0.25415886752217498 0 0.5 0.28369195669433628 0 0.48224923920548002 0.27043962230224378 0 0.5 0.25415886752217498 0 0.48592415648076481 0.2393923229360943 0 0.48224923920548002 0.27043962230224378 0 0.5 0.28369195669433628 0 0.48116724493420648 0.29195825700558192 0 0.5 0.28369195669433628 0 0.48116724493420648 0.29195825700558192 0 0.5 0.31322504586649758 0 0.48224923920548002 0.27043962230224378 0 0.48116724493420648 0.29195825700558192 0 0.46390704363080232 0.28861818875969819 0 0.48116724493420648 0.29195825700558192 0 0.47085643440467628 0.31094134374063781 0 0.5 0.31322504586649758 0 0.48116724493420648 0.29195825700558192 0 0.47085643440467628 0.31094134374063781 0 0.46390704363080232 0.28861818875969819 0 0.47085643440467628 0.31094134374063781 0 0.46390704363080232 0.28861818875969819 0 0.44204420128763539 0.31061977496201149 0 0.44553790501761881 0.27989921265375411 0 0.46390704363080232 0.28861818875969819 0 0.44204420128763539 0.31061977496201149 0 0.42876108441117827 0.28890000864454041 0 0.44553790501761881 0.27989921265375411 0 0.44204420128763539 0.31061977496201149 0 0.44204420128763539 0.31061977496201149 0 0.45532731816409261 0.33233954127948268 0 0.43450966243716088 0.33943226475088989 0 0.44204420128763539 0.31061977496201149 0 0.45532731816409261 0.33233954127948268 0 0.45532731816409261 0.33233954127948268 0 0.45104544831051879 0.35096434350013872 0 0.43450966243716088 0.33943226475088989 0 0.47085643440467628 0.31094134374063781 0 0.44204420128763539 0.31061977496201149 0 0.45532731816409261 0.33233954127948268 0 0.47085643440467628 0.31094134374063781 0 0.45532731816409261 0.33233954127948268 0 0.48229932702424039 0.32957464728372682 0 0.45532731816409261 0.33233954127948268 0 0.48229932702424039 0.32957464728372682 0 0.47502236560370342 0.35023042479134608 0 0.48229932702424039 0.32957464728372682 0 0.5 0.34275813503865871 0 0.47502236560370342 0.35023042479134608 0 0.48229932702424039 0.32957464728372682 0 0.5 0.34275813503865871 0 0.5 0.31322504586649758 0 0.47085643440467628 0.31094134374063781 0 0.48229932702424039 0.32957464728372682 0 0.5 0.31322504586649758 0 0.5 0.37229122421081973 0 0.47502236560370342 0.35023042479134608 0 0.47715054038888532 0.38230752984532068 0 0.47502236560370342 0.35023042479134608 0 0.45782643748677071 0.36791087856453941 0 0.47715054038888532 0.38230752984532068 0 0.5 0.34275813503865871 0 0.5 0.37229122421081973 0 0.47502236560370342 0.35023042479134608 0 0.47502236560370342 0.35023042479134608 0 0.45782643748677071 0.36791087856453941 0 0.45104544831051879 0.35096434350013872 0 0.45532731816409261 0.33233954127948268 0 0.47502236560370342 0.35023042479134608 0 0.45104544831051879 0.35096434350013872 0 0.45104544831051879 0.35096434350013872 0 0.43332026563462012 0.36517631522462329 0 0.43450966243716088 0.33943226475088989 0 0.45782643748677071 0.36791087856453941 0 0.43332026563462012 0.36517631522462329 0 0.44975553432195181 0.38691157442844548 0 0.45782643748677071 0.36791087856453941 0 0.45104544831051879 0.35096434350013872 0 0.43332026563462012 0.36517631522462329 0 0.43332026563462012 0.36517631522462329 0 0.41124350856202679 0.36969801041770189 0 0.40691948920655768 0.34694237740987088 0 0.43332026563462012 0.36517631522462329 0 0.40691948920655768 0.34694237740987088 0 0.43450966243716088 0.33943226475088989 0 0.42072807747916802 0.30577807364085929 0 0.44204420128763539 0.31061977496201149 0 0.42048863648028212 0.32475301824655639 0 0.44204420128763539 0.31061977496201149 0 0.43450966243716088 0.33943226475088989 0 0.42048863648028212 0.32475301824655639 0 0.42072807747916802 0.30577807364085929 0 0.42048863648028212 0.32475301824655639 0 0.40243962086597451 0.31961954690418792 0 0.40691948920655768 0.34694237740987088 0 0.42048863648028212 0.32475301824655639 0 0.40243962086597451 0.31961954690418792 0 0.40691948920655768 0.34694237740987088 0 0.43450966243716088 0.33943226475088989 0 0.42048863648028212 0.32475301824655639 0 0.40691948920655768 0.34694237740987088 0 0.40243962086597451 0.31961954690418792 0 0.38607101770146218 0.3292050138124229 0 0.38694942786459507 0.30934361990439008 0 0.40243962086597451 0.31961954690418792 0 0.38607101770146218 0.3292050138124229 0 0.36901307458494381 0.31499790822539708 0 0.38694942786459507 0.30934361990439008 0 0.38607101770146218 0.3292050138124229 0 0.36774978834910349 0.33166204010182182 0 0.38607101770146218 0.3292050138124229 0 0.37886266102280108 0.35019441646859872 0 0.40691948920655768 0.34694237740987088 0 0.38607101770146218 0.3292050138124229 0 0.37886266102280108 0.35019441646859872 0 0.36105533763489162 0.36928349394367371 0 0.37886266102280108 0.35019441646859872 0 0.38914475094166479 0.3737032734489204 0 0.41124350856202679 0.36969801041770189 0 0.40691948920655768 0.34694237740987088 0 0.38914475094166479 0.3737032734489204 0 0.40691948920655768 0.34694237740987088 0 0.37886266102280108 0.35019441646859872 0 0.38914475094166479 0.3737032734489204 0 0.4057807177490369 0.39093983473168692 0 0.38707389679242987 0.39588960272943502 0 0.39960485118541411 0.40804306212374358 0 0.38914475094166479 0.3737032734489204 0 0.4057807177490369 0.39093983473168692 0 0.38707389679242987 0.39588960272943502 0 0.41124350856202679 0.36969801041770189 0 0.38914475094166479 0.3737032734489204 0 0.4057807177490369 0.39093983473168692 0 0.3668248332460492 0.39416820257189239 0 0.38914475094166479 0.3737032734489204 0 0.38707389679242987 0.39588960272943502 0 0.3668248332460492 0.39416820257189239 0 0.38707389679242987 0.39588960272943502 0 0.37649774249058748 0.41557642998314498 0 0.38707389679242987 0.39588960272943502 0 0.37649774249058748 0.41557642998314498 0 0.39960485118541411 0.40804306212374358 0 0.37649774249058748 0.41557642998314498 0 0.40517687005024838 0.43205828399945367 0 0.38086335578200059 0.43865929797511738 0 0.37649774249058748 0.41557642998314498 0 0.40517687005024838 0.43205828399945367 0 0.39960485118541411 0.40804306212374358 0 0.40517687005024838 0.43205828399945367 0 0.39960485118541411 0.40804306212374358 0 0.4195788395441612 0.40889998137087719 0 0.40517687005024838 0.43205828399945367 0 0.4195788395441612 0.40889998137087719 0 0.43131584853017879 0.42767865121188281 0 0.40517687005024838 0.43205828399945367 0 0.43131584853017879 0.42767865121188281 0 0.42249732388653288 0.4481418694587837 0 0.4195788395441612 0.40889998137087719 0 0.43131584853017879 0.42767865121188281 0 0.44099613070235688 0.40651827256072748 0 0.4195788395441612 0.40889998137087719 0 0.42928016529382651 0.39089647290555007 0 0.44099613070235688 0.40651827256072748 0 0.4057807177490369 0.39093983473168692 0 0.39960485118541411 0.40804306212374358 0 0.4195788395441612 0.40889998137087719 0 0.4057807177490369 0.39093983473168692 0 0.4195788395441612 0.40889998137087719 0 0.42928016529382651 0.39089647290555007 0 0.41124350856202679 0.36969801041770189 0 0.4057807177490369 0.39093983473168692 0 0.42928016529382651 0.39089647290555007 0 0.43332026563462012 0.36517631522462329 0 0.41124350856202679 0.36969801041770189 0 0.42928016529382651 0.39089647290555007 0 0.43332026563462012 0.36517631522462329 0 0.42928016529382651 0.39089647290555007 0 0.44975553432195181 0.38691157442844548 0 0.44975553432195181 0.38691157442844548 0 0.46501948549226368 0.40424823237584412 0 0.44099613070235688 0.40651827256072748 0 0.42928016529382651 0.39089647290555007 0 0.44975553432195181 0.38691157442844548 0 0.44099613070235688 0.40651827256072748 0 0.44975553432195181 0.38691157442844548 0 0.46501948549226368 0.40424823237584412 0 0.47715054038888532 0.38230752984532068 0 0.45782643748677071 0.36791087856453941 0 0.44975553432195181 0.38691157442844548 0 0.47715054038888532 0.38230752984532068 0 0.46501948549226368 0.40424823237584412 0 0.47715054038888532 0.38230752984532068 0 0.5 0.40182431338298069 0 0.5 0.37229122421081973 0 0.47715054038888532 0.38230752984532068 0 0.5 0.40182431338298069 0 0.46501948549226368 0.40424823237584412 0 0.5 0.40182431338298069 0 0.47521213986980071 0.42291000989019789 0 0.5 0.40182431338298069 0 0.5 0.43135740255514182 0 0.47521213986980071 0.42291000989019789 0 0.47521213986980071 0.42291000989019789 0 0.46034807395773703 0.43752212009805819 0 0.47487836873704442 0.44203326785739688 0 0.5 0.43135740255514182 0 0.47521213986980071 0.42291000989019789 0 0.47487836873704442 0.44203326785739688 0 0.47521213986980071 0.42291000989019789 0 0.46034807395773703 0.43752212009805819 0 0.45102691103175918 0.42047472307176559 0 0.46501948549226368 0.40424823237584412 0 0.47521213986980071 0.42291000989019789 0 0.45102691103175918 0.42047472307176559 0 0.43131584853017879 0.42767865121188281 0 0.44099613070235688 0.40651827256072748 0 0.45102691103175918 0.42047472307176559 0 0.46501948549226368 0.40424823237584412 0 0.44099613070235688 0.40651827256072748 0 0.45102691103175918 0.42047472307176559 0 0.43131584853017879 0.42767865121188281 0 0.45102691103175918 0.42047472307176559 0 0.44682287928632108 0.43449016241350591 0 0.46034807395773703 0.43752212009805819 0 0.45102691103175918 0.42047472307176559 0 0.44682287928632108 0.43449016241350591 0 0.43131584853017879 0.42767865121188281 0 0.44682287928632108 0.43449016241350591 0 0.43788774254271678 0.44305989309685301 0 0.44682287928632108 0.43449016241350591 0 0.43788774254271678 0.44305989309685301 0 0.45008512135067108 0.44786101078481821 0 0.43788774254271678 0.44305989309685301 0 0.45008512135067108 0.44786101078481821 0 0.43809757834419621 0.4581263572450669 0 0.46034807395773703 0.43752212009805819 0 0.44682287928632108 0.43449016241350591 0 0.45008512135067108 0.44786101078481821 0 0.43809757834419621 0.4581263572450669 0 0.45121355366587551 0.46899735155801808 0 0.43840135219440668 0.4701976136105378 0 0.43809757834419621 0.4581263572450669 0 0.45121355366587551 0.46899735155801808 0 0.44890925761768757 0.45747136357111712 0 0.45096593032197491 0.46661422868346109 0 0.45648840045390843 0.45728385757112239 0 0.43809757834419621 0.4581263572450669 0 0.44890925761768757 0.45747136357111712 0 0.45096593032197491 0.46661422868346109 0 0.45008512135067108 0.44786101078481821 0 0.44890925761768757 0.45747136357111712 0 0.45648840045390843 0.45728385757112239 0 0.45008512135067108 0.44786101078481821 0 0.43809757834419621 0.4581263572450669 0 0.44890925761768757 0.45747136357111712 0 0.43809757834419621 0.4581263572450669 0 0.45096593032197491 0.46661422868346109 0 0.45121355366587551 0.46899735155801808 0 0.45096593032197491 0.46661422868346109 0 0.46088128359396729 0.464699818619979 0 0.46835349820240091 0.47505706711321011 0 0.46088128359396729 0.464699818619979 0 0.46801474591010173 0.45782463469299839 0 0.46835349820240091 0.47505706711321011 0 0.45096593032197491 0.46661422868346109 0 0.46088128359396729 0.464699818619979 0 0.45648840045390843 0.45728385757112239 0 0.45648840045390843 0.45728385757112239 0 0.46801474591010173 0.45782463469299839 0 0.46159211209517381 0.44818571787633021 0 0.46088128359396729 0.464699818619979 0 0.45648840045390843 0.45728385757112239 0 0.46801474591010173 0.45782463469299839 0 0.46801474591010173 0.45782463469299839 0 0.46159211209517381 0.44818571787633021 0 0.47487836873704442 0.44203326785739688 0 0.46034807395773703 0.43752212009805819 0 0.45008512135067108 0.44786101078481821 0 0.46159211209517381 0.44818571787633021 0 0.45008512135067108 0.44786101078481821 0 0.45648840045390843 0.45728385757112239 0 0.46159211209517381 0.44818571787633021 0 0.46034807395773703 0.43752212009805819 0 0.46159211209517381 0.44818571787633021 0 0.47487836873704442 0.44203326785739688 0 0.46801474591010173 0.45782463469299839 0 0.47487836873704442 0.44203326785739688 0 0.48528743244576028 0.45480992461276698 0 0.48528743244576028 0.45480992461276698 0 0.48445441993734001 0.46837445186490451 0 0.46835349820240091 0.47505706711321011 0 0.48528743244576028 0.45480992461276698 0 0.46835349820240091 0.47505706711321011 0 0.46801474591010173 0.45782463469299839 0 0.48528743244576028 0.45480992461276698 0 0.46835349820240091 0.47505706711321011 0 0.48528743244576028 0.45480992461276698 0 0.48445441993734001 0.46837445186490451 0 0.5 0.46089049172730279 0 0.5 0.43135740255514182 0 0.47487836873704442 0.44203326785739688 0 0.48528743244576028 0.45480992461276698 0 0.5 0.43135740255514182 0 0.48528743244576028 0.45480992461276698 0 0.5 0.46089049172730279 0 0.49999999999999872 0.49042358089946381 0 0.48417674910119918 0.48274032400633821 0 0.48996535084690968 0.49197980760498211 0 0.49999999999999872 0.49042358089946381 0 0.48417674910119918 0.48274032400633821 0 0.48996535084690968 0.49197980760498211 0 0.48861859318348921 0.4999999999999985 0 0.47647406108552232 0.48993417293548353 0 0.48996535084690968 0.49197980760498211 0 0.5 0.5 0 0.49999999999999872 0.49042358089946381 0 0.48996535084690968 0.49197980760498211 0 0.48861859318348921 0.4999999999999985 0 0.5 0.5 0 0.5 0.46089049172730279 0 0.49999999999999872 0.49042358089946381 0 0.48417674910119918 0.48274032400633821 0 0.48445441993734001 0.46837445186490451 0 0.5 0.46089049172730279 0 0.48417674910119918 0.48274032400633821 0 0.48417674910119918 0.48274032400633821 0 0.46835349820240091 0.47505706711321011 0 0.48417674910119918 0.48274032400633821 0 0.47647406108552232 0.48993417293548353 0 0.46835349820240091 0.47505706711321011 0 0.48445441993734001 0.46837445186490451 0 0.48417674910119918 0.48274032400633821 0 0.46835349820240091 0.47505706711321011 0 0.47647406108552232 0.48993417293548353 0 0.46835349820240091 0.47505706711321011 0 0.46432952898755431 0.47986834587096983 0 0.48861859318348921 0.4999999999999985 0 0.47647406108552232 0.48993417293548353 0 0.46805538898837012 0.5 0 0.47647406108552232 0.48993417293548353 0 0.46432952898755431 0.47986834587096983 0 0.48996535084690968 0.49197980760498211 0 0.48417674910119918 0.48274032400633821 0 0.47647406108552232 0.48993417293548353 0 0.48861859318348921 0.4999999999999985 0 0.47647406108552232 0.48993417293548353 0 0.47647406108552232 0.48993417293548353 0 0.46805538898837012 0.5 0 0.46408779096367442 0.4924506297016133 0 0.46432952898755431 0.47986834587096983 0 0.44749218479325098 0.49999999999999989 0 0.46408779096367442 0.4924506297016133 0 0.46432952898755431 0.47986834587096983 0 0.44749218479325098 0.49999999999999989 0 0.46432952898755431 0.47986834587096983 0 0.44749218479325098 0.49999999999999989 0 0.44942176570829168 0.48450694569220232 0 0.46805538898837012 0.5 0 0.46408779096367442 0.4924506297016133 0 0.44749218479325098 0.49999999999999989 0 0.47647406108552232 0.48993417293548353 0 0.46408779096367442 0.4924506297016133 0 0.46432952898755431 0.47986834587096983 0 0.45096593032197491 0.46661422868346109 0 0.46835349820240091 0.47505706711321011 0 0.45096593032197491 0.46661422868346109 0 0.46835349820240091 0.47505706711321011 0 0.45121355366587551 0.46899735155801808 0 0.46835349820240091 0.47505706711321011 0 0.46432952898755431 0.47986834587096983 0 0.45121355366587551 0.46899735155801808 0 0.46835349820240091 0.47505706711321011 0 0.46432952898755431 0.47986834587096983 0 0.46432952898755431 0.47986834587096983 0 0.45270300793539359 0.47740208195935052 0 0.44942176570829168 0.48450694569220232 0 0.46432952898755431 0.47986834587096983 0 0.45121355366587551 0.46899735155801808 0 0.46432952898755431 0.47986834587096983 0 0.45121355366587551 0.46899735155801808 0 0.45270300793539359 0.47740208195935052 0 0.44584718337985291 0.47623568471621158 0 0.44942176570829168 0.48450694569220232 0 0.43322646267562598 0.48247803450012311 0 0.44584718337985291 0.47623568471621158 0 0.45121355366587551 0.46899735155801808 0 0.45270300793539359 0.47740208195935052 0 0.44584718337985291 0.47623568471621158 0 0.45270300793539359 0.47740208195935052 0 0.44942176570829168 0.48450694569220232 0 0.44584718337985291 0.47623568471621158 0 0.45121355366587551 0.46899735155801808 0 0.43840135219440668 0.4701976136105378 0 0.44584718337985291 0.47623568471621158 0 0.43840135219440668 0.4701976136105378 0 0.43322646267562598 0.48247803450012311 0 0.44749218479325098 0.49999999999999989 0 0.44942176570829168 0.48450694569220232 0 0.43322646267562598 0.48247803450012311 0 0.44749218479325098 0.49999999999999989 0 0.41756896524685128 0.5 0 0.43322646267562598 0.48247803450012311 0 0.41756896524685128 0.5 0 0.40983307706140881 0.48006851486557178 0 0.43322646267562598 0.48247803450012311 0 0.43840135219440668 0.4701976136105378 0 0.43322646267562598 0.48247803450012311 0 0.42456566629778619 0.46604249570289508 0 0.40983307706140881 0.48006851486557178 0 0.43322646267562598 0.48247803450012311 0 0.42456566629778619 0.46604249570289508 0 0.43809757834419621 0.4581263572450669 0 0.43840135219440668 0.4701976136105378 0 0.42456566629778619 0.46604249570289508 0 0.43809757834419621 0.4581263572450669 0 0.42456566629778619 0.46604249570289508 0 0.42249732388653288 0.4481418694587837 0 0.43131584853017879 0.42767865121188281 0 0.43788774254271678 0.44305989309685301 0 0.42249732388653288 0.4481418694587837 0 0.43788774254271678 0.44305989309685301 0 0.43809757834419621 0.4581263572450669 0 0.42249732388653288 0.4481418694587837 0 0.40517687005024838 0.43205828399945367 0 0.42249732388653288 0.4481418694587837 0 0.40525095694043889 0.45658995614973891 0 0.42456566629778619 0.46604249570289508 0 0.42249732388653288 0.4481418694587837 0 0.40525095694043889 0.45658995614973891 0 0.40983307706140881 0.48006851486557178 0 0.42456566629778619 0.46604249570289508 0 0.40525095694043889 0.45658995614973891 0 0.36877755766426512 0.47054572945530332 0 0.38086335578200059 0.43865929797511738 0 0.3905021230390483 0.47140695031187868 0 0.40525095694043889 0.45658995614973891 0 0.38086335578200059 0.43865929797511738 0 0.3905021230390483 0.47140695031187868 0 0.40517687005024838 0.43205828399945367 0 0.40525095694043889 0.45658995614973891 0 0.38086335578200059 0.43865929797511738 0 0.36877755766426512 0.47054572945530332 0 0.3905021230390483 0.47140695031187868 0 0.38764574570045163 0.5 0 0.41756896524685128 0.5 0 0.40983307706140881 0.48006851486557178 0 0.38764574570045163 0.5 0 0.40983307706140881 0.48006851486557178 0 0.40525095694043889 0.45658995614973891 0 0.3905021230390483 0.47140695031187868 0 0.40983307706140881 0.48006851486557178 0 0.3905021230390483 0.47140695031187868 0 0.38764574570045163 0.5 0 0.32611797869693998 0.091116820578872146 0 0.32661682693008243 0.059220969580115697 0 0.30898442488672678 0.079852405637602333 0 0.33982308330351291 0.069285533955390929 0 0.32611797869693998 0.091116820578872146 0 0.32661682693008243 0.059220969580115697 0 0.33982308330351291 0.069285533955390929 0 0.32611797869693998 0.091116820578872146 0 0.35106649576624982 0.08552846335685714 0 0.33982308330351291 0.069285533955390929 0 0.32611797869693998 0.091116820578872146 0 0.32611797869693998 0.091116820578872146 0 0.34692438686725968 0.10191997769153389 0 0.35106649576624982 0.08552846335685714 0 0.32661682693008243 0.059220969580115697 0 0.31001329087238938 0.059373461697053931 0 0.30898442488672678 0.079852405637602333 0 0.32611797869693998 0.091116820578872146 0 0.31241287409036711 0.11294810720235331 0 0.32611797869693998 0.091116820578872146 0 0.33662920649515071 0.11518814068880349 0 0.31241287409036711 0.11294810720235331 0 0.32611797869693998 0.091116820578872146 0 0.30898442488672678 0.079852405637602333 0 0.31241287409036711 0.11294810720235331 0 0.33662920649515071 0.11518814068880349 0 0.31241287409036711 0.11294810720235331 0 0.32755549012633473 0.13682458378493681 0 0.32611797869693998 0.091116820578872146 0 0.33662920649515071 0.11518814068880349 0 0.34692438686725968 0.10191997769153389 0 0.34692438686725968 0.10191997769153389 0 0.36246885629017911 0.10166021012621169 0 0.35106649576624982 0.08552846335685714 0 0.34692438686725968 0.10191997769153389 0 0.35833939708777879 0.11610625370692509 0 0.36246885629017911 0.10166021012621169 0 0.33662920649515071 0.11518814068880349 0 0.34692438686725968 0.10191997769153389 0 0.35833939708777879 0.11610625370692509 0 0.33662920649515071 0.11518814068880349 0 0.35833939708777879 0.11610625370692509 0 0.35064023520833881 0.1329898896907023 0 0.35833939708777879 0.11610625370692509 0 0.37120910800260049 0.12031008916013471 0 0.37012590845665888 0.13485257920775379 0 0.35833939708777879 0.11610625370692509 0 0.36921265499125933 0.1110503829388633 0 0.37120910800260049 0.12031008916013471 0 0.35833939708777879 0.11610625370692509 0 0.36921265499125933 0.1110503829388633 0 0.36246885629017911 0.10166021012621169 0 0.36921265499125933 0.1110503829388633 0 0.37120910800260049 0.12031008916013471 0 0.37824108730571487 0.1140252367328918 0 0.36246885629017911 0.10166021012621169 0 0.37987520861954338 0.10636090335559539 0 0.36246885629017911 0.10166021012621169 0 0.37294726897623032 0.090994200858692725 0 0.37987520861954338 0.10636090335559539 0 0.36921265499125933 0.1110503829388633 0 0.36246885629017911 0.10166021012621169 0 0.37987520861954338 0.10636090335559539 0 0.37294726897623032 0.090994200858692725 0 0.37145101605117792 0.079757884964720541 0 0.36371769801571369 0.086484064338018071 0 0.37145101605117792 0.079757884964720541 0 0.36371769801571369 0.086484064338018071 0 0.36145870584429363 0.074302194163780547 0 0.36246885629017911 0.10166021012621169 0 0.37294726897623032 0.090994200858692725 0 0.36371769801571369 0.086484064338018071 0 0.36246885629017911 0.10166021012621169 0 0.36371769801571369 0.086484064338018071 0 0.35106649576624982 0.08552846335685714 0 0.36371769801571369 0.086484064338018071 0 0.35106649576624982 0.08552846335685714 0 0.36145870584429363 0.074302194163780547 0 0.33982308330351291 0.069285533955390929 0 0.36145870584429363 0.074302194163780547 0 0.36047425163554531 0.060872664175095362 0 0.33982308330351291 0.069285533955390929 0 0.35106649576624982 0.08552846335685714 0 0.36145870584429363 0.074302194163780547 0 0.36145870584429363 0.074302194163780547 0 0.3741290530260471 0.066491756604030422 0 0.36047425163554531 0.060872664175095362 0 0.37145101605117792 0.079757884964720541 0 0.36145870584429363 0.074302194163780547 0 0.3741290530260471 0.066491756604030422 0 0.37223077046365582 0.050975196737324521 0 0.36936968064527431 0.045709038863678053 0 0.35352818791008622 0.047454247331909921 0 0.36047425163554531 0.060872664175095362 0 0.37223077046365582 0.050975196737324521 0 0.35352818791008622 0.047454247331909921 0 0.3741290530260471 0.066491756604030422 0 0.36047425163554531 0.060872664175095362 0 0.37223077046365582 0.050975196737324521 0 0.37223077046365582 0.050975196737324521 0 0.35352818791008622 0.047454247331909921 0 0.36936968064527431 0.045709038863678053 0 0.36325589052666762 0.031958687822734387 0 0.35352818791008622 0.047454247331909921 0 0.37223077046365582 0.050975196737324521 0 0.36936968064527431 0.045709038863678053 0 0.37379025911705338 0.041685833419247732 0 0.36936968064527431 0.045709038863678053 0 0.37379025911705338 0.041685833419247732 0 0.37127347453404391 0.036298138459317661 0 0.37127347453404391 0.036298138459317661 0 0.36325589052666762 0.031958687822734387 0 0.36912131176078189 0.031232242996071271 0 0.36936968064527431 0.045709038863678053 0 0.37127347453404391 0.036298138459317661 0 0.36325589052666762 0.031958687822734387 0 0.37379025911705338 0.041685833419247732 0 0.37127347453404391 0.036298138459317661 0 0.37932829785323607 0.035065727517223692 0 0.37127347453404391 0.036298138459317661 0 0.37446090596142928 0.031199830640749129 0 0.36912131176078189 0.031232242996071271 0 0.36936968064527431 0.045709038863678053 0 0.36325589052666762 0.031958687822734387 0 0.35352818791008622 0.047454247331909921 0 0.35078207600669842 0.031031544612179478 0 0.34025615969545381 0.036200568167066363 0 0.36325589052666762 0.031958687822734387 0 0.35352818791008622 0.047454247331909921 0 0.36325589052666762 0.031958687822734387 0 0.35352818791008622 0.047454247331909921 0 0.35078207600669842 0.031031544612179478 0 0.33982308330351291 0.069285533955390929 0 0.36047425163554531 0.060872664175095362 0 0.35352818791008622 0.047454247331909921 0 0.33982308330351291 0.069285533955390929 0 0.35352818791008622 0.047454247331909921 0 0.37275790797876851 0.010516135893525231 0 0.37021777456307747 0.01852826638736655 0 0.35561079671821449 0.01476432531310836 0 0.37275790797876851 0.010516135893525231 0 0.3479657029097607 -0.0024300371965174389 0 0.37275790797876851 0.010516135893525231 0 0.38112383196394201 0.0038196551432573039 0 0.36390872345592179 -0.012123251129401109 0 0.36325589052666762 0.031958687822734387 0 0.35561079671821449 0.01476432531310836 0 0.36325589052666762 0.031958687822734387 0 0.36617442837876962 0.024425084737957941 0 0.35561079671821449 0.01476432531310836 0 0.37021777456307747 0.01852826638736655 0 0.36617442837876962 0.024425084737957941 0 0.35561079671821449 0.01476432531310836 0 0.37275790797876851 0.010516135893525231 0 0.37021777456307747 0.01852826638736655 0 0.38068389602866542 0.024404222700930921 0 0.37021777456307747 0.01852826638736655 0 0.37229933367479562 0.026226562060131901 0 0.38068389602866542 0.024404222700930921 0 0.37021777456307747 0.01852826638736655 0 0.37229933367479562 0.026226562060131901 0 0.36617442837876962 0.024425084737957941 0 0.37229933367479562 0.026226562060131901 0 0.36912131176078189 0.031232242996071271 0 0.36617442837876962 0.024425084737957941 0 0.37229933367479562 0.026226562060131901 0 0.37446090596142928 0.031199830640749129 0 0.36912131176078189 0.031232242996071271 0 0.36325589052666762 0.031958687822734387 0 0.36912131176078189 0.031232242996071271 0 0.36617442837876962 0.024425084737957941 0 0.36325589052666762 0.031958687822734387 0 0.35078207600669842 0.031031544612179478 0 0.35561079671821449 0.01476432531310836 0 0.35078207600669842 0.031031544612179478 0 0.35561079671821449 0.01476432531310836 0 0.33915965681587351 0.024112348851237 0 0.35561079671821449 0.01476432531310836 0 0.3479657029097607 -0.0024300371965174389 0 0.35561079671821449 0.01476432531310836 0 0.33658577833022779 0.0080623827189060058 0 0.33915965681587351 0.024112348851237 0 0.35561079671821449 0.01476432531310836 0 0.33658577833022779 0.0080623827189060058 0 0.3479657029097607 -0.0024300371965174389 0 0.37275790797876851 0.010516135893525231 0 0.35561079671821449 0.01476432531310836 0 0.3479657029097607 -0.0024300371965174389 0 0.33658577833022779 0.0080623827189060058 0 0.33915965681587351 0.024112348851237 0 0.32179946340398913 0.02283176201638323 0 0.33915965681587351 0.024112348851237 0 0.32179946340398913 0.02283176201638323 0 0.32941093423100032 0.032066390767525342 0 0.35078207600669842 0.031031544612179478 0 0.33915965681587351 0.024112348851237 0 0.34025615969545381 0.036200568167066363 0 0.33915965681587351 0.024112348851237 0 0.34025615969545381 0.036200568167066363 0 0.32941093423100032 0.032066390767525342 0 0.32179946340398913 0.02283176201638323 0 0.31368596473978883 0.039953547811938647 0 0.30817809602880541 0.029134745411721719 0 0.33658577833022779 0.0080623827189060058 0 0.32179946340398913 0.02283176201638323 0 0.31890639314761021 0.001858299874506916 0 0.32179946340398913 0.02283176201638323 0 0.31890639314761021 0.001858299874506916 0 0.30093862706144298 0.017075404057122389 0 0.32179946340398913 0.02283176201638323 0 0.31890639314761021 0.001858299874506916 0 0.35352818791008622 0.047454247331909921 0 0.33108360056957697 0.043228827862435468 0 0.32661682693008243 0.059220969580115697 0 0.33982308330351291 0.069285533955390929 0 0.35352818791008622 0.047454247331909921 0 0.32661682693008243 0.059220969580115697 0 0.35352818791008622 0.047454247331909921 0 0.34025615969545381 0.036200568167066363 0 0.33108360056957697 0.043228827862435468 0 0.35352818791008622 0.047454247331909921 0 0.33108360056957697 0.043228827862435468 0 0.34025615969545381 0.036200568167066363 0 0.32941093423100032 0.032066390767525342 0 0.33108360056957697 0.043228827862435468 0 0.34025615969545381 0.036200568167066363 0 0.33108360056957697 0.043228827862435468 0 0.33108360056957697 0.043228827862435468 0 0.31368596473978883 0.039953547811938647 0 0.32941093423100032 0.032066390767525342 0 0.33108360056957697 0.043228827862435468 0 0.31368596473978883 0.039953547811938647 0 0.32179946340398913 0.02283176201638323 0 0.32941093423100032 0.032066390767525342 0 0.31368596473978883 0.039953547811938647 0 0.33108360056957697 0.043228827862435468 0 0.31001329087238938 0.059373461697053931 0 0.33108360056957697 0.043228827862435468 0 0.31368596473978883 0.039953547811938647 0 0.31001329087238938 0.059373461697053931 0 0.33108360056957697 0.043228827862435468 0 0.32661682693008243 0.059220969580115697 0 0.31001329087238938 0.059373461697053931 0 0.31368596473978883 0.039953547811938647 0 0.31001329087238938 0.059373461697053931 0 0.30093217799162381 0.046388632833065699 0 0.31001329087238938 0.059373461697053931 0 0.30093217799162381 0.046388632833065699 0 0.2937568269693952 0.055659759942877918 0 0.31368596473978883 0.039953547811938647 0 0.29628832891000051 0.036678267761442583 0 0.31368596473978883 0.039953547811938647 0 0.29628832891000051 0.036678267761442583 0 0.30817809602880541 0.029134745411721719 0 0.31368596473978883 0.039953547811938647 0 0.30093217799162381 0.046388632833065699 0 0.29628832891000051 0.036678267761442583 0 0.30093217799162381 0.046388632833065699 0 0.29568190712639081 0.039234577740781797 0 0.29628832891000051 0.036678267761442583 0 0.30093217799162381 0.046388632833065699 0 0.29568190712639081 0.039234577740781797 0 0.29458815439472358 0.047012797625906953 0 0.29628832891000051 0.036678267761442583 0 0.2669590241104427 0.031156730936277761 0 0.29568190712639081 0.039234577740781797 0 0.29628832891000051 0.036678267761442583 0 0.28014445958587042 0.039377249324961713 0 0.29568190712639081 0.039234577740781797 0 0.28798170549148511 0.046768219986902393 0 0.29458815439472358 0.047012797625906953 0 0.29568190712639081 0.039234577740781797 0 0.29628832891000051 0.036678267761442583 0 0.29568190712639081 0.039234577740781797 0 0.28798170549148511 0.046768219986902393 0 0.28014445958587042 0.039377249324961713 0 0.28798170549148511 0.046768219986902393 0 0.27676452373790472 0.055165006418791712 0 0.28014445958587042 0.039377249324961713 0 0.28798170549148511 0.046768219986902393 0 0.2937568269693952 0.055659759942877918 0 0.27676452373790472 0.055165006418791712 0 0.2937568269693952 0.055659759942877918 0 0.27676452373790472 0.055165006418791712 0 0.28894298117520212 0.075518095531672796 0 0.28798170549148511 0.046768219986902393 0 0.2937568269693952 0.055659759942877918 0 0.29458815439472358 0.047012797625906953 0 0.30093217799162381 0.046388632833065699 0 0.2937568269693952 0.055659759942877918 0 0.29458815439472358 0.047012797625906953 0 0.31890639314761021 0.001858299874506916 0 0.30093862706144298 0.017075404057122389 0 0.3055889252128855 -0.0025274596471978501 0 0.30093862706144298 0.017075404057122389 0 0.3055889252128855 -0.0025274596471978501 0 0.30093862706144298 0.017075404057122389 0 0.29084464891779471 0.0018398696142846471 0 0.3055889252128855 -0.0025274596471978501 0 0.29628832891000051 0.036678267761442583 0 0.30817809602880541 0.029134745411721719 0 0.30093862706144298 0.017075404057122389 0 0.32179946340398913 0.02283176201638323 0 0.30817809602880541 0.029134745411721719 0 0.30093862706144298 0.017075404057122389 0 0.29628832891000051 0.036678267761442583 0 0.30093862706144298 0.017075404057122389 0 0.29628832891000051 0.036678267761442583 0 0.30093862706144298 0.017075404057122389 0 0.28333349524028528 0.023755243344766551 0 0.30093862706144298 0.017075404057122389 0 0.28333349524028528 0.023755243344766551 0 0.27932500178730191 0.012299697814634679 0 0.29628832891000051 0.036678267761442583 0 0.28333349524028528 0.023755243344766551 0 0.2669590241104427 0.031156730936277761 0 0.29084464891779471 0.0018398696142846471 0 0.27932500178730191 0.012299697814634679 0 0.27629462104729002 -0.0034176145621518761 0 0.30093862706144298 0.017075404057122389 0 0.29084464891779471 0.0018398696142846471 0 0.27932500178730191 0.012299697814634679 0 0.26933135881329878 0.0059442809288262066 0 0.2590441704943689 0.00043850738417854302 0 0.27629462104729002 -0.0034176145621518761 0 0.26933135881329878 0.0059442809288262066 0 0.27932500178730191 0.012299697814634679 0 0.27629462104729002 -0.0034176145621518761 0 0.26933135881329878 0.0059442809288262066 0 0.27932500178730191 0.012299697814634679 0 0.26537506954755569 0.016165463870178611 0 0.28333349524028528 0.023755243344766551 0 0.2731564943322386 0.021566116154355299 0 0.2669590241104427 0.031156730936277761 0 0.27932500178730191 0.012299697814634679 0 0.2731564943322386 0.021566116154355299 0 0.26537506954755569 0.016165463870178611 0 0.2731564943322386 0.021566116154355299 0 0.2669590241104427 0.031156730936277761 0 0.26537506954755569 0.016165463870178611 0 0.28333349524028528 0.023755243344766551 0 0.27932500178730191 0.012299697814634679 0 0.2731564943322386 0.021566116154355299 0 0.2492987261363272 0.026896502710998641 0 0.2669590241104427 0.031156730936277761 0 0.26537506954755569 0.016165463870178611 0 0.25439399030610349 0.0079726127039095041 0 0.2590441704943689 0.00043850738417854302 0 0.2414431017406225 -0.0042112777133020444 0 0.2492987261363272 0.026896502710998641 0 0.2590441704943689 0.00043850738417854302 0 0.2492987261363272 0.026896502710998641 0 0.25439399030610349 0.0079726127039095041 0 0.2590441704943689 0.00043850738417854302 0 0.2492987261363272 0.026896502710998641 0 0.26537506954755569 0.016165463870178611 0 0.2590441704943689 0.00043850738417854302 0 0.26933135881329878 0.0059442809288262066 0 0.26537506954755569 0.016165463870178611 0 0.2590441704943689 0.00043850738417854302 0 0.25439399030610349 0.0079726127039095041 0 0.2590441704943689 0.00043850738417854302 0 0.27676452373790472 0.055165006418791712 0 0.28014445958587042 0.039377249324961713 0 0.25982628070769548 0.046958846885473977 0 0.2669590241104427 0.031156730936277761 0 0.28014445958587042 0.039377249324961713 0 0.25982628070769548 0.046958846885473977 0 0.29628832891000051 0.036678267761442583 0 0.2669590241104427 0.031156730936277761 0 0.28014445958587042 0.039377249324961713 0 0.2492987261363272 0.026896502710998641 0 0.2669590241104427 0.031156730936277761 0 0.25982628070769548 0.046958846885473977 0 0.23955328177828539 0.053354498037818762 0 0.25982628070769548 0.046958846885473977 0 0.25731429581274329 0.06984633570370237 0 0.27676452373790472 0.055165006418791712 0 0.25982628070769548 0.046958846885473977 0 0.25731429581274329 0.06984633570370237 0 0.27676452373790472 0.055165006418791712 0 0.25731429581274329 0.06984633570370237 0 0.28894298117520212 0.075518095531672796 0 0.25731429581274329 0.06984633570370237 0 0.26787267147801469 0.091662729366291718 0 0.28894298117520212 0.075518095531672796 0 0.24819657032849199 0.087805226663106861 0 0.25731429581274329 0.06984633570370237 0 0.26787267147801469 0.091662729366291718 0 0.26787267147801469 0.091662729366291718 0 0.28894298117520212 0.075518095531672796 0 0.26787267147801469 0.091662729366291718 0 0.28894298117520212 0.075518095531672796 0 0.2918706057483148 0.10216008922418229 0 0.28894298117520212 0.075518095531672796 0 0.30898442488672678 0.079852405637602333 0 0.2918706057483148 0.10216008922418229 0 0.31001329087238938 0.059373461697053931 0 0.28894298117520212 0.075518095531672796 0 0.30898442488672678 0.079852405637602333 0 0.31001329087238938 0.059373461697053931 0 0.2937568269693952 0.055659759942877918 0 0.28894298117520212 0.075518095531672796 0 0.31001329087238938 0.059373461697053931 0 0.28894298117520212 0.075518095531672796 0 0.2918706057483148 0.10216008922418229 0 0.27430291337578411 0.1181998037813389 0 0.29870776948379418 0.13477939382583459 0 0.30898442488672678 0.079852405637602333 0 0.31241287409036711 0.11294810720235331 0 0.2918706057483148 0.10216008922418229 0 0.31241287409036711 0.11294810720235331 0 0.2918706057483148 0.10216008922418229 0 0.29870776948379418 0.13477939382583459 0 0.31241287409036711 0.11294810720235331 0 0.29870776948379418 0.13477939382583459 0 0.26787267147801469 0.091662729366291718 0 0.2918706057483148 0.10216008922418229 0 0.27430291337578411 0.1181998037813389 0 0.24680236178082729 0.10780736320091069 0 0.24819657032849199 0.087805226663106861 0 0.26787267147801469 0.091662729366291718 0 0.24680236178082729 0.10780736320091069 0 0.26787267147801469 0.091662729366291718 0 0.24680236178082729 0.10780736320091069 0 0.26787267147801469 0.091662729366291718 0 0.27430291337578411 0.1181998037813389 0 0.24269133559777911 0.13137959778602609 0 0.24680236178082729 0.10780736320091069 0 0.26056485633468729 0.13235628504639149 0 0.24680236178082729 0.10780736320091069 0 0.27430291337578411 0.1181998037813389 0 0.26056485633468729 0.13235628504639149 0 0.2497719483883557 0.145866114883938 0 0.24269133559777911 0.13137959778602609 0 0.26056485633468729 0.13235628504639149 0 0.26056485633468729 0.13235628504639149 0 0.27901146735326721 0.1390546755683659 0 0.26422352032783991 0.1490383368624954 0 0.27430291337578411 0.1181998037813389 0 0.26056485633468729 0.13235628504639149 0 0.27901146735326721 0.1390546755683659 0 0.27901146735326721 0.1390546755683659 0 0.27527848219122669 0.15099862393651259 0 0.28500266487722131 0.15661068044931589 0 0.27527848219122669 0.15099862393651259 0 0.2789947610076961 0.1592835577089243 0 0.28500266487722131 0.15661068044931589 0 0.27901146735326721 0.1390546755683659 0 0.27527848219122669 0.15099862393651259 0 0.26422352032783991 0.1490383368624954 0 0.27527848219122669 0.15099862393651259 0 0.26422352032783991 0.1490383368624954 0 0.2716580221409059 0.16080063099670711 0 0.2497719483883557 0.145866114883938 0 0.26422352032783991 0.1490383368624954 0 0.25986157766168821 0.1587798564099222 0 0.2497719483883557 0.145866114883938 0 0.26056485633468729 0.13235628504639149 0 0.26422352032783991 0.1490383368624954 0 0.26422352032783991 0.1490383368624954 0 0.25986157766168821 0.1587798564099222 0 0.2716580221409059 0.16080063099670711 0 0.24408795070403941 0.15818558079310291 0 0.2497719483883557 0.145866114883938 0 0.25986157766168821 0.1587798564099222 0 0.24408795070403941 0.15818558079310291 0 0.26097345170397829 0.17091412918051541 0 0.24408795070403941 0.15818558079310291 0 0.26097345170397829 0.17091412918051541 0 0.25887253026733148 0.1719551306483465 0 0.24408795070403941 0.15818558079310291 0 0.26097345170397829 0.17091412918051541 0 0.25986157766168821 0.1587798564099222 0 0.26097345170397829 0.17091412918051541 0 0.25986157766168821 0.1587798564099222 0 0.26806771885575748 0.1649122704990604 0 0.25075303062354087 0.18101709102735691 0 0.25865581748313282 0.18351022266873501 0 0.25471357890003588 0.1899694505898043 0 0.25075303062354087 0.18101709102735691 0 0.26026460097189791 0.17719743362907561 0 0.25865581748313282 0.18351022266873501 0 0.25075303062354087 0.18101709102735691 0 0.25887253026733148 0.1719551306483465 0 0.26026460097189791 0.17719743362907561 0 0.25887253026733148 0.1719551306483465 0 0.26026460097189791 0.17719743362907561 0 0.2673259118125218 0.17580445469214681 0 0.26026460097189791 0.17719743362907561 0 0.2634754929596112 0.18161841761735401 0 0.2673259118125218 0.17580445469214681 0 0.25865581748313282 0.18351022266873501 0 0.25471357890003588 0.1899694505898043 0 0.26407238396057747 0.1877487204800842 0 0.26026460097189791 0.17719743362907561 0 0.25865581748313282 0.18351022266873501 0 0.2634754929596112 0.18161841761735401 0 0.25865581748313282 0.18351022266873501 0 0.2634754929596112 0.18161841761735401 0 0.26407238396057747 0.1877487204800842 0 0.2673259118125218 0.17580445469214681 0 0.27428229251050851 0.176551687178994 0 0.2840398748214305 0.1687242954531615 0 0.25887253026733148 0.1719551306483465 0 0.2673259118125218 0.17580445469214681 0 0.2840398748214305 0.1687242954531615 0 0.26936028369614778 0.18470796762070429 0 0.27500189540401432 0.18265520523474821 0 0.27253298742491039 0.19093473212174869 0 0.2634754929596112 0.18161841761735401 0 0.26936028369614778 0.18470796762070429 0 0.26407238396057747 0.1877487204800842 0 0.2634754929596112 0.18161841761735401 0 0.26936028369614778 0.18470796762070429 0 0.26927587749269521 0.18012596370736969 0 0.26936028369614778 0.18470796762070429 0 0.26927587749269521 0.18012596370736969 0 0.27500189540401432 0.18265520523474821 0 0.26927587749269521 0.18012596370736969 0 0.27428229251050851 0.176551687178994 0 0.27500189540401432 0.18265520523474821 0 0.26927587749269521 0.18012596370736969 0 0.2673259118125218 0.17580445469214681 0 0.27428229251050851 0.176551687178994 0 0.2634754929596112 0.18161841761735401 0 0.26927587749269521 0.18012596370736969 0 0.2673259118125218 0.17580445469214681 0 0.2800252149496254 0.17778638735428071 0 0.27428229251050851 0.176551687178994 0 0.2840398748214305 0.1687242954531615 0 0.2800252149496254 0.17778638735428071 0 0.27428229251050851 0.176551687178994 0 0.27500189540401432 0.18265520523474821 0 0.2800252149496254 0.17778638735428071 0 0.27500189540401432 0.18265520523474821 0 0.28087292718286072 0.18280343823204909 0 0.27500189540401432 0.18265520523474821 0 0.28087292718286072 0.18280343823204909 0 0.2792495355715589 0.1890943347616876 0 0.26097345170397829 0.17091412918051541 0 0.26806771885575748 0.1649122704990604 0 0.2840398748214305 0.1687242954531615 0 0.25887253026733148 0.1719551306483465 0 0.2840398748214305 0.1687242954531615 0 0.26097345170397829 0.17091412918051541 0 0.25887253026733148 0.1719551306483465 0 0.2840398748214305 0.1687242954531615 0 0.2716580221409059 0.16080063099670711 0 0.26806771885575748 0.1649122704990604 0 0.2840398748214305 0.1687242954531615 0 0.25986157766168821 0.1587798564099222 0 0.2716580221409059 0.16080063099670711 0 0.26806771885575748 0.1649122704990604 0 0.2716580221409059 0.16080063099670711 0 0.2789947610076961 0.1592835577089243 0 0.2840398748214305 0.1687242954531615 0 0.27527848219122669 0.15099862393651259 0 0.2716580221409059 0.16080063099670711 0 0.2789947610076961 0.1592835577089243 0 0.2789947610076961 0.1592835577089243 0 0.28500266487722131 0.15661068044931589 0 0.2840398748214305 0.1687242954531615 0 0.2840398748214305 0.1687242954531615 0 0.30920721937552947 0.16549346025797651 0 0.2840398748214305 0.1687242954531615 0 0.29517239775881449 0.17684511710201109 0 0.30920721937552947 0.16549346025797651 0 0.28500266487722131 0.15661068044931589 0 0.2840398748214305 0.1687242954531615 0 0.29928104890507118 0.1542173814913422 0 0.28087292718286072 0.18280343823204909 0 0.28601626503767702 0.17870595268637871 0 0.28475681282311288 0.1878168441767136 0 0.28601626503767702 0.17870595268637871 0 0.29027263954460247 0.18497173312047219 0 0.28475681282311288 0.1878168441767136 0 0.28087292718286072 0.18280343823204909 0 0.2792495355715589 0.1890943347616876 0 0.28475681282311288 0.1878168441767136 0 0.2800252149496254 0.17778638735428071 0 0.28087292718286072 0.18280343823204909 0 0.28601626503767702 0.17870595268637871 0 0.2800252149496254 0.17778638735428071 0 0.2840398748214305 0.1687242954531615 0 0.28601626503767702 0.17870595268637871 0 0.2840398748214305 0.1687242954531615 0 0.28601626503767702 0.17870595268637871 0 0.29517239775881449 0.17684511710201109 0 0.29517239775881449 0.17684511710201109 0 0.29660781122391278 0.18303730115675829 0 0.29027263954460247 0.18497173312047219 0 0.28601626503767702 0.17870595268637871 0 0.29517239775881449 0.17684511710201109 0 0.29027263954460247 0.18497173312047219 0 0.29660781122391278 0.18303730115675829 0 0.29027263954460247 0.18497173312047219 0 0.29459352182595022 0.18859049387674401 0 0.29517239775881449 0.17684511710201109 0 0.30526640402263089 0.18113709164010131 0 0.30920721937552947 0.16549346025797651 0 0.30526640402263089 0.18113709164010131 0 0.30920721937552947 0.16549346025797651 0 0.31939733882409649 0.17648179005875159 0 0.29517239775881449 0.17684511710201109 0 0.29660781122391278 0.18303730115675829 0 0.30526640402263089 0.18113709164010131 0 0.300003311814518 0.18688894151176991 0 0.30526640402263089 0.18113709164010131 0 0.30320960047579287 0.18965006997741671 0 0.29660781122391278 0.18303730115675829 0 0.300003311814518 0.18688894151176991 0 0.30526640402263089 0.18113709164010131 0 0.29660781122391278 0.18303730115675829 0 0.300003311814518 0.18688894151176991 0 0.29459352182595022 0.18859049387674401 0 0.30526640402263089 0.18113709164010131 0 0.30320960047579287 0.18965006997741671 0 0.30699029836191022 0.18852932130376901 0 0.30526640402263089 0.18113709164010131 0 0.30699029836191022 0.18852932130376901 0 0.3130308910177686 0.18684414348819439 0 0.2840398748214305 0.1687242954531615 0 0.30920721937552947 0.16549346025797651 0 0.29928104890507118 0.1542173814913422 0 0.30920721937552947 0.16549346025797651 0 0.29928104890507118 0.1542173814913422 0 0.31660480719000028 0.15141558151091039 0 0.29928104890507118 0.1542173814913422 0 0.29870776948379418 0.13477939382583459 0 0.31660480719000028 0.15141558151091039 0 0.27430291337578411 0.1181998037813389 0 0.27901146735326721 0.1390546755683659 0 0.29870776948379418 0.13477939382583459 0 0.28500266487722131 0.15661068044931589 0 0.29870776948379418 0.13477939382583459 0 0.28500266487722131 0.15661068044931589 0 0.29928104890507118 0.1542173814913422 0 0.29870776948379418 0.13477939382583459 0 0.27901146735326721 0.1390546755683659 0 0.28500266487722131 0.15661068044931589 0 0.29870776948379418 0.13477939382583459 0 0.28278347261867692 0.25884443671873769 0 0.26912176461869219 0.24690757237928929 0 0.28503218327263141 0.23946629581162221 0 0.26912176461869219 0.24690757237928929 0 0.26872585598916732 0.23300125379871489 0 0.28503218327263141 0.23946629581162221 0 0.26912176461869219 0.24690757237928929 0 0.25530153693490393 0.2469867472089167 0 0.26872585598916732 0.23300125379871489 0 0.23975313719016039 0.24094104287280149 0 0.25530153693490393 0.2469867472089167 0 0.25615816462987429 0.2346886777627154 0 0.25530153693490393 0.2469867472089167 0 0.25615816462987429 0.2346886777627154 0 0.26872585598916732 0.23300125379871489 0 0.25530153693490393 0.2469867472089167 0 0.26872585598916732 0.23300125379871489 0 0.25615816462987429 0.2346886777627154 0 0.25880726040974689 0.2206572208500871 0 0.26872585598916732 0.23300125379871489 0 0.24817913602054109 0.22671455816346611 0 0.25615816462987429 0.2346886777627154 0 0.25880726040974689 0.2206572208500871 0 0.2440714161500688 0.21658378946281839 0 0.24817913602054109 0.22671455816346611 0 0.25880726040974689 0.2206572208500871 0 0.25880726040974689 0.2206572208500871 0 0.26872585598916732 0.23300125379871489 0 0.26764224605308362 0.21804135528154911 0 0.26872585598916732 0.23300125379871489 0 0.28215017504342982 0.21901576038851209 0 0.28503218327263141 0.23946629581162221 0 0.26872585598916732 0.23300125379871489 0 0.27536518476494382 0.2164996617461612 0 0.28215017504342982 0.21901576038851209 0 0.26872585598916732 0.23300125379871489 0 0.27536518476494382 0.2164996617461612 0 0.26764224605308362 0.21804135528154911 0 0.26872585598916732 0.23300125379871489 0 0.28215017504342982 0.21901576038851209 0 0.27536518476494382 0.2164996617461612 0 0.2808727211082625 0.21004496244868731 0 0.27141893219397112 0.2087238272097415 0 0.27536518476494382 0.2164996617461612 0 0.2808727211082625 0.21004496244868731 0 0.28215017504342982 0.21901576038851209 0 0.27536518476494382 0.2164996617461612 0 0.28215017504342982 0.21901576038851209 0 0.2808727211082625 0.21004496244868731 0 0.27712147809756882 0.20396038662813079 0 0.28444759951916182 0.20137653352581811 0 0.2808727211082625 0.21004496244868731 0 0.27712147809756882 0.20396038662813079 0 0.27141893219397112 0.2087238272097415 0 0.27712147809756882 0.20396038662813079 0 0.27141893219397112 0.2087238272097415 0 0.27116891415155808 0.19957315232089759 0 0.27141893219397112 0.2087238272097415 0 0.26363366955756679 0.20390584236505249 0 0.27116891415155808 0.19957315232089759 0 0.27141893219397112 0.2087238272097415 0 0.26351466637981968 0.2119511621260356 0 0.26363366955756679 0.20390584236505249 0 0.27536518476494382 0.2164996617461612 0 0.27141893219397112 0.2087238272097415 0 0.26764224605308362 0.21804135528154911 0 0.27141893219397112 0.2087238272097415 0 0.26764224605308362 0.21804135528154911 0 0.26351466637981968 0.2119511621260356 0 0.25880726040974689 0.2206572208500871 0 0.26764224605308362 0.21804135528154911 0 0.26351466637981968 0.2119511621260356 0 0.25880726040974689 0.2206572208500871 0 0.26351466637981968 0.2119511621260356 0 0.25531256262919139 0.2096802635697369 0 0.2440714161500688 0.21658378946281839 0 0.25880726040974689 0.2206572208500871 0 0.25531256262919139 0.2096802635697369 0 0.24499284631802409 0.20546513931468269 0 0.25531256262919139 0.2096802635697369 0 0.25621476709212559 0.19942681763336759 0 0.25531256262919139 0.2096802635697369 0 0.26363366955756679 0.20390584236505249 0 0.25621476709212559 0.19942681763336759 0 0.26351466637981968 0.2119511621260356 0 0.25531256262919139 0.2096802635697369 0 0.26363366955756679 0.20390584236505249 0 0.26363366955756679 0.20390584236505249 0 0.25621476709212559 0.19942681763336759 0 0.26392895186116588 0.19510225560234451 0 0.2480553895173794 0.1960497071960107 0 0.25621476709212559 0.19942681763336759 0 0.25471357890003588 0.1899694505898043 0 0.25621476709212559 0.19942681763336759 0 0.25471357890003588 0.1899694505898043 0 0.26392895186116588 0.19510225560234451 0 0.25471357890003588 0.1899694505898043 0 0.26392895186116588 0.19510225560234451 0 0.26407238396057747 0.1877487204800842 0 0.26392895186116588 0.19510225560234451 0 0.26407238396057747 0.1877487204800842 0 0.27253298742491039 0.19093473212174869 0 0.26936028369614778 0.18470796762070429 0 0.26407238396057747 0.1877487204800842 0 0.27253298742491039 0.19093473212174869 0 0.26392895186116588 0.19510225560234451 0 0.27253298742491039 0.19093473212174869 0 0.27116891415155808 0.19957315232089759 0 0.26363366955756679 0.20390584236505249 0 0.26392895186116588 0.19510225560234451 0 0.27116891415155808 0.19957315232089759 0 0.27253298742491039 0.19093473212174869 0 0.27116891415155808 0.19957315232089759 0 0.27818135153451512 0.19654204621121529 0 0.27712147809756882 0.20396038662813079 0 0.27116891415155808 0.19957315232089759 0 0.27818135153451512 0.19654204621121529 0 0.27712147809756882 0.20396038662813079 0 0.27818135153451512 0.19654204621121529 0 0.28444759951916182 0.20137653352581811 0 0.27818135153451512 0.19654204621121529 0 0.2792495355715589 0.1890943347616876 0 0.28456759444233271 0.19431313790900909 0 0.27500189540401432 0.18265520523474821 0 0.27253298742491039 0.19093473212174869 0 0.2792495355715589 0.1890943347616876 0 0.27253298742491039 0.19093473212174869 0 0.27818135153451512 0.19654204621121529 0 0.2792495355715589 0.1890943347616876 0 0.28456759444233271 0.19431313790900909 0 0.28971258925330878 0.19748965626004769 0 0.28985594047030327 0.19135490841885289 0 0.28475681282311288 0.1878168441767136 0 0.28456759444233271 0.19431313790900909 0 0.28985594047030327 0.19135490841885289 0 0.29027263954460247 0.18497173312047219 0 0.28475681282311288 0.1878168441767136 0 0.28985594047030327 0.19135490841885289 0 0.2792495355715589 0.1890943347616876 0 0.28475681282311288 0.1878168441767136 0 0.28456759444233271 0.19431313790900909 0 0.27818135153451512 0.19654204621121529 0 0.28456759444233271 0.19431313790900909 0 0.28444759951916182 0.20137653352581811 0 0.28456759444233271 0.19431313790900909 0 0.28444759951916182 0.20137653352581811 0 0.28971258925330878 0.19748965626004769 0 0.28444759951916182 0.20137653352581811 0 0.28971258925330878 0.19748965626004769 0 0.29476598073502502 0.20587257847731291 0 0.29492583109972159 0.19453112296924549 0 0.30081197545075172 0.19270618246351809 0 0.29476598073502502 0.20587257847731291 0 0.28971258925330878 0.19748965626004769 0 0.29492583109972159 0.19453112296924549 0 0.29476598073502502 0.20587257847731291 0 0.29492583109972159 0.19453112296924549 0 0.28985594047030327 0.19135490841885289 0 0.29459352182595022 0.18859049387674401 0 0.29492583109972159 0.19453112296924549 0 0.29459352182595022 0.18859049387674401 0 0.30081197545075172 0.19270618246351809 0 0.28971258925330878 0.19748965626004769 0 0.29492583109972159 0.19453112296924549 0 0.28985594047030327 0.19135490841885289 0 0.29027263954460247 0.18497173312047219 0 0.28985594047030327 0.19135490841885289 0 0.29459352182595022 0.18859049387674401 0 0.300003311814518 0.18688894151176991 0 0.29459352182595022 0.18859049387674401 0 0.30081197545075172 0.19270618246351809 0 0.3073817864266184 0.1927293965661119 0 0.29476598073502502 0.20587257847731291 0 0.31254161374659339 0.20966234570515721 0 0.30081197545075172 0.19270618246351809 0 0.30320960047579287 0.18965006997741671 0 0.3073817864266184 0.1927293965661119 0 0.300003311814518 0.18688894151176991 0 0.30081197545075172 0.19270618246351809 0 0.30320960047579287 0.18965006997741671 0 0.30320960047579287 0.18965006997741671 0 0.30699029836191022 0.18852932130376901 0 0.3073817864266184 0.1927293965661119 0 0.3073817864266184 0.1927293965661119 0 0.3130308910177686 0.18684414348819439 0 0.30699029836191022 0.18852932130376901 0 0.3073817864266184 0.1927293965661119 0 0.3130308910177686 0.18684414348819439 0 0.30081197545075172 0.19270618246351809 0 0.3073817864266184 0.1927293965661119 0 0.29476598073502502 0.20587257847731291 0 0.3073817864266184 0.1927293965661119 0 0.29476598073502502 0.20587257847731291 0 0.29476598073502502 0.20587257847731291 0 0.30414242585639573 0.227171213844088 0 0.31254161374659339 0.20966234570515721 0 0.29476598073502502 0.20587257847731291 0 0.28215017504342982 0.21901576038851209 0 0.30414242585639573 0.227171213844088 0 0.2808727211082625 0.21004496244868731 0 0.28444759951916182 0.20137653352581811 0 0.29476598073502502 0.20587257847731291 0 0.2808727211082625 0.21004496244868731 0 0.29476598073502502 0.20587257847731291 0 0.28215017504342982 0.21901576038851209 0 0.29476598073502502 0.20587257847731291 0 0.28215017504342982 0.21901576038851209 0 0.28215017504342982 0.21901576038851209 0 0.30414242585639573 0.227171213844088 0 0.28215017504342982 0.21901576038851209 0 0.30414242585639573 0.227171213844088 0 0.28503218327263141 0.23946629581162221 0 0.30146467536468602 0.25021594144589671 0 0.30414242585639573 0.227171213844088 0 0.31538450869092283 0.24427669968039431 0 0.30146467536468602 0.25021594144589671 0 0.30414242585639573 0.227171213844088 0 0.28503218327263141 0.23946629581162221 0 0.28278347261867692 0.25884443671873769 0 0.30146467536468602 0.25021594144589671 0 0.28503218327263141 0.23946629581162221 0 0.33759176045048761 0.24838750703047241 0 0.32613467666936141 0.23532666729966439 0 0.3481269274823271 0.24348212075524081 0 0.32613467666936141 0.23532666729966439 0 0.33717625971158022 0.22934095901004531 0 0.3481269274823271 0.24348212075524081 0 0.32613467666936141 0.23532666729966439 0 0.3481269274823271 0.24348212075524081 0 0.33759176045048761 0.24838750703047241 0 0.32593120003520498 0.24928429442965511 0 0.32613467666936141 0.23532666729966439 0 0.30414242585639573 0.227171213844088 0 0.31538450869092283 0.24427669968039431 0 0.32613467666936141 0.23532666729966439 0 0.32593120003520498 0.24928429442965511 0 0.31538450869092283 0.24427669968039431 0 0.32613467666936141 0.23532666729966439 0 0.30414242585639573 0.227171213844088 0 0.32613467666936141 0.23532666729966439 0 0.30414242585639573 0.227171213844088 0 0.32613467666936141 0.23532666729966439 0 0.32503165300345888 0.21931425969319229 0 0.32613467666936141 0.23532666729966439 0 0.32503165300345888 0.21931425969319229 0 0.33717625971158022 0.22934095901004531 0 0.32503165300345888 0.21931425969319229 0 0.33717625971158022 0.22934095901004531 0 0.33954264197860828 0.2154730139616009 0 0.33717625971158022 0.22934095901004531 0 0.33954264197860828 0.2154730139616009 0 0.34827913430880991 0.22233123275844491 0 0.33078871294022388 0.20059972451121311 0 0.35419563945382943 0.2084700524563147 0 0.33954264197860828 0.2154730139616009 0 0.33078871294022388 0.20059972451121311 0 0.35419563945382943 0.2084700524563147 0 0.32503165300345888 0.21931425969319229 0 0.33954264197860828 0.2154730139616009 0 0.33078871294022388 0.20059972451121311 0 0.30414242585639573 0.227171213844088 0 0.32503165300345888 0.21931425969319229 0 0.31254161374659339 0.20966234570515721 0 0.32503165300345888 0.21931425969319229 0 0.31254161374659339 0.20966234570515721 0 0.33078871294022388 0.20059972451121311 0 0.3073817864266184 0.1927293965661119 0 0.32128607362698453 0.18877983073418719 0 0.33078871294022388 0.20059972451121311 0 0.3073817864266184 0.1927293965661119 0 0.33078871294022388 0.20059972451121311 0 0.3073817864266184 0.1927293965661119 0 0.31254161374659339 0.20966234570515721 0 0.33078871294022388 0.20059972451121311 0 0.32128607362698453 0.18877983073418719 0 0.33078871294022388 0.20059972451121311 0 0.33088287770729852 0.18213810627092589 0 0.3073817864266184 0.1927293965661119 0 0.32128607362698453 0.18877983073418719 0 0.3130308910177686 0.18684414348819439 0 0.33078871294022388 0.20059972451121311 0 0.33088287770729852 0.18213810627092589 0 0.34986965791521912 0.18549410654511631 0 0.33078871294022388 0.20059972451121311 0 0.35419563945382943 0.2084700524563147 0 0.34986965791521912 0.18549410654511631 0 0.37072231173173847 0.19290053099416751 0 0.35419563945382943 0.2084700524563147 0 0.34986965791521912 0.18549410654511631 0 0.35419563945382943 0.2084700524563147 0 0.37760256596743469 0.21634038040141701 0 0.37072231173173847 0.19290053099416751 0 0.35419563945382943 0.2084700524563147 0 0.37760256596743469 0.21634038040141701 0 0.35419563945382943 0.2084700524563147 0 0.37133869010193638 0.2250262086389043 0 0.37760256596743469 0.21634038040141701 0 0.33954264197860828 0.2154730139616009 0 0.35419563945382943 0.2084700524563147 0 0.34827913430880991 0.22233123275844491 0 0.35419563945382943 0.2084700524563147 0 0.34827913430880991 0.22233123275844491 0 0.35853609156533878 0.22775480903011791 0 0.33717625971158022 0.22934095901004531 0 0.35194503883469302 0.23061732933414561 0 0.3536477190034365 0.24048926661043121 0 0.33717625971158022 0.22934095901004531 0 0.34827913430880991 0.22233123275844491 0 0.35194503883469302 0.23061732933414561 0 0.34827913430880991 0.22233123275844491 0 0.35194503883469302 0.23061732933414561 0 0.35853609156533878 0.22775480903011791 0 0.35194503883469302 0.23061732933414561 0 0.35853609156533878 0.22775480903011791 0 0.35882085756933629 0.235043498626271 0 0.35419563945382943 0.2084700524563147 0 0.35853609156533878 0.22775480903011791 0 0.37133869010193638 0.2250262086389043 0 0.37133869010193638 0.2250262086389043 0 0.37760256596743469 0.21634038040141701 0 0.37133869010193638 0.2250262086389043 0 0.3672250261609537 0.23817131878495701 0 0.37668450458748759 0.23241512326001951 0 0.35853609156533878 0.22775480903011791 0 0.37133869010193638 0.2250262086389043 0 0.3672250261609537 0.23817131878495701 0 0.35853609156533878 0.22775480903011791 0 0.3672250261609537 0.23817131878495701 0 0.35882085756933629 0.235043498626271 0 0.3672250261609537 0.23817131878495701 0 0.3536477190034365 0.24048926661043121 0 0.35882085756933629 0.235043498626271 0 0.37011917829529278 0.25163757421081712 0 0.3672250261609537 0.23817131878495701 0 0.3536477190034365 0.24048926661043121 0 0.37011917829529278 0.25163757421081712 0 0.3536477190034365 0.24048926661043121 0 0.3672250261609537 0.23817131878495701 0 0.37748376068463863 0.2399051906974751 0 0.37668450458748759 0.23241512326001951 0 0.37011917829529278 0.25163757421081712 0 0.3672250261609537 0.23817131878495701 0 0.37748376068463863 0.2399051906974751 0 0.37011917829529278 0.25163757421081712 0 0.3481269274823271 0.24348212075524081 0 0.33717625971158022 0.22934095901004531 0 0.3536477190034365 0.24048926661043121 0 0.37011917829529278 0.25163757421081712 0 0.35512444659002668 0.25480827031026182 0 0.3481269274823271 0.24348212075524081 0 0.37011917829529278 0.25163757421081712 0 0.3536477190034365 0.24048926661043121 0 0.3481269274823271 0.24348212075524081 0 0.33717625971158022 0.22934095901004531 0 0.3536477190034365 0.24048926661043121 0 0.3481269274823271 0.24348212075524081 0 0.35194503883469302 0.23061732933414561 0 0.3536477190034365 0.24048926661043121 0 0.35882085756933629 0.235043498626271 0 0.35512444659002668 0.25480827031026182 0 0.3462408118975176 0.25091156327815561 0 0.3481269274823271 0.24348212075524081 0 0.3462408118975176 0.25091156327815561 0 0.33759176045048761 0.24838750703047241 0 0.3481269274823271 0.24348212075524081 0 0.34351897448706359 0.14818834851316209 0 0.32755549012633473 0.13682458378493681 0 0.3343745639296285 0.16226262506279149 0 0.33662920649515071 0.11518814068880349 0 0.32755549012633473 0.13682458378493681 0 0.35064023520833881 0.1329898896907023 0 0.34351897448706359 0.14818834851316209 0 0.32755549012633473 0.13682458378493681 0 0.35064023520833881 0.1329898896907023 0 0.31241287409036711 0.11294810720235331 0 0.29870776948379418 0.13477939382583459 0 0.32755549012633473 0.13682458378493681 0 0.29870776948379418 0.13477939382583459 0 0.32755549012633473 0.13682458378493681 0 0.31660480719000028 0.15141558151091039 0 0.32755549012633473 0.13682458378493681 0 0.31660480719000028 0.15141558151091039 0 0.3343745639296285 0.16226262506279149 0 0.30920721937552947 0.16549346025797651 0 0.3343745639296285 0.16226262506279149 0 0.30920721937552947 0.16549346025797651 0 0.31939733882409649 0.17648179005875159 0 0.3343745639296285 0.16226262506279149 0 0.30920721937552947 0.16549346025797651 0 0.31660480719000028 0.15141558151091039 0 0.3343745639296285 0.16226262506279149 0 0.32128607362698453 0.18877983073418719 0 0.3130308910177686 0.18684414348819439 0 0.31939733882409649 0.17648179005875159 0 0.30526640402263089 0.18113709164010131 0 0.3130308910177686 0.18684414348819439 0 0.31939733882409649 0.17648179005875159 0 0.32128607362698453 0.18877983073418719 0 0.31939733882409649 0.17648179005875159 0 0.33088287770729852 0.18213810627092589 0 0.31939733882409649 0.17648179005875159 0 0.33088287770729852 0.18213810627092589 0 0.3343745639296285 0.16226262506279149 0 0.33088287770729852 0.18213810627092589 0 0.3343745639296285 0.16226262506279149 0 0.35138225699938591 0.16664522676749841 0 0.34351897448706359 0.14818834851316209 0 0.3343745639296285 0.16226262506279149 0 0.35138225699938591 0.16664522676749841 0 0.35138225699938591 0.16664522676749841 0 0.34986965791521912 0.18549410654511631 0 0.36857331342268779 0.17076909798226139 0 0.33088287770729852 0.18213810627092589 0 0.35138225699938591 0.16664522676749841 0 0.34986965791521912 0.18549410654511631 0 0.37072231173173847 0.19290053099416751 0 0.36857331342268779 0.17076909798226139 0 0.38537481846649418 0.17967143466162561 0 0.37072231173173847 0.19290053099416751 0 0.34986965791521912 0.18549410654511631 0 0.36857331342268779 0.17076909798226139 0 0.35138225699938591 0.16664522676749841 0 0.36857331342268779 0.17076909798226139 0 0.36000380042912422 0.15134366442418479 0 0.36857331342268779 0.17076909798226139 0 0.36000380042912422 0.15134366442418479 0 0.37641002572566851 0.15121705522149001 0 0.36000380042912422 0.15134366442418479 0 0.37012590845665888 0.13485257920775379 0 0.37641002572566851 0.15121705522149001 0 0.34351897448706359 0.14818834851316209 0 0.35138225699938591 0.16664522676749841 0 0.36000380042912422 0.15134366442418479 0 0.34351897448706359 0.14818834851316209 0 0.36000380042912422 0.15134366442418479 0 0.35064023520833881 0.1329898896907023 0 0.35833939708777879 0.11610625370692509 0 0.35064023520833881 0.1329898896907023 0 0.37012590845665888 0.13485257920775379 0 0.36000380042912422 0.15134366442418479 0 0.35064023520833881 0.1329898896907023 0 0.37012590845665888 0.13485257920775379 0 0.37120910800260049 0.12031008916013471 0 0.37012590845665888 0.13485257920775379 0 0.38097448849440718 0.12618490537828991 0 0.37012590845665888 0.13485257920775379 0 0.38097448849440718 0.12618490537828991 0 0.39170502547058089 0.1436168606717565 0 0.38097448849440718 0.12618490537828991 0 0.39319634884953109 0.1263148887895835 0 0.39170502547058089 0.1436168606717565 0 0.39170502547058089 0.1436168606717565 0 0.4077230318570077 0.13091200147065901 0 0.39319634884953109 0.1263148887895835 0 0.39170502547058089 0.1436168606717565 0 0.4077230318570077 0.13091200147065901 0 0.40488689539465011 0.15422621495652561 0 0.39170502547058089 0.1436168606717565 0 0.4077230318570077 0.13091200147065901 0 0.40488689539465011 0.15422621495652561 0 0.39170502547058089 0.1436168606717565 0 0.38841392339279701 0.16296327579530001 0 0.39170502547058089 0.1436168606717565 0 0.37641002572566851 0.15121705522149001 0 0.38841392339279701 0.16296327579530001 0 0.37012590845665888 0.13485257920775379 0 0.39170502547058089 0.1436168606717565 0 0.37641002572566851 0.15121705522149001 0 0.36857331342268779 0.17076909798226139 0 0.37641002572566851 0.15121705522149001 0 0.38841392339279701 0.16296327579530001 0 0.36857331342268779 0.17076909798226139 0 0.38841392339279701 0.16296327579530001 0 0.38537481846649418 0.17967143466162561 0 0.38841392339279701 0.16296327579530001 0 0.38537481846649418 0.17967143466162561 0 0.40690884053435289 0.17570271889045999 0 0.40690884053435289 0.17570271889045999 0 0.39225570325089459 0.19602154964593901 0 0.38537481846649418 0.17967143466162561 0 0.40690884053435289 0.17570271889045999 0 0.39225570325089459 0.19602154964593901 0 0.40488689539465011 0.15422621495652561 0 0.38841392339279701 0.16296327579530001 0 0.40690884053435289 0.17570271889045999 0 0.40488689539465011 0.15422621495652561 0 0.40690884053435289 0.17570271889045999 0 0.42156197781781107 0.15538388813498111 0 0.40690884053435289 0.17570271889045999 0 0.42493541969541782 0.18133769568643429 0 0.42156197781781107 0.15538388813498111 0 0.40690884053435289 0.17570271889045999 0 0.42156197781781107 0.15538388813498111 0 0.40690884053435289 0.17570271889045999 0 0.42493541969541782 0.18133769568643429 0 0.41502437241638512 0.1924723059160271 0 0.42493541969541782 0.18133769568643429 0 0.42156197781781107 0.15538388813498111 0 0.44084161017220969 0.15817193337312621 0 0.42493541969541782 0.18133769568643429 0 0.44084161017220969 0.15817193337312621 0 0.43621511510126942 0.13506505737950211 0 0.42156197781781107 0.15538388813498111 0 0.43621511510126942 0.13506505737950211 0 0.42101336158258063 0.13954520082848701 0 0.42156197781781107 0.15538388813498111 0 0.43621511510126942 0.13506505737950211 0 0.42156197781781107 0.15538388813498111 0 0.44084161017220969 0.15817193337312621 0 0.43621511510126942 0.13506505737950211 0 0.42627704181567833 0.12937469430401449 0 0.44069548114402168 0.1227857945594112 0 0.43621511510126942 0.13506505737950211 0 0.42627704181567833 0.12937469430401449 0 0.42101336158258063 0.13954520082848701 0 0.42627704181567833 0.12937469430401449 0 0.4077230318570077 0.13091200147065901 0 0.42374103824343479 0.1182071422695618 0 0.42627704181567833 0.12937469430401449 0 0.42101336158258063 0.13954520082848701 0 0.4077230318570077 0.13091200147065901 0 0.40488689539465011 0.15422621495652561 0 0.42101336158258063 0.13954520082848701 0 0.42156197781781107 0.15538388813498111 0 0.40488689539465011 0.15422621495652561 0 0.42101336158258063 0.13954520082848701 0 0.4077230318570077 0.13091200147065901 0 0.39965183542691551 0.2483911979605406 0 0.39557770754367499 0.2390145324117304 0 0.40897142508859152 0.24321143725331429 0 0.4100966285239741 0.25413930845292282 0 0.39965183542691551 0.2483911979605406 0 0.40897142508859152 0.24321143725331429 0 0.39557770754367499 0.2390145324117304 0 0.40618655870921527 0.2331292149138649 0 0.40897142508859152 0.24321143725331429 0 0.39965183542691551 0.2483911979605406 0 0.39557770754367499 0.2390145324117304 0 0.39380286487079619 0.24613539982607599 0 0.39139925032212047 0.25129699245501858 0 0.39965183542691551 0.2483911979605406 0 0.39380286487079619 0.24613539982607599 0 0.39557770754367499 0.2390145324117304 0 0.39380286487079619 0.24613539982607599 0 0.38757937993906599 0.24538219527596611 0 0.39139925032212047 0.25129699245501858 0 0.39380286487079619 0.24613539982607599 0 0.38757937993906599 0.24538219527596611 0 0.39139925032212047 0.25129699245501858 0 0.38366519138630029 0.25066367921554511 0 0.38757937993906599 0.24538219527596611 0 0.38757937993906599 0.24538219527596611 0 0.38076365617184188 0.24535928683361929 0 0.38513972782380118 0.23953634101504709 0 0.38366519138630029 0.25066367921554511 0 0.38757937993906599 0.24538219527596611 0 0.38076365617184188 0.24535928683361929 0 0.37011917829529278 0.25163757421081712 0 0.38366519138630029 0.25066367921554511 0 0.38076365617184188 0.24535928683361929 0 0.37011917829529278 0.25163757421081712 0 0.38076365617184188 0.24535928683361929 0 0.37748376068463863 0.2399051906974751 0 0.37748376068463863 0.2399051906974751 0 0.38669467967037341 0.23268848493032929 0 0.37668450458748759 0.23241512326001951 0 0.38076365617184188 0.24535928683361929 0 0.37748376068463863 0.2399051906974751 0 0.38513972782380118 0.23953634101504709 0 0.37748376068463863 0.2399051906974751 0 0.38513972782380118 0.23953634101504709 0 0.38669467967037341 0.23268848493032929 0 0.39557770754367499 0.2390145324117304 0 0.38757937993906599 0.24538219527596611 0 0.38513972782380118 0.23953634101504709 0 0.39557770754367499 0.2390145324117304 0 0.38513972782380118 0.23953634101504709 0 0.38669467967037341 0.23268848493032929 0 0.37133869010193638 0.2250262086389043 0 0.37668450458748759 0.23241512326001951 0 0.38068036631953578 0.22628441324843129 0 0.38669467967037341 0.23268848493032929 0 0.37668450458748759 0.23241512326001951 0 0.38068036631953578 0.22628441324843129 0 0.37133869010193638 0.2250262086389043 0 0.37812429089710431 0.22119967149871009 0 0.37760256596743469 0.21634038040141701 0 0.37133869010193638 0.2250262086389043 0 0.37812429089710431 0.22119967149871009 0 0.38068036631953578 0.22628441324843129 0 0.37812429089710431 0.22119967149871009 0 0.38068036631953578 0.22628441324843129 0 0.38160870499310778 0.2210007528924734 0 0.37812429089710431 0.22119967149871009 0 0.38160870499310778 0.2210007528924734 0 0.37940211397248419 0.21694545911367111 0 0.38160870499310778 0.2210007528924734 0 0.38822804878330702 0.21957346770908109 0 0.37940211397248419 0.21694545911367111 0 0.38669467967037341 0.23268848493032929 0 0.38068036631953578 0.22628441324843129 0 0.38822804878330702 0.21957346770908109 0 0.38068036631953578 0.22628441324843129 0 0.38160870499310778 0.2210007528924734 0 0.38822804878330702 0.21957346770908109 0 0.38669467967037341 0.23268848493032929 0 0.38822804878330702 0.21957346770908109 0 0.39800287817701763 0.22699710592378719 0 0.38822804878330702 0.21957346770908109 0 0.39800287817701763 0.22699710592378719 0 0.4005851539837692 0.21435216711780289 0 0.39557770754367499 0.2390145324117304 0 0.38669467967037341 0.23268848493032929 0 0.39800287817701763 0.22699710592378719 0 0.39800287817701763 0.22699710592378719 0 0.40618655870921527 0.2331292149138649 0 0.41074512037176603 0.22322476845991479 0 0.39557770754367499 0.2390145324117304 0 0.39800287817701763 0.22699710592378719 0 0.40618655870921527 0.2331292149138649 0 0.39800287817701763 0.22699710592378719 0 0.4005851539837692 0.21435216711780289 0 0.41074512037176603 0.22322476845991479 0 0.38822804878330702 0.21957346770908109 0 0.4005851539837692 0.21435216711780289 0 0.39225570325089459 0.19602154964593901 0 0.4005851539837692 0.21435216711780289 0 0.39225570325089459 0.19602154964593901 0 0.4137651756988997 0.20735052152386249 0 0.38822804878330702 0.21957346770908109 0 0.37940211397248419 0.21694545911367111 0 0.39225570325089459 0.19602154964593901 0 0.37940211397248419 0.21694545911367111 0 0.37760256596743469 0.21634038040141701 0 0.39225570325089459 0.19602154964593901 0 0.37760256596743469 0.21634038040141701 0 0.39225570325089459 0.19602154964593901 0 0.37812429089710431 0.22119967149871009 0 0.37940211397248419 0.21694545911367111 0 0.37760256596743469 0.21634038040141701 0 0.37940211397248419 0.21694545911367111 0 0.37760256596743469 0.21634038040141701 0 0.37072231173173847 0.19290053099416751 0 0.37760256596743469 0.21634038040141701 0 0.39225570325089459 0.19602154964593901 0 0.37072231173173847 0.19290053099416751 0 0.38537481846649418 0.17967143466162561 0 0.39225570325089459 0.19602154964593901 0 0.40690884053435289 0.17570271889045999 0 0.39225570325089459 0.19602154964593901 0 0.41502437241638512 0.1924723059160271 0 0.39225570325089459 0.19602154964593901 0 0.41502437241638512 0.1924723059160271 0 0.4137651756988997 0.20735052152386249 0 0.42493541969541782 0.18133769568643429 0 0.4372567229023599 0.20194904383343981 0 0.44893541768709511 0.1812908034594761 0 0.41502437241638512 0.1924723059160271 0 0.4372567229023599 0.20194904383343981 0 0.4137651756988997 0.20735052152386249 0 0.42493541969541782 0.18133769568643429 0 0.41502437241638512 0.1924723059160271 0 0.4372567229023599 0.20194904383343981 0 0.4372567229023599 0.20194904383343981 0 0.4137651756988997 0.20735052152386249 0 0.42904266622472359 0.22130014402368969 0 0.4137651756988997 0.20735052152386249 0 0.41074512037176603 0.22322476845991479 0 0.42904266622472359 0.22130014402368969 0 0.4005851539837692 0.21435216711780289 0 0.4137651756988997 0.20735052152386249 0 0.41074512037176603 0.22322476845991479 0 0.41074512037176603 0.22322476845991479 0 0.41851056145202692 0.23389625936400099 0 0.42904266622472359 0.22130014402368969 0 0.40618655870921527 0.2331292149138649 0 0.41074512037176603 0.22322476845991479 0 0.41851056145202692 0.23389625936400099 0 0.41851056145202692 0.23389625936400099 0 0.42904266622472359 0.22130014402368969 0 0.43752244361671061 0.24216136226966281 0 0.41851056145202692 0.23389625936400099 0 0.41991785031408768 0.24738075242205379 0 0.43752244361671061 0.24216136226966281 0 0.41851056145202692 0.23389625936400099 0 0.41991785031408768 0.24738075242205379 0 0.40897142508859152 0.24321143725331429 0 0.40618655870921527 0.2331292149138649 0 0.41851056145202692 0.23389625936400099 0 0.40897142508859152 0.24321143725331429 0 0.4100966285239741 0.25413930845292282 0 0.41991785031408768 0.24738075242205379 0 0.40897142508859152 0.24321143725331429 0 0.46725173377110663 0.24760942947930911 0 0.45225422833673329 0.2247792366563745 0 0.48592415648076481 0.2393923229360943 0 0.46725173377110663 0.24760942947930911 0 0.45225422833673329 0.2247792366563745 0 0.46725173377110663 0.24760942947930911 0 0.43752244361671061 0.24216136226966281 0 0.45225422833673329 0.2247792366563745 0 0.42904266622472359 0.22130014402368969 0 0.43752244361671061 0.24216136226966281 0 0.45225422833673329 0.2247792366563745 0 0.45225422833673329 0.2247792366563745 0 0.45741467323166429 0.20091651239233579 0 0.47774491961839188 0.21152484933388499 0 0.4372567229023599 0.20194904383343981 0 0.45225422833673329 0.2247792366563745 0 0.4372567229023599 0.20194904383343981 0 0.42904266622472359 0.22130014402368969 0 0.45225422833673329 0.2247792366563745 0 0.4372567229023599 0.20194904383343981 0 0.45225422833673329 0.2247792366563745 0 0.45741467323166429 0.20091651239233579 0 0.4372567229023599 0.20194904383343981 0 0.45741467323166429 0.20091651239233579 0 0.44893541768709511 0.1812908034594761 0 0.45741467323166429 0.20091651239233579 0 0.44893541768709511 0.1812908034594761 0 0.47088207761374129 0.18503862867850371 0 0.45741467323166429 0.20091651239233579 0 0.47774491961839188 0.21152484933388499 0 0.47088207761374129 0.18503862867850371 0 0.5 0.1950926891778525 0 0.47774491961839188 0.21152484933388499 0 0.47088207761374129 0.18503862867850371 0 0.5 0.1950926891778525 0 0.47774491961839188 0.21152484933388499 0 0.5 0.22462577835001371 0 0.45225422833673329 0.2247792366563745 0 0.47774491961839188 0.21152484933388499 0 0.48592415648076481 0.2393923229360943 0 0.47774491961839188 0.21152484933388499 0 0.5 0.22462577835001371 0 0.48592415648076481 0.2393923229360943 0 0.5 0.25415886752217498 0 0.5 0.22462577835001371 0 0.48592415648076481 0.2393923229360943 0 0.45674780064900172 0.13500617105981799 0 0.4622876204597296 0.16102707898088139 0 0.47925316302526783 0.14146439617168319 0 0.45674780064900172 0.13500617105981799 0 0.44084161017220969 0.15817193337312621 0 0.4622876204597296 0.16102707898088139 0 0.43621511510126942 0.13506505737950211 0 0.45674780064900172 0.13500617105981799 0 0.44069548114402168 0.1227857945594112 0 0.45674780064900172 0.13500617105981799 0 0.44084161017220969 0.15817193337312621 0 0.43621511510126942 0.13506505737950211 0 0.45674780064900172 0.13500617105981799 0 0.44084161017220969 0.15817193337312621 0 0.44084161017220969 0.15817193337312621 0 0.44893541768709511 0.1812908034594761 0 0.4622876204597296 0.16102707898088139 0 0.42493541969541782 0.18133769568643429 0 0.44084161017220969 0.15817193337312621 0 0.44893541768709511 0.1812908034594761 0 0.44893541768709511 0.1812908034594761 0 0.4622876204597296 0.16102707898088139 0 0.47088207761374129 0.18503862867850371 0 0.4622876204597296 0.16102707898088139 0 0.48176485360100318 0.16941243147377069 0 0.47088207761374129 0.18503862867850371 0 0.4622876204597296 0.16102707898088139 0 0.48176485360100318 0.16941243147377069 0 0.47925316302526783 0.14146439617168319 0 0.5 0.1950926891778525 0 0.48176485360100318 0.16941243147377069 0 0.47088207761374129 0.18503862867850371 0 0.5 0.1950926891778525 0 0.48176485360100318 0.16941243147377069 0 0.5 0.16555960000569131 0 0.48176485360100318 0.16941243147377069 0 0.5 0.16555960000569131 0 0.47925316302526783 0.14146439617168319 0 0.5 0.16555960000569131 0 0.47925316302526783 0.14146439617168319 0 0.5 0.13602651083353001 0 0.45674780064900172 0.13500617105981799 0 0.47925316302526783 0.14146439617168319 0 0.47265399112579359 0.1118404087465098 0 0.47925316302526783 0.14146439617168319 0 0.5 0.13602651083353001 0 0.48869155954907267 0.1212599662474494 0 0.48869155954907267 0.1212599662474494 0 0.5 0.1064934216613688 0 0.47265399112579359 0.1118404087465098 0 0.5 0.13602651083353001 0 0.48869155954907267 0.1212599662474494 0 0.5 0.1064934216613688 0 0.5 0.1064934216613688 0 0.47265399112579359 0.1118404087465098 0 0.48856018160258557 0.088674646433201748 0 0.47265399112579359 0.1118404087465098 0 0.48856018160258557 0.088674646433201748 0 0.47159539696428421 0.082652476714937431 0 0.47265399112579359 0.1118404087465098 0 0.48856018160258557 0.088674646433201748 0 0.47925316302526783 0.14146439617168319 0 0.48869155954907267 0.1212599662474494 0 0.47265399112579359 0.1118404087465098 0 0.49999999999999922 0.076960332489207556 0 0.47530712007373938 0.0640660257211281 0 0.49999999999999922 0.076960332489207556 0 0.47530712007373938 0.0640660257211281 0 0.5 0.047897297708203827 0 0.49999999999999922 0.076960332489207556 0 0.48856018160258557 0.088674646433201748 0 0.47530712007373938 0.0640660257211281 0 0.5 0.1064934216613688 0 0.49999999999999922 0.076960332489207556 0 0.48856018160258557 0.088674646433201748 0 0.48856018160258557 0.088674646433201748 0 0.47159539696428421 0.082652476714937431 0 0.47530712007373938 0.0640660257211281 0 0.47159539696428421 0.082652476714937431 0 0.47530712007373938 0.0640660257211281 0 0.45816888630356561 0.071383133335291671 0 0.47159539696428421 0.082652476714937431 0 0.45816888630356561 0.071383133335291671 0 0.45696129685870052 0.091858126159251666 0 0.45816888630356561 0.071383133335291671 0 0.45696129685870052 0.091858126159251666 0 0.44520147722013459 0.078829523304941029 0 0.45696129685870052 0.091858126159251666 0 0.43994151444248558 0.091494706230295958 0 0.44520147722013459 0.078829523304941029 0 0.43994151444248558 0.091494706230295958 0 0.44520147722013459 0.078829523304941029 0 0.43213214466611188 0.083775140574294582 0 0.45816888630356561 0.071383133335291671 0 0.44520147722013459 0.078829523304941029 0 0.4447061753419268 0.064619421163674515 0 0.44520147722013459 0.078829523304941029 0 0.4447061753419268 0.064619421163674515 0 0.43201353641023749 0.072064553649063209 0 0.45674780064900172 0.13500617105981799 0 0.47265399112579359 0.1118404087465098 0 0.45674780064900172 0.13500617105981799 0 0.47265399112579359 0.1118404087465098 0 0.45348194746571702 0.11330462694787941 0 0.47265399112579359 0.1118404087465098 0 0.45696129685870052 0.091858126159251666 0 0.45348194746571702 0.11330462694787941 0 0.47265399112579359 0.1118404087465098 0 0.47159539696428421 0.082652476714937431 0 0.45696129685870052 0.091858126159251666 0 0.45696129685870052 0.091858126159251666 0 0.44035116755106751 0.10503263421440651 0 0.45696129685870052 0.091858126159251666 0 0.43994151444248558 0.091494706230295958 0 0.44035116755106751 0.10503263421440651 0 0.45696129685870052 0.091858126159251666 0 0.45348194746571702 0.11330462694787941 0 0.44035116755106751 0.10503263421440651 0 0.45348194746571702 0.11330462694787941 0 0.44035116755106751 0.10503263421440651 0 0.44069548114402168 0.1227857945594112 0 0.45674780064900172 0.13500617105981799 0 0.45348194746571702 0.11330462694787941 0 0.44069548114402168 0.1227857945594112 0 0.44069548114402168 0.1227857945594112 0 0.42374103824343479 0.1182071422695618 0 0.44035116755106751 0.10503263421440651 0 0.44069548114402168 0.1227857945594112 0 0.42374103824343479 0.1182071422695618 0 0.42627704181567833 0.12937469430401449 0 0.44069548114402168 0.1227857945594112 0 0.42374103824343479 0.1182071422695618 0 0.44035116755106751 0.10503263421440651 0 0.42374103824343479 0.1182071422695618 0 0.4077230318570077 0.13091200147065901 0 0.42374103824343479 0.1182071422695618 0 0.4077230318570077 0.13091200147065901 0 0.42374103824343479 0.1182071422695618 0 0.40180812343148908 0.11228402281257879 0 0.42374103824343479 0.1182071422695618 0 0.40180812343148908 0.11228402281257879 0 0.42374103824343479 0.1182071422695618 0 0.41161661993366921 0.1024792529421404 0 0.40180812343148908 0.11228402281257879 0 0.41161661993366921 0.1024792529421404 0 0.42506148591641391 0.097978106898586007 0 0.40922523543306122 0.085753986881672309 0 0.41161661993366921 0.1024792529421404 0 0.40922523543306122 0.085753986881672309 0 0.39824721664394702 0.098173005848303241 0 0.42374103824343479 0.1182071422695618 0 0.41161661993366921 0.1024792529421404 0 0.42506148591641391 0.097978106898586007 0 0.44035116755106751 0.10503263421440651 0 0.42374103824343479 0.1182071422695618 0 0.42506148591641391 0.097978106898586007 0 0.43994151444248558 0.091494706230295958 0 0.44035116755106751 0.10503263421440651 0 0.42506148591641391 0.097978106898586007 0 0.42506148591641391 0.097978106898586007 0 0.43213214466611188 0.083775140574294582 0 0.40922523543306122 0.085753986881672309 0 0.43994151444248558 0.091494706230295958 0 0.42506148591641391 0.097978106898586007 0 0.43213214466611188 0.083775140574294582 0 0.44520147722013459 0.078829523304941029 0 0.43213214466611188 0.083775140574294582 0 0.43201353641023749 0.072064553649063209 0 0.4447061753419268 0.064619421163674515 0 0.43201353641023749 0.072064553649063209 0 0.41851513976369942 0.059688695105806128 0 0.43213214466611188 0.083775140574294582 0 0.43201353641023749 0.072064553649063209 0 0.41951274505931468 0.073409988096599849 0 0.43201353641023749 0.072064553649063209 0 0.41951274505931468 0.073409988096599849 0 0.41851513976369942 0.059688695105806128 0 0.41951274505931468 0.073409988096599849 0 0.40922523543306122 0.085753986881672309 0 0.40366066418438901 0.066566565816272794 0 0.41951274505931468 0.073409988096599849 0 0.40366066418438901 0.066566565816272794 0 0.41851513976369942 0.059688695105806128 0 0.43213214466611188 0.083775140574294582 0 0.41951274505931468 0.073409988096599849 0 0.40922523543306122 0.085753986881672309 0 0.40922523543306122 0.085753986881672309 0 0.39361907487991321 0.089175282782625931 0 0.39824721664394702 0.098173005848303241 0 0.40922523543306122 0.085753986881672309 0 0.3982471216557037 0.079779794989838934 0 0.39361907487991321 0.089175282782625931 0 0.3982471216557037 0.079779794989838934 0 0.39361907487991321 0.089175282782625931 0 0.38540428081838612 0.080428524749167049 0 0.39507571455225138 0.066294611148600385 0 0.38775602011782251 0.071704247917462383 0 0.39232410418547198 0.054757969047936311 0 0.40922523543306122 0.085753986881672309 0 0.3982471216557037 0.079779794989838934 0 0.40366066418438901 0.066566565816272794 0 0.3982471216557037 0.079779794989838934 0 0.40366066418438901 0.066566565816272794 0 0.39624998614984258 0.071378621010296323 0 0.3982471216557037 0.079779794989838934 0 0.39624998614984258 0.071378621010296323 0 0.38775602011782251 0.071704247917462383 0 0.39624998614984258 0.071378621010296323 0 0.39507571455225138 0.066294611148600385 0 0.38775602011782251 0.071704247917462383 0 0.40366066418438901 0.066566565816272794 0 0.39507571455225138 0.066294611148600385 0 0.39232410418547198 0.054757969047936311 0 0.40366066418438901 0.066566565816272794 0 0.39624998614984258 0.071378621010296323 0 0.39507571455225138 0.066294611148600385 0 0.3741290530260471 0.066491756604030422 0 0.38775602011782251 0.071704247917462383 0 0.39232410418547198 0.054757969047936311 0 0.38775602011782251 0.071704247917462383 0 0.39232410418547198 0.054757969047936311 0 0.3982471216557037 0.079779794989838934 0 0.38775602011782251 0.071704247917462383 0 0.38540428081838612 0.080428524749167049 0 0.38775602011782251 0.071704247917462383 0 0.38540428081838612 0.080428524749167049 0 0.37145101605117792 0.079757884964720541 0 0.3741290530260471 0.066491756604030422 0 0.38540428081838612 0.080428524749167049 0 0.3741290530260471 0.066491756604030422 0 0.38775602011782251 0.071704247917462383 0 0.38540428081838612 0.080428524749167049 0 0.37294726897623032 0.090994200858692725 0 0.38540428081838612 0.080428524749167049 0 0.37987520861954338 0.10636090335559539 0 0.38540428081838612 0.080428524749167049 0 0.37987520861954338 0.10636090335559539 0 0.39361907487991321 0.089175282782625931 0 0.38540428081838612 0.080428524749167049 0 0.37987520861954338 0.10636090335559539 0 0.37294726897623032 0.090994200858692725 0 0.37145101605117792 0.079757884964720541 0 0.38540428081838612 0.080428524749167049 0 0.39361907487991321 0.089175282782625931 0 0.37987520861954338 0.10636090335559539 0 0.39824721664394702 0.098173005848303241 0 0.37987520861954338 0.10636090335559539 0 0.38611727570058701 0.1180807244137619 0 0.40180812343148908 0.11228402281257879 0 0.36921265499125933 0.1110503829388633 0 0.37987520861954338 0.10636090335559539 0 0.37824108730571487 0.1140252367328918 0 0.37987520861954338 0.10636090335559539 0 0.37824108730571487 0.1140252367328918 0 0.38611727570058701 0.1180807244137619 0 0.37987520861954338 0.10636090335559539 0 0.37824108730571487 0.1140252367328918 0 0.38097448849440718 0.12618490537828991 0 0.37824108730571487 0.1140252367328918 0 0.38611727570058701 0.1180807244137619 0 0.37120910800260049 0.12031008916013471 0 0.38097448849440718 0.12618490537828991 0 0.37824108730571487 0.1140252367328918 0 0.38097448849440718 0.12618490537828991 0 0.39319634884953109 0.1263148887895835 0 0.38611727570058701 0.1180807244137619 0 0.39319634884953109 0.1263148887895835 0 0.4077230318570077 0.13091200147065901 0 0.40180812343148908 0.11228402281257879 0 0.39319634884953109 0.1263148887895835 0 0.38611727570058701 0.1180807244137619 0 0.40180812343148908 0.11228402281257879 0 0.37987520861954338 0.10636090335559539 0 0.40180812343148908 0.11228402281257879 0 0.39824721664394702 0.098173005848303241 0 0.41161661993366921 0.1024792529421404 0 0.40180812343148908 0.11228402281257879 0 0.39824721664394702 0.098173005848303241 0 0.37987520861954338 0.10636090335559539 0 0.40180812343148908 0.11228402281257879 0 0.39755011304777782 0.023462308983565241 0 0.39833894047196178 0.019762561415915859 0 0.39755011304777782 0.023462308983565241 0 0.38814356989570398 0.031357706369502691 0 0.39424173303250371 0.038979227563152002 0 0.39755011304777782 0.023462308983565241 0 0.39970170672024391 0.024585843740786099 0 0.39424173303250371 0.038979227563152002 0 0.39755011304777782 0.023462308983565241 0 0.39424173303250371 0.038979227563152002 0 0.39755011304777782 0.023462308983565241 0 0.39970170672024391 0.024585843740786099 0 0.39970170672024391 0.024585843740786099 0 0.40510079573264662 0.02602471332742717 0 0.40041170922407548 0.021682151868943119 0 0.40510079573264662 0.02602471332742717 0 0.40041170922407548 0.021682151868943119 0 0.39833894047196178 0.019762561415915859 0 0.40041170922407548 0.021682151868943119 0 0.39969904590866728 0.013383413547906439 0 0.40510079573264662 0.02602471332742717 0 0.40041170922407548 0.021682151868943119 0 0.40644153379183201 0.01855294201558997 0 0.39833894047196178 0.019762561415915859 0 0.40041170922407548 0.021682151868943119 0 0.39970170672024391 0.024585843740786099 0 0.40041170922407548 0.021682151868943119 0 0.39755011304777782 0.023462308983565241 0 0.39970170672024391 0.024585843740786099 0 0.40041170922407548 0.021682151868943119 0 0.39755011304777782 0.023462308983565241 0 0.39833894047196178 0.019762561415915859 0 0.40041170922407548 0.021682151868943119 0 0.39833894047196178 0.019762561415915859 0 0.39969904590866728 0.013383413547906439 0 0.39833894047196178 0.019762561415915859 0 0.39381413030831619 0.0045237730216941092 0 0.38112383196394201 0.0038196551432573039 0 0.40041170922407548 0.021682151868943119 0 0.39969904590866728 0.013383413547906439 0 0.40442364275137582 0.0052745776550867512 0 0.40041170922407548 0.021682151868943119 0 0.40442364275137582 0.0052745776550867512 0 0.40041170922407548 0.021682151868943119 0 0.40442364275137582 0.0052745776550867512 0 0.40644153379183201 0.01855294201558997 0 0.40442364275137582 0.0052745776550867512 0 0.39381413030831619 0.0045237730216941092 0 0.40013229690593199 -0.0038961027493012502 0 0.39969904590866728 0.013383413547906439 0 0.40442364275137582 0.0052745776550867512 0 0.39381413030831619 0.0045237730216941092 0 0.39833894047196178 0.019762561415915859 0 0.39969904590866728 0.013383413547906439 0 0.39381413030831619 0.0045237730216941092 0 0.37275790797876851 0.010516135893525231 0 0.39833894047196178 0.019762561415915859 0 0.38112383196394201 0.0038196551432573039 0 0.39833894047196178 0.019762561415915859 0 0.38112383196394201 0.0038196551432573039 0 0.39381413030831619 0.0045237730216941092 0 0.38112383196394201 0.0038196551432573039 0 0.39301275335799279 -0.0069641241433856336 0 0.37275790797876851 0.010516135893525231 0 0.39755011304777782 0.023462308983565241 0 0.38068389602866542 0.024404222700930921 0 0.37275790797876851 0.010516135893525231 0 0.39755011304777782 0.023462308983565241 0 0.39833894047196178 0.019762561415915859 0 0.39755011304777782 0.023462308983565241 0 0.38068389602866542 0.024404222700930921 0 0.38814356989570398 0.031357706369502691 0 0.37275790797876851 0.010516135893525231 0 0.39755011304777782 0.023462308983565241 0 0.37446090596142928 0.031199830640749129 0 0.38068389602866542 0.024404222700930921 0 0.37932829785323607 0.035065727517223692 0 0.38068389602866542 0.024404222700930921 0 0.37932829785323607 0.035065727517223692 0 0.38814356989570398 0.031357706369502691 0 0.37229933367479562 0.026226562060131901 0 0.37446090596142928 0.031199830640749129 0 0.38068389602866542 0.024404222700930921 0 0.37127347453404391 0.036298138459317661 0 0.37446090596142928 0.031199830640749129 0 0.37932829785323607 0.035065727517223692 0 0.37932829785323607 0.035065727517223692 0 0.37943535368593889 0.043650675240257689 0 0.38594352322520031 0.038478141799389583 0 0.37943535368593889 0.043650675240257689 0 0.38594352322520031 0.038478141799389583 0 0.39232410418547198 0.054757969047936311 0 0.37379025911705338 0.041685833419247732 0 0.37932829785323607 0.035065727517223692 0 0.37943535368593889 0.043650675240257689 0 0.37223077046365582 0.050975196737324521 0 0.37379025911705338 0.041685833419247732 0 0.37943535368593889 0.043650675240257689 0 0.37932829785323607 0.035065727517223692 0 0.38814356989570398 0.031357706369502691 0 0.38594352322520031 0.038478141799389583 0 0.38814356989570398 0.031357706369502691 0 0.38594352322520031 0.038478141799389583 0 0.39424173303250371 0.038979227563152002 0 0.3741290530260471 0.066491756604030422 0 0.37223077046365582 0.050975196737324521 0 0.39232410418547198 0.054757969047936311 0 0.37223077046365582 0.050975196737324521 0 0.39232410418547198 0.054757969047936311 0 0.37223077046365582 0.050975196737324521 0 0.37943535368593889 0.043650675240257689 0 0.39232410418547198 0.054757969047936311 0 0.40366066418438901 0.066566565816272794 0 0.39232410418547198 0.054757969047936311 0 0.41851513976369942 0.059688695105806128 0 0.39232410418547198 0.054757969047936311 0 0.40165141534958471 0.049020361134144992 0 0.41851513976369942 0.059688695105806128 0 0.39232410418547198 0.054757969047936311 0 0.41851513976369942 0.059688695105806128 0 0.39232410418547198 0.054757969047936311 0 0.40165141534958471 0.049020361134144992 0 0.39601290545285928 0.039671906394361543 0 0.39232410418547198 0.054757969047936311 0 0.39601290545285928 0.039671906394361543 0 0.39232410418547198 0.054757969047936311 0 0.39424173303250371 0.038979227563152002 0 0.39970170672024391 0.024585843740786099 0 0.39601290545285928 0.039671906394361543 0 0.40668852835278918 0.043489250587010433 0 0.39232410418547198 0.054757969047936311 0 0.39424173303250371 0.038979227563152002 0 0.39601290545285928 0.039671906394361543 0 0.38594352322520031 0.038478141799389583 0 0.39232410418547198 0.054757969047936311 0 0.39424173303250371 0.038979227563152002 0 0.39970170672024391 0.024585843740786099 0 0.39424173303250371 0.038979227563152002 0 0.39601290545285928 0.039671906394361543 0 0.39970170672024391 0.024585843740786099 0 0.39601290545285928 0.039671906394361543 0 0.40165141534958471 0.049020361134144992 0 0.39601290545285928 0.039671906394361543 0 0.40668852835278918 0.043489250587010433 0 0.39970170672024391 0.024585843740786099 0 0.41783479281242608 0.043052795894702248 0 0.42592136022121779 0.038277412184972992 0 0.39970170672024391 0.024585843740786099 0 0.40668852835278918 0.043489250587010433 0 0.41783479281242608 0.043052795894702248 0 0.39970170672024391 0.024585843740786099 0 0.42592136022121779 0.038277412184972992 0 0.40668852835278918 0.043489250587010433 0 0.41783479281242608 0.043052795894702248 0 0.41851513976369942 0.059688695105806128 0 0.41783479281242608 0.043052795894702248 0 0.41851513976369942 0.059688695105806128 0 0.42496472639930949 0.050362151587096227 0 0.40165141534958471 0.049020361134144992 0 0.40668852835278918 0.043489250587010433 0 0.41851513976369942 0.059688695105806128 0 0.4447061753419268 0.064619421163674515 0 0.41851513976369942 0.059688695105806128 0 0.4447061753419268 0.064619421163674515 0 0.41851513976369942 0.059688695105806128 0 0.43364014273349571 0.054720692580052958 0 0.41851513976369942 0.059688695105806128 0 0.42496472639930949 0.050362151587096227 0 0.43364014273349571 0.054720692580052958 0 0.42496472639930949 0.050362151587096227 0 0.42450900176579431 0.045202329218470783 0 0.43078956405375562 0.046593839732651549 0 0.42496472639930949 0.050362151587096227 0 0.43364014273349571 0.054720692580052958 0 0.43078956405375562 0.046593839732651549 0 0.42592136022121779 0.038277412184972992 0 0.43078956405375562 0.046593839732651549 0 0.45061424014747969 0.05117171895304836 0 0.42592136022121779 0.038277412184972992 0 0.42842828120575338 0.030374863051121938 0 0.41725745339879933 0.02709062859710154 0 0.42592136022121779 0.038277412184972992 0 0.42508791305523452 0.039828733872272357 0 0.41783479281242608 0.043052795894702248 0 0.42508791305523452 0.039828733872272357 0 0.42450900176579431 0.045202329218470783 0 0.42592136022121779 0.038277412184972992 0 0.42508791305523452 0.039828733872272357 0 0.43078956405375562 0.046593839732651549 0 0.41783479281242608 0.043052795894702248 0 0.42592136022121779 0.038277412184972992 0 0.42508791305523452 0.039828733872272357 0 0.41783479281242608 0.043052795894702248 0 0.42496472639930949 0.050362151587096227 0 0.42450900176579431 0.045202329218470783 0 0.42508791305523452 0.039828733872272357 0 0.42450900176579431 0.045202329218470783 0 0.43078956405375562 0.046593839732651549 0 0.42842828120575338 0.030374863051121938 0 0.42873432139574669 0.0072927283310082478 0 0.438077227136839 0.015651310922902568 0 0.42842828120575338 0.030374863051121938 0 0.41843192874221458 0.0096209332461761627 0 0.42873432139574669 0.0072927283310082478 0 0.42592136022121779 0.038277412184972992 0 0.42842828120575338 0.030374863051121938 0 0.438077227136839 0.015651310922902568 0 0.42592136022121779 0.038277412184972992 0 0.438077227136839 0.015651310922902568 0 0.44101293106454681 0.0324070428763963 0 0.42842828120575338 0.030374863051121938 0 0.41843192874221458 0.0096209332461761627 0 0.42592136022121779 0.038277412184972992 0 0.438077227136839 0.015651310922902568 0 0.40510079573264662 0.02602471332742717 0 0.42592136022121779 0.038277412184972992 0 0.41725745339879933 0.02709062859710154 0 0.42842828120575338 0.030374863051121938 0 0.41725745339879933 0.02709062859710154 0 0.41728363027629489 0.02082752788395267 0 0.42842828120575338 0.030374863051121938 0 0.41728363027629489 0.02082752788395267 0 0.41843192874221458 0.0096209332461761627 0 0.39970170672024391 0.024585843740786099 0 0.40510079573264662 0.02602471332742717 0 0.42592136022121779 0.038277412184972992 0 0.41725745339879933 0.02709062859710154 0 0.41728363027629489 0.02082752788395267 0 0.41115216943559868 0.02132860451251313 0 0.41728363027629489 0.02082752788395267 0 0.41115216943559868 0.02132860451251313 0 0.41114831859910878 0.01572261001285058 0 0.41115216943559868 0.02132860451251313 0 0.41114831859910878 0.01572261001285058 0 0.40644153379183201 0.01855294201558997 0 0.40510079573264662 0.02602471332742717 0 0.41115216943559868 0.02132860451251313 0 0.40644153379183201 0.01855294201558997 0 0.40510079573264662 0.02602471332742717 0 0.41725745339879933 0.02709062859710154 0 0.41115216943559868 0.02132860451251313 0 0.40442364275137582 0.0052745776550867512 0 0.41843192874221458 0.0096209332461761627 0 0.40843557627867583 -0.011132996558769681 0 0.40442364275137582 0.0052745776550867512 0 0.41114831859910878 0.01572261001285058 0 0.41843192874221458 0.0096209332461761627 0 0.40442364275137582 0.0052745776550867512 0 0.41114831859910878 0.01572261001285058 0 0.40644153379183201 0.01855294201558997 0 0.41728363027629489 0.02082752788395267 0 0.41114831859910878 0.01572261001285058 0 0.41843192874221458 0.0096209332461761627 0 0.41843192874221458 0.0096209332461761627 0 0.42873432139574669 0.0072927283310082478 0 0.42034696321544462 -0.002664540476162049 0 0.42873432139574669 0.0072927283310082478 0 0.4378746588432762 0.0019998969658650899 0 0.438077227136839 0.015651310922902568 0 0.42873432139574669 0.0072927283310082478 0 0.4378746588432762 0.0019998969658650899 0 0.4289882169991629 -0.0081485236485014483 0 0.438077227136839 0.015651310922902568 0 0.4534138206589291 0.003345072188543977 0 0.45023309405246009 -0.0069747903391679383 0 0.438077227136839 0.015651310922902568 0 0.45023309405246009 -0.0069747903391679383 0 0.438077227136839 0.015651310922902568 0 0.4534138206589291 0.003345072188543977 0 0.45542706284237178 0.01263288024089026 0 0.4378746588432762 0.0019998969658650899 0 0.438077227136839 0.015651310922902568 0 0.45023309405246009 -0.0069747903391679383 0 0.438077227136839 0.015651310922902568 0 0.45413508311041823 0.028010925558367591 0 0.44101293106454681 0.0324070428763963 0 0.438077227136839 0.015651310922902568 0 0.45413508311041823 0.028010925558367591 0 0.45542706284237178 0.01263288024089026 0 0.45413508311041823 0.028010925558367591 0 0.45542706284237178 0.01263288024089026 0 0.46901539890952482 0.017694416747899521 0 0.45413508311041823 0.028010925558367591 0 0.4735987550353537 0.040685181180132243 0 0.46901539890952482 0.017694416747899521 0 0.4659207520727664 0.001217963095865273 0 0.45542706284237178 0.01263288024089026 0 0.46901539890952482 0.017694416747899521 0 0.4659207520727664 0.001217963095865273 0 0.4534138206589291 0.003345072188543977 0 0.45812671722679882 -0.0042857599608656502 0 0.4659207520727664 0.001217963095865273 0 0.4534138206589291 0.003345072188543977 0 0.45542706284237178 0.01263288024089026 0 0.4447061753419268 0.064619421163674515 0 0.43364014273349571 0.054720692580052958 0 0.45061424014747969 0.05117171895304836 0 0.45816888630356561 0.071383133335291671 0 0.4447061753419268 0.064619421163674515 0 0.45061424014747969 0.05117171895304836 0 0.43364014273349571 0.054720692580052958 0 0.43078956405375562 0.046593839732651549 0 0.45061424014747969 0.05117171895304836 0 0.45413508311041823 0.028010925558367591 0 0.45061424014747969 0.05117171895304836 0 0.44101293106454681 0.0324070428763963 0 0.42592136022121779 0.038277412184972992 0 0.45061424014747969 0.05117171895304836 0 0.44101293106454681 0.0324070428763963 0 0.42592136022121779 0.038277412184972992 0 0.45061424014747969 0.05117171895304836 0 0.45413508311041823 0.028010925558367591 0 0.45061424014747969 0.05117171895304836 0 0.4735987550353537 0.040685181180132243 0 0.47530712007373938 0.0640660257211281 0 0.45061424014747969 0.05117171895304836 0 0.4735987550353537 0.040685181180132243 0 0.47530712007373938 0.0640660257211281 0 0.45816888630356561 0.071383133335291671 0 0.45061424014747969 0.05117171895304836 0 0.47530712007373938 0.0640660257211281 0 0.45061424014747969 0.05117171895304836 0 0.47530712007373938 0.0640660257211281 0 0.4735987550353537 0.040685181180132243 0 0.5 0.047897297708203827 0 0.4735987550353537 0.040685181180132243 0 0.5 0.047897297708203827 0 0.5 0.018834262927200252 0 0.4659207520727664 0.001217963095865273 0 0.4833225593963083 0.0048366793324105392 0 0.46901539890952482 0.017694416747899521 0 0.4833225593963083 0.0048366793324105392 0 0.46901539890952482 0.017694416747899521 0 0.5 0.018834262927200252 0 0.4735987550353537 0.040685181180132243 0 0.46901539890952482 0.017694416747899521 0 0.5 0.018834262927200252 0 0.4833225593963083 0.0048366793324105392 0 0.5 0.018834262927200252 0 0.5 -0.010228771853803159 0 0.5 -0.010228771853803159 0 0.47853637437667979 -0.0092590064631227955 0 0.48134315051108612 -0.026613585727486969 0 0.4833225593963083 0.0048366793324105392 0 0.5 -0.010228771853803159 0 0.47853637437667979 -0.0092590064631227955 0 0.4659207520727664 0.001217963095865273 0 0.4833225593963083 0.0048366793324105392 0 0.47853637437667979 -0.0092590064631227955 0 0.4659207520727664 0.001217963095865273 0 0.47853637437667979 -0.0092590064631227955 0 0.46293920212303941 -0.01473128478870391 0 0.48134315051108612 -0.026613585727486969 0 0.46293920212303941 -0.01473128478870391 0 0.46238896096808119 -0.0296008916012384 0 0.47853637437667979 -0.0092590064631227955 0 0.48134315051108612 -0.026613585727486969 0 0.46293920212303941 -0.01473128478870391 0 0.5 -0.010228771853803159 0 0.48134315051108612 -0.026613585727486969 0 0.5 -0.03929180663480647 0 0.48134315051108612 -0.026613585727486969 0 0.5 -0.03929180663480647 0 0.47454482788370228 -0.052226992863308792 0 0.5 -0.03929180663480647 0 0.47454482788370228 -0.052226992863308792 0 0.5 -0.068354841415809831 0 0.48134315051108612 -0.026613585727486969 0 0.47454482788370228 -0.052226992863308792 0 0.46238896096808119 -0.0296008916012384 0 0.45652464332602238 -0.048413555844038281 0 0.44810283997756428 -0.031499145945123 0 0.46238896096808119 -0.0296008916012384 0 0.47454482788370228 -0.052226992863308792 0 0.45652464332602238 -0.048413555844038281 0 0.46238896096808119 -0.0296008916012384 0 0.47454482788370228 -0.052226992863308792 0 0.46238896096808119 -0.0296008916012384 0 0.47454482788370228 -0.052226992863308792 0 0.45652464332602238 -0.048413555844038281 0 0.46956930578928041 -0.069558504936913956 0 0.45652464332602238 -0.048413555844038281 0 0.44085987913227509 -0.052316537407257779 0 0.45116667184596698 -0.069733818092773264 0 0.45652464332602238 -0.048413555844038281 0 0.44085987913227509 -0.052316537407257779 0 0.44810283997756428 -0.031499145945123 0 0.44085987913227509 -0.052316537407257779 0 0.44810283997756428 -0.031499145945123 0 0.43179936217373049 -0.028380308165338559 0 0.44810283997756428 -0.031499145945123 0 0.45115212972526292 -0.01080373157857765 0 0.43179936217373049 -0.028380308165338559 0 0.44034656523557381 -0.01162279785631142 0 0.45115212972526292 -0.01080373157857765 0 0.43179936217373049 -0.028380308165338559 0 0.45115212972526292 -0.01080373157857765 0 0.43179936217373049 -0.028380308165338559 0 0.44034656523557381 -0.01162279785631142 0 0.44033927495731978 -0.0056285445939013466 0 0.45023309405246009 -0.0069747903391679383 0 0.4378746588432762 0.0019998969658650899 0 0.44033927495731978 -0.0056285445939013466 0 0.45023309405246009 -0.0069747903391679383 0 0.44034656523557381 -0.01162279785631142 0 0.45023309405246009 -0.0069747903391679383 0 0.45115212972526292 -0.01080373157857765 0 0.4659207520727664 0.001217963095865273 0 0.45812671722679882 -0.0042857599608656502 0 0.46293920212303941 -0.01473128478870391 0 0.45023309405246009 -0.0069747903391679383 0 0.45812671722679882 -0.0042857599608656502 0 0.46293920212303941 -0.01473128478870391 0 0.4534138206589291 0.003345072188543977 0 0.45023309405246009 -0.0069747903391679383 0 0.45812671722679882 -0.0042857599608656502 0 0.44810283997756428 -0.031499145945123 0 0.45115212972526292 -0.01080373157857765 0 0.46238896096808119 -0.0296008916012384 0 0.45023309405246009 -0.0069747903391679383 0 0.46238896096808119 -0.0296008916012384 0 0.45023309405246009 -0.0069747903391679383 0 0.46293920212303941 -0.01473128478870391 0 0.46238896096808119 -0.0296008916012384 0 0.45023309405246009 -0.0069747903391679383 0 0.45115212972526292 -0.01080373157857765 0 0.46238896096808119 -0.0296008916012384 0 0.48287166513082408 -0.1152012235004482 0 0.46878590001808501 -0.1089224495551733 0 0.4672296206109488 -0.12713301205304001 0 0.48287166513082408 -0.1152012235004482 0 0.5 -0.097417876196813191 0 0.5 -0.12648091097781661 0 0.48287166513082408 -0.1152012235004482 0 0.5 -0.097417876196813191 0 0.47972500117609179 -0.092645497983557187 0 0.48287166513082408 -0.1152012235004482 0 0.46878590001808501 -0.1089224495551733 0 0.47972500117609179 -0.092645497983557187 0 0.46878590001808501 -0.1089224495551733 0 0.47972500117609179 -0.092645497983557187 0 0.46163345805781508 -0.085751109144482057 0 0.47972500117609179 -0.092645497983557187 0 0.48670069479932337 -0.074853094125379216 0 0.46956930578928041 -0.069558504936913956 0 0.47972500117609179 -0.092645497983557187 0 0.46956930578928041 -0.069558504936913956 0 0.46163345805781508 -0.085751109144482057 0 0.5 -0.097417876196813191 0 0.47972500117609179 -0.092645497983557187 0 0.48670069479932337 -0.074853094125379216 0 0.5 -0.097417876196813191 0 0.5 -0.068354841415809831 0 0.48670069479932337 -0.074853094125379216 0 0.47454482788370228 -0.052226992863308792 0 0.5 -0.068354841415809831 0 0.48670069479932337 -0.074853094125379216 0 0.47454482788370228 -0.052226992863308792 0 0.48670069479932337 -0.074853094125379216 0 0.47454482788370228 -0.052226992863308792 0 0.48670069479932337 -0.074853094125379216 0 0.46956930578928041 -0.069558504936913956 0 0.44085987913227509 -0.052316537407257779 0 0.45116667184596698 -0.069733818092773264 0 0.43568204645943448 -0.084491274314075868 0 0.45652464332602238 -0.048413555844038281 0 0.46956930578928041 -0.069558504936913956 0 0.45116667184596698 -0.069733818092773264 0 0.46956930578928041 -0.069558504936913956 0 0.45116667184596698 -0.069733818092773264 0 0.46163345805781508 -0.085751109144482057 0 0.45116667184596698 -0.069733818092773264 0 0.46163345805781508 -0.085751109144482057 0 0.43568204645943448 -0.084491274314075868 0 0.46163345805781508 -0.085751109144482057 0 0.45474300830245151 -0.1019493184894741 0 0.43568204645943448 -0.084491274314075868 0 0.46878590001808501 -0.1089224495551733 0 0.46163345805781508 -0.085751109144482057 0 0.45474300830245151 -0.1019493184894741 0 0.44057019976706191 -0.11383984056868091 0 0.43568204645943448 -0.084491274314075868 0 0.45474300830245151 -0.1019493184894741 0 0.44057019976706191 -0.11383984056868091 0 0.43568204645943448 -0.084491274314075868 0 0.45474300830245151 -0.1019493184894741 0 0.44057019976706191 -0.11383984056868091 0 0.45267084610351382 -0.1216238107203409 0 0.46878590001808501 -0.1089224495551733 0 0.45267084610351382 -0.1216238107203409 0 0.4672296206109488 -0.12713301205304001 0 0.46878590001808501 -0.1089224495551733 0 0.45474300830245151 -0.1019493184894741 0 0.45267084610351382 -0.1216238107203409 0 0.40919418099907767 -0.1118119956686487 0 0.4146927475757558 -0.1240816007311262 0 0.40261322636911301 -0.12319800757665809 0 0.40919418099907767 -0.1118119956686487 0 0.4146927475757558 -0.1240816007311262 0 0.42398553826527929 -0.10864166177241789 0 0.4146927475757558 -0.1240816007311262 0 0.42563933781448932 -0.1238972430644575 0 0.42398553826527929 -0.10864166177241789 0 0.44057019976706191 -0.11383984056868091 0 0.42563933781448932 -0.1238972430644575 0 0.42985566358638339 -0.13586031256228451 0 0.44057019976706191 -0.11383984056868091 0 0.42563933781448932 -0.1238972430644575 0 0.42398553826527929 -0.10864166177241789 0 0.42398553826527929 -0.10864166177241789 0 0.41813471697585691 -0.093728016287518118 0 0.43568204645943448 -0.084491274314075868 0 0.44057019976706191 -0.11383984056868091 0 0.42398553826527929 -0.10864166177241789 0 0.43568204645943448 -0.084491274314075868 0 0.40919418099907767 -0.1118119956686487 0 0.41813471697585691 -0.093728016287518118 0 0.39587863219299879 -0.1033300326142752 0 0.40919418099907767 -0.1118119956686487 0 0.42398553826527929 -0.10864166177241789 0 0.41813471697585691 -0.093728016287518118 0 0.44085987913227509 -0.052316537407257779 0 0.43568204645943448 -0.084491274314075868 0 0.42385729785881099 -0.057685267882326433 0 0.41813471697585691 -0.093728016287518118 0 0.40890606782066119 -0.081423371898608293 0 0.40034628459709171 -0.086695301624749144 0 0.41813471697585691 -0.093728016287518118 0 0.40890606782066119 -0.081423371898608293 0 0.41632615746010809 -0.074864450899531837 0 0.41813471697585691 -0.093728016287518118 0 0.43568204645943448 -0.084491274314075868 0 0.41632615746010809 -0.074864450899531837 0 0.43568204645943448 -0.084491274314075868 0 0.41632615746010809 -0.074864450899531837 0 0.42385729785881099 -0.057685267882326433 0 0.41632615746010809 -0.074864450899531837 0 0.42385729785881099 -0.057685267882326433 0 0.40758663568507669 -0.05979159452420562 0 0.40890606782066119 -0.081423371898608293 0 0.41632615746010809 -0.074864450899531837 0 0.40526144800522179 -0.071021808490668359 0 0.41632615746010809 -0.074864450899531837 0 0.40526144800522179 -0.071021808490668359 0 0.40758663568507669 -0.05979159452420562 0 0.40133555080435113 -0.064162482682774538 0 0.39371796485857402 -0.064553775206941999 0 0.40758663568507669 -0.05979159452420562 0 0.40133555080435113 -0.064162482682774538 0 0.40526144800522179 -0.071021808490668359 0 0.40758663568507669 -0.05979159452420562 0 0.40133555080435113 -0.064162482682774538 0 0.40526144800522179 -0.071021808490668359 0 0.39778643991016871 -0.069413555335449156 0 0.40133555080435113 -0.064162482682774538 0 0.39778643991016871 -0.069413555335449156 0 0.39722233183287958 -0.065553898149813508 0 0.40526144800522179 -0.071021808490668359 0 0.39912117065582492 -0.07734401243001704 0 0.39778643991016871 -0.069413555335449156 0 0.40890606782066119 -0.081423371898608293 0 0.40526144800522179 -0.071021808490668359 0 0.39912117065582492 -0.07734401243001704 0 0.39187154671054059 -0.074098780074509929 0 0.3951495708280407 -0.068405002191678638 0 0.39778643991016871 -0.069413555335449156 0 0.39912117065582492 -0.07734401243001704 0 0.39187154671054059 -0.074098780074509929 0 0.3905552368912657 -0.081411257156117411 0 0.39912117065582492 -0.07734401243001704 0 0.39187154671054059 -0.074098780074509929 0 0.39778643991016871 -0.069413555335449156 0 0.39187154671054059 -0.074098780074509929 0 0.3951495708280407 -0.068405002191678638 0 0.39371796485857402 -0.064553775206941999 0 0.3951495708280407 -0.068405002191678638 0 0.39778643991016871 -0.069413555335449156 0 0.39722233183287958 -0.065553898149813508 0 0.40133555080435113 -0.064162482682774538 0 0.39722233183287958 -0.065553898149813508 0 0.39371796485857402 -0.064553775206941999 0 0.3951495708280407 -0.068405002191678638 0 0.39722233183287958 -0.065553898149813508 0 0.39371796485857402 -0.064553775206941999 0 0.39371796485857402 -0.064553775206941999 0 0.37374105951913261 -0.081110037925620215 0 0.39371796485857402 -0.064553775206941999 0 0.3751130057070009 -0.085732435475734503 0 0.37374105951913261 -0.081110037925620215 0 0.39187154671054059 -0.074098780074509929 0 0.39371796485857402 -0.064553775206941999 0 0.3751130057070009 -0.085732435475734503 0 0.38207097684961472 -0.066842248694626655 0 0.37721822141984568 -0.064298563505272896 0 0.37374105951913261 -0.081110037925620215 0 0.39371796485857402 -0.064553775206941999 0 0.3751130057070009 -0.085732435475734503 0 0.39371796485857402 -0.064553775206941999 0 0.38207097684961472 -0.066842248694626655 0 0.38423079938881488 -0.058426932008753103 0 0.39371796485857402 -0.064553775206941999 0 0.38207097684961472 -0.066842248694626655 0 0.37374105951913261 -0.081110037925620215 0 0.38207097684961472 -0.066842248694626655 0 0.37721822141984568 -0.064298563505272896 0 0.38423079938881488 -0.058426932008753103 0 0.39187154671054059 -0.074098780074509929 0 0.3905552368912657 -0.081411257156117411 0 0.3751130057070009 -0.085732435475734503 0 0.3751130057070009 -0.085732435475734503 0 0.38843392378503488 -0.092059661637603624 0 0.38027645953681688 -0.1031292813171419 0 0.3905552368912657 -0.081411257156117411 0 0.3751130057070009 -0.085732435475734503 0 0.38843392378503488 -0.092059661637603624 0 0.3905552368912657 -0.081411257156117411 0 0.38843392378503488 -0.092059661637603624 0 0.40034628459709171 -0.086695301624749144 0 0.39912117065582492 -0.07734401243001704 0 0.3905552368912657 -0.081411257156117411 0 0.40034628459709171 -0.086695301624749144 0 0.40890606782066119 -0.081423371898608293 0 0.39912117065582492 -0.07734401243001704 0 0.40034628459709171 -0.086695301624749144 0 0.38843392378503488 -0.092059661637603624 0 0.40034628459709171 -0.086695301624749144 0 0.39587863219299879 -0.1033300326142752 0 0.41813471697585691 -0.093728016287518118 0 0.40034628459709171 -0.086695301624749144 0 0.39587863219299879 -0.1033300326142752 0 0.3751130057070009 -0.085732435475734503 0 0.38027645953681688 -0.1031292813171419 0 0.39587863219299879 -0.1033300326142752 0 0.38027645953681688 -0.1031292813171419 0 0.38543991336663258 -0.12052612715854941 0 0.38843392378503488 -0.092059661637603624 0 0.39587863219299879 -0.1033300326142752 0 0.38027645953681688 -0.1031292813171419 0 0.38027645953681688 -0.1031292813171419 0 0.38543991336663258 -0.12052612715854941 0 0.3682462871600341 -0.11777968654349071 0 0.38543991336663258 -0.12052612715854941 0 0.3682462871600341 -0.11777968654349071 0 0.37641656811912783 -0.130582952218537 0 0.38027645953681688 -0.1031292813171419 0 0.38543991336663258 -0.12052612715854941 0 0.38543991336663258 -0.12052612715854941 0 0.39838084890283088 -0.11446124417926359 0 0.40261322636911301 -0.12319800757665809 0 0.39587863219299879 -0.1033300326142752 0 0.38543991336663258 -0.12052612715854941 0 0.39838084890283088 -0.11446124417926359 0 0.40919418099907767 -0.1118119956686487 0 0.39587863219299879 -0.1033300326142752 0 0.39838084890283088 -0.11446124417926359 0 0.40919418099907767 -0.1118119956686487 0 0.39838084890283088 -0.11446124417926359 0 0.40261322636911301 -0.12319800757665809 0 0.41542363023566542 -0.029910290882464479 0 0.41063027721311718 -0.023615605383072339 0 0.3991134159738316 -0.030487202135540091 0 0.41063027721311718 -0.023615605383072339 0 0.409325379867992 -0.014772019570520691 0 0.3991134159738316 -0.030487202135540091 0 0.41865868277497997 -0.01929290894376413 0 0.41542363023566542 -0.029910290882464479 0 0.41063027721311718 -0.023615605383072339 0 0.41865868277497997 -0.01929290894376413 0 0.41063027721311718 -0.023615605383072339 0 0.409325379867992 -0.014772019570520691 0 0.409325379867992 -0.014772019570520691 0 0.40843557627867583 -0.011132996558769681 0 0.41714477266142319 -0.01095484375072352 0 0.40442364275137582 0.0052745776550867512 0 0.40843557627867583 -0.011132996558769681 0 0.41843192874221458 0.0096209332461761627 0 0.40843557627867583 -0.011132996558769681 0 0.41843192874221458 0.0096209332461761627 0 0.40843557627867583 -0.011132996558769681 0 0.42034696321544462 -0.002664540476162049 0 0.409325379867992 -0.014772019570520691 0 0.40843557627867583 -0.011132996558769681 0 0.40843557627867583 -0.011132996558769681 0 0.42034696321544462 -0.002664540476162049 0 0.41714477266142319 -0.01095484375072352 0 0.41865868277497997 -0.01929290894376413 0 0.409325379867992 -0.014772019570520691 0 0.41714477266142319 -0.01095484375072352 0 0.41865868277497997 -0.01929290894376413 0 0.41714477266142319 -0.01095484375072352 0 0.4289882169991629 -0.0081485236485014483 0 0.42034696321544462 -0.002664540476162049 0 0.41714477266142319 -0.01095484375072352 0 0.4289882169991629 -0.0081485236485014483 0 0.42873432139574669 0.0072927283310082478 0 0.42034696321544462 -0.002664540476162049 0 0.4289882169991629 -0.0081485236485014483 0 0.4378746588432762 0.0019998969658650899 0 0.44033927495731978 -0.0056285445939013466 0 0.4289882169991629 -0.0081485236485014483 0 0.44034656523557381 -0.01162279785631142 0 0.44033927495731978 -0.0056285445939013466 0 0.4289882169991629 -0.0081485236485014483 0 0.41865868277497997 -0.01929290894376413 0 0.41542363023566542 -0.029910290882464479 0 0.43179936217373049 -0.028380308165338559 0 0.44034656523557381 -0.01162279785631142 0 0.4289882169991629 -0.0081485236485014483 0 0.43179936217373049 -0.028380308165338559 0 0.41865868277497997 -0.01929290894376413 0 0.4289882169991629 -0.0081485236485014483 0 0.43179936217373049 -0.028380308165338559 0 0.43179936217373049 -0.028380308165338559 0 0.41244659462219813 -0.045956884752099442 0 0.43179936217373049 -0.028380308165338559 0 0.42385729785881099 -0.057685267882326433 0 0.41244659462219813 -0.045956884752099442 0 0.44085987913227509 -0.052316537407257779 0 0.43179936217373049 -0.028380308165338559 0 0.42385729785881099 -0.057685267882326433 0 0.42385729785881099 -0.057685267882326433 0 0.40758663568507669 -0.05979159452420562 0 0.41244659462219813 -0.045956884752099442 0 0.41542363023566542 -0.029910290882464479 0 0.43179936217373049 -0.028380308165338559 0 0.41244659462219813 -0.045956884752099442 0 0.41542363023566542 -0.029910290882464479 0 0.41244659462219813 -0.045956884752099442 0 0.3991134159738316 -0.030487202135540091 0 0.38979125566898748 -0.049841407712310513 0 0.3991134159738316 -0.030487202135540091 0 0.41244659462219813 -0.045956884752099442 0 0.38979125566898748 -0.049841407712310513 0 0.3991134159738316 -0.030487202135540091 0 0.39371796485857402 -0.064553775206941999 0 0.41244659462219813 -0.045956884752099442 0 0.39371796485857402 -0.064553775206941999 0 0.41244659462219813 -0.045956884752099442 0 0.38979125566898748 -0.049841407712310513 0 0.39371796485857402 -0.064553775206941999 0 0.40758663568507669 -0.05979159452420562 0 0.41244659462219813 -0.045956884752099442 0 0.39371796485857402 -0.064553775206941999 0 0.38423079938881488 -0.058426932008753103 0 0.38979125566898748 -0.049841407712310513 0 0.38423079938881488 -0.058426932008753103 0 0.38979125566898748 -0.049841407712310513 0 0.37724231368770639 -0.04870612718891737 0 0.37721822141984568 -0.064298563505272896 0 0.38423079938881488 -0.058426932008753103 0 0.37636022130516772 -0.057246420856459063 0 0.38423079938881488 -0.058426932008753103 0 0.37724231368770639 -0.04870612718891737 0 0.37636022130516772 -0.057246420856459063 0 0.38979125566898748 -0.049841407712310513 0 0.37724231368770639 -0.04870612718891737 0 0.3802475533575394 -0.033745099670165778 0 0.38979125566898748 -0.049841407712310513 0 0.3802475533575394 -0.033745099670165778 0 0.3991134159738316 -0.030487202135540091 0 0.37724231368770639 -0.04870612718891737 0 0.3802475533575394 -0.033745099670165778 0 0.37109009775961738 -0.040213838624253803 0 0.3802475533575394 -0.033745099670165778 0 0.38348208419736851 -0.017412673190290471 0 0.37145302909906158 -0.02706582201912763 0 0.3802475533575394 -0.033745099670165778 0 0.38348208419736851 -0.017412673190290471 0 0.3991134159738316 -0.030487202135540091 0 0.40843557627867583 -0.011132996558769681 0 0.3991134159738316 -0.030487202135540091 0 0.39781309913390028 -0.017938728668410179 0 0.38348208419736851 -0.017412673190290471 0 0.3991134159738316 -0.030487202135540091 0 0.39781309913390028 -0.017938728668410179 0 0.409325379867992 -0.014772019570520691 0 0.40843557627867583 -0.011132996558769681 0 0.3991134159738316 -0.030487202135540091 0 0.40843557627867583 -0.011132996558769681 0 0.3991134159738316 -0.030487202135540091 0 0.40442364275137582 0.0052745776550867512 0 0.40843557627867583 -0.011132996558769681 0 0.40013229690593199 -0.0038961027493012502 0 0.40843557627867583 -0.011132996558769681 0 0.39781309913390028 -0.017938728668410179 0 0.40040040713219011 -0.010570133674618979 0 0.40843557627867583 -0.011132996558769681 0 0.40013229690593199 -0.0038961027493012502 0 0.40040040713219011 -0.010570133674618979 0 0.38348208419736851 -0.017412673190290471 0 0.39781309913390028 -0.017938728668410179 0 0.39301275335799279 -0.0069641241433856336 0 0.39781309913390028 -0.017938728668410179 0 0.40040040713219011 -0.010570133674618979 0 0.39301275335799279 -0.0069641241433856336 0 0.39381413030831619 0.0045237730216941092 0 0.40013229690593199 -0.0038961027493012502 0 0.39301275335799279 -0.0069641241433856336 0 0.40013229690593199 -0.0038961027493012502 0 0.40040040713219011 -0.010570133674618979 0 0.39301275335799279 -0.0069641241433856336 0 0.38112383196394201 0.0038196551432573039 0 0.38348208419736851 -0.017412673190290471 0 0.39301275335799279 -0.0069641241433856336 0 0.38112383196394201 0.0038196551432573039 0 0.38348208419736851 -0.017412673190290471 0 0.36390872345592179 -0.012123251129401109 0 0.38112383196394201 0.0038196551432573039 0 0.36390872345592179 -0.012123251129401109 0 0.37275790797876851 0.010516135893525231 0 0.36390872345592179 -0.012123251129401109 0 0.3479657029097607 -0.0024300371965174389 0 0.38348208419736851 -0.017412673190290471 0 0.36390872345592179 -0.012123251129401109 0 0.37145302909906158 -0.02706582201912763 0 0.36390872345592179 -0.012123251129401109 0 0.37145302909906158 -0.02706582201912763 0 0.35975804192947552 -0.033998083520165367 0 0.36390872345592179 -0.012123251129401109 0 0.34910359076991421 -0.015741647425449541 0 0.34669361494790157 -0.028066157402059571 0 0.36390872345592179 -0.012123251129401109 0 0.34669361494790157 -0.028066157402059571 0 0.35975804192947552 -0.033998083520165367 0 0.36390872345592179 -0.012123251129401109 0 0.34669361494790157 -0.028066157402059571 0 0.34910359076991421 -0.015741647425449541 0 0.34669361494790157 -0.028066157402059571 0 0.33872210467482128 -0.023219550435617641 0 0.34910359076991421 -0.015741647425449541 0 0.3479657029097607 -0.0024300371965174389 0 0.33872210467482128 -0.023219550435617641 0 0.36390872345592179 -0.012123251129401109 0 0.34910359076991421 -0.015741647425449541 0 0.3479657029097607 -0.0024300371965174389 0 0.33658577833022779 0.0080623827189060058 0 0.31890639314761021 0.001858299874506916 0 0.33198951290049422 -0.010772599731941741 0 0.3479657029097607 -0.0024300371965174389 0 0.33198951290049422 -0.010772599731941741 0 0.33872210467482128 -0.023219550435617641 0 0.3479657029097607 -0.0024300371965174389 0 0.33198951290049422 -0.010772599731941741 0 0.3479657029097607 -0.0024300371965174389 0 0.33872210467482128 -0.023219550435617641 0 0.33658577833022779 0.0080623827189060058 0 0.3479657029097607 -0.0024300371965174389 0 0.33198951290049422 -0.010772599731941741 0 0.33198951290049422 -0.010772599731941741 0 0.33872210467482128 -0.023219550435617641 0 0.32636293096431318 -0.030174054207075258 0 0.3160133228912293 -0.019115162267369219 0 0.31362732957183881 -0.03641254398311386 0 0.3160133228912293 -0.019115162267369219 0 0.31362732957183881 -0.03641254398311386 0 0.3102392233643283 -0.02213032335151802 0 0.32636293096431318 -0.030174054207075258 0 0.3160133228912293 -0.019115162267369219 0 0.31362732957183881 -0.03641254398311386 0 0.33198951290049422 -0.010772599731941741 0 0.32636293096431318 -0.030174054207075258 0 0.3160133228912293 -0.019115162267369219 0 0.3160133228912293 -0.019115162267369219 0 0.3102392233643283 -0.02213032335151802 0 0.31890639314761021 0.001858299874506916 0 0.3160133228912293 -0.019115162267369219 0 0.33198951290049422 -0.010772599731941741 0 0.3160133228912293 -0.019115162267369219 0 0.31890639314761021 0.001858299874506916 0 0.3160133228912293 -0.019115162267369219 0 0.3055889252128855 -0.0025274596471978501 0 0.31890639314761021 0.001858299874506916 0 0.33198951290049422 -0.010772599731941741 0 0.3160133228912293 -0.019115162267369219 0 0.31795997445641849 -0.054676372319646532 0 0.31362732957183881 -0.03641254398311386 0 0.31010452438234709 -0.061951302024687849 0 0.31795997445641849 -0.054676372319646532 0 0.32947850643988053 -0.044009063674717068 0 0.32539420119948231 -0.053194958140226671 0 0.31795997445641849 -0.054676372319646532 0 0.32947850643988053 -0.044009063674717068 0 0.32539420119948231 -0.053194958140226671 0 0.32947850643988053 -0.044009063674717068 0 0.32539420119948231 -0.053194958140226671 0 0.32414697735197279 -0.059329753512177473 0 0.32951667796395351 -0.05785179176588328 0 0.32414697735197279 -0.059329753512177473 0 0.32760304242171889 -0.062927006484053666 0 0.32160246957868038 -0.063421848174058132 0 0.32414697735197279 -0.059329753512177473 0 0.32951667796395351 -0.05785179176588328 0 0.32760304242171889 -0.062927006484053666 0 0.32414697735197279 -0.059329753512177473 0 0.32023177540405767 -0.058597080635606313 0 0.32160246957868038 -0.063421848174058132 0 0.32539420119948231 -0.053194958140226671 0 0.32414697735197279 -0.059329753512177473 0 0.32023177540405767 -0.058597080635606313 0 0.32539420119948231 -0.053194958140226671 0 0.31795997445641849 -0.054676372319646532 0 0.32023177540405767 -0.058597080635606313 0 0.31795997445641849 -0.054676372319646532 0 0.32023177540405767 -0.058597080635606313 0 0.31664509321580719 -0.061325281442993797 0 0.31795997445641849 -0.054676372319646532 0 0.31664509321580719 -0.061325281442993797 0 0.31010452438234709 -0.061951302024687849 0 0.31795997445641849 -0.054676372319646532 0 0.31010452438234709 -0.061951302024687849 0 0.32023177540405767 -0.058597080635606313 0 0.31664509321580719 -0.061325281442993797 0 0.32160246957868038 -0.063421848174058132 0 0.32636293096431318 -0.030174054207075258 0 0.31362732957183881 -0.03641254398311386 0 0.32947850643988053 -0.044009063674717068 0 0.31795997445641849 -0.054676372319646532 0 0.31362732957183881 -0.03641254398311386 0 0.32947850643988053 -0.044009063674717068 0 0.31795997445641849 -0.054676372319646532 0 0.31362732957183881 -0.03641254398311386 0 0.32947850643988053 -0.044009063674717068 0 0.33969074610691652 -0.042356468804712541 0 0.33615197661194779 -0.052345343618500538 0 0.34669361494790157 -0.028066157402059571 0 0.32947850643988053 -0.044009063674717068 0 0.33969074610691652 -0.042356468804712541 0 0.34669361494790157 -0.028066157402059571 0 0.32947850643988053 -0.044009063674717068 0 0.33872210467482128 -0.023219550435617641 0 0.32947850643988053 -0.044009063674717068 0 0.34669361494790157 -0.028066157402059571 0 0.33872210467482128 -0.023219550435617641 0 0.32947850643988053 -0.044009063674717068 0 0.33872210467482128 -0.023219550435617641 0 0.32636293096431318 -0.030174054207075258 0 0.32947850643988053 -0.044009063674717068 0 0.33969074610691652 -0.042356468804712541 0 0.33615197661194779 -0.052345343618500538 0 0.34643888642793491 -0.045005310523572033 0 0.33615197661194779 -0.052345343618500538 0 0.34551813299141632 -0.05309655881717272 0 0.34643888642793491 -0.045005310523572033 0 0.32539420119948231 -0.053194958140226671 0 0.33615197661194779 -0.052345343618500538 0 0.32951667796395351 -0.05785179176588328 0 0.32539420119948231 -0.053194958140226671 0 0.32947850643988053 -0.044009063674717068 0 0.33615197661194779 -0.052345343618500538 0 0.33615197661194779 -0.052345343618500538 0 0.32951667796395351 -0.05785179176588328 0 0.33428719223464559 -0.061461897074458052 0 0.32951667796395351 -0.05785179176588328 0 0.33428719223464559 -0.061461897074458052 0 0.32760304242171889 -0.062927006484053666 0 0.33615197661194779 -0.052345343618500538 0 0.34271188420596949 -0.061018646473247701 0 0.34551813299141632 -0.05309655881717272 0 0.33615197661194779 -0.052345343618500538 0 0.33428719223464559 -0.061461897074458052 0 0.34271188420596949 -0.061018646473247701 0 0.34271188420596949 -0.061018646473247701 0 0.34551813299141632 -0.05309655881717272 0 0.35525321957175687 -0.063379322838877233 0 0.34551813299141632 -0.05309655881717272 0 0.35384272317769372 -0.052267274638003319 0 0.35525321957175687 -0.063379322838877233 0 0.34551813299141632 -0.05309655881717272 0 0.35384272317769372 -0.052267274638003319 0 0.34643888642793491 -0.045005310523572033 0 0.35384272317769372 -0.052267274638003319 0 0.34643888642793491 -0.045005310523572033 0 0.35469656344146189 -0.04337817736133863 0 0.35384272317769372 -0.052267274638003319 0 0.35469656344146189 -0.04337817736133863 0 0.36674955072430382 -0.057554060722892861 0 0.35384272317769372 -0.052267274638003319 0 0.36674955072430382 -0.057554060722892861 0 0.35525321957175687 -0.063379322838877233 0 0.34669361494790157 -0.028066157402059571 0 0.34643888642793491 -0.045005310523572033 0 0.35469656344146189 -0.04337817736133863 0 0.34669361494790157 -0.028066157402059571 0 0.33969074610691652 -0.042356468804712541 0 0.34643888642793491 -0.045005310523572033 0 0.34669361494790157 -0.028066157402059571 0 0.35469656344146189 -0.04337817736133863 0 0.35975804192947552 -0.033998083520165367 0 0.35469656344146189 -0.04337817736133863 0 0.35975804192947552 -0.033998083520165367 0 0.36674955072430382 -0.057554060722892861 0 0.35975804192947552 -0.033998083520165367 0 0.36674955072430382 -0.057554060722892861 0 0.35975804192947552 -0.033998083520165367 0 0.37109009775961738 -0.040213838624253803 0 0.36674955072430382 -0.057554060722892861 0 0.37145302909906158 -0.02706582201912763 0 0.35975804192947552 -0.033998083520165367 0 0.37109009775961738 -0.040213838624253803 0 0.3802475533575394 -0.033745099670165778 0 0.37145302909906158 -0.02706582201912763 0 0.37109009775961738 -0.040213838624253803 0 0.37724231368770639 -0.04870612718891737 0 0.37109009775961738 -0.040213838624253803 0 0.36674955072430382 -0.057554060722892861 0 0.37724231368770639 -0.04870612718891737 0 0.37636022130516772 -0.057246420856459063 0 0.36674955072430382 -0.057554060722892861 0 0.37721822141984568 -0.064298563505272896 0 0.37636022130516772 -0.057246420856459063 0 0.36674955072430382 -0.057554060722892861 0 0.37721822141984568 -0.064298563505272896 0 0.36674955072430382 -0.057554060722892861 0 0.37374105951913261 -0.081110037925620215 0 0.36674955072430382 -0.057554060722892861 0 0.3668054812428645 -0.071495133823090848 0 0.37374105951913261 -0.081110037925620215 0 0.36674955072430382 -0.057554060722892861 0 0.37374105951913261 -0.081110037925620215 0 0.36674955072430382 -0.057554060722892861 0 0.3668054812428645 -0.071495133823090848 0 0.35525321957175687 -0.063379322838877233 0 0.3751130057070009 -0.085732435475734503 0 0.36304356594871251 -0.099471490863759782 0 0.35758944839013668 -0.095779259227042821 0 0.3668054812428645 -0.071495133823090848 0 0.35758944839013668 -0.095779259227042821 0 0.3751130057070009 -0.085732435475734503 0 0.37374105951913261 -0.081110037925620215 0 0.35758944839013668 -0.095779259227042821 0 0.3668054812428645 -0.071495133823090848 0 0.37374105951913261 -0.081110037925620215 0 0.35758944839013668 -0.095779259227042821 0 0.37374105951913261 -0.081110037925620215 0 0.35758944839013668 -0.095779259227042821 0 0.3751130057070009 -0.085732435475734503 0 0.37374105951913261 -0.081110037925620215 0 0.3751130057070009 -0.085732435475734503 0 0.36304356594871251 -0.099471490863759782 0 0.3668054812428645 -0.071495133823090848 0 0.35310458746355672 -0.083785075654806807 0 0.35758944839013668 -0.095779259227042821 0 0.35310458746355672 -0.083785075654806807 0 0.35758944839013668 -0.095779259227042821 0 0.34453518798717642 -0.095362804736782228 0 0.35310458746355672 -0.083785075654806807 0 0.34453518798717642 -0.095362804736782228 0 0.34274751159657019 -0.085806357538208811 0 0.35310458746355672 -0.083785075654806807 0 0.34750342683550528 -0.076934796392801374 0 0.34274751159657019 -0.085806357538208811 0 0.34750342683550528 -0.076934796392801374 0 0.34757755623431102 -0.068273253414111459 0 0.35523871581211192 -0.072549724563525167 0 0.34750342683550528 -0.076934796392801374 0 0.34757755623431102 -0.068273253414111459 0 0.34108678975915702 -0.072502068425317978 0 0.34271188420596949 -0.061018646473247701 0 0.34757755623431102 -0.068273253414111459 0 0.35525321957175687 -0.063379322838877233 0 0.3668054812428645 -0.071495133823090848 0 0.35525321957175687 -0.063379322838877233 0 0.35523871581211192 -0.072549724563525167 0 0.34757755623431102 -0.068273253414111459 0 0.35525321957175687 -0.063379322838877233 0 0.35523871581211192 -0.072549724563525167 0 0.35310458746355672 -0.083785075654806807 0 0.34750342683550528 -0.076934796392801374 0 0.35523871581211192 -0.072549724563525167 0 0.3668054812428645 -0.071495133823090848 0 0.35310458746355672 -0.083785075654806807 0 0.35523871581211192 -0.072549724563525167 0 0.3682462871600341 -0.11777968654349071 0 0.36304356594871251 -0.099471490863759782 0 0.35097412619042478 -0.1132105462517858 0 0.3682462871600341 -0.11777968654349071 0 0.35558431583869687 -0.12533256933512829 0 0.3641226395341462 -0.1315275243055109 0 0.3751130057070009 -0.085732435475734503 0 0.38027645953681688 -0.1031292813171419 0 0.36304356594871251 -0.099471490863759782 0 0.38027645953681688 -0.1031292813171419 0 0.3682462871600341 -0.11777968654349071 0 0.36304356594871251 -0.099471490863759782 0 0.36304356594871251 -0.099471490863759782 0 0.35758944839013668 -0.095779259227042821 0 0.35097412619042478 -0.1132105462517858 0 0.35758944839013668 -0.095779259227042821 0 0.35097412619042478 -0.1132105462517858 0 0.35758944839013668 -0.095779259227042821 0 0.34605693620843458 -0.1062533210406658 0 0.35097412619042478 -0.1132105462517858 0 0.35758944839013668 -0.095779259227042821 0 0.34605693620843458 -0.1062533210406658 0 0.35758944839013668 -0.095779259227042821 0 0.34453518798717642 -0.095362804736782228 0 0.34605693620843458 -0.1062533210406658 0 0.36304356594871251 -0.099471490863759782 0 0.35097412619042478 -0.1132105462517858 0 0.35097412619042478 -0.1132105462517858 0 0.34363338976240387 -0.13255329023111839 0 0.35558431583869687 -0.12533256933512829 0 0.3682462871600341 -0.11777968654349071 0 0.35097412619042478 -0.1132105462517858 0 0.35558431583869687 -0.12533256933512829 0 0.35097412619042478 -0.1132105462517858 0 0.34363338976240387 -0.13255329023111839 0 0.35097412619042478 -0.1132105462517858 0 0.3410040121887763 -0.1245598674495334 0 0.34363338976240387 -0.13255329023111839 0 0.34605693620843458 -0.1062533210406658 0 0.35097412619042478 -0.1132105462517858 0 0.34313987465359219 -0.1151877793990683 0 0.35097412619042478 -0.1132105462517858 0 0.3410040121887763 -0.1245598674495334 0 0.34313987465359219 -0.1151877793990683 0 0.35097412619042478 -0.1132105462517858 0 0.3410040121887763 -0.1245598674495334 0 0.3410040121887763 -0.1245598674495334 0 0.34313987465359219 -0.1151877793990683 0 0.3345244240267321 -0.11672738285428851 0 0.3410040121887763 -0.1245598674495334 0 0.3345244240267321 -0.11672738285428851 0 0.34605693620843458 -0.1062533210406658 0 0.34313987465359219 -0.1151877793990683 0 0.3345244240267321 -0.11672738285428851 0 0.34605693620843458 -0.1062533210406658 0 0.3345244240267321 -0.11672738285428851 0 0.3345244240267321 -0.11672738285428851 0 0.33282894387665868 -0.1047951398596281 0 0.32148459133704332 -0.1007258965294955 0 0.34453518798717642 -0.095362804736782228 0 0.34605693620843458 -0.1062533210406658 0 0.33282894387665868 -0.1047951398596281 0 0.34605693620843458 -0.1062533210406658 0 0.3345244240267321 -0.11672738285428851 0 0.33282894387665868 -0.1047951398596281 0 0.34453518798717642 -0.095362804736782228 0 0.33282894387665868 -0.1047951398596281 0 0.3342611115987229 -0.092828437246176593 0 0.33282894387665868 -0.1047951398596281 0 0.3284362693673013 -0.099193486717697177 0 0.3342611115987229 -0.092828437246176593 0 0.3284362693673013 -0.099193486717697177 0 0.32952735405035222 -0.094025440126564733 0 0.3342611115987229 -0.092828437246176593 0 0.32148459133704332 -0.1007258965294955 0 0.3071184245910098 -0.083599186581727047 0 0.31173189284044511 -0.1020207151795537 0 0.3345244240267321 -0.11672738285428851 0 0.32148459133704332 -0.1007258965294955 0 0.3284362693673013 -0.099193486717697177 0 0.32952735405035222 -0.094025440126564733 0 0.32575894221782492 -0.093391625468209574 0 0.3284362693673013 -0.099193486717697177 0 0.32148459133704332 -0.1007258965294955 0 0.32575894221782492 -0.093391625468209574 0 0.32148459133704332 -0.1007258965294955 0 0.32073477799769962 -0.1142940979797626 0 0.31202951444555321 -0.11129331199032561 0 0.32148459133704332 -0.1007258965294955 0 0.31202951444555321 -0.11129331199032561 0 0.31173189284044511 -0.1020207151795537 0 0.33282894387665868 -0.1047951398596281 0 0.3284362693673013 -0.099193486717697177 0 0.32148459133704332 -0.1007258965294955 0 0.3345244240267321 -0.11672738285428851 0 0.32073477799769962 -0.1142940979797626 0 0.31754961397010362 -0.1279297110207635 0 0.3345244240267321 -0.11672738285428851 0 0.32148459133704332 -0.1007258965294955 0 0.32073477799769962 -0.1142940979797626 0 0.32073477799769962 -0.1142940979797626 0 0.31399309307936762 -0.1195896428898832 0 0.31202951444555321 -0.11129331199032561 0 0.32073477799769962 -0.1142940979797626 0 0.31399309307936762 -0.1195896428898832 0 0.31754961397010362 -0.1279297110207635 0 0.31399309307936762 -0.1195896428898832 0 0.31044142209949521 -0.1245786018676444 0 0.31754961397010362 -0.1279297110207635 0 0.33374811168501561 -0.077820988224732865 0 0.33260772107545927 -0.069453139482011955 0 0.34108678975915702 -0.072502068425317978 0 0.33374811168501561 -0.077820988224732865 0 0.3284773894656825 -0.073864106319736125 0 0.33260772107545927 -0.069453139482011955 0 0.33374811168501561 -0.077820988224732865 0 0.3284773894656825 -0.073864106319736125 0 0.3263407590045263 -0.079683750156796948 0 0.3284773894656825 -0.073864106319736125 0 0.33260772107545927 -0.069453139482011955 0 0.32497814538517161 -0.067994537549679046 0 0.33260772107545927 -0.069453139482011955 0 0.32760304242171889 -0.062927006484053666 0 0.32497814538517161 -0.067994537549679046 0 0.33428719223464559 -0.061461897074458052 0 0.33260772107545927 -0.069453139482011955 0 0.32760304242171889 -0.062927006484053666 0 0.33428719223464559 -0.061461897074458052 0 0.33260772107545927 -0.069453139482011955 0 0.33973441475292199 -0.066332004086914115 0 0.33428719223464559 -0.061461897074458052 0 0.34271188420596949 -0.061018646473247701 0 0.33973441475292199 -0.066332004086914115 0 0.33260772107545927 -0.069453139482011955 0 0.33973441475292199 -0.066332004086914115 0 0.34108678975915702 -0.072502068425317978 0 0.34757755623431102 -0.068273253414111459 0 0.33973441475292199 -0.066332004086914115 0 0.34108678975915702 -0.072502068425317978 0 0.34271188420596949 -0.061018646473247701 0 0.34757755623431102 -0.068273253414111459 0 0.33973441475292199 -0.066332004086914115 0 0.33374811168501561 -0.077820988224732865 0 0.34108678975915702 -0.072502068425317978 0 0.34041119844539502 -0.078944519374725755 0 0.34750342683550528 -0.076934796392801374 0 0.34108678975915702 -0.072502068425317978 0 0.34041119844539502 -0.078944519374725755 0 0.34750342683550528 -0.076934796392801374 0 0.34041119844539502 -0.078944519374725755 0 0.34274751159657019 -0.085806357538208811 0 0.34041119844539502 -0.078944519374725755 0 0.34274751159657019 -0.085806357538208811 0 0.33611043367640547 -0.084463627957539145 0 0.33374811168501561 -0.077820988224732865 0 0.34041119844539502 -0.078944519374725755 0 0.33611043367640547 -0.084463627957539145 0 0.34274751159657019 -0.085806357538208811 0 0.33611043367640547 -0.084463627957539145 0 0.3342611115987229 -0.092828437246176593 0 0.34453518798717642 -0.095362804736782228 0 0.34274751159657019 -0.085806357538208811 0 0.3342611115987229 -0.092828437246176593 0 0.33611043367640547 -0.084463627957539145 0 0.3342611115987229 -0.092828437246176593 0 0.32951460071574479 -0.086938275682689178 0 0.32952735405035222 -0.094025440126564733 0 0.32951460071574479 -0.086938275682689178 0 0.32575894221782492 -0.093391625468209574 0 0.32952735405035222 -0.094025440126564733 0 0.3342611115987229 -0.092828437246176593 0 0.32951460071574479 -0.086938275682689178 0 0.33374811168501561 -0.077820988224732865 0 0.32951460071574479 -0.086938275682689178 0 0.3263407590045263 -0.079683750156796948 0 0.33374811168501561 -0.077820988224732865 0 0.33611043367640547 -0.084463627957539145 0 0.32951460071574479 -0.086938275682689178 0 0.32148459133704332 -0.1007258965294955 0 0.30781168081527122 -0.078573389803361426 0 0.32148459133704332 -0.1007258965294955 0 0.31704797089045789 -0.083063996679801189 0 0.30781168081527122 -0.078573389803361426 0 0.32148459133704332 -0.1007258965294955 0 0.3071184245910098 -0.083599186581727047 0 0.32148459133704332 -0.1007258965294955 0 0.32186690557672731 -0.086303178833660732 0 0.31704797089045789 -0.083063996679801189 0 0.32951460071574479 -0.086938275682689178 0 0.3263407590045263 -0.079683750156796948 0 0.32186690557672731 -0.086303178833660732 0 0.3263407590045263 -0.079683750156796948 0 0.32103881280011592 -0.079800451173821785 0 0.32186690557672731 -0.086303178833660732 0 0.32148459133704332 -0.1007258965294955 0 0.32575894221782492 -0.093391625468209574 0 0.32186690557672731 -0.086303178833660732 0 0.32951460071574479 -0.086938275682689178 0 0.32575894221782492 -0.093391625468209574 0 0.32186690557672731 -0.086303178833660732 0 0.31704797089045789 -0.083063996679801189 0 0.31384939829304948 -0.077204854957470703 0 0.30781168081527122 -0.078573389803361426 0 0.32103881280011592 -0.079800451173821785 0 0.31704797089045789 -0.083063996679801189 0 0.31781237445498789 -0.075474696094991578 0 0.32103881280011592 -0.079800451173821785 0 0.32186690557672731 -0.086303178833660732 0 0.31704797089045789 -0.083063996679801189 0 0.31704797089045789 -0.083063996679801189 0 0.31384939829304948 -0.077204854957470703 0 0.31781237445498789 -0.075474696094991578 0 0.31384939829304948 -0.077204854957470703 0 0.31423936752838683 -0.072070942314389944 0 0.31781237445498789 -0.075474696094991578 0 0.31423936752838683 -0.072070942314389944 0 0.31781237445498789 -0.075474696094991578 0 0.31828781240304099 -0.068043978177319164 0 0.31781237445498789 -0.075474696094991578 0 0.32338567929664191 -0.07341910240352098 0 0.31828781240304099 -0.068043978177319164 0 0.3263407590045263 -0.079683750156796948 0 0.32103881280011592 -0.079800451173821785 0 0.32338567929664191 -0.07341910240352098 0 0.32103881280011592 -0.079800451173821785 0 0.31781237445498789 -0.075474696094991578 0 0.32338567929664191 -0.07341910240352098 0 0.3284773894656825 -0.073864106319736125 0 0.32338567929664191 -0.07341910240352098 0 0.32497814538517161 -0.067994537549679046 0 0.3284773894656825 -0.073864106319736125 0 0.3263407590045263 -0.079683750156796948 0 0.32338567929664191 -0.07341910240352098 0 0.32760304242171889 -0.062927006484053666 0 0.32497814538517161 -0.067994537549679046 0 0.32160246957868038 -0.063421848174058132 0 0.32497814538517161 -0.067994537549679046 0 0.32160246957868038 -0.063421848174058132 0 0.31828781240304099 -0.068043978177319164 0 0.32338567929664191 -0.07341910240352098 0 0.32497814538517161 -0.067994537549679046 0 0.31828781240304099 -0.068043978177319164 0 0.31664509321580719 -0.061325281442993797 0 0.32160246957868038 -0.063421848174058132 0 0.31828781240304099 -0.068043978177319164 0 0.31423936752838683 -0.072070942314389944 0 0.31828781240304099 -0.068043978177319164 0 0.31010452438234709 -0.061951302024687849 0 0.31664509321580719 -0.061325281442993797 0 0.31828781240304099 -0.068043978177319164 0 0.31010452438234709 -0.061951302024687849 0 0.30211760281797961 -0.069347987433229313 0 0.31010452438234709 -0.061951302024687849 0 0.30781168081527122 -0.078573389803361426 0 0.31010452438234709 -0.061951302024687849 0 0.31423936752838683 -0.072070942314389944 0 0.30781168081527122 -0.078573389803361426 0 0.31010452438234709 -0.061951302024687849 0 0.30211760281797961 -0.069347987433229313 0 0.30781168081527122 -0.078573389803361426 0 0.31010452438234709 -0.061951302024687849 0 0.30211760281797961 -0.069347987433229313 0 0.2982737394913979 -0.072907787983545372 0 0.30781168081527122 -0.078573389803361426 0 0.30211760281797961 -0.069347987433229313 0 0.2982737394913979 -0.072907787983545372 0 0.30211760281797961 -0.069347987433229313 0 0.30781168081527122 -0.078573389803361426 0 0.31384939829304948 -0.077204854957470703 0 0.31423936752838683 -0.072070942314389944 0 0.30781168081527122 -0.078573389803361426 0 0.32148459133704332 -0.1007258965294955 0 0.3071184245910098 -0.083599186581727047 0 0.30781168081527122 -0.078573389803361426 0 0.3071184245910098 -0.083599186581727047 0 0.30781168081527122 -0.078573389803361426 0 0.2982737394913979 -0.072907787983545372 0 0.3071184245910098 -0.083599186581727047 0 0.29822426183938489 -0.082049265500422797 0 0.3071184245910098 -0.083599186581727047 0 0.29896747746778918 -0.091125791476050072 0 0.29822426183938489 -0.082049265500422797 0 0.2982737394913979 -0.072907787983545372 0 0.3071184245910098 -0.083599186581727047 0 0.30781168081527122 -0.078573389803361426 0 0.2982737394913979 -0.072907787983545372 0 0.3071184245910098 -0.083599186581727047 0 0.2982737394913979 -0.072907787983545372 0 0.29822426183938489 -0.082049265500422797 0 0.28916680791020832 -0.081341714296745443 0 0.28916680791020832 -0.081341714296745443 0 0.2968283419156697 -0.1021420824960174 0 0.29896747746778918 -0.091125791476050072 0 0.29822426183938489 -0.082049265500422797 0 0.28916680791020832 -0.081341714296745443 0 0.28916680791020832 -0.081341714296745443 0 0.28539186046252601 -0.096983456386646932 0 0.27058640480806062 -0.098549019439654065 0 0.28916680791020832 -0.081341714296745443 0 0.28539186046252601 -0.096983456386646932 0 0.2968283419156697 -0.1021420824960174 0 0.29896747746778918 -0.091125791476050072 0 0.28916680791020832 -0.081341714296745443 0 0.2968283419156697 -0.1021420824960174 0 0.28916680791020832 -0.081341714296745443 0 0.28271234711725041 -0.063818440116200539 0 0.2982737394913979 -0.072907787983545372 0 0.28916680791020832 -0.081341714296745443 0 0.28271234711725041 -0.063818440116200539 0 0.2982737394913979 -0.072907787983545372 0 0.2872658129078467 -0.059601476959599678 0 0.2982737394913979 -0.072907787983545372 0 0.28271234711725041 -0.063818440116200539 0 0.2872658129078467 -0.059601476959599678 0 0.30211760281797961 -0.069347987433229313 0 0.2982737394913979 -0.072907787983545372 0 0.2872658129078467 -0.059601476959599678 0 0.2982737394913979 -0.072907787983545372 0 0.28916680791020832 -0.081341714296745443 0 0.3038929273969655 -0.10698259496557271 0 0.30066743020291892 -0.13036600334941789 0 0.3038929273969655 -0.10698259496557271 0 0.29587436057613992 -0.11826133188006011 0 0.30066743020291892 -0.13036600334941789 0 0.30863444644798049 -0.1188915605582658 0 0.3038929273969655 -0.10698259496557271 0 0.30066743020291892 -0.13036600334941789 0 0.31044142209949521 -0.1245786018676444 0 0.30863444644798049 -0.1188915605582658 0 0.30066743020291892 -0.13036600334941789 0 0.31399309307936762 -0.1195896428898832 0 0.31044142209949521 -0.1245786018676444 0 0.30863444644798049 -0.1188915605582658 0 0.30863444644798049 -0.1188915605582658 0 0.31202951444555321 -0.11129331199032561 0 0.3038929273969655 -0.10698259496557271 0 0.31399309307936762 -0.1195896428898832 0 0.30863444644798049 -0.1188915605582658 0 0.31202951444555321 -0.11129331199032561 0 0.3038929273969655 -0.10698259496557271 0 0.29356276621672078 -0.11019805380327879 0 0.29587436057613992 -0.11826133188006011 0 0.3071184245910098 -0.083599186581727047 0 0.3038929273969655 -0.10698259496557271 0 0.31173189284044511 -0.1020207151795537 0 0.3071184245910098 -0.083599186581727047 0 0.29896747746778918 -0.091125791476050072 0 0.3038929273969655 -0.10698259496557271 0 0.29896747746778918 -0.091125791476050072 0 0.3038929273969655 -0.10698259496557271 0 0.2968283419156697 -0.1021420824960174 0 0.3071184245910098 -0.083599186581727047 0 0.3038929273969655 -0.10698259496557271 0 0.3038929273969655 -0.10698259496557271 0 0.2968283419156697 -0.1021420824960174 0 0.29356276621672078 -0.11019805380327879 0 0.31202951444555321 -0.11129331199032561 0 0.3038929273969655 -0.10698259496557271 0 0.31173189284044511 -0.1020207151795537 0 0.28539186046252601 -0.096983456386646932 0 0.2849858872161658 -0.10590100931417069 0 0.2968283419156697 -0.1021420824960174 0 0.2849858872161658 -0.10590100931417069 0 0.2968283419156697 -0.1021420824960174 0 0.29356276621672078 -0.11019805380327879 0 0.29356276621672078 -0.11019805380327879 0 0.28625216690275029 -0.11795374188743001 0 0.29587436057613992 -0.11826133188006011 0 0.2849858872161658 -0.10590100931417069 0 0.29356276621672078 -0.11019805380327879 0 0.28625216690275029 -0.11795374188743001 0 0.2849858872161658 -0.10590100931417069 0 0.28625216690275029 -0.11795374188743001 0 0.27482379339963892 -0.11292958514423281 0 0.28625216690275029 -0.11795374188743001 0 0.29587436057613992 -0.11826133188006011 0 0.29193279350914009 -0.12601283141723671 0 0.29587436057613992 -0.11826133188006011 0 0.29193279350914009 -0.12601283141723671 0 0.30066743020291892 -0.13036600334941789 0 0.28625216690275029 -0.11795374188743001 0 0.27482379339963892 -0.11292958514423281 0 0.26963143202327772 -0.12556072490087261 0 0.28625216690275029 -0.11795374188743001 0 0.26963143202327772 -0.12556072490087261 0 0.2808334023674669 -0.13099183576560669 0 0.27482379339963892 -0.11292958514423281 0 0.27058640480806062 -0.098549019439654065 0 0.25200600170591198 -0.1157563245825616 0 0.2849858872161658 -0.10590100931417069 0 0.27482379339963892 -0.11292958514423281 0 0.27058640480806062 -0.098549019439654065 0 0.28539186046252601 -0.096983456386646932 0 0.2849858872161658 -0.10590100931417069 0 0.27058640480806062 -0.098549019439654065 0 0.27058640480806062 -0.098549019439654065 0 0.25705980902034259 -0.087081582156659412 0 0.2449733129926695 -0.1008425048982888 0 0.27058640480806062 -0.098549019439654065 0 0.25200600170591198 -0.1157563245825616 0 0.27058640480806062 -0.098549019439654065 0 0.25200600170591198 -0.1157563245825616 0 0.2449733129926695 -0.1008425048982888 0 0.27482379339963892 -0.11292958514423281 0 0.25200600170591198 -0.1157563245825616 0 0.26963143202327772 -0.12556072490087261 0 0.25200600170591198 -0.1157563245825616 0 0.25278991145217811 -0.13329751277266699 0 0.26963143202327772 -0.12556072490087261 0 0.28271234711725041 -0.063818440116200539 0 0.27054740538872801 -0.076798806954199772 0 0.26516374245557478 -0.058220782443371033 0 0.28916680791020832 -0.081341714296745443 0 0.28271234711725041 -0.063818440116200539 0 0.27054740538872801 -0.076798806954199772 0 0.27058640480806062 -0.098549019439654065 0 0.27054740538872801 -0.076798806954199772 0 0.25705980902034259 -0.087081582156659412 0 0.28916680791020832 -0.081341714296745443 0 0.27058640480806062 -0.098549019439654065 0 0.28916680791020832 -0.081341714296745443 0 0.27058640480806062 -0.098549019439654065 0 0.27054740538872801 -0.076798806954199772 0 0.27054740538872801 -0.076798806954199772 0 0.25705980902034259 -0.087081582156659412 0 0.25658434339092911 -0.072244835605310226 0 0.25705980902034259 -0.087081582156659412 0 0.25658434339092911 -0.072244835605310226 0 0.24260757852132581 -0.086972743885844209 0 0.27054740538872801 -0.076798806954199772 0 0.25658434339092911 -0.072244835605310226 0 0.26516374245557478 -0.058220782443371033 0 0.26516374245557478 -0.058220782443371033 0 0.25709784077608921 -0.044424429572376301 0 0.24402431198102109 -0.056541483586260599 0 0.25658434339092911 -0.072244835605310226 0 0.26516374245557478 -0.058220782443371033 0 0.24402431198102109 -0.056541483586260599 0 0.26516374245557478 -0.058220782443371033 0 0.27625788632429438 -0.046295165935654997 0 0.25709784077608921 -0.044424429572376301 0 0.28271234711725041 -0.063818440116200539 0 0.26516374245557478 -0.058220782443371033 0 0.27625788632429438 -0.046295165935654997 0 0.28271234711725041 -0.063818440116200539 0 0.27625788632429438 -0.046295165935654997 0 0.27625788632429438 -0.046295165935654997 0 0.25885049403245908 -0.025253221824478068 0 0.26765102840933103 -0.02292832927573854 0 0.27625788632429438 -0.046295165935654997 0 0.27340198126890569 -0.022823657554957289 0 0.28775979204344271 -0.0460858224940933 0 0.27625788632429438 -0.046295165935654997 0 0.26765102840933103 -0.02292832927573854 0 0.27340198126890569 -0.022823657554957289 0 0.28775979204344271 -0.0460858224940933 0 0.27625788632429438 -0.046295165935654997 0 0.25885049403245908 -0.025253221824478068 0 0.27625788632429438 -0.046295165935654997 0 0.25709784077608921 -0.044424429572376301 0 0.25885049403245908 -0.025253221824478068 0 0.25709784077608921 -0.044424429572376301 0 0.25885049403245908 -0.025253221824478068 0 0.24756494005480839 -0.033887202490842053 0 0.2590441704943689 0.00043850738417854302 0 0.25885049403245908 -0.025253221824478068 0 0.26765102840933103 -0.02292832927573854 0 0.2590441704943689 0.00043850738417854302 0 0.25885049403245908 -0.025253221824478068 0 0.2414431017406225 -0.0042112777133020444 0 0.25885049403245908 -0.025253221824478068 0 0.2414431017406225 -0.0042112777133020444 0 0.2590441704943689 0.00043850738417854302 0 0.26765102840933103 -0.02292832927573854 0 0.2590441704943689 0.00043850738417854302 0 0.27629462104729002 -0.0034176145621518761 0 0.27340198126890569 -0.022823657554957289 0 0.27629462104729002 -0.0034176145621518761 0 0.27340198126890569 -0.022823657554957289 0 0.29207606948005321 -0.014230679590984121 0 0.2590441704943689 0.00043850738417854302 0 0.27340198126890569 -0.022823657554957289 0 0.2590441704943689 0.00043850738417854302 0 0.27340198126890569 -0.022823657554957289 0 0.26765102840933103 -0.02292832927573854 0 0.27625788632429438 -0.046295165935654997 0 0.27340198126890569 -0.022823657554957289 0 0.26765102840933103 -0.02292832927573854 0 0.27340198126890569 -0.022823657554957289 0 0.29207606948005321 -0.014230679590984121 0 0.2976592497081248 -0.035794483151211823 0 0.29084464891779471 0.0018398696142846471 0 0.29207606948005321 -0.014230679590984121 0 0.3055889252128855 -0.0025274596471978501 0 0.29084464891779471 0.0018398696142846471 0 0.27629462104729002 -0.0034176145621518761 0 0.29207606948005321 -0.014230679590984121 0 0.3160133228912293 -0.019115162267369219 0 0.3055889252128855 -0.0025274596471978501 0 0.3102392233643283 -0.02213032335151802 0 0.30173247435384881 -0.01379532432178404 0 0.3055889252128855 -0.0025274596471978501 0 0.3102392233643283 -0.02213032335151802 0 0.3055889252128855 -0.0025274596471978501 0 0.3102392233643283 -0.02213032335151802 0 0.29207606948005321 -0.014230679590984121 0 0.30173247435384881 -0.01379532432178404 0 0.3055889252128855 -0.0025274596471978501 0 0.29207606948005321 -0.014230679590984121 0 0.30371076297781718 -0.025539402049440451 0 0.2976592497081248 -0.035794483151211823 0 0.29207606948005321 -0.014230679590984121 0 0.30173247435384881 -0.01379532432178404 0 0.30371076297781718 -0.025539402049440451 0 0.30173247435384881 -0.01379532432178404 0 0.30371076297781718 -0.025539402049440451 0 0.3102392233643283 -0.02213032335151802 0 0.31362732957183881 -0.03641254398311386 0 0.30371076297781718 -0.025539402049440451 0 0.3102392233643283 -0.02213032335151802 0 0.31362732957183881 -0.03641254398311386 0 0.3102392233643283 -0.02213032335151802 0 0.30371076297781718 -0.025539402049440451 0 0.3102392233643283 -0.02213032335151802 0 0.31362732957183881 -0.03641254398311386 0 0.2976592497081248 -0.035794483151211823 0 0.31010452438234709 -0.061951302024687849 0 0.31362732957183881 -0.03641254398311386 0 0.30371076297781718 -0.025539402049440451 0 0.2976592497081248 -0.035794483151211823 0 0.30211760281797961 -0.069347987433229313 0 0.31010452438234709 -0.061951302024687849 0 0.28775979204344271 -0.0460858224940933 0 0.31362732957183881 -0.03641254398311386 0 0.31010452438234709 -0.061951302024687849 0 0.2976592497081248 -0.035794483151211823 0 0.31010452438234709 -0.061951302024687849 0 0.28775979204344271 -0.0460858224940933 0 0.30211760281797961 -0.069347987433229313 0 0.2872658129078467 -0.059601476959599678 0 0.28775979204344271 -0.0460858224940933 0 0.28271234711725041 -0.063818440116200539 0 0.27625788632429438 -0.046295165935654997 0 0.2872658129078467 -0.059601476959599678 0 0.30211760281797961 -0.069347987433229313 0 0.28775979204344271 -0.0460858224940933 0 0.27625788632429438 -0.046295165935654997 0 0.2872658129078467 -0.059601476959599678 0 0.28775979204344271 -0.0460858224940933 0 0.27625788632429438 -0.046295165935654997 0 0.2872658129078467 -0.059601476959599678 0 0.27340198126890569 -0.022823657554957289 0 0.2976592497081248 -0.035794483151211823 0 0.28775979204344271 -0.0460858224940933 0 0.28753700469514981 -0.20888104885778569 0 0.28874428002438213 -0.23002957229539919 0 0.27666512208957428 -0.2159603505864956 0 0.28753700469514981 -0.20888104885778569 0 0.30115189312437768 -0.20542392195541981 0 0.30162527265974959 -0.2199605956093191 0 0.28753700469514981 -0.20888104885778569 0 0.29090126811138117 -0.19320094542561569 0 0.30115189312437768 -0.20542392195541981 0 0.28753700469514981 -0.20888104885778569 0 0.29090126811138117 -0.19320094542561569 0 0.2796694358559853 -0.19747734752194751 0 0.29090126811138117 -0.19320094542561569 0 0.2796694358559853 -0.19747734752194751 0 0.27347354059828599 -0.1872209155322157 0 0.29090126811138117 -0.19320094542561569 0 0.31167239857112827 -0.19538490422099439 0 0.30115189312437768 -0.20542392195541981 0 0.29090126811138117 -0.19320094542561569 0 0.31167239857112827 -0.19538490422099439 0 0.30008171010592388 -0.17871629827991131 0 0.30162527265974959 -0.2199605956093191 0 0.31402352158447971 -0.20969211566338419 0 0.31664627664963307 -0.2262547151038807 0 0.31167239857112827 -0.19538490422099439 0 0.30115189312437768 -0.20542392195541981 0 0.31402352158447971 -0.20969211566338419 0 0.30115189312437768 -0.20542392195541981 0 0.30162527265974959 -0.2199605956093191 0 0.31402352158447971 -0.20969211566338419 0 0.30162527265974959 -0.2199605956093191 0 0.30514863394351938 -0.24456781846687009 0 0.31664627664963307 -0.2262547151038807 0 0.30162527265974959 -0.2199605956093191 0 0.30514863394351938 -0.24456781846687009 0 0.28874428002438213 -0.23002957229539919 0 0.30514863394351938 -0.24456781846687009 0 0.28874428002438213 -0.23002957229539919 0 0.28548812118910322 -0.25011189102716791 0 0.28874428002438213 -0.23002957229539919 0 0.27494659203405081 -0.2356563962769265 0 0.28548812118910322 -0.25011189102716791 0 0.28753700469514981 -0.20888104885778569 0 0.30162527265974959 -0.2199605956093191 0 0.28874428002438213 -0.23002957229539919 0 0.28874428002438213 -0.23002957229539919 0 0.27494659203405081 -0.2356563962769265 0 0.27666512208957428 -0.2159603505864956 0 0.26736199165531138 -0.22500281200353359 0 0.27494659203405081 -0.2356563962769265 0 0.25624977092838908 -0.23386384710061689 0 0.26736199165531138 -0.22500281200353359 0 0.27494659203405081 -0.2356563962769265 0 0.27666512208957428 -0.2159603505864956 0 0.26906730455718952 -0.2492068095314573 0 0.27494659203405081 -0.2356563962769265 0 0.28548812118910322 -0.25011189102716791 0 0.26906730455718952 -0.2492068095314573 0 0.27494659203405081 -0.2356563962769265 0 0.25624977092838908 -0.23386384710061689 0 0.26906730455718952 -0.2492068095314573 0 0.25624977092838908 -0.23386384710061689 0 0.244902637259619 -0.24701353735893281 0 0.25624977092838908 -0.23386384710061689 0 0.25493849033600441 -0.21264751632202741 0 0.24176165893330009 -0.22542132399948081 0 0.26736199165531138 -0.22500281200353359 0 0.25624977092838908 -0.23386384710061689 0 0.25493849033600441 -0.21264751632202741 0 0.26736199165531138 -0.22500281200353359 0 0.25493849033600441 -0.21264751632202741 0 0.26736199165531138 -0.22500281200353359 0 0.25493849033600441 -0.21264751632202741 0 0.2705180632169551 -0.20453546496028091 0 0.25493849033600441 -0.21264751632202741 0 0.25655752973903129 -0.1985958496651534 0 0.2425149890166973 -0.20029222064052121 0 0.25493849033600441 -0.21264751632202741 0 0.2705180632169551 -0.20453546496028091 0 0.25655752973903129 -0.1985958496651534 0 0.28753700469514981 -0.20888104885778569 0 0.27666512208957428 -0.2159603505864956 0 0.2705180632169551 -0.20453546496028091 0 0.26736199165531138 -0.22500281200353359 0 0.27666512208957428 -0.2159603505864956 0 0.2705180632169551 -0.20453546496028091 0 0.28753700469514981 -0.20888104885778569 0 0.2705180632169551 -0.20453546496028091 0 0.2796694358559853 -0.19747734752194751 0 0.2705180632169551 -0.20453546496028091 0 0.2796694358559853 -0.19747734752194751 0 0.27347354059828599 -0.1872209155322157 0 0.2705180632169551 -0.20453546496028091 0 0.25655752973903129 -0.1985958496651534 0 0.27347354059828599 -0.1872209155322157 0 0.25959376107067561 -0.18478093295439479 0 0.2425149890166973 -0.20029222064052121 0 0.25655752973903129 -0.1985958496651534 0 0.25959376107067561 -0.18478093295439479 0 0.27347354059828599 -0.1872209155322157 0 0.25655752973903129 -0.1985958496651534 0 0.25959376107067561 -0.18478093295439479 0 0.2425149890166973 -0.20029222064052121 0 0.25959376107067561 -0.18478093295439479 0 0.25831068201549062 -0.1627575897226953 0 0.24353110613393539 -0.1822633084125912 0 0.25959376107067561 -0.18478093295439479 0 0.25831068201549062 -0.1627575897226953 0 0.27667253312465301 -0.16926964526826749 0 0.25831068201549062 -0.1627575897226953 0 0.27667253312465301 -0.16926964526826749 0 0.27108331631171972 -0.14243534925273621 0 0.25959376107067561 -0.18478093295439479 0 0.27667253312465301 -0.16926964526826749 0 0.25959376107067561 -0.18478093295439479 0 0.27667253312465301 -0.16926964526826749 0 0.27347354059828599 -0.1872209155322157 0 0.25278991145217811 -0.13329751277266699 0 0.27108331631171972 -0.14243534925273621 0 0.25278991145217811 -0.13329751277266699 0 0.27108331631171972 -0.14243534925273621 0 0.26963143202327772 -0.12556072490087261 0 0.27108331631171972 -0.14243534925273621 0 0.24251452423871919 -0.15135382529707669 0 0.25831068201549062 -0.1627575897226953 0 0.27108331631171972 -0.14243534925273621 0 0.24251452423871919 -0.15135382529707669 0 0.25278991145217811 -0.13329751277266699 0 0.27108331631171972 -0.14243534925273621 0 0.24251452423871919 -0.15135382529707669 0 0.27667253312465301 -0.16926964526826749 0 0.27108331631171972 -0.14243534925273621 0 0.29375130517863202 -0.15375835758214171 0 0.27108331631171972 -0.14243534925273621 0 0.26963143202327772 -0.12556072490087261 0 0.2808334023674669 -0.13099183576560669 0 0.27108331631171972 -0.14243534925273621 0 0.29431646514091181 -0.1351825301367505 0 0.27108331631171972 -0.14243534925273621 0 0.2808334023674669 -0.13099183576560669 0 0.29431646514091181 -0.1351825301367505 0 0.29193279350914009 -0.12601283141723671 0 0.29431646514091181 -0.1351825301367505 0 0.30066743020291892 -0.13036600334941789 0 0.28625216690275029 -0.11795374188743001 0 0.2808334023674669 -0.13099183576560669 0 0.29193279350914009 -0.12601283141723671 0 0.2808334023674669 -0.13099183576560669 0 0.29193279350914009 -0.12601283141723671 0 0.29431646514091181 -0.1351825301367505 0 0.27108331631171972 -0.14243534925273621 0 0.29431646514091181 -0.1351825301367505 0 0.29375130517863202 -0.15375835758214171 0 0.27108331631171972 -0.14243534925273621 0 0.29375130517863202 -0.15375835758214171 0 0.29375130517863202 -0.15375835758214171 0 0.30876543182339938 -0.16125814426615731 0 0.31413786460268173 -0.13524287021821471 0 0.29431646514091181 -0.1351825301367505 0 0.29375130517863202 -0.15375835758214171 0 0.31413786460268173 -0.13524287021821471 0 0.29375130517863202 -0.15375835758214171 0 0.31413786460268173 -0.13524287021821471 0 0.29431646514091181 -0.1351825301367505 0 0.30066743020291892 -0.13036600334941789 0 0.31754961397010362 -0.1279297110207635 0 0.29431646514091181 -0.1351825301367505 0 0.31754961397010362 -0.1279297110207635 0 0.31044142209949521 -0.1245786018676444 0 0.30066743020291892 -0.13036600334941789 0 0.31754961397010362 -0.1279297110207635 0 0.29431646514091181 -0.1351825301367505 0 0.31413786460268173 -0.13524287021821471 0 0.31754961397010362 -0.1279297110207635 0 0.29090126811138117 -0.19320094542561569 0 0.27347354059828599 -0.1872209155322157 0 0.30008171010592388 -0.17871629827991131 0 0.27667253312465301 -0.16926964526826749 0 0.27347354059828599 -0.1872209155322157 0 0.30008171010592388 -0.17871629827991131 0 0.27347354059828599 -0.1872209155322157 0 0.30008171010592388 -0.17871629827991131 0 0.27667253312465301 -0.16926964526826749 0 0.29375130517863202 -0.15375835758214171 0 0.27667253312465301 -0.16926964526826749 0 0.2957280090683419 -0.16653878217837981 0 0.30008171010592388 -0.17871629827991131 0 0.27667253312465301 -0.16926964526826749 0 0.29375130517863202 -0.15375835758214171 0 0.2957280090683419 -0.16653878217837981 0 0.2957280090683419 -0.16653878217837981 0 0.30876543182339938 -0.16125814426615731 0 0.30760456831370347 -0.16942219964084901 0 0.2957280090683419 -0.16653878217837981 0 0.30760456831370347 -0.16942219964084901 0 0.30008171010592388 -0.17871629827991131 0 0.29375130517863202 -0.15375835758214171 0 0.30876543182339938 -0.16125814426615731 0 0.29375130517863202 -0.15375835758214171 0 0.2957280090683419 -0.16653878217837981 0 0.30876543182339938 -0.16125814426615731 0 0.30760456831370347 -0.16942219964084901 0 0.30008171010592388 -0.17871629827991131 0 0.32668987961356227 -0.17021168102760839 0 0.30008171010592388 -0.17871629827991131 0 0.3261165595094267 -0.1859414085799467 0 0.32668987961356227 -0.17021168102760839 0 0.31167239857112827 -0.19538490422099439 0 0.30008171010592388 -0.17871629827991131 0 0.3261165595094267 -0.1859414085799467 0 0.30008171010592388 -0.17871629827991131 0 0.32668987961356227 -0.17021168102760839 0 0.30876543182339938 -0.16125814426615731 0 0.32668987961356227 -0.17021168102760839 0 0.3241581716943569 -0.1565687163405152 0 0.30876543182339938 -0.16125814426615731 0 0.30760456831370347 -0.16942219964084901 0 0.32668987961356227 -0.17021168102760839 0 0.30876543182339938 -0.16125814426615731 0 0.32668987961356227 -0.17021168102760839 0 0.32668987961356227 -0.17021168102760839 0 0.3241581716943569 -0.1565687163405152 0 0.33629265333438257 -0.151896034210451 0 0.32668987961356227 -0.17021168102760839 0 0.33629265333438257 -0.151896034210451 0 0.34646363951277032 -0.16389150708503419 0 0.32668987961356227 -0.17021168102760839 0 0.34646363951277032 -0.16389150708503419 0 0.32668987961356227 -0.17021168102760839 0 0.34942825717680209 -0.1815698495911035 0 0.34646363951277032 -0.16389150708503419 0 0.3261165595094267 -0.1859414085799467 0 0.34942825717680209 -0.1815698495911035 0 0.34066693844087642 -0.19432240470856571 0 0.3261165595094267 -0.1859414085799467 0 0.32668987961356227 -0.17021168102760839 0 0.34942825717680209 -0.1815698495911035 0 0.32668987961356227 -0.17021168102760839 0 0.34942825717680209 -0.1815698495911035 0 0.3345244240267321 -0.11672738285428851 0 0.31413786460268173 -0.13524287021821471 0 0.31754961397010362 -0.1279297110207635 0 0.3345244240267321 -0.11672738285428851 0 0.31413786460268173 -0.13524287021821471 0 0.3345244240267321 -0.11672738285428851 0 0.31413786460268173 -0.13524287021821471 0 0.3248847220060842 -0.14290900585784211 0 0.30876543182339938 -0.16125814426615731 0 0.3241581716943569 -0.1565687163405152 0 0.3248847220060842 -0.14290900585784211 0 0.30876543182339938 -0.16125814426615731 0 0.31413786460268173 -0.13524287021821471 0 0.3248847220060842 -0.14290900585784211 0 0.30876543182339938 -0.16125814426615731 0 0.3248847220060842 -0.14290900585784211 0 0.33629265333438257 -0.151896034210451 0 0.34363338976240387 -0.13255329023111839 0 0.34841877687506922 -0.14340559547881471 0 0.3248847220060842 -0.14290900585784211 0 0.33629265333438257 -0.151896034210451 0 0.34363338976240387 -0.13255329023111839 0 0.33629265333438257 -0.151896034210451 0 0.34363338976240387 -0.13255329023111839 0 0.3241581716943569 -0.1565687163405152 0 0.3248847220060842 -0.14290900585784211 0 0.33629265333438257 -0.151896034210451 0 0.3410040121887763 -0.1245598674495334 0 0.3248847220060842 -0.14290900585784211 0 0.34363338976240387 -0.13255329023111839 0 0.3410040121887763 -0.1245598674495334 0 0.3345244240267321 -0.11672738285428851 0 0.3248847220060842 -0.14290900585784211 0 0.3410040121887763 -0.1245598674495334 0 0.3248847220060842 -0.14290900585784211 0 0.35558431583869687 -0.12533256933512829 0 0.35376881304609942 -0.1352567551360746 0 0.3641226395341462 -0.1315275243055109 0 0.34363338976240387 -0.13255329023111839 0 0.35558431583869687 -0.12533256933512829 0 0.35376881304609942 -0.1352567551360746 0 0.34363338976240387 -0.13255329023111839 0 0.35376881304609942 -0.1352567551360746 0 0.34841877687506922 -0.14340559547881471 0 0.35376881304609942 -0.1352567551360746 0 0.35874943496540962 -0.14416218108624521 0 0.3641226395341462 -0.1315275243055109 0 0.35376881304609942 -0.1352567551360746 0 0.35874943496540962 -0.14416218108624521 0 0.34841877687506922 -0.14340559547881471 0 0.35874943496540962 -0.14416218108624521 0 0.34841877687506922 -0.14340559547881471 0 0.35123238081992209 -0.15218533020060129 0 0.33629265333438257 -0.151896034210451 0 0.35123238081992209 -0.15218533020060129 0 0.34646363951277032 -0.16389150708503419 0 0.33629265333438257 -0.151896034210451 0 0.34841877687506922 -0.14340559547881471 0 0.35123238081992209 -0.15218533020060129 0 0.35874943496540962 -0.14416218108624521 0 0.35123238081992209 -0.15218533020060129 0 0.36623739941197869 -0.15757133314246141 0 0.35874943496540962 -0.14416218108624521 0 0.37490228491754929 -0.14453843652576481 0 0.36623739941197869 -0.15757133314246141 0 0.37490228491754929 -0.14453843652576481 0 0.36623739941197869 -0.15757133314246141 0 0.38062273711075362 -0.1593688556411467 0 0.35874943496540962 -0.14416218108624521 0 0.37490228491754929 -0.14453843652576481 0 0.3641226395341462 -0.1315275243055109 0 0.37490228491754929 -0.14453843652576481 0 0.3641226395341462 -0.1315275243055109 0 0.37641656811912783 -0.130582952218537 0 0.3682462871600341 -0.11777968654349071 0 0.3641226395341462 -0.1315275243055109 0 0.37641656811912783 -0.130582952218537 0 0.34942825717680209 -0.1815698495911035 0 0.34646363951277032 -0.16389150708503419 0 0.36642509758033948 -0.17449914826736729 0 0.34646363951277032 -0.16389150708503419 0 0.36623739941197869 -0.15757133314246141 0 0.35123238081992209 -0.15218533020060129 0 0.34646363951277032 -0.16389150708503419 0 0.36623739941197869 -0.15757133314246141 0 0.36623739941197869 -0.15757133314246141 0 0.36642509758033948 -0.17449914826736729 0 0.38062273711075362 -0.1593688556411467 0 0.34646363951277032 -0.16389150708503419 0 0.36623739941197869 -0.15757133314246141 0 0.36642509758033948 -0.17449914826736729 0 0.34942825717680209 -0.1815698495911035 0 0.36642509758033948 -0.17449914826736729 0 0.37216663474004219 -0.1929280181545982 0 0.36642509758033948 -0.17449914826736729 0 0.37216663474004219 -0.1929280181545982 0 0.38398081190536448 -0.1742305997698283 0 0.34942825717680209 -0.1815698495911035 0 0.37216663474004219 -0.1929280181545982 0 0.37216663474004219 -0.1929280181545982 0 0.36012198350725849 -0.2001702037274953 0 0.35292206108996083 -0.19416277857631811 0 0.37216663474004219 -0.1929280181545982 0 0.36419138110005123 -0.20554985816470281 0 0.37984575071263282 -0.1967638544359144 0 0.37216663474004219 -0.1929280181545982 0 0.36419138110005123 -0.20554985816470281 0 0.37216663474004219 -0.1929280181545982 0 0.36012198350725849 -0.2001702037274953 0 0.36419138110005123 -0.20554985816470281 0 0.37481756569799551 -0.2090854662388455 0 0.36355688388415991 -0.21006439884386929 0 0.37984575071263282 -0.1967638544359144 0 0.36419138110005123 -0.20554985816470281 0 0.36355688388415991 -0.21006439884386929 0 0.37984575071263282 -0.1967638544359144 0 0.36355688388415991 -0.21006439884386929 0 0.37984575071263282 -0.1967638544359144 0 0.36947940201062562 -0.2166422684190287 0 0.37481756569799551 -0.2090854662388455 0 0.38032551856176111 -0.2165799437156633 0 0.36947940201062562 -0.2166422684190287 0 0.37481756569799551 -0.2090854662388455 0 0.36355688388415991 -0.21006439884386929 0 0.35968645543864192 -0.20661198107426559 0 0.36355688388415991 -0.21006439884386929 0 0.35538725242535602 -0.21173589870448259 0 0.36012198350725849 -0.2001702037274953 0 0.36419138110005123 -0.20554985816470281 0 0.35968645543864192 -0.20661198107426559 0 0.36419138110005123 -0.20554985816470281 0 0.35968645543864192 -0.20661198107426559 0 0.36355688388415991 -0.21006439884386929 0 0.36947940201062562 -0.2166422684190287 0 0.36355688388415991 -0.21006439884386929 0 0.36336183693334828 -0.21906603099688771 0 0.36355688388415991 -0.21006439884386929 0 0.34991843683022472 -0.2212007641052825 0 0.36355688388415991 -0.21006439884386929 0 0.35538725242535602 -0.21173589870448259 0 0.34991843683022472 -0.2212007641052825 0 0.36355688388415991 -0.21006439884386929 0 0.34991843683022472 -0.2212007641052825 0 0.36336183693334828 -0.21906603099688771 0 0.35538725242535602 -0.21173589870448259 0 0.35517477627638377 -0.20553954593077811 0 0.35045417824184011 -0.2123801679210206 0 0.35968645543864192 -0.20661198107426559 0 0.35538725242535602 -0.21173589870448259 0 0.35517477627638377 -0.20553954593077811 0 0.36012198350725849 -0.2001702037274953 0 0.35968645543864192 -0.20661198107426559 0 0.35517477627638377 -0.20553954593077811 0 0.34667347016691019 -0.20526934510222461 0 0.35045417824184011 -0.2123801679210206 0 0.34297529770162499 -0.21452232366001739 0 0.35517477627638377 -0.20553954593077811 0 0.34667347016691019 -0.20526934510222461 0 0.35045417824184011 -0.2123801679210206 0 0.35538725242535602 -0.21173589870448259 0 0.35045417824184011 -0.2123801679210206 0 0.34726801705568627 -0.22336494325182371 0 0.35045417824184011 -0.2123801679210206 0 0.34297529770162499 -0.21452232366001739 0 0.34726801705568627 -0.22336494325182371 0 0.34942825717680209 -0.1815698495911035 0 0.37216663474004219 -0.1929280181545982 0 0.35292206108996083 -0.19416277857631811 0 0.36012198350725849 -0.2001702037274953 0 0.35517477627638377 -0.20553954593077811 0 0.35292206108996083 -0.19416277857631811 0 0.35517477627638377 -0.20553954593077811 0 0.34667347016691019 -0.20526934510222461 0 0.35292206108996083 -0.19416277857631811 0 0.34667347016691019 -0.20526934510222461 0 0.35292206108996083 -0.19416277857631811 0 0.34066693844087642 -0.19432240470856571 0 0.34942825717680209 -0.1815698495911035 0 0.35292206108996083 -0.19416277857631811 0 0.34066693844087642 -0.19432240470856571 0 0.3261165595094267 -0.1859414085799467 0 0.34066693844087642 -0.19432240470856571 0 0.32816017314826812 -0.19544331365149609 0 0.32816017314826812 -0.19544331365149609 0 0.33586822507081482 -0.20590015774455561 0 0.32371328773746799 -0.20447346866173069 0 0.34066693844087642 -0.19432240470856571 0 0.32816017314826812 -0.19544331365149609 0 0.33586822507081482 -0.20590015774455561 0 0.34667347016691019 -0.20526934510222461 0 0.34066693844087642 -0.19432240470856571 0 0.33586822507081482 -0.20590015774455561 0 0.34667347016691019 -0.20526934510222461 0 0.34297529770162499 -0.21452232366001739 0 0.33586822507081482 -0.20590015774455561 0 0.34297529770162499 -0.21452232366001739 0 0.32884212031264959 -0.21594685202822339 0 0.33586822507081482 -0.20590015774455561 0 0.34297529770162499 -0.21452232366001739 0 0.32884212031264959 -0.21594685202822339 0 0.33548848916963347 -0.22322462042528229 0 0.32884212031264959 -0.21594685202822339 0 0.33586822507081482 -0.20590015774455561 0 0.32371328773746799 -0.20447346866173069 0 0.32884212031264959 -0.21594685202822339 0 0.32371328773746799 -0.20447346866173069 0 0.31402352158447971 -0.20969211566338419 0 0.32884212031264959 -0.21594685202822339 0 0.31402352158447971 -0.20969211566338419 0 0.31664627664963307 -0.2262547151038807 0 0.31167239857112827 -0.19538490422099439 0 0.32371328773746799 -0.20447346866173069 0 0.31402352158447971 -0.20969211566338419 0 0.31167239857112827 -0.19538490422099439 0 0.32816017314826812 -0.19544331365149609 0 0.32371328773746799 -0.20447346866173069 0 0.31167239857112827 -0.19538490422099439 0 0.3261165595094267 -0.1859414085799467 0 0.32816017314826812 -0.19544331365149609 0 0.30514863394351938 -0.24456781846687009 0 0.33097915022721291 -0.23666548765977799 0 0.3300300067937203 -0.25415524149856972 0 0.30514863394351938 -0.24456781846687009 0 0.31664627664963307 -0.2262547151038807 0 0.33097915022721291 -0.23666548765977799 0 0.30514863394351938 -0.24456781846687009 0 0.3300300067937203 -0.25415524149856972 0 0.32884212031264959 -0.21594685202822339 0 0.31664627664963307 -0.2262547151038807 0 0.32737786055099311 -0.22562349552656941 0 0.31664627664963307 -0.2262547151038807 0 0.32737786055099311 -0.22562349552656941 0 0.33097915022721291 -0.23666548765977799 0 0.32737786055099311 -0.22562349552656941 0 0.33548848916963347 -0.22322462042528229 0 0.33097915022721291 -0.23666548765977799 0 0.34320422899693859 -0.2333218272234111 0 0.33097915022721291 -0.23666548765977799 0 0.34726801705568627 -0.22336494325182371 0 0.33097915022721291 -0.23666548765977799 0 0.34726801705568627 -0.22336494325182371 0 0.33548848916963347 -0.22322462042528229 0 0.33097915022721291 -0.23666548765977799 0 0.34726801705568627 -0.22336494325182371 0 0.32884212031264959 -0.21594685202822339 0 0.32737786055099311 -0.22562349552656941 0 0.33548848916963347 -0.22322462042528229 0 0.34297529770162499 -0.21452232366001739 0 0.33548848916963347 -0.22322462042528229 0 0.34726801705568627 -0.22336494325182371 0 0.34183115797129199 -0.23944340779920531 0 0.33097915022721291 -0.23666548765977799 0 0.3300300067937203 -0.25415524149856972 0 0.34320422899693859 -0.2333218272234111 0 0.34183115797129199 -0.23944340779920531 0 0.33097915022721291 -0.23666548765977799 0 0.34183115797129199 -0.23944340779920531 0 0.34617581742362552 -0.24933337889286039 0 0.3300300067937203 -0.25415524149856972 0 0.34617581742362552 -0.24933337889286039 0 0.35273859073356328 -0.23381347018283741 0 0.37003019641856699 -0.2500724246218291 0 0.34183115797129199 -0.23944340779920531 0 0.34617581742362552 -0.24933337889286039 0 0.35273859073356328 -0.23381347018283741 0 0.34320422899693859 -0.2333218272234111 0 0.34183115797129199 -0.23944340779920531 0 0.35273859073356328 -0.23381347018283741 0 0.34991843683022472 -0.2212007641052825 0 0.35273859073356328 -0.23381347018283741 0 0.37021366886372448 -0.22801506152879539 0 0.34991843683022472 -0.2212007641052825 0 0.34726801705568627 -0.22336494325182371 0 0.35273859073356328 -0.23381347018283741 0 0.35538725242535602 -0.21173589870448259 0 0.34991843683022472 -0.2212007641052825 0 0.34726801705568627 -0.22336494325182371 0 0.34991843683022472 -0.2212007641052825 0 0.34726801705568627 -0.22336494325182371 0 0.34320422899693859 -0.2333218272234111 0 0.34726801705568627 -0.22336494325182371 0 0.35273859073356328 -0.23381347018283741 0 0.34991843683022472 -0.2212007641052825 0 0.36336183693334828 -0.21906603099688771 0 0.37021366886372448 -0.22801506152879539 0 0.34991843683022472 -0.2212007641052825 0 0.37021366886372448 -0.22801506152879539 0 0.36947940201062562 -0.2166422684190287 0 0.37021366886372448 -0.22801506152879539 0 0.38032551856176111 -0.2165799437156633 0 0.36947940201062562 -0.2166422684190287 0 0.36336183693334828 -0.21906603099688771 0 0.37021366886372448 -0.22801506152879539 0 0.37021366886372448 -0.22801506152879539 0 0.38058108544201302 -0.2428646488347132 0 0.37003019641856699 -0.2500724246218291 0 0.35273859073356328 -0.23381347018283741 0 0.37003019641856699 -0.2500724246218291 0 0.35273859073356328 -0.23381347018283741 0 0.37021366886372448 -0.22801506152879539 0 0.37003019641856699 -0.2500724246218291 0 0.38058108544201302 -0.2428646488347132 0 0.38539108654939991 -0.2547026039085134 0 0.37003019641856699 -0.2500724246218291 0 0.39022994475256589 -0.2344877278617338 0 0.38539108654939991 -0.2547026039085134 0 0.39022994475256589 -0.2344877278617338 0 0.39603488220105482 -0.23636487141212789 0 0.38539108654939991 -0.2547026039085134 0 0.38058108544201302 -0.2428646488347132 0 0.39022994475256589 -0.2344877278617338 0 0.38539108654939991 -0.2547026039085134 0 0.37021366886372448 -0.22801506152879539 0 0.38058108544201302 -0.2428646488347132 0 0.39022994475256589 -0.2344877278617338 0 0.39603488220105482 -0.23636487141212789 0 0.41360804336464979 -0.2420475073459335 0 0.39603488220105482 -0.23636487141212789 0 0.4032953191886941 -0.23155951663517371 0 0.41360804336464979 -0.2420475073459335 0 0.39603488220105482 -0.23636487141212789 0 0.40641832676510292 -0.24873540157288401 0 0.40032414499481489 -0.25947760245597012 0 0.39603488220105482 -0.23636487141212789 0 0.40032414499481489 -0.25947760245597012 0 0.39603488220105482 -0.23636487141212789 0 0.40641832676510292 -0.24873540157288401 0 0.41360804336464979 -0.2420475073459335 0 0.39022994475256589 -0.2344877278617338 0 0.39603488220105482 -0.23636487141212789 0 0.39528884120428881 -0.23234482280820079 0 0.39022994475256589 -0.2344877278617338 0 0.39603488220105482 -0.23636487141212789 0 0.4032953191886941 -0.23155951663517371 0 0.39718652323310899 -0.20542583644236559 0 0.41520122393746201 -0.22819093409811669 0 0.39022994475256589 -0.2344877278617338 0 0.39718652323310899 -0.20542583644236559 0 0.39022994475256589 -0.2344877278617338 0 0.39528884120428881 -0.23234482280820079 0 0.39718652323310899 -0.20542583644236559 0 0.4032953191886941 -0.23155951663517371 0 0.39528884120428881 -0.23234482280820079 0 0.39718652323310899 -0.20542583644236559 0 0.39603488220105482 -0.23636487141212789 0 0.4032953191886941 -0.23155951663517371 0 0.39528884120428881 -0.23234482280820079 0 0.39603488220105482 -0.23636487141212789 0 0.39528884120428881 -0.23234482280820079 0 0.37021366886372448 -0.22801506152879539 0 0.39022994475256589 -0.2344877278617338 0 0.37021366886372448 -0.22801506152879539 0 0.39022994475256589 -0.2344877278617338 0 0.38032551856176111 -0.2165799437156633 0 0.39022994475256589 -0.2344877278617338 0 0.38032551856176111 -0.2165799437156633 0 0.39718652323310899 -0.20542583644236559 0 0.38032551856176111 -0.2165799437156633 0 0.38198413364252032 -0.20618651344732691 0 0.39718652323310899 -0.20542583644236559 0 0.37481756569799551 -0.2090854662388455 0 0.38032551856176111 -0.2165799437156633 0 0.38198413364252032 -0.20618651344732691 0 0.37481756569799551 -0.2090854662388455 0 0.38198413364252032 -0.20618651344732691 0 0.37984575071263282 -0.1967638544359144 0 0.37984575071263282 -0.1967638544359144 0 0.39718652323310899 -0.20542583644236559 0 0.39191110439300758 -0.18691198603319839 0 0.38198413364252032 -0.20618651344732691 0 0.37984575071263282 -0.1967638544359144 0 0.39718652323310899 -0.20542583644236559 0 0.37984575071263282 -0.1967638544359144 0 0.39718652323310899 -0.20542583644236559 0 0.37216663474004219 -0.1929280181545982 0 0.37984575071263282 -0.1967638544359144 0 0.39191110439300758 -0.18691198603319839 0 0.37216663474004219 -0.1929280181545982 0 0.37984575071263282 -0.1967638544359144 0 0.37984575071263282 -0.1967638544359144 0 0.39191110439300758 -0.18691198603319839 0 0.39718652323310899 -0.20542583644236559 0 0.39191110439300758 -0.18691198603319839 0 0.40397645807338012 -0.1770601176304798 0 0.39718652323310899 -0.20542583644236559 0 0.41154322754322231 -0.19386690064339429 0 0.40397645807338012 -0.1770601176304798 0 0.39718652323310899 -0.20542583644236559 0 0.40397645807338012 -0.1770601176304798 0 0.39718652323310899 -0.20542583644236559 0 0.42177305004511167 -0.2177071839195534 0 0.41520122393746201 -0.22819093409811669 0 0.39718652323310899 -0.20542583644236559 0 0.42177305004511167 -0.2177071839195534 0 0.39718652323310899 -0.20542583644236559 0 0.42177305004511167 -0.2177071839195534 0 0.41154322754322231 -0.19386690064339429 0 0.42177305004511167 -0.2177071839195534 0 0.41154322754322231 -0.19386690064339429 0 0.42526747678922772 -0.1994764396122061 0 0.41154322754322231 -0.19386690064339429 0 0.42526747678922772 -0.1994764396122061 0 0.42719744250676989 -0.18513317042696631 0 0.42526747678922772 -0.1994764396122061 0 0.43695961172345432 -0.2025477690164387 0 0.43772875029522101 -0.19025534714383019 0 0.42526747678922772 -0.1994764396122061 0 0.42719744250676989 -0.18513317042696631 0 0.43772875029522101 -0.19025534714383019 0 0.42177305004511167 -0.2177071839195534 0 0.43695961172345432 -0.2025477690164387 0 0.44678582809383288 -0.20956377484982269 0 0.42177305004511167 -0.2177071839195534 0 0.42526747678922772 -0.1994764396122061 0 0.43695961172345432 -0.2025477690164387 0 0.42177305004511167 -0.2177071839195534 0 0.44635957685711541 -0.22998853139673919 0 0.42177305004511167 -0.2177071839195534 0 0.42249420601098431 -0.22989554226325121 0 0.43295679575361468 -0.23410766825536711 0 0.42177305004511167 -0.2177071839195534 0 0.43295679575361468 -0.23410766825536711 0 0.44635957685711541 -0.22998853139673919 0 0.43118120452824482 -0.2477301432797393 0 0.41360804336464979 -0.2420475073459335 0 0.43679618942680321 -0.24759324892476209 0 0.42004575430774871 -0.2395763827799679 0 0.43679618942680321 -0.24759324892476209 0 0.43118120452824482 -0.2477301432797393 0 0.42004575430774871 -0.2395763827799679 0 0.43295679575361468 -0.23410766825536711 0 0.43679618942680321 -0.24759324892476209 0 0.42004575430774871 -0.2395763827799679 0 0.42249420601098431 -0.22989554226325121 0 0.43295679575361468 -0.23410766825536711 0 0.42004575430774871 -0.2395763827799679 0 0.4032953191886941 -0.23155951663517371 0 0.42004575430774871 -0.2395763827799679 0 0.41360804336464979 -0.2420475073459335 0 0.43118120452824482 -0.2477301432797393 0 0.41360804336464979 -0.2420475073459335 0 0.41570623649989219 -0.25705162507750451 0 0.4032953191886941 -0.23155951663517371 0 0.42004575430774871 -0.2395763827799679 0 0.43118120452824482 -0.2477301432797393 0 0.42004575430774871 -0.2395763827799679 0 0.41360804336464979 -0.2420475073459335 0 0.40641832676510292 -0.24873540157288401 0 0.41360804336464979 -0.2420475073459335 0 0.41570623649989219 -0.25705162507750451 0 0.4032953191886941 -0.23155951663517371 0 0.42004575430774871 -0.2395763827799679 0 0.41520122393746201 -0.22819093409811669 0 0.42177305004511167 -0.2177071839195534 0 0.42249420601098431 -0.22989554226325121 0 0.41520122393746201 -0.22819093409811669 0 0.42249420601098431 -0.22989554226325121 0 0.42004575430774871 -0.2395763827799679 0 0.41520122393746201 -0.22819093409811669 0 0.38543991336663258 -0.12052612715854941 0 0.39816909710943021 -0.13176441239447709 0 0.38937171561727701 -0.138542986559369 0 0.39816909710943021 -0.13176441239447709 0 0.38937171561727701 -0.138542986559369 0 0.40760916623600202 -0.13683576300028391 0 0.38543991336663258 -0.12052612715854941 0 0.40261322636911301 -0.12319800757665809 0 0.39816909710943021 -0.13176441239447709 0 0.40261322636911301 -0.12319800757665809 0 0.39816909710943021 -0.13176441239447709 0 0.40722333098747748 -0.12960671180097669 0 0.39816909710943021 -0.13176441239447709 0 0.40760916623600202 -0.13683576300028391 0 0.40722333098747748 -0.12960671180097669 0 0.38543991336663258 -0.12052612715854941 0 0.37641656811912783 -0.130582952218537 0 0.38937171561727701 -0.138542986559369 0 0.37490228491754929 -0.14453843652576481 0 0.37641656811912783 -0.130582952218537 0 0.38937171561727701 -0.138542986559369 0 0.38937171561727701 -0.138542986559369 0 0.38517293167906569 -0.14949586502783421 0 0.39579498907068322 -0.15553318138505609 0 0.37490228491754929 -0.14453843652576481 0 0.38937171561727701 -0.138542986559369 0 0.38517293167906569 -0.14949586502783421 0 0.37490228491754929 -0.14453843652576481 0 0.38517293167906569 -0.14949586502783421 0 0.38062273711075362 -0.1593688556411467 0 0.38517293167906569 -0.14949586502783421 0 0.39579498907068322 -0.15553318138505609 0 0.38062273711075362 -0.1593688556411467 0 0.39579498907068322 -0.15553318138505609 0 0.40621858136835431 -0.14750483150212701 0 0.40760916623600202 -0.13683576300028391 0 0.39579498907068322 -0.15553318138505609 0 0.40760916623600202 -0.13683576300028391 0 0.38937171561727701 -0.138542986559369 0 0.39579498907068322 -0.15553318138505609 0 0.40760916623600202 -0.13683576300028391 0 0.39579498907068322 -0.15553318138505609 0 0.40621858136835431 -0.14750483150212701 0 0.40848220941336971 -0.158236833084549 0 0.39579498907068322 -0.15553318138505609 0 0.39631822093888169 -0.1697497959870245 0 0.38398081190536448 -0.1742305997698283 0 0.39631822093888169 -0.1697497959870245 0 0.40397645807338012 -0.1770601176304798 0 0.40848220941336971 -0.158236833084549 0 0.40397645807338012 -0.1770601176304798 0 0.40848220941336971 -0.158236833084549 0 0.39579498907068322 -0.15553318138505609 0 0.39631822093888169 -0.1697497959870245 0 0.40848220941336971 -0.158236833084549 0 0.36642509758033948 -0.17449914826736729 0 0.38062273711075362 -0.1593688556411467 0 0.38398081190536448 -0.1742305997698283 0 0.39579498907068322 -0.15553318138505609 0 0.38062273711075362 -0.1593688556411467 0 0.38398081190536448 -0.1742305997698283 0 0.39579498907068322 -0.15553318138505609 0 0.38398081190536448 -0.1742305997698283 0 0.37216663474004219 -0.1929280181545982 0 0.38398081190536448 -0.1742305997698283 0 0.39191110439300758 -0.18691198603319839 0 0.37216663474004219 -0.1929280181545982 0 0.38398081190536448 -0.1742305997698283 0 0.39191110439300758 -0.18691198603319839 0 0.40397645807338012 -0.1770601176304798 0 0.39631822093888169 -0.1697497959870245 0 0.38398081190536448 -0.1742305997698283 0 0.39191110439300758 -0.18691198603319839 0 0.39631822093888169 -0.1697497959870245 0 0.39191110439300758 -0.18691198603319839 0 0.40397645807338012 -0.1770601176304798 0 0.41154322754322231 -0.19386690064339429 0 0.40397645807338012 -0.1770601176304798 0 0.41929677709317892 -0.17787440888987011 0 0.41154322754322231 -0.19386690064339429 0 0.41929677709317892 -0.17787440888987011 0 0.42719744250676989 -0.18513317042696631 0 0.42719744250676989 -0.18513317042696631 0 0.43775556721903452 -0.1767757590257189 0 0.43772875029522101 -0.19025534714383019 0 0.42719744250676989 -0.18513317042696631 0 0.4290493517684848 -0.17318759352162361 0 0.43775556721903452 -0.1767757590257189 0 0.41929677709317892 -0.17787440888987011 0 0.42719744250676989 -0.18513317042696631 0 0.4290493517684848 -0.17318759352162361 0 0.41929677709317892 -0.17787440888987011 0 0.4290493517684848 -0.17318759352162361 0 0.42471740557403542 -0.16012426222688389 0 0.4290493517684848 -0.17318759352162361 0 0.43722358182991122 -0.16357619001592039 0 0.43775556721903452 -0.1767757590257189 0 0.4290493517684848 -0.17318759352162361 0 0.43722358182991122 -0.16357619001592039 0 0.42471740557403542 -0.16012426222688389 0 0.40397645807338012 -0.1770601176304798 0 0.42471740557403542 -0.16012426222688389 0 0.40397645807338012 -0.1770601176304798 0 0.41929677709317892 -0.17787440888987011 0 0.42471740557403542 -0.16012426222688389 0 0.40397645807338012 -0.1770601176304798 0 0.42471740557403542 -0.16012426222688389 0 0.40848220941336971 -0.158236833084549 0 0.40848220941336971 -0.158236833084549 0 0.41298796075336258 -0.13941354853861901 0 0.42471740557403542 -0.16012426222688389 0 0.40848220941336971 -0.158236833084549 0 0.41881349482742058 -0.1487218490595828 0 0.40848220941336971 -0.158236833084549 0 0.41881349482742058 -0.1487218490595828 0 0.41298796075336258 -0.13941354853861901 0 0.40621858136835431 -0.14750483150212701 0 0.40848220941336971 -0.158236833084549 0 0.41298796075336258 -0.13941354853861901 0 0.40621858136835431 -0.14750483150212701 0 0.41298796075336258 -0.13941354853861901 0 0.40760916623600202 -0.13683576300028391 0 0.41881349482742058 -0.1487218490595828 0 0.42080533763662059 -0.14039211257860101 0 0.41298796075336258 -0.13941354853861901 0 0.42707456075971512 -0.14544248886926131 0 0.42985566358638339 -0.13586031256228451 0 0.44545835307468901 -0.1431884068232859 0 0.42471740557403542 -0.16012426222688389 0 0.44545835307468901 -0.1431884068232859 0 0.42471740557403542 -0.16012426222688389 0 0.42707456075971512 -0.14544248886926131 0 0.44545835307468901 -0.1431884068232859 0 0.43722358182991122 -0.16357619001592039 0 0.42471740557403542 -0.16012426222688389 0 0.44545835307468901 -0.1431884068232859 0 0.42471740557403542 -0.16012426222688389 0 0.41881349482742058 -0.1487218490595828 0 0.42707456075971512 -0.14544248886926131 0 0.41881349482742058 -0.1487218490595828 0 0.42707456075971512 -0.14544248886926131 0 0.42080533763662059 -0.14039211257860101 0 0.42707456075971512 -0.14544248886926131 0 0.42985566358638339 -0.13586031256228451 0 0.42080533763662059 -0.14039211257860101 0 0.42985566358638339 -0.13586031256228451 0 0.42025806686331579 -0.133264129748529 0 0.42080533763662059 -0.14039211257860101 0 0.42563933781448932 -0.1238972430644575 0 0.42985566358638339 -0.13586031256228451 0 0.42025806686331579 -0.133264129748529 0 0.4146927475757558 -0.1240816007311262 0 0.42025806686331579 -0.133264129748529 0 0.41303241764708648 -0.13215377530233799 0 0.4146927475757558 -0.1240816007311262 0 0.42563933781448932 -0.1238972430644575 0 0.42025806686331579 -0.133264129748529 0 0.42025806686331579 -0.133264129748529 0 0.42080533763662059 -0.14039211257860101 0 0.41298796075336258 -0.13941354853861901 0 0.42025806686331579 -0.133264129748529 0 0.41298796075336258 -0.13941354853861901 0 0.41303241764708648 -0.13215377530233799 0 0.41298796075336258 -0.13941354853861901 0 0.40760916623600202 -0.13683576300028391 0 0.41303241764708648 -0.13215377530233799 0 0.40760916623600202 -0.13683576300028391 0 0.40722333098747748 -0.12960671180097669 0 0.41303241764708648 -0.13215377530233799 0 0.4146927475757558 -0.1240816007311262 0 0.40722333098747748 -0.12960671180097669 0 0.41303241764708648 -0.13215377530233799 0 0.4146927475757558 -0.1240816007311262 0 0.40261322636911301 -0.12319800757665809 0 0.40722333098747748 -0.12960671180097669 0 0.4672296206109488 -0.12713301205304001 0 0.45437071668679108 -0.13591108733563481 0 0.4672996880201587 -0.1432487468547359 0 0.45267084610351382 -0.1216238107203409 0 0.4672296206109488 -0.12713301205304001 0 0.45437071668679108 -0.13591108733563481 0 0.44057019976706191 -0.11383984056868091 0 0.44545835307468901 -0.1431884068232859 0 0.44057019976706191 -0.11383984056868091 0 0.45267084610351382 -0.1216238107203409 0 0.44545835307468901 -0.1431884068232859 0 0.45267084610351382 -0.1216238107203409 0 0.45437071668679108 -0.13591108733563481 0 0.44545835307468901 -0.1431884068232859 0 0.44057019976706191 -0.11383984056868091 0 0.42985566358638339 -0.13586031256228451 0 0.44545835307468901 -0.1431884068232859 0 0.45437071668679108 -0.13591108733563481 0 0.44545835307468901 -0.1431884068232859 0 0.45437071668679108 -0.13591108733563481 0 0.44545835307468901 -0.1431884068232859 0 0.45866992357066649 -0.1524033908816986 0 0.44545835307468901 -0.1431884068232859 0 0.44897220399000121 -0.1642856351438291 0 0.44545835307468901 -0.1431884068232859 0 0.45866992357066649 -0.1524033908816986 0 0.44897220399000121 -0.1642856351438291 0 0.4672996880201587 -0.1432487468547359 0 0.45866992357066649 -0.1524033908816986 0 0.47473871025256698 -0.16218864976701719 0 0.45437071668679108 -0.13591108733563481 0 0.4672996880201587 -0.1432487468547359 0 0.45866992357066649 -0.1524033908816986 0 0.45866992357066649 -0.1524033908816986 0 0.46142988638465082 -0.16922025771887789 0 0.47473871025256698 -0.16218864976701719 0 0.45866992357066649 -0.1524033908816986 0 0.46142988638465082 -0.16922025771887789 0 0.44897220399000121 -0.1642856351438291 0 0.46142988638465082 -0.16922025771887789 0 0.44897220399000121 -0.1642856351438291 0 0.45112594811899231 -0.1772167562210932 0 0.43722358182991122 -0.16357619001592039 0 0.44545835307468901 -0.1431884068232859 0 0.44897220399000121 -0.1642856351438291 0 0.43722358182991122 -0.16357619001592039 0 0.44897220399000121 -0.1642856351438291 0 0.43775556721903452 -0.1767757590257189 0 0.44897220399000121 -0.1642856351438291 0 0.45112594811899231 -0.1772167562210932 0 0.44897220399000121 -0.1642856351438291 0 0.45112594811899231 -0.1772167562210932 0 0.44470995620395559 -0.1832804846819435 0 0.44897220399000121 -0.1642856351438291 0 0.43775556721903452 -0.1767757590257189 0 0.44470995620395559 -0.1832804846819435 0 0.43775556721903452 -0.1767757590257189 0 0.44470995620395559 -0.1832804846819435 0 0.43772875029522101 -0.19025534714383019 0 0.45112594811899231 -0.1772167562210932 0 0.45248605490531307 -0.1853828634643723 0 0.45112594811899231 -0.1772167562210932 0 0.44470995620395559 -0.1832804846819435 0 0.45248605490531307 -0.1853828634643723 0 0.45112594811899231 -0.1772167562210932 0 0.47145797631670872 -0.19209997655861891 0 0.45112594811899231 -0.1772167562210932 0 0.45248605490531307 -0.1853828634643723 0 0.47145797631670872 -0.19209997655861891 0 0.46142988638465082 -0.16922025771887789 0 0.45112594811899231 -0.1772167562210932 0 0.47145797631670872 -0.19209997655861891 0 0.46142988638465082 -0.16922025771887789 0 0.47473871025256698 -0.16218864976701719 0 0.47145797631670872 -0.19209997655861891 0 0.47473871025256698 -0.16218864976701719 0 0.47145797631670872 -0.19209997655861891 0 0.48393556774351781 -0.1785576790432116 0 0.47473871025256698 -0.16218864976701719 0 0.47145797631670872 -0.19209997655861891 0 0.48393556774351781 -0.1785576790432116 0 0.5 -0.1846069805398233 0 0.5 -0.15554394575881991 0 0.48393556774351781 -0.1785576790432116 0 0.47473871025256698 -0.16218864976701719 0 0.5 -0.15554394575881991 0 0.4672996880201587 -0.1432487468547359 0 0.47473871025256698 -0.16218864976701719 0 0.4814894689798197 -0.13860759423628891 0 0.47473871025256698 -0.16218864976701719 0 0.5 -0.15554394575881991 0 0.4814894689798197 -0.13860759423628891 0 0.48287166513082408 -0.1152012235004482 0 0.5 -0.12648091097781661 0 0.4814894689798197 -0.13860759423628891 0 0.5 -0.15554394575881991 0 0.5 -0.12648091097781661 0 0.4814894689798197 -0.13860759423628891 0 0.4672296206109488 -0.12713301205304001 0 0.4672996880201587 -0.1432487468547359 0 0.4814894689798197 -0.13860759423628891 0 0.48287166513082408 -0.1152012235004482 0 0.4672296206109488 -0.12713301205304001 0 0.4814894689798197 -0.13860759423628891 0 0.46645008562764828 -0.23775825237900741 0 0.46895403097217597 -0.21492911446881291 0 0.46001264546510179 -0.22482863455928701 0 0.46645008562764828 -0.23775825237900741 0 0.46895403097217597 -0.21492911446881291 0 0.46001264546510179 -0.22482863455928701 0 0.45600683352492882 -0.23480748416078651 0 0.45077451697454679 -0.22186130929712661 0 0.46001264546510179 -0.22482863455928701 0 0.46645008562764828 -0.23775825237900741 0 0.45600683352492882 -0.23480748416078651 0 0.46001264546510179 -0.22482863455928701 0 0.45077451697454679 -0.22186130929712661 0 0.45787776022620907 -0.21478701249070151 0 0.46645008562764828 -0.23775825237900741 0 0.46394614028312348 -0.2605873902892023 0 0.46645008562764828 -0.23775825237900741 0 0.45781517377926711 -0.24836304585104971 0 0.46394614028312348 -0.2605873902892023 0 0.45781517377926711 -0.24836304585104971 0 0.45600683352492882 -0.23480748416078651 0 0.44874426076052287 -0.24094620944367401 0 0.46645008562764828 -0.23775825237900741 0 0.45781517377926711 -0.24836304585104971 0 0.45600683352492882 -0.23480748416078651 0 0.45600683352492882 -0.23480748416078651 0 0.44874426076052287 -0.24094620944367401 0 0.44635957685711541 -0.22998853139673919 0 0.43295679575361468 -0.23410766825536711 0 0.43679618942680321 -0.24759324892476209 0 0.44635957685711541 -0.22998853139673919 0 0.43679618942680321 -0.24759324892476209 0 0.45781517377926711 -0.24836304585104971 0 0.44874426076052287 -0.24094620944367401 0 0.43679618942680321 -0.24759324892476209 0 0.44874426076052287 -0.24094620944367401 0 0.44635957685711541 -0.22998853139673919 0 0.43679618942680321 -0.24759324892476209 0 0.44635957685711541 -0.22998853139673919 0 0.42177305004511167 -0.2177071839195534 0 0.44635957685711541 -0.22998853139673919 0 0.45077451697454679 -0.22186130929712661 0 0.45600683352492882 -0.23480748416078651 0 0.44635957685711541 -0.22998853139673919 0 0.45600683352492882 -0.23480748416078651 0 0.44635957685711541 -0.22998853139673919 0 0.45077451697454679 -0.22186130929712661 0 0.44635957685711541 -0.22998853139673919 0 0.45077451697454679 -0.22186130929712661 0 0.42177305004511167 -0.2177071839195534 0 0.45077451697454679 -0.22186130929712661 0 0.44678582809383288 -0.20956377484982269 0 0.45077451697454679 -0.22186130929712661 0 0.44678582809383288 -0.20956377484982269 0 0.45787776022620907 -0.21478701249070151 0 0.44470995620395559 -0.1832804846819435 0 0.43772875029522101 -0.19025534714383019 0 0.44796991125414037 -0.195330386101603 0 0.43695961172345432 -0.2025477690164387 0 0.44678582809383288 -0.20956377484982269 0 0.44796991125414037 -0.195330386101603 0 0.43695961172345432 -0.2025477690164387 0 0.43772875029522101 -0.19025534714383019 0 0.44796991125414037 -0.195330386101603 0 0.44678582809383288 -0.20956377484982269 0 0.44796991125414037 -0.195330386101603 0 0.45909861195150459 -0.2033756768423555 0 0.45248605490531307 -0.1853828634643723 0 0.44796991125414037 -0.195330386101603 0 0.45775313860691541 -0.1940472257417373 0 0.44470995620395559 -0.1832804846819435 0 0.45248605490531307 -0.1853828634643723 0 0.44796991125414037 -0.195330386101603 0 0.45248605490531307 -0.1853828634643723 0 0.45775313860691541 -0.1940472257417373 0 0.47145797631670872 -0.19209997655861891 0 0.44796991125414037 -0.195330386101603 0 0.45775313860691541 -0.1940472257417373 0 0.45909861195150459 -0.2033756768423555 0 0.45775313860691541 -0.1940472257417373 0 0.45909861195150459 -0.2033756768423555 0 0.47145797631670872 -0.19209997655861891 0 0.45909861195150459 -0.2033756768423555 0 0.46895403097217597 -0.21492911446881291 0 0.47145797631670872 -0.19209997655861891 0 0.44678582809383288 -0.20956377484982269 0 0.45787776022620907 -0.21478701249070151 0 0.45909861195150459 -0.2033756768423555 0 0.46001264546510179 -0.22482863455928701 0 0.45787776022620907 -0.21478701249070151 0 0.46895403097217597 -0.21492911446881291 0 0.45787776022620907 -0.21478701249070151 0 0.45909861195150459 -0.2033756768423555 0 0.46895403097217597 -0.21492911446881291 0 0.46895403097217597 -0.21492911446881291 0 0.47145797631670872 -0.19209997655861891 0 0.48572898815835808 -0.20288499593971859 0 0.46895403097217597 -0.21492911446881291 0 0.48572898815835808 -0.20288499593971859 0 0.4849101602892199 -0.2249797406094243 0 0.46895403097217597 -0.21492911446881291 0 0.47145797631670872 -0.19209997655861891 0 0.48393556774351781 -0.1785576790432116 0 0.47145797631670872 -0.19209997655861891 0 0.48572898815835808 -0.20288499593971859 0 0.47145797631670872 -0.19209997655861891 0 0.48572898815835808 -0.20288499593971859 0 0.48393556774351781 -0.1785576790432116 0 0.5 -0.1846069805398233 0 0.48572898815835808 -0.20288499593971859 0 0.5 -0.1846069805398233 0 0.48572898815835808 -0.20288499593971859 0 0.50000000000000111 -0.21367001532082661 0 0.48572898815835808 -0.20288499593971859 0 0.50000000000000111 -0.21367001532082661 0 0.4849101602892199 -0.2249797406094243 0 0.48572898815835808 -0.20288499593971859 0 0.50000000000000111 -0.21367001532082661 0 0.50000000000000111 -0.21367001532082661 0 0.4849101602892199 -0.2249797406094243 0 0.5 -0.23628946589802199 0 0.46645008562764828 -0.23775825237900741 0 0.46895403097217597 -0.21492911446881291 0 0.4849101602892199 -0.2249797406094243 0 0.46645008562764828 -0.23775825237900741 0 0.48272093426928342 -0.24813221861378351 0 0.46394614028312348 -0.2605873902892023 0 0.46645008562764828 -0.23775825237900741 0 0.4849101602892199 -0.2249797406094243 0 0.48272093426928342 -0.24813221861378351 0 0.4849101602892199 -0.2249797406094243 0 0.48272093426928342 -0.24813221861378351 0 0.5 -0.23628946589802199 0 0.48272093426928342 -0.24813221861378351 0 0.5 -0.23628946589802199 0 0.50000000000000022 -0.2589089164752173 0 0.48272093426928342 -0.24813221861378351 0 0.50000000000000022 -0.2589089164752173 0 0.48058745231784539 -0.26855202942292627 0 0.50000000000000022 -0.2589089164752173 0 0.48058745231784539 -0.26855202942292627 0 0.49999999999999761 -0.2778429997882374 0 0.48058745231784539 -0.26855202942292627 0 0.50000000000000022 -0.2589089164752173 0 0.49999999999999761 -0.2778429997882374 0 0.48058745231784539 -0.26855202942292627 0 0.49999999999999761 -0.2778429997882374 0 0.48058745231784539 -0.26855202942292627 0 0.47977467299032489 -0.29016222188021412 0 0.48058745231784539 -0.26855202942292627 0 0.46394614028312348 -0.2605873902892023 0 0.46206328984098971 -0.27775384022853972 0 0.48058745231784539 -0.26855202942292627 0 0.46206328984098971 -0.27775384022853972 0 0.48058745231784539 -0.26855202942292627 0 0.46206328984098971 -0.27775384022853972 0 0.47977467299032489 -0.29016222188021412 0 0.48058745231784539 -0.26855202942292627 0 0.46394614028312348 -0.2605873902892023 0 0.48272093426928342 -0.24813221861378351 0 0.48058745231784539 -0.26855202942292627 0 0.46394614028312348 -0.2605873902892023 0 0.46394614028312348 -0.2605873902892023 0 0.46206328984098971 -0.27775384022853972 0 0.46394614028312348 -0.2605873902892023 0 0.46206328984098971 -0.27775384022853972 0 0.4528106196054138 -0.27279241147162098 0 0.46394614028312348 -0.2605873902892023 0 0.4528106196054138 -0.27279241147162098 0 0.44447739608392861 -0.26481776755135122 0 0.46206328984098971 -0.27775384022853972 0 0.4528106196054138 -0.27279241147162098 0 0.45117408118149688 -0.28316301530097032 0 0.46206328984098971 -0.27775384022853972 0 0.45117408118149688 -0.28316301530097032 0 0.4528106196054138 -0.27279241147162098 0 0.4408282305489446 -0.2759873203715964 0 0.44447739608392861 -0.26481776755135122 0 0.4528106196054138 -0.27279241147162098 0 0.4408282305489446 -0.2759873203715964 0 0.45117408118149688 -0.28316301530097032 0 0.43679618942680321 -0.24759324892476209 0 0.45781517377926711 -0.24836304585104971 0 0.46394614028312348 -0.2605873902892023 0 0.43679618942680321 -0.24759324892476209 0 0.46394614028312348 -0.2605873902892023 0 0.43679618942680321 -0.24759324892476209 0 0.46394614028312348 -0.2605873902892023 0 0.44447739608392861 -0.26481776755135122 0 0.44428797279254939 -0.29818172915933822 0 0.45919279217171471 -0.3039249335017592 0 0.44438532143169562 -0.31759240001378403 0 0.44428797279254939 -0.29818172915933822 0 0.44438532143169562 -0.31759240001378403 0 0.42837018122455173 -0.31550401271643119 0 0.44428797279254939 -0.29818172915933822 0 0.45919279217171471 -0.3039249335017592 0 0.44428797279254939 -0.29818172915933822 0 0.44924891484071722 -0.29305635416775211 0 0.45919279217171471 -0.3039249335017592 0 0.44428797279254939 -0.29818172915933822 0 0.44134587876620668 -0.28803846030417712 0 0.42982823369146889 -0.29261002551883852 0 0.44428797279254939 -0.29818172915933822 0 0.44134587876620668 -0.28803846030417712 0 0.44924891484071722 -0.29305635416775211 0 0.4408282305489446 -0.2759873203715964 0 0.44134587876620668 -0.28803846030417712 0 0.45117408118149688 -0.28316301530097032 0 0.44134587876620668 -0.28803846030417712 0 0.45117408118149688 -0.28316301530097032 0 0.44924891484071722 -0.29305635416775211 0 0.46206328984098971 -0.27775384022853972 0 0.45919279217171471 -0.3039249335017592 0 0.46206328984098971 -0.27775384022853972 0 0.45919279217171471 -0.3039249335017592 0 0.47977467299032489 -0.29016222188021412 0 0.46206328984098971 -0.27775384022853972 0 0.45117408118149688 -0.28316301530097032 0 0.45919279217171471 -0.3039249335017592 0 0.45117408118149688 -0.28316301530097032 0 0.44924891484071722 -0.29305635416775211 0 0.45919279217171471 -0.3039249335017592 0 0.45919279217171471 -0.3039249335017592 0 0.47959639608585303 -0.31178695877159618 0 0.47977467299032489 -0.29016222188021412 0 0.45919279217171471 -0.3039249335017592 0 0.47959639608585303 -0.31178695877159618 0 0.49999999999999761 -0.2778429997882374 0 0.47977467299032489 -0.29016222188021412 0 0.5 -0.29874599191482742 0 0.47959639608585303 -0.31178695877159618 0 0.47977467299032489 -0.29016222188021412 0 0.5 -0.29874599191482742 0 0.47959639608585303 -0.31178695877159618 0 0.5 -0.29874599191482742 0 0.4999999999999975 -0.31964898404141739 0 0.47959639608585303 -0.31178695877159618 0 0.4999999999999975 -0.31964898404141739 0 0.48241956375434869 -0.33345046010183682 0 0.47959639608585303 -0.31178695877159618 0 0.4999999999999975 -0.31964898404141739 0 0.4999999999999975 -0.31964898404141739 0 0.48241956375434869 -0.33345046010183682 0 0.5 -0.34619104602219197 0 0.48241956375434869 -0.33345046010183682 0 0.47656073121243048 -0.35605010824893801 0 0.45594069147346011 -0.33357520342504038 0 0.47959639608585303 -0.31178695877159618 0 0.48241956375434869 -0.33345046010183682 0 0.45594069147346011 -0.33357520342504038 0 0.5 -0.37273310800296672 0 0.5 -0.34619104602219197 0 0.47656073121243048 -0.35605010824893801 0 0.48241956375434869 -0.33345046010183682 0 0.5 -0.34619104602219197 0 0.47656073121243048 -0.35605010824893801 0 0.5 -0.37273310800296672 0 0.47656073121243048 -0.35605010824893801 0 0.47068081142060902 -0.3761919778998995 0 0.47656073121243048 -0.35605010824893801 0 0.45268859077520129 -0.36322547334832123 0 0.47068081142060902 -0.3761919778998995 0 0.47656073121243048 -0.35605010824893801 0 0.45268859077520129 -0.36322547334832123 0 0.45594069147346011 -0.33357520342504038 0 0.45268859077520129 -0.36322547334832123 0 0.45594069147346011 -0.33357520342504038 0 0.45268859077520129 -0.36322547334832123 0 0.45594069147346011 -0.33357520342504038 0 0.43333517078260447 -0.33825488497581468 0 0.45268859077520129 -0.36322547334832123 0 0.4249570430374896 -0.36052883071842179 0 0.43695034529143922 -0.37661299463484388 0 0.45919279217171471 -0.3039249335017592 0 0.47959639608585303 -0.31178695877159618 0 0.45594069147346011 -0.33357520342504038 0 0.45919279217171471 -0.3039249335017592 0 0.45594069147346011 -0.33357520342504038 0 0.44438532143169562 -0.31759240001378403 0 0.45919279217171471 -0.3039249335017592 0 0.45594069147346011 -0.33357520342504038 0 0.45594069147346011 -0.33357520342504038 0 0.44438532143169562 -0.31759240001378403 0 0.43333517078260447 -0.33825488497581468 0 0.44438532143169562 -0.31759240001378403 0 0.42837018122455173 -0.31550401271643119 0 0.43333517078260447 -0.33825488497581468 0 0.42837018122455173 -0.31550401271643119 0 0.43333517078260447 -0.33825488497581468 0 0.41245238965655368 -0.33282629627352389 0 0.43333517078260447 -0.33825488497581468 0 0.41245238965655368 -0.33282629627352389 0 0.41231254148121887 -0.34867251672167809 0 0.41245238965655368 -0.33282629627352389 0 0.41094351480358032 -0.31670017193857419 0 0.40475582120082859 -0.32481853511539988 0 0.42837018122455173 -0.31550401271643119 0 0.41245238965655368 -0.33282629627352389 0 0.41094351480358032 -0.31670017193857419 0 0.42837018122455173 -0.31550401271643119 0 0.41094351480358032 -0.31670017193857419 0 0.41586428757738619 -0.30749211775629232 0 0.42837018122455173 -0.31550401271643119 0 0.41245238965655368 -0.33282629627352389 0 0.4249570430374896 -0.36052883071842179 0 0.43695034529143922 -0.37661299463484388 0 0.41857816804821307 -0.37652195374300751 0 0.45268859077520129 -0.36322547334832123 0 0.43333517078260447 -0.33825488497581468 0 0.4249570430374896 -0.36052883071842179 0 0.43333517078260447 -0.33825488497581468 0 0.4249570430374896 -0.36052883071842179 0 0.41231254148121887 -0.34867251672167809 0 0.41245238965655368 -0.33282629627352389 0 0.41231254148121887 -0.34867251672167809 0 0.39653459808855568 -0.35014857983061659 0 0.4249570430374896 -0.36052883071842179 0 0.41231254148121887 -0.34867251672167809 0 0.40048135584477551 -0.36836962315576571 0 0.4249570430374896 -0.36052883071842179 0 0.40048135584477551 -0.36836962315576571 0 0.41857816804821307 -0.37652195374300751 0 0.40048135584477551 -0.36836962315576571 0 0.39653459808855568 -0.35014857983061659 0 0.38061680652055768 -0.36747086338770929 0 0.41231254148121887 -0.34867251672167809 0 0.40048135584477551 -0.36836962315576571 0 0.39653459808855568 -0.35014857983061659 0 0.39653459808855568 -0.35014857983061659 0 0.37812036006775562 -0.34960855124578433 0 0.38061680652055768 -0.36747086338770929 0 0.37812036006775562 -0.34960855124578433 0 0.38061680652055768 -0.36747086338770929 0 0.36996133145160598 -0.36023730264341591 0 0.39653459808855568 -0.35014857983061659 0 0.37812036006775562 -0.34960855124578433 0 0.3846320073652616 -0.33393398201475949 0 0.39653459808855568 -0.35014857983061659 0 0.38061680652055768 -0.36747086338770929 0 0.38106560599041772 -0.38422257693441092 0 0.36996133145160598 -0.36023730264341591 0 0.40048135584477551 -0.36836962315576571 0 0.38061680652055768 -0.36747086338770929 0 0.38106560599041772 -0.38422257693441092 0 0.38061680652055768 -0.36747086338770929 0 0.38106560599041772 -0.38422257693441092 0 0.36996133145160598 -0.36023730264341591 0 0.39803894104391813 -0.31893935038899668 0 0.39758843929926241 -0.33080832186050479 0 0.38629836044967591 -0.31888515766723929 0 0.39803894104391813 -0.31893935038899668 0 0.38629836044967591 -0.31888515766723929 0 0.39249946461770191 -0.30584457858454528 0 0.41094351480358032 -0.31670017193857419 0 0.39803894104391813 -0.31893935038899668 0 0.40475582120082859 -0.32481853511539988 0 0.39803894104391813 -0.31893935038899668 0 0.40475582120082859 -0.32481853511539988 0 0.39758843929926241 -0.33080832186050479 0 0.41245238965655368 -0.33282629627352389 0 0.39653459808855568 -0.35014857983061659 0 0.39758843929926241 -0.33080832186050479 0 0.41245238965655368 -0.33282629627352389 0 0.39653459808855568 -0.35014857983061659 0 0.41245238965655368 -0.33282629627352389 0 0.40475582120082859 -0.32481853511539988 0 0.39758843929926241 -0.33080832186050479 0 0.39653459808855568 -0.35014857983061659 0 0.39758843929926241 -0.33080832186050479 0 0.3846320073652616 -0.33393398201475949 0 0.3846320073652616 -0.33393398201475949 0 0.38629836044967591 -0.31888515766723929 0 0.37169264343505448 -0.31797846638666422 0 0.39758843929926241 -0.33080832186050479 0 0.3846320073652616 -0.33393398201475949 0 0.38629836044967591 -0.31888515766723929 0 0.38629836044967591 -0.31888515766723929 0 0.38113190373938632 -0.3079846697156905 0 0.37169264343505448 -0.31797846638666422 0 0.38113190373938632 -0.3079846697156905 0 0.38539655399126399 -0.29570151141434958 0 0.37022958826419472 -0.30164140426498659 0 0.38113190373938632 -0.3079846697156905 0 0.39249946461770191 -0.30584457858454528 0 0.38539655399126399 -0.29570151141434958 0 0.38629836044967591 -0.31888515766723929 0 0.38113190373938632 -0.3079846697156905 0 0.39249946461770191 -0.30584457858454528 0 0.39803894104391813 -0.31893935038899668 0 0.40796729515116609 -0.3006627856413997 0 0.39803894104391813 -0.31893935038899668 0 0.39249946461770191 -0.30584457858454528 0 0.40796729515116609 -0.3006627856413997 0 0.41094351480358032 -0.31670017193857419 0 0.39803894104391813 -0.31893935038899668 0 0.40796729515116609 -0.3006627856413997 0 0.39249946461770191 -0.30584457858454528 0 0.39625761551711591 -0.29364761246784499 0 0.38539655399126399 -0.29570151141434958 0 0.39249946461770191 -0.30584457858454528 0 0.39625761551711591 -0.29364761246784499 0 0.40796729515116609 -0.3006627856413997 0 0.40516080559531231 -0.2831050408186071 0 0.39625761551711591 -0.29364761246784499 0 0.40796729515116609 -0.3006627856413997 0 0.40516080559531231 -0.2831050408186071 0 0.39625761551711591 -0.29364761246784499 0 0.38860395480651699 -0.28631023985389592 0 0.38539655399126399 -0.29570151141434958 0 0.37689872668576002 -0.28595447723164757 0 0.37022958826419472 -0.30164140426498659 0 0.38860395480651699 -0.28631023985389592 0 0.38539655399126399 -0.29570151141434958 0 0.37689872668576002 -0.28595447723164757 0 0.39625761551711591 -0.29364761246784499 0 0.38860395480651699 -0.28631023985389592 0 0.38539655399126399 -0.29570151141434958 0 0.38860395480651699 -0.28631023985389592 0 0.37689872668576002 -0.28595447723164757 0 0.37979275249412198 -0.2733300875619688 0 0.38732180210357081 -0.26633137906082088 0 0.38539108654939991 -0.2547026039085134 0 0.37003019641856699 -0.2500724246218291 0 0.38732180210357081 -0.26633137906082088 0 0.37003019641856699 -0.2500724246218291 0 0.37979275249412198 -0.2733300875619688 0 0.38732180210357081 -0.26633137906082088 0 0.37003019641856699 -0.2500724246218291 0 0.39603488220105482 -0.23636487141212789 0 0.38539108654939991 -0.2547026039085134 0 0.40032414499481489 -0.25947760245597012 0 0.38732180210357081 -0.26633137906082088 0 0.38539108654939991 -0.2547026039085134 0 0.40032414499481489 -0.25947760245597012 0 0.40516080559531231 -0.2831050408186071 0 0.40032414499481489 -0.25947760245597012 0 0.41120923857959701 -0.27276311818863108 0 0.40516080559531231 -0.2831050408186071 0 0.37979275249412198 -0.2733300875619688 0 0.40516080559531231 -0.2831050408186071 0 0.37979275249412198 -0.2733300875619688 0 0.38732180210357081 -0.26633137906082088 0 0.40516080559531231 -0.2831050408186071 0 0.38732180210357081 -0.26633137906082088 0 0.40516080559531231 -0.2831050408186071 0 0.40032414499481489 -0.25947760245597012 0 0.40516080559531231 -0.2831050408186071 0 0.38860395480651699 -0.28631023985389592 0 0.37979275249412198 -0.2733300875619688 0 0.40516080559531231 -0.2831050408186071 0 0.38732180210357081 -0.26633137906082088 0 0.40032414499481489 -0.25947760245597012 0 0.41120923857959701 -0.27276311818863108 0 0.41570623649989219 -0.25705162507750451 0 0.4260823420085989 -0.26731578540155332 0 0.4260823420085989 -0.26731578540155332 0 0.41536849459038772 -0.28703832187834077 0 0.41120923857959701 -0.27276311818863108 0 0.4260823420085989 -0.26731578540155332 0 0.41536849459038772 -0.28703832187834077 0 0.40516080559531231 -0.2831050408186071 0 0.41120923857959701 -0.27276311818863108 0 0.41536849459038772 -0.28703832187834077 0 0.40032414499481489 -0.25947760245597012 0 0.41120923857959701 -0.27276311818863108 0 0.41570623649989219 -0.25705162507750451 0 0.40641832676510292 -0.24873540157288401 0 0.40032414499481489 -0.25947760245597012 0 0.41570623649989219 -0.25705162507750451 0 0.43118120452824482 -0.2477301432797393 0 0.41570623649989219 -0.25705162507750451 0 0.4260823420085989 -0.26731578540155332 0 0.43679618942680321 -0.24759324892476209 0 0.43118120452824482 -0.2477301432797393 0 0.4260823420085989 -0.26731578540155332 0 0.43679618942680321 -0.24759324892476209 0 0.4260823420085989 -0.26731578540155332 0 0.43679618942680321 -0.24759324892476209 0 0.44447739608392861 -0.26481776755135122 0 0.4260823420085989 -0.26731578540155332 0 0.4260823420085989 -0.26731578540155332 0 0.43023018727166468 -0.28151183969633098 0 0.41536849459038772 -0.28703832187834077 0 0.4408282305489446 -0.2759873203715964 0 0.44447739608392861 -0.26481776755135122 0 0.4260823420085989 -0.26731578540155332 0 0.4408282305489446 -0.2759873203715964 0 0.4260823420085989 -0.26731578540155332 0 0.43023018727166468 -0.28151183969633098 0 0.44134587876620668 -0.28803846030417712 0 0.43023018727166468 -0.28151183969633098 0 0.42982823369146889 -0.29261002551883852 0 0.4408282305489446 -0.2759873203715964 0 0.44134587876620668 -0.28803846030417712 0 0.43023018727166468 -0.28151183969633098 0 0.44428797279254939 -0.29818172915933822 0 0.42982823369146889 -0.29261002551883852 0 0.42275684350851611 -0.29965024685378999 0 0.43023018727166468 -0.28151183969633098 0 0.42982823369146889 -0.29261002551883852 0 0.41536849459038772 -0.28703832187834077 0 0.42982823369146889 -0.29261002551883852 0 0.42275684350851611 -0.29965024685378999 0 0.41536849459038772 -0.28703832187834077 0 0.42982823369146889 -0.29261002551883852 0 0.41536849459038772 -0.28703832187834077 0 0.44428797279254939 -0.29818172915933822 0 0.42982823369146889 -0.29261002551883852 0 0.42837018122455173 -0.31550401271643119 0 0.42275684350851611 -0.29965024685378999 0 0.41586428757738619 -0.30749211775629232 0 0.44428797279254939 -0.29818172915933822 0 0.42837018122455173 -0.31550401271643119 0 0.44428797279254939 -0.29818172915933822 0 0.42837018122455173 -0.31550401271643119 0 0.42275684350851611 -0.29965024685378999 0 0.41094351480358032 -0.31670017193857419 0 0.41586428757738619 -0.30749211775629232 0 0.40796729515116609 -0.3006627856413997 0 0.41094351480358032 -0.31670017193857419 0 0.40796729515116609 -0.3006627856413997 0 0.42275684350851611 -0.29965024685378999 0 0.41498001131062712 -0.29964826128286631 0 0.41586428757738619 -0.30749211775629232 0 0.41498001131062712 -0.29964826128286631 0 0.41586428757738619 -0.30749211775629232 0 0.40796729515116609 -0.3006627856413997 0 0.41498001131062712 -0.29964826128286631 0 0.40796729515116609 -0.3006627856413997 0 0.41333161900543952 -0.29078789487998302 0 0.40796729515116609 -0.3006627856413997 0 0.41333161900543952 -0.29078789487998302 0 0.40516080559531231 -0.2831050408186071 0 0.40796729515116609 -0.3006627856413997 0 0.41333161900543952 -0.29078789487998302 0 0.40516080559531231 -0.2831050408186071 0 0.40796729515116609 -0.3006627856413997 0 0.40516080559531231 -0.2831050408186071 0 0.41333161900543952 -0.29078789487998302 0 0.40516080559531231 -0.2831050408186071 0 0.41536849459038772 -0.28703832187834077 0 0.40516080559531231 -0.2831050408186071 0 0.41333161900543952 -0.29078789487998302 0 0.41536849459038772 -0.28703832187834077 0 0.41333161900543952 -0.29078789487998302 0 0.41536849459038772 -0.28703832187834077 0 0.42275684350851611 -0.29965024685378999 0 0.41333161900543952 -0.29078789487998302 0 0.41536849459038772 -0.28703832187834077 0 0.42275684350851611 -0.29965024685378999 0 0.41333161900543952 -0.29078789487998302 0 0.42275684350851611 -0.29965024685378999 0 0.41498001131062712 -0.29964826128286631 0 0.41333161900543952 -0.29078789487998302 0 0.43768688810001571 -0.50000000000001832 0 0.45747917240037173 -0.48877670098199621 0 0.47561812582953561 -0.49262726072535512 0 0.43934021897120989 -0.48492614123862832 0 0.43955453885908552 -0.48297212962735142 0 0.45747917240037173 -0.48877670098199621 0 0.43768688810001571 -0.50000000000001832 0 0.43934021897120989 -0.48492614123862832 0 0.45747917240037173 -0.48877670098199621 0 0.43934021897120989 -0.48492614123862832 0 0.45747917240037173 -0.48877670098199621 0 0.43768688810001571 -0.50000000000001832 0 0.43934021897120989 -0.48492614123862832 0 0.43955453885908552 -0.48297212962735142 0 0.44203388952089301 -0.46036722800287538 0 0.43955453885908552 -0.48297212962735142 0 0.45970302590605677 -0.4799065219429467 0 0.43955453885908552 -0.48297212962735142 0 0.45970302590605677 -0.4799065219429467 0 0.45747917240037173 -0.48877670098199621 0 0.43934021897120989 -0.48492614123862832 0 0.43955453885908552 -0.48297212962735142 0 0.43955453885908552 -0.48297212962735142 0 0.45970302590605677 -0.4799065219429467 0 0.44203388952089301 -0.46036722800287538 0 0.43934021897120989 -0.48492614123862832 0 0.43955453885908552 -0.48297212962735142 0 0.43406789767116671 -0.48380692627227861 0 0.45970302590605677 -0.4799065219429467 0 0.47985151295302858 -0.47684091425854558 0 0.46646010079386102 -0.45998016774735612 0 0.45970302590605677 -0.4799065219429467 0 0.45747917240037173 -0.48877670098199621 0 0.47561812582953561 -0.49262726072535512 0 0.45747917240037173 -0.48877670098199621 0 0.47561812582953561 -0.49262726072535512 0 0.43768688810001571 -0.50000000000001832 0 0.47561812582953561 -0.49262726072535512 0 0.5 -0.5 0 0.47561812582953561 -0.49262726072535512 0 0.5 -0.5 0 0.47985151295302858 -0.47684091425854558 0 0.5 -0.5 0 0.50000000000000044 -0.47377530657414452 0 0.47985151295302858 -0.47684091425854558 0 0.50000000000000044 -0.47377530657414452 0 0.47985151295302858 -0.47684091425854558 0 0.4839221597250955 -0.45954319412610961 0 0.50000000000000044 -0.47377530657414452 0 0.47985151295302858 -0.47684091425854558 0 0.45970302590605677 -0.4799065219429467 0 0.47561812582953561 -0.49262726072535512 0 0.47985151295302858 -0.47684091425854558 0 0.45970302590605677 -0.4799065219429467 0 0.47985151295302858 -0.47684091425854558 0 0.47985151295302858 -0.47684091425854558 0 0.4839221597250955 -0.45954319412610961 0 0.46646010079386102 -0.45998016774735612 0 0.50000000000000044 -0.47377530657414452 0 0.4839221597250955 -0.45954319412610961 0 0.5 -0.44894192771067681 0 0.4839221597250955 -0.45954319412610961 0 0.5 -0.44894192771067681 0 0.47329918487858802 -0.43817765433982447 0 0.4839221597250955 -0.45954319412610961 0 0.47329918487858802 -0.43817765433982447 0 0.46646010079386102 -0.45998016774735612 0 0.47329918487858802 -0.43817765433982447 0 0.45880185008363028 -0.44520324192674859 0 0.46646010079386102 -0.45998016774735612 0 0.45880185008363028 -0.44520324192674859 0 0.46646010079386102 -0.45998016774735612 0 0.44203388952089301 -0.46036722800287538 0 0.45970302590605677 -0.4799065219429467 0 0.46646010079386102 -0.45998016774735612 0 0.44203388952089301 -0.46036722800287538 0 0.45880185008363028 -0.44520324192674859 0 0.44203388952089301 -0.46036722800287538 0 0.44451324018269961 -0.43776232637839951 0 0.44203388952089301 -0.46036722800287538 0 0.44451324018269961 -0.43776232637839951 0 0.44203388952089301 -0.46036722800287538 0 0.44451324018269961 -0.43776232637839951 0 0.43078670538288749 -0.45050759777436489 0 0.44451324018269961 -0.43776232637839951 0 0.44699259084450538 -0.41515742475392348 0 0.43301657678679922 -0.42748596291207153 0 0.44451324018269961 -0.43776232637839951 0 0.44699259084450538 -0.41515742475392348 0 0.45880185008363028 -0.44520324192674859 0 0.44451324018269961 -0.43776232637839951 0 0.45493716739372808 -0.42746722261661402 0 0.44451324018269961 -0.43776232637839951 0 0.44699259084450538 -0.41515742475392348 0 0.45493716739372808 -0.42746722261661402 0 0.44699259084450538 -0.41515742475392348 0 0.45876690351278893 -0.41332577498120188 0 0.44943649007694259 -0.39287574327160207 0 0.44699259084450538 -0.41515742475392348 0 0.45876690351278893 -0.41332577498120188 0 0.45876690351278893 -0.41332577498120188 0 0.46753519096743501 -0.42328967265161399 0 0.45493716739372808 -0.42746722261661402 0 0.44699259084450538 -0.41515742475392348 0 0.45876690351278893 -0.41332577498120188 0 0.45493716739372808 -0.42746722261661402 0 0.45876690351278893 -0.41332577498120188 0 0.46753519096743501 -0.42328967265161399 0 0.47073520823009629 -0.40839259797482241 0 0.47329918487858802 -0.43817765433982447 0 0.45880185008363028 -0.44520324192674859 0 0.45493716739372808 -0.42746722261661402 0 0.47329918487858802 -0.43817765433982447 0 0.46753519096743501 -0.42328967265161399 0 0.45493716739372808 -0.42746722261661402 0 0.47329918487858802 -0.43817765433982447 0 0.46753519096743501 -0.42328967265161399 0 0.48104797151909828 -0.41488651673748012 0 0.47329918487858802 -0.43817765433982447 0 0.5 -0.42410854884720922 0 0.48104797151909828 -0.41488651673748012 0 0.5 -0.44894192771067681 0 0.47329918487858802 -0.43817765433982447 0 0.5 -0.42410854884720922 0 0.5 -0.42410854884720922 0 0.48104797151909828 -0.41488651673748012 0 0.49999999999999811 -0.39927516998374141 0 0.48104797151909828 -0.41488651673748012 0 0.47073520823009629 -0.40839259797482241 0 0.4747182450384706 -0.39607545662766941 0 0.46753519096743501 -0.42328967265161399 0 0.48104797151909828 -0.41488651673748012 0 0.47073520823009629 -0.40839259797482241 0 0.48104797151909828 -0.41488651673748012 0 0.4747182450384706 -0.39607545662766941 0 0.49999999999999811 -0.39927516998374141 0 0.4747182450384706 -0.39607545662766941 0 0.49999999999999811 -0.39927516998374141 0 0.5 -0.37273310800296672 0 0.4747182450384706 -0.39607545662766941 0 0.49999999999999811 -0.39927516998374141 0 0.5 -0.37273310800296672 0 0.4747182450384706 -0.39607545662766941 0 0.47068081142060902 -0.3761919778998995 0 0.45268859077520129 -0.36322547334832123 0 0.47068081142060902 -0.3761919778998995 0 0.44943649007694259 -0.39287574327160207 0 0.4747182450384706 -0.39607545662766941 0 0.47068081142060902 -0.3761919778998995 0 0.44943649007694259 -0.39287574327160207 0 0.47073520823009629 -0.40839259797482241 0 0.4747182450384706 -0.39607545662766941 0 0.44943649007694259 -0.39287574327160207 0 0.4747182450384706 -0.39607545662766941 0 0.44943649007694259 -0.39287574327160207 0 0.45876690351278893 -0.41332577498120188 0 0.47073520823009629 -0.40839259797482241 0 0.44943649007694259 -0.39287574327160207 0 0.44699259084450538 -0.41515742475392348 0 0.44943649007694259 -0.39287574327160207 0 0.44943649007694259 -0.39287574327160207 0 0.42664619538143472 -0.38999135449253453 0 0.44699259084450538 -0.41515742475392348 0 0.44943649007694259 -0.39287574327160207 0 0.4363778791759152 -0.40354889289231971 0 0.45268859077520129 -0.36322547334832123 0 0.44943649007694259 -0.39287574327160207 0 0.45268859077520129 -0.36322547334832123 0 0.44943649007694259 -0.39287574327160207 0 0.43695034529143922 -0.37661299463484388 0 0.44943649007694259 -0.39287574327160207 0 0.43695034529143922 -0.37661299463484388 0 0.42664619538143472 -0.38999135449253453 0 0.43695034529143922 -0.37661299463484388 0 0.42664619538143472 -0.38999135449253453 0 0.41857816804821307 -0.37652195374300751 0 0.44943649007694259 -0.39287574327160207 0 0.42664619538143472 -0.38999135449253453 0 0.4363778791759152 -0.40354889289231971 0 0.42664619538143472 -0.38999135449253453 0 0.4363778791759152 -0.40354889289231971 0 0.42352599779545308 -0.40414336447760202 0 0.42664619538143472 -0.38999135449253453 0 0.42352599779545308 -0.40414336447760202 0 0.41084869118872852 -0.40086874580614451 0 0.42664619538143472 -0.38999135449253453 0 0.41084869118872852 -0.40086874580614451 0 0.40385590068592642 -0.38710696571347181 0 0.42352599779545308 -0.40414336447760202 0 0.41084869118872852 -0.40086874580614451 0 0.41301795353467041 -0.41143203431144731 0 0.42664619538143472 -0.38999135449253453 0 0.40385590068592642 -0.38710696571347181 0 0.42664619538143472 -0.38999135449253453 0 0.41857816804821307 -0.37652195374300751 0 0.40385590068592642 -0.38710696571347181 0 0.40048135584477551 -0.36836962315576571 0 0.41857816804821307 -0.37652195374300751 0 0.40385590068592642 -0.38710696571347181 0 0.40385590068592642 -0.38710696571347181 0 0.38106560599041772 -0.38422257693441092 0 0.40048135584477551 -0.36836962315576571 0 0.40385590068592642 -0.38710696571347181 0 0.38106560599041772 -0.38422257693441092 0 0.40385590068592642 -0.38710696571347181 0 0.38106560599041772 -0.38422257693441092 0 0.38448045442888168 -0.39159866225836087 0 0.38106560599041772 -0.38422257693441092 0 0.38448045442888168 -0.39159866225836087 0 0.37108342766752378 -0.39439822615218351 0 0.38106560599041772 -0.38422257693441092 0 0.38448045442888168 -0.39159866225836087 0 0.38010648487524001 -0.40314098309893459 0 0.38448045442888168 -0.39159866225836087 0 0.37108342766752378 -0.39439822615218351 0 0.38448045442888168 -0.39159866225836087 0 0.38763299424233599 -0.40007453517240438 0 0.39605094324742091 -0.39776648230283418 0 0.38010648487524001 -0.40314098309893459 0 0.38448045442888168 -0.39159866225836087 0 0.38763299424233599 -0.40007453517240438 0 0.38010648487524001 -0.40314098309893459 0 0.38763299424233599 -0.40007453517240438 0 0.38989409441780148 -0.40779201302948792 0 0.38763299424233599 -0.40007453517240438 0 0.39605094324742091 -0.39776648230283418 0 0.38989409441780148 -0.40779201302948792 0 0.39605094324742091 -0.39776648230283418 0 0.40068789360382018 -0.40973444424960348 0 0.38989409441780148 -0.40779201302948792 0 0.40385590068592642 -0.38710696571347181 0 0.38448045442888168 -0.39159866225836087 0 0.39605094324742091 -0.39776648230283418 0 0.41084869118872852 -0.40086874580614451 0 0.40385590068592642 -0.38710696571347181 0 0.39605094324742091 -0.39776648230283418 0 0.41084869118872852 -0.40086874580614451 0 0.39605094324742091 -0.39776648230283418 0 0.40068789360382018 -0.40973444424960348 0 0.40409119825128381 -0.42183130272936359 0 0.3914913008075066 -0.41568942665858771 0 0.38264050195467292 -0.42516824171708378 0 0.40068789360382018 -0.40973444424960348 0 0.40409119825128381 -0.42183130272936359 0 0.3914913008075066 -0.41568942665858771 0 0.40068789360382018 -0.40973444424960348 0 0.40409119825128381 -0.42183130272936359 0 0.41301795353467041 -0.41143203431144731 0 0.40068789360382018 -0.40973444424960348 0 0.3914913008075066 -0.41568942665858771 0 0.38989409441780148 -0.40779201302948792 0 0.38010648487524001 -0.40314098309893459 0 0.38989409441780148 -0.40779201302948792 0 0.38014281580995468 -0.41392113156739951 0 0.3914913008075066 -0.41568942665858771 0 0.38989409441780148 -0.40779201302948792 0 0.38014281580995468 -0.41392113156739951 0 0.3914913008075066 -0.41568942665858771 0 0.38014281580995468 -0.41392113156739951 0 0.38264050195467292 -0.42516824171708378 0 0.38014281580995468 -0.41392113156739951 0 0.38264050195467292 -0.42516824171708378 0 0.36899886092632578 -0.42125476026975878 0 0.38010648487524001 -0.40314098309893459 0 0.38014281580995468 -0.41392113156739951 0 0.36827903938138218 -0.40763365368296212 0 0.38264050195467292 -0.42516824171708378 0 0.38882643757395668 -0.43986967981473818 0 0.36849287917728218 -0.43642128723654411 0 0.38264050195467292 -0.42516824171708378 0 0.3961232273929759 -0.42793657393994561 0 0.38882643757395668 -0.43986967981473818 0 0.3961232273929759 -0.42793657393994561 0 0.41198983814982992 -0.42325450023742539 0 0.38882643757395668 -0.43986967981473818 0 0.40409119825128381 -0.42183130272936359 0 0.38264050195467292 -0.42516824171708378 0 0.3961232273929759 -0.42793657393994561 0 0.41198983814982992 -0.42325450023742539 0 0.40624528035264279 -0.4386207144859996 0 0.38882643757395668 -0.43986967981473818 0 0.41198983814982992 -0.42325450023742539 0 0.38882643757395668 -0.43986967981473818 0 0.40409119825128381 -0.42183130272936359 0 0.38264050195467292 -0.42516824171708378 0 0.40409119825128381 -0.42183130272936359 0 0.3961232273929759 -0.42793657393994561 0 0.41198983814982992 -0.42325450023742539 0 0.41616001083109888 -0.4350769978428301 0 0.41198983814982992 -0.42325450023742539 0 0.40624528035264279 -0.4386207144859996 0 0.41616001083109888 -0.4350769978428301 0 0.42195171586396418 -0.42799755904337961 0 0.42608344249493108 -0.43801814064301131 0 0.41616001083109888 -0.4350769978428301 0 0.41198983814982992 -0.42325450023742539 0 0.42195171586396418 -0.42799755904337961 0 0.41198983814982992 -0.42325450023742539 0 0.42554189454789448 -0.41849436374164339 0 0.42195171586396418 -0.42799755904337961 0 0.40409119825128381 -0.42183130272936359 0 0.42554189454789448 -0.41849436374164339 0 0.40409119825128381 -0.42183130272936359 0 0.41198983814982992 -0.42325450023742539 0 0.42554189454789448 -0.41849436374164339 0 0.40409119825128381 -0.42183130272936359 0 0.41301795353467041 -0.41143203431144731 0 0.42554189454789448 -0.41849436374164339 0 0.41084869118872852 -0.40086874580614451 0 0.40068789360382018 -0.40973444424960348 0 0.41301795353467041 -0.41143203431144731 0 0.42352599779545308 -0.40414336447760202 0 0.41301795353467041 -0.41143203431144731 0 0.42554189454789448 -0.41849436374164339 0 0.44699259084450538 -0.41515742475392348 0 0.4363778791759152 -0.40354889289231971 0 0.42554189454789448 -0.41849436374164339 0 0.44699259084450538 -0.41515742475392348 0 0.42554189454789448 -0.41849436374164339 0 0.43301657678679922 -0.42748596291207153 0 0.44699259084450538 -0.41515742475392348 0 0.42554189454789448 -0.41849436374164339 0 0.4363778791759152 -0.40354889289231971 0 0.42352599779545308 -0.40414336447760202 0 0.42554189454789448 -0.41849436374164339 0 0.44451324018269961 -0.43776232637839951 0 0.43301657678679922 -0.42748596291207153 0 0.42608344249493108 -0.43801814064301131 0 0.43301657678679922 -0.42748596291207153 0 0.42195171586396418 -0.42799755904337961 0 0.42608344249493108 -0.43801814064301131 0 0.42554189454789448 -0.41849436374164339 0 0.43301657678679922 -0.42748596291207153 0 0.42195171586396418 -0.42799755904337961 0 0.44451324018269961 -0.43776232637839951 0 0.42608344249493108 -0.43801814064301131 0 0.43078670538288749 -0.45050759777436489 0 0.42608344249493108 -0.43801814064301131 0 0.43078670538288749 -0.45050759777436489 0 0.4157048876206022 -0.44889264944036428 0 0.44203388952089301 -0.46036722800287538 0 0.43078670538288749 -0.45050759777436489 0 0.42559806709531162 -0.4674976444071739 0 0.43078670538288749 -0.45050759777436489 0 0.42559806709531162 -0.4674976444071739 0 0.4157048876206022 -0.44889264944036428 0 0.42559806709531162 -0.4674976444071739 0 0.40956049129192312 -0.46188806495695173 0 0.4157048876206022 -0.44889264944036428 0 0.40956049129192312 -0.46188806495695173 0 0.4157048876206022 -0.44889264944036428 0 0.40270859695606909 -0.44989966090183359 0 0.4157048876206022 -0.44889264944036428 0 0.40624528035264279 -0.4386207144859996 0 0.40270859695606909 -0.44989966090183359 0 0.41616001083109888 -0.4350769978428301 0 0.42608344249493108 -0.43801814064301131 0 0.4157048876206022 -0.44889264944036428 0 0.41616001083109888 -0.4350769978428301 0 0.4157048876206022 -0.44889264944036428 0 0.40624528035264279 -0.4386207144859996 0 0.40624528035264279 -0.4386207144859996 0 0.40270859695606909 -0.44989966090183359 0 0.38882643757395668 -0.43986967981473818 0 0.40270859695606909 -0.44989966090183359 0 0.38882643757395668 -0.43986967981473818 0 0.39320588794122058 -0.46022719581111421 0 0.38882643757395668 -0.43986967981473818 0 0.36566303699808372 -0.45648485939205069 0 0.38882643757395668 -0.43986967981473818 0 0.39320588794122058 -0.46022719581111421 0 0.36566303699808372 -0.45648485939205069 0 0.39320588794122058 -0.46022719581111421 0 0.38278472882531539 -0.47292047098471979 0 0.36566303699808372 -0.45648485939205069 0 0.40956049129192312 -0.46188806495695173 0 0.39320588794122058 -0.46022719581111421 0 0.40842631324824102 -0.47836369862849942 0 0.40956049129192312 -0.46188806495695173 0 0.40270859695606909 -0.44989966090183359 0 0.39320588794122058 -0.46022719581111421 0 0.38278472882531539 -0.47292047098471979 0 0.40842631324824102 -0.47836369862849942 0 0.39320588794122058 -0.46022719581111421 0 0.38278472882531539 -0.47292047098471979 0 0.40842631324824102 -0.47836369862849942 0 0.38278472882531539 -0.47292047098471979 0 0.38716093199487789 -0.5 0 0.40842631324824102 -0.47836369862849942 0 0.38278472882531539 -0.47292047098471979 0 0.37565693476665207 -0.48796573627190237 0 0.36754670737343459 -0.47930901342311227 0 0.38278472882531539 -0.47292047098471979 0 0.38716093199487789 -0.5 0 0.37565693476665207 -0.48796573627190237 0 0.38716093199487789 -0.5 0 0.41242391004744677 -0.5 0 0.40842631324824102 -0.47836369862849942 0 0.41242391004744677 -0.5 0 0.40842631324824102 -0.47836369862849942 0 0.42300950502815782 -0.490564223175743 0 0.42559806709531162 -0.4674976444071739 0 0.40956049129192312 -0.46188806495695173 0 0.40842631324824102 -0.47836369862849942 0 0.40842631324824102 -0.47836369862849942 0 0.43406789767116671 -0.48380692627227861 0 0.42300950502815782 -0.490564223175743 0 0.40842631324824102 -0.47836369862849942 0 0.43406789767116671 -0.48380692627227861 0 0.43955453885908552 -0.48297212962735142 0 0.42559806709531162 -0.4674976444071739 0 0.43406789767116671 -0.48380692627227861 0 0.42559806709531162 -0.4674976444071739 0 0.40842631324824102 -0.47836369862849942 0 0.43406789767116671 -0.48380692627227861 0 0.43955453885908552 -0.48297212962735142 0 0.44203388952089301 -0.46036722800287538 0 0.42559806709531162 -0.4674976444071739 0 0.43934021897120989 -0.48492614123862832 0 0.43406789767116671 -0.48380692627227861 0 0.43955453885908552 -0.48297212962735142 0 0.43406789767116671 -0.48380692627227861 0 0.43768688810001571 -0.50000000000001832 0 0.43934021897120989 -0.48492614123862832 0 0.43406789767116671 -0.48380692627227861 0 0.43768688810001571 -0.50000000000001832 0 0.43406789767116671 -0.48380692627227861 0 0.42300950502815782 -0.490564223175743 0 0.43768688810001571 -0.50000000000001832 0 0.41242391004744677 -0.5 0 0.42300950502815782 -0.490564223175743 0 0.32017058112319718 -0.50000000000000333 0 0.32366047723337382 -0.47574480305581912 0 0.32017058112319718 -0.50000000000000333 0 0.32366047723337382 -0.47574480305581912 0 0.32943434586487769 -0.48785439310013862 0 0.32017058112319718 -0.50000000000000333 0 0.32366047723337382 -0.47574480305581912 0 0.29856348212077288 -0.47522939218556198 0 0.32366047723337382 -0.47574480305581912 0 0.33622369317039558 -0.47559380581996341 0 0.32943434586487769 -0.48785439310013862 0 0.32366047723337382 -0.47574480305581912 0 0.33622369317039558 -0.47559380581996341 0 0.3310523832675395 -0.46349140819780482 0 0.33622369317039558 -0.47559380581996341 0 0.34249963642221071 -0.47310003896936342 0 0.34336908417922762 -0.48355883104507308 0 0.32017058112319718 -0.50000000000000333 0 0.33663497588974012 -0.50000000000000033 0 0.32943434586487769 -0.48785439310013862 0 0.33622369317039558 -0.47559380581996341 0 0.34336908417922762 -0.48355883104507308 0 0.33663497588974012 -0.50000000000000033 0 0.33622369317039558 -0.47559380581996341 0 0.33663497588974012 -0.50000000000000033 0 0.34336908417922762 -0.48355883104507308 0 0.33663497588974012 -0.50000000000000033 0 0.34706514130563421 -0.48929645388945242 0 0.33622369317039558 -0.47559380581996341 0 0.33663497588974012 -0.50000000000000033 0 0.32943434586487769 -0.48785439310013862 0 0.34706514130563421 -0.48929645388945242 0 0.36189795394230911 -0.5 0 0.35442197410815762 -0.47980385654658642 0 0.33663497588974012 -0.50000000000000033 0 0.34706514130563421 -0.48929645388945242 0 0.36189795394230911 -0.5 0 0.38716093199487789 -0.5 0 0.37565693476665207 -0.48796573627190237 0 0.36189795394230911 -0.5 0 0.37565693476665207 -0.48796573627190237 0 0.36189795394230911 -0.5 0 0.36754670737343459 -0.47930901342311227 0 0.36189795394230911 -0.5 0 0.36754670737343459 -0.47930901342311227 0 0.35442197410815762 -0.47980385654658642 0 0.36754670737343459 -0.47930901342311227 0 0.35442197410815762 -0.47980385654658642 0 0.36566303699808372 -0.45648485939205069 0 0.38278472882531539 -0.47292047098471979 0 0.36754670737343459 -0.47930901342311227 0 0.36566303699808372 -0.45648485939205069 0 0.34249963642221071 -0.47310003896936342 0 0.35442197410815762 -0.47980385654658642 0 0.36566303699808372 -0.45648485939205069 0 0.34336908417922762 -0.48355883104507308 0 0.34706514130563421 -0.48929645388945242 0 0.35442197410815762 -0.47980385654658642 0 0.34249963642221071 -0.47310003896936342 0 0.34336908417922762 -0.48355883104507308 0 0.35442197410815762 -0.47980385654658642 0 0.34249963642221071 -0.47310003896936342 0 0.36566303699808372 -0.45648485939205069 0 0.34249963642221071 -0.47310003896936342 0 0.34821599180910029 -0.45618899094542642 0 0.36566303699808372 -0.45648485939205069 0 0.38882643757395668 -0.43986967981473818 0 0.36566303699808372 -0.45648485939205069 0 0.36849287917728218 -0.43642128723654411 0 0.36566303699808372 -0.45648485939205069 0 0.35188553300586223 -0.44519600476940752 0 0.36849287917728218 -0.43642128723654411 0 0.34821599180910029 -0.45618899094542642 0 0.36566303699808372 -0.45648485939205069 0 0.35188553300586223 -0.44519600476940752 0 0.34821599180910029 -0.45618899094542642 0 0.35188553300586223 -0.44519600476940752 0 0.33581241045105098 -0.45118761163992649 0 0.35188553300586223 -0.44519600476940752 0 0.33785250562360353 -0.43907663504587258 0 0.3522294722835036 -0.43073312716839918 0 0.32715037334354979 -0.45148960611163469 0 0.33064026945372588 -0.42723440916745042 0 0.33785250562360353 -0.43907663504587258 0 0.32715037334354979 -0.45148960611163469 0 0.33064026945372588 -0.42723440916745042 0 0.35188553300586223 -0.44519600476940752 0 0.33785250562360353 -0.43907663504587258 0 0.33581241045105098 -0.45118761163992649 0 0.33785250562360353 -0.43907663504587258 0 0.33581241045105098 -0.45118761163992649 0 0.32715037334354979 -0.45148960611163469 0 0.34249963642221071 -0.47310003896936342 0 0.34821599180910029 -0.45618899094542642 0 0.33581241045105098 -0.45118761163992649 0 0.33622369317039558 -0.47559380581996341 0 0.33581241045105098 -0.45118761163992649 0 0.33622369317039558 -0.47559380581996341 0 0.33581241045105098 -0.45118761163992649 0 0.3310523832675395 -0.46349140819780482 0 0.33622369317039558 -0.47559380581996341 0 0.34249963642221071 -0.47310003896936342 0 0.33581241045105098 -0.45118761163992649 0 0.33581241045105098 -0.45118761163992649 0 0.3310523832675395 -0.46349140819780482 0 0.32715037334354979 -0.45148960611163469 0 0.32366047723337382 -0.47574480305581912 0 0.3310523832675395 -0.46349140819780482 0 0.32715037334354979 -0.45148960611163469 0 0.32366047723337382 -0.47574480305581912 0 0.32715037334354979 -0.45148960611163469 0 0.30592245240487193 -0.44627996086014582 0 0.32366047723337382 -0.47574480305581912 0 0.32715037334354979 -0.45148960611163469 0 0.32715037334354979 -0.45148960611163469 0 0.33064026945372588 -0.42723440916745042 0 0.30592245240487193 -0.44627996086014582 0 0.31281595039525062 -0.42035731438653412 0 0.33064026945372588 -0.42723440916745042 0 0.30592245240487193 -0.44627996086014582 0 0.31281595039525062 -0.42035731438653412 0 0.33064026945372588 -0.42723440916745042 0 0.33413016556390202 -0.40297921222326599 0 0.31281595039525062 -0.42035731438653412 0 0.33413016556390202 -0.40297921222326599 0 0.30707643852536209 -0.40213483414866708 0 0.33064026945372588 -0.42723440916745042 0 0.33413016556390202 -0.40297921222326599 0 0.33064026945372588 -0.42723440916745042 0 0.35125065918430209 -0.41469255789058762 0 0.33413016556390202 -0.40297921222326599 0 0.33785250562360353 -0.43907663504587258 0 0.33064026945372588 -0.42723440916745042 0 0.3522294722835036 -0.43073312716839918 0 0.35188553300586223 -0.44519600476940752 0 0.3522294722835036 -0.43073312716839918 0 0.36849287917728218 -0.43642128723654411 0 0.33064026945372588 -0.42723440916745042 0 0.3522294722835036 -0.43073312716839918 0 0.35125065918430209 -0.41469255789058762 0 0.3522294722835036 -0.43073312716839918 0 0.36899886092632578 -0.42125476026975878 0 0.35125065918430209 -0.41469255789058762 0 0.3522294722835036 -0.43073312716839918 0 0.36849287917728218 -0.43642128723654411 0 0.36899886092632578 -0.42125476026975878 0 0.38264050195467292 -0.42516824171708378 0 0.36849287917728218 -0.43642128723654411 0 0.36899886092632578 -0.42125476026975878 0 0.36827903938138218 -0.40763365368296212 0 0.36899886092632578 -0.42125476026975878 0 0.35125065918430209 -0.41469255789058762 0 0.38014281580995468 -0.41392113156739951 0 0.36827903938138218 -0.40763365368296212 0 0.36899886092632578 -0.42125476026975878 0 0.36827903938138218 -0.40763365368296212 0 0.35125065918430209 -0.41469255789058762 0 0.35322614749697362 -0.39832018483168907 0 0.35125065918430209 -0.41469255789058762 0 0.35322614749697362 -0.39832018483168907 0 0.33413016556390202 -0.40297921222326599 0 0.36827903938138218 -0.40763365368296212 0 0.35322614749697362 -0.39832018483168907 0 0.37108342766752378 -0.39439822615218351 0 0.35322614749697362 -0.39832018483168907 0 0.37108342766752378 -0.39439822615218351 0 0.35934283383224802 -0.38147329610674569 0 0.38010648487524001 -0.40314098309893459 0 0.36827903938138218 -0.40763365368296212 0 0.37108342766752378 -0.39439822615218351 0 0.38106560599041772 -0.38422257693441092 0 0.35934283383224802 -0.38147329610674569 0 0.36996133145160598 -0.36023730264341591 0 0.38106560599041772 -0.38422257693441092 0 0.37108342766752378 -0.39439822615218351 0 0.35934283383224802 -0.38147329610674569 0 0.38106560599041772 -0.38422257693441092 0 0.35934283383224802 -0.38147329610674569 0 0.35934283383224802 -0.38147329610674569 0 0.3376200616740781 -0.37872401527908162 0 0.35480725340554509 -0.36593265254953822 0 0.35934283383224802 -0.38147329610674569 0 0.3376200616740781 -0.37872401527908162 0 0.35322614749697362 -0.39832018483168907 0 0.35934283383224802 -0.38147329610674569 0 0.3376200616740781 -0.37872401527908162 0 0.3376200616740781 -0.37872401527908162 0 0.33413016556390202 -0.40297921222326599 0 0.32221411795302191 -0.38933608413335991 0 0.35322614749697362 -0.39832018483168907 0 0.3376200616740781 -0.37872401527908162 0 0.33413016556390202 -0.40297921222326599 0 0.3376200616740781 -0.37872401527908162 0 0.33413016556390202 -0.40297921222326599 0 0.33413016556390202 -0.40297921222326599 0 0.32221411795302191 -0.38933608413335991 0 0.30707643852536209 -0.40213483414866708 0 0.3376200616740781 -0.37872401527908162 0 0.30989565857798401 -0.37521515511448161 0 0.32221411795302191 -0.38933608413335991 0 0.30989565857798401 -0.37521515511448161 0 0.30707643852536209 -0.40213483414866708 0 0.3376200616740781 -0.37872401527908162 0 0.32221411795302191 -0.38933608413335991 0 0.30989565857798401 -0.37521515511448161 0 0.30707643852536209 -0.40213483414866708 0 0.29343154267432631 -0.38733841672504787 0 0.27458281811206903 -0.40029738268716247 0 0.30989565857798401 -0.37521515511448161 0 0.30707643852536209 -0.40213483414866708 0 0.29343154267432631 -0.38733841672504787 0 0.30989565857798401 -0.37521515511448161 0 0.29343154267432631 -0.38733841672504787 0 0.28217125548189032 -0.37170629494987961 0 0.29343154267432631 -0.38733841672504787 0 0.27458281811206903 -0.40029738268716247 0 0.28217125548189032 -0.37170629494987961 0 0.27458281811206903 -0.40029738268716247 0 0.28217125548189032 -0.37170629494987961 0 0.25997539670113562 -0.38830829666215161 0 0.28217125548189032 -0.37170629494987961 0 0.26151325727369429 -0.36909177420648021 0 0.25997539670113562 -0.38830829666215161 0 0.27458281811206903 -0.40029738268716247 0 0.28217125548189032 -0.37170629494987961 0 0.25997539670113562 -0.38830829666215161 0 0.26151325727369429 -0.36909177420648021 0 0.242977157099936 -0.38347311256694128 0 0.25997539670113562 -0.38830829666215161 0 0.27458281811206903 -0.40029738268716247 0 0.25249472278986829 -0.40879689321486429 0 0.25997539670113562 -0.38830829666215161 0 0.25249472278986829 -0.40879689321486429 0 0.2466675862979518 -0.39475002798422743 0 0.27458281811206903 -0.40029738268716247 0 0.26829286893889981 -0.4218138367617002 0 0.29246051284776931 -0.42132938982163087 0 0.27458281811206903 -0.40029738268716247 0 0.26829286893889981 -0.4218138367617002 0 0.25249472278986829 -0.40879689321486429 0 0.26829286893889981 -0.4218138367617002 0 0.25249472278986829 -0.40879689321486429 0 0.2498911115155649 -0.42427291429165542 0 0.26829286893889981 -0.4218138367617002 0 0.26033298464097382 -0.43709799622460371 0 0.2498911115155649 -0.42427291429165542 0 0.26829286893889981 -0.4218138367617002 0 0.29246051284776931 -0.42132938982163087 0 0.27999506372715349 -0.4390884443302846 0 0.26829286893889981 -0.4218138367617002 0 0.26033298464097382 -0.43709799622460371 0 0.27999506372715349 -0.4390884443302846 0 0.30707643852536209 -0.40213483414866708 0 0.27458281811206903 -0.40029738268716247 0 0.29246051284776931 -0.42132938982163087 0 0.29246051284776931 -0.42132938982163087 0 0.30592245240487193 -0.44627996086014582 0 0.27999506372715349 -0.4390884443302846 0 0.31281595039525062 -0.42035731438653412 0 0.30707643852536209 -0.40213483414866708 0 0.29246051284776931 -0.42132938982163087 0 0.31281595039525062 -0.42035731438653412 0 0.29246051284776931 -0.42132938982163087 0 0.30592245240487193 -0.44627996086014582 0 0.32366047723337382 -0.47574480305581912 0 0.30592245240487193 -0.44627996086014582 0 0.29856348212077288 -0.47522939218556198 0 0.30592245240487193 -0.44627996086014582 0 0.28157655886342181 -0.46085304941375438 0 0.29856348212077288 -0.47522939218556198 0 0.30592245240487193 -0.44627996086014582 0 0.28157655886342181 -0.46085304941375438 0 0.27999506372715349 -0.4390884443302846 0 0.28157655886342181 -0.46085304941375438 0 0.27999506372715349 -0.4390884443302846 0 0.26084462184677781 -0.45581420922246962 0 0.26033298464097382 -0.43709799622460371 0 0.27999506372715349 -0.4390884443302846 0 0.26084462184677781 -0.45581420922246962 0 0.26033298464097382 -0.43709799622460371 0 0.26084462184677781 -0.45581420922246962 0 0.23718543449872059 -0.44921090474647862 0 0.26084462184677781 -0.45581420922246962 0 0.26529414064879231 -0.47511612983795909 0 0.24016661744764731 -0.47460545237324159 0 0.28157655886342181 -0.46085304941375438 0 0.26084462184677781 -0.45581420922246962 0 0.26529414064879231 -0.47511612983795909 0 0.28157655886342181 -0.46085304941375438 0 0.26529414064879231 -0.47511612983795909 0 0.28189463480347232 -0.48521168725700708 0 0.26529414064879231 -0.47511612983795909 0 0.268822060638782 -0.5 0 0.24314780039657441 -0.50000000000000466 0 0.26529414064879231 -0.47511612983795909 0 0.268822060638782 -0.5 0 0.28189463480347232 -0.48521168725700708 0 0.28189463480347232 -0.48521168725700708 0 0.29449632088098959 -0.5 0 0.29856348212077288 -0.47522939218556198 0 0.268822060638782 -0.5 0 0.28189463480347232 -0.48521168725700708 0 0.29449632088098959 -0.5 0 0.28157655886342181 -0.46085304941375438 0 0.28189463480347232 -0.48521168725700708 0 0.29856348212077288 -0.47522939218556198 0 0.32017058112319718 -0.50000000000000333 0 0.29449632088098959 -0.5 0 0.29856348212077288 -0.47522939218556198 0 0.33802406790727269 -0.29089168919229352 0 0.32087493336369088 -0.29602993769359393 0 0.33105975041479713 -0.31632468016461252 0 0.33802406790727269 -0.29089168919229352 0 0.34775278237398821 -0.31226675406142351 0 0.33105975041479713 -0.31632468016461252 0 0.31360198415099833 -0.31161956802404828 0 0.32087493336369088 -0.29602993769359393 0 0.33105975041479713 -0.31632468016461252 0 0.31360198415099833 -0.31161956802404828 0 0.32087493336369088 -0.29602993769359393 0 0.30523963176401597 -0.29007884917129217 0 0.32087493336369088 -0.29602993769359393 0 0.31988696225710789 -0.27209734512864869 0 0.30523963176401597 -0.29007884917129217 0 0.33802406790727269 -0.29089168919229352 0 0.32087493336369088 -0.29602993769359393 0 0.31988696225710789 -0.27209734512864869 0 0.31988696225710789 -0.27209734512864869 0 0.30523963176401597 -0.29007884917129217 0 0.30514863394351938 -0.24456781846687009 0 0.31988696225710789 -0.27209734512864869 0 0.3300300067937203 -0.25415524149856972 0 0.31988696225710789 -0.27209734512864869 0 0.3300300067937203 -0.25415524149856972 0 0.33801658134464491 -0.2705083071694882 0 0.3300300067937203 -0.25415524149856972 0 0.35491137964392122 -0.26374266453026918 0 0.3300300067937203 -0.25415524149856972 0 0.33801658134464491 -0.2705083071694882 0 0.35491137964392122 -0.26374266453026918 0 0.34617581742362552 -0.24933337889286039 0 0.3300300067937203 -0.25415524149856972 0 0.35491137964392122 -0.26374266453026918 0 0.33802406790727269 -0.29089168919229352 0 0.31988696225710789 -0.27209734512864869 0 0.33801658134464491 -0.2705083071694882 0 0.33802406790727269 -0.29089168919229352 0 0.33801658134464491 -0.2705083071694882 0 0.3508299911661647 -0.27852531133740632 0 0.33801658134464491 -0.2705083071694882 0 0.3508299911661647 -0.27852531133740632 0 0.35491137964392122 -0.26374266453026918 0 0.3508299911661647 -0.27852531133740632 0 0.35491137964392122 -0.26374266453026918 0 0.36411491189500822 -0.27842818669807062 0 0.34617581742362552 -0.24933337889286039 0 0.35491137964392122 -0.26374266453026918 0 0.37003019641856699 -0.2500724246218291 0 0.37979275249412198 -0.2733300875619688 0 0.35491137964392122 -0.26374266453026918 0 0.37003019641856699 -0.2500724246218291 0 0.37979275249412198 -0.2733300875619688 0 0.35491137964392122 -0.26374266453026918 0 0.37979275249412198 -0.2733300875619688 0 0.35491137964392122 -0.26374266453026918 0 0.36411491189500822 -0.27842818669807062 0 0.37689872668576002 -0.28595447723164757 0 0.37979275249412198 -0.2733300875619688 0 0.36411491189500822 -0.27842818669807062 0 0.37689872668576002 -0.28595447723164757 0 0.36411491189500822 -0.27842818669807062 0 0.35814170948507268 -0.29058839282906102 0 0.37689872668576002 -0.28595447723164757 0 0.35814170948507268 -0.29058839282906102 0 0.37022958826419472 -0.30164140426498659 0 0.33802406790727269 -0.29089168919229352 0 0.3508299911661647 -0.27852531133740632 0 0.35814170948507268 -0.29058839282906102 0 0.3508299911661647 -0.27852531133740632 0 0.36411491189500822 -0.27842818669807062 0 0.35814170948507268 -0.29058839282906102 0 0.35814170948507268 -0.29058839282906102 0 0.34775278237398821 -0.31226675406142351 0 0.37022958826419472 -0.30164140426498659 0 0.33802406790727269 -0.29089168919229352 0 0.35814170948507268 -0.29058839282906102 0 0.34775278237398821 -0.31226675406142351 0 0.38113190373938632 -0.3079846697156905 0 0.37022958826419472 -0.30164140426498659 0 0.37169264343505448 -0.31797846638666422 0 0.34775278237398821 -0.31226675406142351 0 0.37022958826419472 -0.30164140426498659 0 0.37169264343505448 -0.31797846638666422 0 0.34775278237398821 -0.31226675406142351 0 0.37169264343505448 -0.31797846638666422 0 0.35885705691279712 -0.33625202835241969 0 0.3846320073652616 -0.33393398201475949 0 0.37169264343505448 -0.31797846638666422 0 0.35885705691279712 -0.33625202835241969 0 0.37812036006775562 -0.34960855124578433 0 0.3846320073652616 -0.33393398201475949 0 0.35885705691279712 -0.33625202835241969 0 0.34775278237398821 -0.31226675406142351 0 0.35885705691279712 -0.33625202835241969 0 0.33864795288900762 -0.33730268550903808 0 0.34775278237398821 -0.31226675406142351 0 0.35885705691279712 -0.33625202835241969 0 0.35934283383224802 -0.38147329610674569 0 0.36996133145160598 -0.36023730264341591 0 0.35480725340554509 -0.36593265254953822 0 0.35885705691279712 -0.33625202835241969 0 0.36996133145160598 -0.36023730264341591 0 0.35885705691279712 -0.33625202835241969 0 0.36996133145160598 -0.36023730264341591 0 0.35480725340554509 -0.36593265254953822 0 0.37812036006775562 -0.34960855124578433 0 0.35885705691279712 -0.33625202835241969 0 0.36996133145160598 -0.36023730264341591 0 0.35885705691279712 -0.33625202835241969 0 0.34056902391331279 -0.35822837367959831 0 0.33864795288900762 -0.33730268550903808 0 0.35885705691279712 -0.33625202835241969 0 0.35480725340554509 -0.36593265254953822 0 0.34056902391331279 -0.35822837367959831 0 0.3376200616740781 -0.37872401527908162 0 0.35480725340554509 -0.36593265254953822 0 0.34056902391331279 -0.35822837367959831 0 0.3376200616740781 -0.37872401527908162 0 0.34056902391331279 -0.35822837367959831 0 0.32657434091258181 -0.36655341470551428 0 0.3376200616740781 -0.37872401527908162 0 0.34056902391331279 -0.35822837367959831 0 0.34056902391331279 -0.35822837367959831 0 0.31821261948495222 -0.35404611474889491 0 0.32657434091258181 -0.36655341470551428 0 0.34056902391331279 -0.35822837367959831 0 0.31821261948495222 -0.35404611474889491 0 0.33864795288900762 -0.33730268550903808 0 0.30989565857798401 -0.37521515511448161 0 0.31821261948495222 -0.35404611474889491 0 0.32657434091258181 -0.36655341470551428 0 0.3376200616740781 -0.37872401527908162 0 0.30989565857798401 -0.37521515511448161 0 0.32657434091258181 -0.36655341470551428 0 0.34775278237398821 -0.31226675406142351 0 0.33105975041479713 -0.31632468016461252 0 0.33864795288900762 -0.33730268550903808 0 0.33105975041479713 -0.31632468016461252 0 0.33864795288900762 -0.33730268550903808 0 0.32221090119429557 -0.33149036323225273 0 0.31821261948495222 -0.35404611474889491 0 0.33864795288900762 -0.33730268550903808 0 0.32221090119429557 -0.33149036323225273 0 0.31821261948495222 -0.35404611474889491 0 0.32221090119429557 -0.33149036323225273 0 0.30548994957038927 -0.34014813506759201 0 0.31360198415099833 -0.31161956802404828 0 0.33105975041479713 -0.31632468016461252 0 0.32221090119429557 -0.33149036323225273 0 0.31360198415099833 -0.31161956802404828 0 0.32221090119429557 -0.33149036323225273 0 0.30925598707953422 -0.32570197239326237 0 0.31360198415099833 -0.31161956802404828 0 0.30925598707953422 -0.32570197239326237 0 0.29500632552181077 -0.32334737785780959 0 0.31360198415099833 -0.31161956802404828 0 0.29500632552181077 -0.32334737785780959 0 0.29059230127092428 -0.30806035321393582 0 0.32221090119429557 -0.33149036323225273 0 0.30925598707953422 -0.32570197239326237 0 0.30548994957038927 -0.34014813506759201 0 0.30925598707953422 -0.32570197239326237 0 0.30548994957038927 -0.34014813506759201 0 0.29500632552181077 -0.32334737785780959 0 0.29500632552181077 -0.32334737785780959 0 0.28858879050185038 -0.34752683640384457 0 0.30548994957038927 -0.34014813506759201 0 0.29500632552181077 -0.32334737785780959 0 0.28858879050185038 -0.34752683640384457 0 0.29500632552181077 -0.32334737785780959 0 0.28858879050185038 -0.34752683640384457 0 0.27594497077783242 -0.3260418572565793 0 0.27594497077783242 -0.3260418572565793 0 0.29059230127092428 -0.30806035321393582 0 0.29500632552181077 -0.32334737785780959 0 0.27594497077783242 -0.3260418572565793 0 0.29059230127092428 -0.30806035321393582 0 0.30989565857798401 -0.37521515511448161 0 0.31821261948495222 -0.35404611474889491 0 0.29916264593105901 -0.36021355986696202 0 0.30989565857798401 -0.37521515511448161 0 0.29916264593105901 -0.36021355986696202 0 0.28217125548189032 -0.37170629494987961 0 0.30548994957038927 -0.34014813506759201 0 0.29916264593105901 -0.36021355986696202 0 0.28858879050185038 -0.34752683640384457 0 0.31821261948495222 -0.35404611474889491 0 0.30548994957038927 -0.34014813506759201 0 0.29916264593105901 -0.36021355986696202 0 0.28858879050185038 -0.34752683640384457 0 0.28217125548189032 -0.37170629494987961 0 0.27360252903113241 -0.35649066937953661 0 0.30989565857798401 -0.37521515511448161 0 0.28217125548189032 -0.37170629494987961 0 0.28858879050185038 -0.34752683640384457 0 0.28217125548189032 -0.37170629494987961 0 0.29916264593105901 -0.36021355986696202 0 0.28858879050185038 -0.34752683640384457 0 0.28217125548189032 -0.37170629494987961 0 0.28217125548189032 -0.37170629494987961 0 0.26151325727369429 -0.36909177420648021 0 0.28217125548189032 -0.37170629494987961 0 0.27360252903113241 -0.35649066937953661 0 0.26151325727369429 -0.36909177420648021 0 0.28858879050185038 -0.34752683640384457 0 0.27360252903113241 -0.35649066937953661 0 0.26129764028474067 -0.34402336129922279 0 0.27360252903113241 -0.35649066937953661 0 0.25259557439951041 -0.35663334273684638 0 0.26129764028474067 -0.34402336129922279 0 0.25259557439951041 -0.35663334273684638 0 0.26129764028474067 -0.34402336129922279 0 0.24249789160431909 -0.33909575540799181 0 0.25259557439951041 -0.35663334273684638 0 0.26151325727369429 -0.36909177420648021 0 0.24085525906549851 -0.3664772534630798 0 0.26151325727369429 -0.36909177420648021 0 0.24085525906549851 -0.3664772534630798 0 0.27360252903113241 -0.35649066937953661 0 0.25259557439951041 -0.35663334273684638 0 0.26151325727369429 -0.36909177420648021 0 0.27594497077783242 -0.3260418572565793 0 0.25416138092119472 -0.32299047991381907 0 0.27048584765180461 -0.30488685270839189 0 0.27594497077783242 -0.3260418572565793 0 0.27048584765180461 -0.30488685270839189 0 0.29059230127092428 -0.30806035321393582 0 0.28858879050185038 -0.34752683640384457 0 0.26129764028474067 -0.34402336129922279 0 0.27594497077783242 -0.3260418572565793 0 0.26129764028474067 -0.34402336129922279 0 0.27594497077783242 -0.3260418572565793 0 0.26129764028474067 -0.34402336129922279 0 0.25416138092119472 -0.32299047991381907 0 0.24249789160431909 -0.33909575540799181 0 0.26129764028474067 -0.34402336129922279 0 0.27594497077783242 -0.3260418572565793 0 0.25416138092119472 -0.32299047991381907 0 0.25416138092119472 -0.32299047991381907 0 0.27048584765180461 -0.30488685270839189 0 0.24766806924927531 -0.30365162921938338 0 0.2519064863498926 -0.28633594457746048 0 0.27048584765180461 -0.30488685270839189 0 0.24766806924927531 -0.30365162921938338 0 0.2519064863498926 -0.28633594457746048 0 0.26884926644100088 -0.28517300719781352 0 0.27048584765180461 -0.30488685270839189 0 0.2519064863498926 -0.28633594457746048 0 0.27048584765180461 -0.30488685270839189 0 0.2519064863498926 -0.28633594457746048 0 0.26884926644100088 -0.28517300719781352 0 0.26080688284689629 -0.27503982774615909 0 0.26884926644100088 -0.28517300719781352 0 0.28409996260603521 -0.28950944513932492 0 0.27694715275037568 -0.27009296581773118 0 0.26884926644100088 -0.28517300719781352 0 0.27048584765180461 -0.30488685270839189 0 0.28409996260603521 -0.28950944513932492 0 0.27048584765180461 -0.30488685270839189 0 0.29059230127092428 -0.30806035321393582 0 0.28409996260603521 -0.28950944513932492 0 0.28409996260603521 -0.28950944513932492 0 0.30523963176401597 -0.29007884917129217 0 0.29749152971191811 -0.27018476627492077 0 0.29059230127092428 -0.30806035321393582 0 0.28409996260603521 -0.28950944513932492 0 0.30523963176401597 -0.29007884917129217 0 0.31360198415099833 -0.31161956802404828 0 0.29059230127092428 -0.30806035321393582 0 0.30523963176401597 -0.29007884917129217 0 0.29059230127092428 -0.30806035321393582 0 0.30523963176401597 -0.29007884917129217 0 0.30514863394351938 -0.24456781846687009 0 0.31988696225710789 -0.27209734512864869 0 0.29749152971191811 -0.27018476627492077 0 0.31988696225710789 -0.27209734512864869 0 0.30523963176401597 -0.29007884917129217 0 0.29749152971191811 -0.27018476627492077 0 0.28409996260603521 -0.28950944513932492 0 0.29749152971191811 -0.27018476627492077 0 0.27694715275037568 -0.27009296581773118 0 0.29749152971191811 -0.27018476627492077 0 0.28548812118910322 -0.25011189102716791 0 0.27694715275037568 -0.27009296581773118 0 0.30514863394351938 -0.24456781846687009 0 0.29749152971191811 -0.27018476627492077 0 0.28548812118910322 -0.25011189102716791 0 0.26906730455718952 -0.2492068095314573 0 0.27694715275037568 -0.27009296581773118 0 0.25998365488998981 -0.26125528953719379 0 0.26906730455718952 -0.2492068095314573 0 0.28548812118910322 -0.25011189102716791 0 0.27694715275037568 -0.27009296581773118 0 0.26884926644100088 -0.28517300719781352 0 0.27694715275037568 -0.27009296581773118 0 0.26080688284689629 -0.27503982774615909 0 0.27694715275037568 -0.27009296581773118 0 0.26080688284689629 -0.27503982774615909 0 0.25998365488998981 -0.26125528953719379 0 0.2519064863498926 -0.28633594457746048 0 0.26080688284689629 -0.27503982774615909 0 0.2480436155859379 -0.26860575071838477 0 0.26080688284689629 -0.27503982774615909 0 0.25998365488998981 -0.26125528953719379 0 0.2480436155859379 -0.26860575071838477 0 0.26906730455718952 -0.2492068095314573 0 0.25998365488998981 -0.26125528953719379 0 0.244902637259619 -0.24701353735893281 0 0.25998365488998981 -0.26125528953719379 0 0.2480436155859379 -0.26860575071838477 0 0.244902637259619 -0.24701353735893281 0 0.2480436155859379 -0.26860575071838477 0 0.2312711503550155 -0.25302814347859781 0 0.244902637259619 -0.24701353735893281 0 0.2480436155859379 -0.26860575071838477 0 0.244902637259619 -0.24701353735893281 0 0.2480436155859379 -0.26860575071838477 0 0.23332712504798059 -0.26778503644652912 0 0.2312711503550155 -0.25302814347859781 0 0.2519064863498926 -0.28633594457746048 0 0.23332712504798059 -0.26778503644652912 0 0.2519064863498926 -0.28633594457746048 0 0.2480436155859379 -0.26860575071838477 0 0.23332712504798059 -0.26778503644652912 0 0.2519064863498926 -0.28633594457746048 0 0.23332712504798059 -0.26778503644652912 0 0.23608761483154361 -0.28481958930462242 0 0.23332712504798059 -0.26778503644652912 0 0.2247687014240918 -0.28084996097928983 0 0.23608761483154361 -0.28481958930462242 0 0.23332712504798059 -0.26778503644652912 0 0.2247687014240918 -0.28084996097928983 0 0.2163720922710354 -0.26696765408256729 0 0.23332712504798059 -0.26778503644652912 0 0.2163720922710354 -0.26696765408256729 0 0.21474776374606869 -0.2492341283155978 0 0.23332712504798059 -0.26778503644652912 0 0.2312711503550155 -0.25302814347859781 0 0.21474776374606869 -0.2492341283155978 0 0.23332712504798059 -0.26778503644652912 0 0.21474776374606869 -0.2492341283155978 0 0.2163720922710354 -0.26696765408256729 0 0.2013355751545591 -0.26810717325120981 0 0.21474776374606869 -0.2492341283155978 0 0.2247687014240918 -0.28084996097928983 0 0.2163720922710354 -0.26696765408256729 0 0.20775391899392051 -0.28505615750453128 0 0.2163720922710354 -0.26696765408256729 0 0.2013355751545591 -0.26810717325120981 0 0.20775391899392051 -0.28505615750453128 0 0.2013355751545591 -0.26810717325120981 0 0.18704061167687469 -0.25416437777289619 0 0.18289036261592709 -0.28460468991165788 0 0.2013355751545591 -0.26810717325120981 0 0.20775391899392051 -0.28505615750453128 0 0.18289036261592709 -0.28460468991165788 0 0.2013355751545591 -0.26810717325120981 0 0.18704061167687469 -0.25416437777289619 0 0.21474776374606869 -0.2492341283155978 0 0.19147415314949651 -0.30219569813570152 0 0.20826045853150191 -0.30996565486234279 0 0.18874199130465019 -0.32196266367542709 0 0.19147415314949651 -0.30219569813570152 0 0.20775391899392051 -0.28505615750453128 0 0.20826045853150191 -0.30996565486234279 0 0.19147415314949651 -0.30219569813570152 0 0.20775391899392051 -0.28505615750453128 0 0.18289036261592709 -0.28460468991165788 0 0.20775391899392051 -0.28505615750453128 0 0.20826045853150191 -0.30996565486234279 0 0.23030275597597899 -0.29962136755819851 0 0.20826045853150191 -0.30996565486234279 0 0.23030275597597899 -0.29962136755819851 0 0.22693425760308711 -0.3210351559453577 0 0.23030275597597899 -0.29962136755819851 0 0.22693425760308711 -0.3210351559453577 0 0.2247687014240918 -0.28084996097928983 0 0.23030275597597899 -0.29962136755819851 0 0.23608761483154361 -0.28481958930462242 0 0.2247687014240918 -0.28084996097928983 0 0.20775391899392051 -0.28505615750453128 0 0.23030275597597899 -0.29962136755819851 0 0.23030275597597899 -0.29962136755819851 0 0.23608761483154361 -0.28481958930462242 0 0.24766806924927531 -0.30365162921938338 0 0.2519064863498926 -0.28633594457746048 0 0.23608761483154361 -0.28481958930462242 0 0.24766806924927531 -0.30365162921938338 0 0.23030275597597899 -0.29962136755819851 0 0.24766806924927531 -0.30365162921938338 0 0.22693425760308711 -0.3210351559453577 0 0.25416138092119472 -0.32299047991381907 0 0.24766806924927531 -0.30365162921938338 0 0.22693425760308711 -0.3210351559453577 0 0.25416138092119472 -0.32299047991381907 0 0.24249789160431909 -0.33909575540799181 0 0.22693425760308711 -0.3210351559453577 0 0.22356575923019509 -0.34244894433251688 0 0.22693425760308711 -0.3210351559453577 0 0.24249789160431909 -0.33909575540799181 0 0.22356575923019509 -0.34244894433251688 0 0.22693425760308711 -0.3210351559453577 0 0.22356575923019509 -0.34244894433251688 0 0.22693425760308711 -0.3210351559453577 0 0.20787251557413089 -0.33129756450285669 0 0.26151325727369429 -0.36909177420648021 0 0.24085525906549851 -0.3664772534630798 0 0.242977157099936 -0.38347311256694128 0 0.24085525906549851 -0.3664772534630798 0 0.22824188565194081 -0.37302726186618917 0 0.242977157099936 -0.38347311256694128 0 0.25259557439951041 -0.35663334273684638 0 0.24249789160431909 -0.33909575540799181 0 0.23571026631072681 -0.35244614510093508 0 0.25259557439951041 -0.35663334273684638 0 0.24085525906549851 -0.3664772534630798 0 0.23571026631072681 -0.35244614510093508 0 0.22356575923019509 -0.34244894433251688 0 0.23571026631072681 -0.35244614510093508 0 0.22019726085730321 -0.36386273271967617 0 0.22356575923019509 -0.34244894433251688 0 0.22019726085730321 -0.36386273271967617 0 0.24249789160431909 -0.33909575540799181 0 0.22356575923019509 -0.34244894433251688 0 0.23571026631072681 -0.35244614510093508 0 0.24085525906549851 -0.3664772534630798 0 0.22019726085730321 -0.36386273271967617 0 0.22824188565194081 -0.37302726186618917 0 0.24085525906549851 -0.3664772534630798 0 0.22019726085730321 -0.36386273271967617 0 0.24085525906549851 -0.3664772534630798 0 0.23571026631072681 -0.35244614510093508 0 0.22019726085730321 -0.36386273271967617 0 0.22019726085730321 -0.36386273271967617 0 0.22824188565194081 -0.37302726186618917 0 0.2181457983823786 -0.37690402841266352 0 0.22019726085730321 -0.36386273271967617 0 0.2181457983823786 -0.37690402841266352 0 0.22019726085730321 -0.36386273271967617 0 0.19327111036011649 -0.36045490112315581 0 0.22019726085730321 -0.36386273271967617 0 0.19327111036011649 -0.36045490112315581 0 0.2005566020344276 -0.38085736608212373 0 0.22019726085730321 -0.36386273271967617 0 0.2181457983823786 -0.37690402841266352 0 0.2005566020344276 -0.38085736608212373 0 0.22356575923019509 -0.34244894433251688 0 0.22019726085730321 -0.36386273271967617 0 0.20729844268195691 -0.34788835432948823 0 0.22019726085730321 -0.36386273271967617 0 0.20729844268195691 -0.34788835432948823 0 0.19327111036011649 -0.36045490112315581 0 0.20729844268195691 -0.34788835432948823 0 0.19327111036011649 -0.36045490112315581 0 0.18878485169458259 -0.342226275742887 0 0.19327111036011649 -0.36045490112315581 0 0.2005566020344276 -0.38085736608212373 0 0.17715231675324239 -0.37892370089000121 0 0.20826045853150191 -0.30996565486234279 0 0.22693425760308711 -0.3210351559453577 0 0.20787251557413089 -0.33129756450285669 0 0.22356575923019509 -0.34244894433251688 0 0.20729844268195691 -0.34788835432948823 0 0.20787251557413089 -0.33129756450285669 0 0.20787251557413089 -0.33129756450285669 0 0.18878485169458259 -0.342226275742887 0 0.18874199130465019 -0.32196266367542709 0 0.20729844268195691 -0.34788835432948823 0 0.20787251557413089 -0.33129756450285669 0 0.18878485169458259 -0.342226275742887 0 0.20826045853150191 -0.30996565486234279 0 0.20787251557413089 -0.33129756450285669 0 0.18874199130465019 -0.32196266367542709 0 0.18874199130465019 -0.32196266367542709 0 0.16918009038371129 -0.33470710129976239 0 0.16972403430148239 -0.30938932472454789 0 0.18878485169458259 -0.342226275742887 0 0.18874199130465019 -0.32196266367542709 0 0.16918009038371129 -0.33470710129976239 0 0.16918009038371129 -0.33470710129976239 0 0.1492563842541281 -0.3241067028836141 0 0.16972403430148239 -0.30938932472454789 0 0.19327111036011649 -0.36045490112315581 0 0.16634495986293019 -0.35704706952663218 0 0.17715231675324239 -0.37892370089000121 0 0.19327111036011649 -0.36045490112315581 0 0.16634495986293019 -0.35704706952663218 0 0.19327111036011649 -0.36045490112315581 0 0.18878485169458259 -0.342226275742887 0 0.16634495986293019 -0.35704706952663218 0 0.18878485169458259 -0.342226275742887 0 0.16918009038371129 -0.33470710129976239 0 0.16634495986293019 -0.35704706952663218 0 0.16918009038371129 -0.33470710129976239 0 0.16634495986293019 -0.35704706952663218 0 0.13941880936574369 -0.35363923793010871 0 0.16634495986293019 -0.35704706952663218 0 0.15723479727968431 -0.37417361225181528 0 0.17715231675324239 -0.37892370089000121 0 0.16634495986293019 -0.35704706952663218 0 0.15723479727968431 -0.37417361225181528 0 0.13941880936574369 -0.35363923793010871 0 0.15723479727968431 -0.37417361225181528 0 0.13941880936574369 -0.35363923793010871 0 0.14005223934993741 -0.38485503526948889 0 0.16634495986293019 -0.35704706952663218 0 0.13941880936574369 -0.35363923793010871 0 0.13941880936574369 -0.35363923793010871 0 0.1299924741055126 -0.33410355420520371 0 0.1124926588685573 -0.35023140633358552 0 0.13941880936574369 -0.35363923793010871 0 0.1124926588685573 -0.35023140633358552 0 0.13941880936574369 -0.35363923793010871 0 0.14005223934993741 -0.38485503526948889 0 0.1104608317160277 -0.37963054541847913 0 0.1492563842541281 -0.3241067028836141 0 0.14583424873745821 -0.30635013482094681 0 0.16972403430148239 -0.30938932472454789 0 0.1492563842541281 -0.3241067028836141 0 0.1303035201169937 -0.31492294617863859 0 0.14583424873745821 -0.30635013482094681 0 0.16918009038371129 -0.33470710129976239 0 0.13941880936574369 -0.35363923793010871 0 0.1492563842541281 -0.3241067028836141 0 0.13941880936574369 -0.35363923793010871 0 0.1492563842541281 -0.3241067028836141 0 0.1299924741055126 -0.33410355420520371 0 0.1492563842541281 -0.3241067028836141 0 0.1299924741055126 -0.33410355420520371 0 0.1303035201169937 -0.31492294617863859 0 0.1303035201169937 -0.31492294617863859 0 0.14583424873745821 -0.30635013482094681 0 0.13173068093224799 -0.29541041896478037 0 0.1303035201169937 -0.31492294617863859 0 0.13173068093224799 -0.29541041896478037 0 0.1158437239328596 -0.30174380354425412 0 0.14583424873745821 -0.30635013482094681 0 0.13173068093224799 -0.29541041896478037 0 0.15731052177408761 -0.29000755443821907 0 0.13173068093224799 -0.29541041896478037 0 0.14017770357682449 -0.27862095173063178 0 0.15731052177408761 -0.29000755443821907 0 0.13173068093224799 -0.29541041896478037 0 0.15731052177408761 -0.29000755443821907 0 0.13173068093224799 -0.29541041896478037 0 0.14017770357682449 -0.27862095173063178 0 0.1248559401496294 -0.27989681384712378 0 0.1317528145223168 -0.26779753191328559 0 0.14017770357682449 -0.27862095173063178 0 0.14252930134945299 -0.26294511427507061 0 0.1317528145223168 -0.26779753191328559 0 0.14017770357682449 -0.27862095173063178 0 0.1248559401496294 -0.27989681384712378 0 0.13315228571906421 -0.25575993808958492 0 0.1180488418166126 -0.26176484162401731 0 0.13170245449118731 -0.23903702905694529 0 0.1317528145223168 -0.26779753191328559 0 0.13315228571906421 -0.25575993808958492 0 0.1180488418166126 -0.26176484162401731 0 0.1317528145223168 -0.26779753191328559 0 0.13315228571906421 -0.25575993808958492 0 0.14252930134945299 -0.26294511427507061 0 0.13315228571906421 -0.25575993808958492 0 0.14252930134945299 -0.26294511427507061 0 0.14309639145875069 -0.2473272623433824 0 0.14252930134945299 -0.26294511427507061 0 0.1547367375858503 -0.25440718937350021 0 0.15243697537569001 -0.2706080404182124 0 0.14252930134945299 -0.26294511427507061 0 0.1547367375858503 -0.25440718937350021 0 0.14309639145875069 -0.2473272623433824 0 0.14017770357682449 -0.27862095173063178 0 0.15243697537569001 -0.2706080404182124 0 0.15731052177408761 -0.29000755443821907 0 0.14017770357682449 -0.27862095173063178 0 0.14252930134945299 -0.26294511427507061 0 0.15243697537569001 -0.2706080404182124 0 0.1674306125922343 -0.26705939227364017 0 0.18289036261592709 -0.28460468991165788 0 0.15731052177408761 -0.29000755443821907 0 0.15243697537569001 -0.2706080404182124 0 0.1674306125922343 -0.26705939227364017 0 0.15731052177408761 -0.29000755443821907 0 0.1547367375858503 -0.25440718937350021 0 0.15243697537569001 -0.2706080404182124 0 0.1674306125922343 -0.26705939227364017 0 0.1547367375858503 -0.25440718937350021 0 0.1674306125922343 -0.26705939227364017 0 0.1675933023879716 -0.24530094965467869 0 0.1674306125922343 -0.26705939227364017 0 0.18704061167687469 -0.25416437777289619 0 0.1675933023879716 -0.24530094965467869 0 0.1674306125922343 -0.26705939227364017 0 0.18704061167687469 -0.25416437777289619 0 0.18289036261592709 -0.28460468991165788 0 0.19147415314949651 -0.30219569813570152 0 0.18874199130465019 -0.32196266367542709 0 0.16972403430148239 -0.30938932472454789 0 0.19147415314949651 -0.30219569813570152 0 0.18289036261592709 -0.28460468991165788 0 0.16972403430148239 -0.30938932472454789 0 0.14583424873745821 -0.30635013482094681 0 0.16972403430148239 -0.30938932472454789 0 0.15731052177408761 -0.29000755443821907 0 0.18289036261592709 -0.28460468991165788 0 0.16972403430148239 -0.30938932472454789 0 0.15731052177408761 -0.29000755443821907 0 0.18289036261592709 -0.28460468991165788 0 0.15731052177408761 -0.29000755443821907 0 0.1996733766368099 -0.48285901415668608 0 0.17725859341853581 -0.46852333922343842 0 0.18674543349494521 -0.5 0 0.1996733766368099 -0.48285901415668608 0 0.21494661694575981 -0.5 0 0.18674543349494521 -0.5 0 0.1996733766368099 -0.48285901415668608 0 0.20174646237604141 -0.46489668532572859 0 0.17725859341853581 -0.46852333922343842 0 0.1996733766368099 -0.48285901415668608 0 0.21860014162362171 -0.47840781213781691 0 0.20174646237604141 -0.46489668532572859 0 0.1996733766368099 -0.48285901415668608 0 0.21860014162362171 -0.47840781213781691 0 0.21494661694575981 -0.5 0 0.21860014162362171 -0.47840781213781691 0 0.21494661694575981 -0.5 0 0.24314780039657441 -0.50000000000000466 0 0.24314780039657441 -0.50000000000000466 0 0.24016661744764731 -0.47460545237324159 0 0.26529414064879231 -0.47511612983795909 0 0.24314780039657441 -0.50000000000000466 0 0.24016661744764731 -0.47460545237324159 0 0.21860014162362171 -0.47840781213781691 0 0.24016661744764731 -0.47460545237324159 0 0.21909031898538681 -0.45831814770538648 0 0.21860014162362171 -0.47840781213781691 0 0.24314780039657441 -0.50000000000000466 0 0.24016661744764731 -0.47460545237324159 0 0.24016661744764731 -0.47460545237324159 0 0.21909031898538681 -0.45831814770538648 0 0.23718543449872059 -0.44921090474647862 0 0.26084462184677781 -0.45581420922246962 0 0.24016661744764731 -0.47460545237324159 0 0.23718543449872059 -0.44921090474647862 0 0.24016661744764731 -0.47460545237324159 0 0.23718543449872059 -0.44921090474647862 0 0.21909031898538681 -0.45831814770538648 0 0.23718543449872059 -0.44921090474647862 0 0.21793335432756061 -0.43859873392561283 0 0.21909031898538681 -0.45831814770538648 0 0.21793335432756061 -0.43859873392561283 0 0.19669728707932349 -0.44592127061010439 0 0.21860014162362171 -0.47840781213781691 0 0.21909031898538681 -0.45831814770538648 0 0.20174646237604141 -0.46489668532572859 0 0.21909031898538681 -0.45831814770538648 0 0.20174646237604141 -0.46489668532572859 0 0.19669728707932349 -0.44592127061010439 0 0.20174646237604141 -0.46489668532572859 0 0.19669728707932349 -0.44592127061010439 0 0.17725859341853581 -0.46852333922343842 0 0.20091316755018071 -0.42468564647130902 0 0.17677621322725201 -0.43547122552177292 0 0.19669728707932349 -0.44592127061010439 0 0.20091316755018071 -0.42468564647130902 0 0.17677621322725201 -0.43547122552177292 0 0.20091316755018071 -0.42468564647130902 0 0.2058757892010262 -0.39839917979502559 0 0.1846240232755649 -0.40509924989983398 0 0.20091316755018071 -0.42468564647130902 0 0.22505012187310949 -0.41390006742084512 0 0.20091316755018071 -0.42468564647130902 0 0.21636544102986149 -0.4048974957930731 0 0.2058757892010262 -0.39839917979502559 0 0.20091316755018071 -0.42468564647130902 0 0.22158995991636479 -0.42627770268024001 0 0.22505012187310949 -0.41390006742084512 0 0.20091316755018071 -0.42468564647130902 0 0.22505012187310949 -0.41390006742084512 0 0.21636544102986149 -0.4048974957930731 0 0.21793335432756061 -0.43859873392561283 0 0.19669728707932349 -0.44592127061010439 0 0.20091316755018071 -0.42468564647130902 0 0.21793335432756061 -0.43859873392561283 0 0.20091316755018071 -0.42468564647130902 0 0.22158995991636479 -0.42627770268024001 0 0.21793335432756061 -0.43859873392561283 0 0.22158995991636479 -0.42627770268024001 0 0.23420425154979399 -0.42381635711971549 0 0.23718543449872059 -0.44921090474647862 0 0.21793335432756061 -0.43859873392561283 0 0.23420425154979399 -0.42381635711971549 0 0.23718543449872059 -0.44921090474647862 0 0.23420425154979399 -0.42381635711971549 0 0.2498911115155649 -0.42427291429165542 0 0.23718543449872059 -0.44921090474647862 0 0.23420425154979399 -0.42381635711971549 0 0.26033298464097382 -0.43709799622460371 0 0.23718543449872059 -0.44921090474647862 0 0.2498911115155649 -0.42427291429165542 0 0.25249472278986829 -0.40879689321486429 0 0.23420425154979399 -0.42381635711971549 0 0.23122306860086739 -0.39842180949295242 0 0.25249472278986829 -0.40879689321486429 0 0.23420425154979399 -0.42381635711971549 0 0.2498911115155649 -0.42427291429165542 0 0.23420425154979399 -0.42381635711971549 0 0.23122306860086739 -0.39842180949295242 0 0.23420425154979399 -0.42381635711971549 0 0.22505012187310949 -0.41390006742084512 0 0.23122306860086739 -0.39842180949295242 0 0.22158995991636479 -0.42627770268024001 0 0.23420425154979399 -0.42381635711971549 0 0.22505012187310949 -0.41390006742084512 0 0.22505012187310949 -0.41390006742084512 0 0.23122306860086739 -0.39842180949295242 0 0.21636544102986149 -0.4048974957930731 0 0.23122306860086739 -0.39842180949295242 0 0.21876505792412379 -0.38908077578523309 0 0.21636544102986149 -0.4048974957930731 0 0.25249472278986829 -0.40879689321486429 0 0.23122306860086739 -0.39842180949295242 0 0.2466675862979518 -0.39475002798422743 0 0.23122306860086739 -0.39842180949295242 0 0.2466675862979518 -0.39475002798422743 0 0.242977157099936 -0.38347311256694128 0 0.25997539670113562 -0.38830829666215161 0 0.2466675862979518 -0.39475002798422743 0 0.242977157099936 -0.38347311256694128 0 0.22824188565194081 -0.37302726186618917 0 0.23122306860086739 -0.39842180949295242 0 0.21876505792412379 -0.38908077578523309 0 0.22824188565194081 -0.37302726186618917 0 0.23122306860086739 -0.39842180949295242 0 0.242977157099936 -0.38347311256694128 0 0.22824188565194081 -0.37302726186618917 0 0.21876505792412379 -0.38908077578523309 0 0.2181457983823786 -0.37690402841266352 0 0.22824188565194081 -0.37302726186618917 0 0.23122306860086739 -0.39842180949295242 0 0.2103574297923671 -0.38589007660870889 0 0.2058757892010262 -0.39839917979502559 0 0.2005566020344276 -0.38085736608212373 0 0.2181457983823786 -0.37690402841266352 0 0.2103574297923671 -0.38589007660870889 0 0.2005566020344276 -0.38085736608212373 0 0.21876505792412379 -0.38908077578523309 0 0.2181457983823786 -0.37690402841266352 0 0.2103574297923671 -0.38589007660870889 0 0.21876505792412379 -0.38908077578523309 0 0.21636544102986149 -0.4048974957930731 0 0.2058757892010262 -0.39839917979502559 0 0.21876505792412379 -0.38908077578523309 0 0.2103574297923671 -0.38589007660870889 0 0.2058757892010262 -0.39839917979502559 0 0.2058757892010262 -0.39839917979502559 0 0.2005566020344276 -0.38085736608212373 0 0.1846240232755649 -0.40509924989983398 0 0.2005566020344276 -0.38085736608212373 0 0.17715231675324239 -0.37892370089000121 0 0.1846240232755649 -0.40509924989983398 0 0.17715231675324239 -0.37892370089000121 0 0.1846240232755649 -0.40509924989983398 0 0.1608824077067309 -0.39591000645644608 0 0.15723479727968431 -0.37417361225181528 0 0.17715231675324239 -0.37892370089000121 0 0.1608824077067309 -0.39591000645644608 0 0.15723479727968431 -0.37417361225181528 0 0.1608824077067309 -0.39591000645644608 0 0.14005223934993741 -0.38485503526948889 0 0.14005223934993741 -0.38485503526948889 0 0.124934607580345 -0.39724281984795029 0 0.1104608317160277 -0.37963054541847913 0 0.14005223934993741 -0.38485503526948889 0 0.14079635469191051 -0.41545601420046041 0 0.124934607580345 -0.39724281984795029 0 0.1608824077067309 -0.39591000645644608 0 0.14005223934993741 -0.38485503526948889 0 0.14079635469191051 -0.41545601420046041 0 0.14079635469191051 -0.41545601420046041 0 0.1273528200304227 -0.43324274209740748 0 0.10842900456350429 -0.40902968450337313 0 0.1608824077067309 -0.39591000645644608 0 0.14079635469191051 -0.41545601420046041 0 0.1630397321473768 -0.41925176653666391 0 0.14079635469191051 -0.41545601420046041 0 0.1273528200304227 -0.43324274209740748 0 0.15263925890432339 -0.44625680457223671 0 0.14079635469191051 -0.41545601420046041 0 0.1630397321473768 -0.41925176653666391 0 0.15263925890432339 -0.44625680457223671 0 0.1630397321473768 -0.41925176653666391 0 0.17677621322725201 -0.43547122552177292 0 0.15263925890432339 -0.44625680457223671 0 0.1846240232755649 -0.40509924989983398 0 0.1608824077067309 -0.39591000645644608 0 0.1630397321473768 -0.41925176653666391 0 0.1846240232755649 -0.40509924989983398 0 0.1630397321473768 -0.41925176653666391 0 0.17677621322725201 -0.43547122552177292 0 0.20091316755018071 -0.42468564647130902 0 0.1846240232755649 -0.40509924989983398 0 0.17677621322725201 -0.43547122552177292 0 0.17677621322725201 -0.43547122552177292 0 0.17725859341853581 -0.46852333922343842 0 0.15263925890432339 -0.44625680457223671 0 0.19669728707932349 -0.44592127061010439 0 0.17677621322725201 -0.43547122552177292 0 0.17725859341853581 -0.46852333922343842 0 0.17725859341853581 -0.46852333922343842 0 0.15263925890432339 -0.44625680457223671 0 0.14656213161088441 -0.47341115510851622 0 0.17677621322725201 -0.43547122552177292 0 0.15263925890432339 -0.44625680457223671 0 0.1273528200304227 -0.43324274209740748 0 0.15263925890432339 -0.44625680457223671 0 0.12850230458139469 -0.45704238362270061 0 0.15263925890432339 -0.44625680457223671 0 0.12850230458139469 -0.45704238362270061 0 0.15263925890432339 -0.44625680457223671 0 0.12850230458139469 -0.45704238362270061 0 0.14656213161088441 -0.47341115510851622 0 0.14656213161088441 -0.47341115510851622 0 0.13034306659331599 -0.5 0 0.1230312197899578 -0.47719942062513571 0 0.12850230458139469 -0.45704238362270061 0 0.14656213161088441 -0.47341115510851622 0 0.1230312197899578 -0.47719942062513571 0 0.14656213161088441 -0.47341115510851622 0 0.13034306659331599 -0.5 0 0.15854425004413061 -0.5 0 0.17725859341853581 -0.46852333922343842 0 0.14656213161088441 -0.47341115510851622 0 0.15854425004413061 -0.5 0 0.17725859341853581 -0.46852333922343842 0 0.15854425004413061 -0.5 0 0.18674543349494521 -0.5 0 0.080366175316931521 -0.47855197511544451 0 0.067194926797312843 -0.45680268182630368 0 0.056367000375397047 -0.4892759875577245 0 0.078883863906288099 -0.5 0 0.056367000375397047 -0.4892759875577245 0 0.05562584467007492 -0.5 0 0.080366175316931521 -0.47855197511544451 0 0.078883863906288099 -0.5 0 0.056367000375397047 -0.4892759875577245 0 0.080366175316931521 -0.47855197511544451 0 0.056367000375397047 -0.4892759875577245 0 0.080366175316931521 -0.47855197511544451 0 0.10436535025846461 -0.46782796267316129 0 0.088734103388693863 -0.46506270965119112 0 0.080366175316931521 -0.47855197511544451 0 0.10436535025846461 -0.46782796267316129 0 0.080366175316931521 -0.47855197511544451 0 0.090512873524394674 -0.49111487203882109 0 0.078883863906288099 -0.5 0 0.080366175316931521 -0.47855197511544451 0 0.090512873524394674 -0.49111487203882109 0 0.1032536167004795 -0.48391398133658231 0 0.090512873524394674 -0.49111487203882109 0 0.078883863906288099 -0.5 0 0.10214188314250131 -0.50000000000000355 0 0.090512873524394674 -0.49111487203882109 0 0.10214188314250131 -0.50000000000000355 0 0.1032536167004795 -0.48391398133658231 0 0.10214188314250131 -0.50000000000000355 0 0.1032536167004795 -0.48391398133658231 0 0.13034306659331599 -0.5 0 0.1230312197899578 -0.47719942062513571 0 0.1032536167004795 -0.48391398133658231 0 0.13034306659331599 -0.5 0 0.10214188314250131 -0.50000000000000355 0 0.1032536167004795 -0.48391398133658231 0 0.1230312197899578 -0.47719942062513571 0 0.1032536167004795 -0.48391398133658231 0 0.10436535025846461 -0.46782796267316129 0 0.1032536167004795 -0.48391398133658231 0 0.10436535025846461 -0.46782796267316129 0 0.080366175316931521 -0.47855197511544451 0 0.1032536167004795 -0.48391398133658231 0 0.10436535025846461 -0.46782796267316129 0 0.10436535025846461 -0.46782796267316129 0 0.1063971774109809 -0.43842882358826701 0 0.10436535025846461 -0.46782796267316129 0 0.095704163902181172 -0.45080084583829388 0 0.088734103388693863 -0.46506270965119112 0 0.12850230458139469 -0.45704238362270061 0 0.1230312197899578 -0.47719942062513571 0 0.10436535025846461 -0.46782796267316129 0 0.12850230458139469 -0.45704238362270061 0 0.10436535025846461 -0.46782796267316129 0 0.12850230458139469 -0.45704238362270061 0 0.10436535025846461 -0.46782796267316129 0 0.1063971774109809 -0.43842882358826701 0 0.1273528200304227 -0.43324274209740748 0 0.12850230458139469 -0.45704238362270061 0 0.1063971774109809 -0.43842882358826701 0 0.1063971774109809 -0.43842882358826701 0 0.095704163902181172 -0.45080084583829388 0 0.088818441923303029 -0.43486830768849932 0 0.10436535025846461 -0.46782796267316129 0 0.1063971774109809 -0.43842882358826701 0 0.095704163902181172 -0.45080084583829388 0 0.095704163902181172 -0.45080084583829388 0 0.067194926797312843 -0.45680268182630368 0 0.075215945780367194 -0.44419744383647553 0 0.095704163902181172 -0.45080084583829388 0 0.075215945780367194 -0.44419744383647553 0 0.088818441923303029 -0.43486830768849932 0 0.080366175316931521 -0.47855197511544451 0 0.088734103388693863 -0.46506270965119112 0 0.067194926797312843 -0.45680268182630368 0 0.095704163902181172 -0.45080084583829388 0 0.088734103388693863 -0.46506270965119112 0 0.067194926797312843 -0.45680268182630368 0 0.095704163902181172 -0.45080084583829388 0 0.067194926797312843 -0.45680268182630368 0 0.075215945780367194 -0.44419744383647553 0 0.067955642600389818 -0.43365404824220699 0 0.088818441923303029 -0.43486830768849932 0 0.075215945780367194 -0.44419744383647553 0 0.067955642600389818 -0.43365404824220699 0 0.054456803847605539 -0.44585627052545851 0 0.067194926797312843 -0.45680268182630368 0 0.075215945780367194 -0.44419744383647553 0 0.054456803847605539 -0.44585627052545851 0 0.067955642600389818 -0.43365404824220699 0 0.081649780618368625 -0.41561441631262791 0 0.061641413029039617 -0.42057327598065269 0 0.081649780618368625 -0.41561441631262791 0 0.060428398582670559 -0.40609899900419399 0 0.081649780618368625 -0.41561441631262791 0 0.081552359290304313 -0.40197272493681052 0 0.060428398582670559 -0.40609899900419399 0 0.081649780618368625 -0.41561441631262791 0 0.060428398582670559 -0.40609899900419399 0 0.061641413029039617 -0.42057327598065269 0 0.081649780618368625 -0.41561441631262791 0 0.10287116265406671 -0.42512983362106171 0 0.094697223511424872 -0.41093049450674729 0 0.081649780618368625 -0.41561441631262791 0 0.10287116265406671 -0.42512983362106171 0 0.081649780618368625 -0.41561441631262791 0 0.094697223511424872 -0.41093049450674729 0 0.081552359290304313 -0.40197272493681052 0 0.067955642600389818 -0.43365404824220699 0 0.081649780618368625 -0.41561441631262791 0 0.088818441923303029 -0.43486830768849932 0 0.081649780618368625 -0.41561441631262791 0 0.088818441923303029 -0.43486830768849932 0 0.10287116265406671 -0.42512983362106171 0 0.1063971774109809 -0.43842882358826701 0 0.10842900456350429 -0.40902968450337313 0 0.14079635469191051 -0.41545601420046041 0 0.10842900456350429 -0.40902968450337313 0 0.124934607580345 -0.39724281984795029 0 0.1063971774109809 -0.43842882358826701 0 0.10287116265406671 -0.42512983362106171 0 0.10842900456350429 -0.40902968450337313 0 0.1063971774109809 -0.43842882358826701 0 0.088818441923303029 -0.43486830768849932 0 0.10287116265406671 -0.42512983362106171 0 0.1273528200304227 -0.43324274209740748 0 0.1063971774109809 -0.43842882358826701 0 0.10842900456350429 -0.40902968450337313 0 0.10287116265406671 -0.42512983362106171 0 0.10842900456350429 -0.40902968450337313 0 0.094697223511424872 -0.41093049450674729 0 0.10842900456350429 -0.40902968450337313 0 0.1104608317160277 -0.37963054541847913 0 0.093345012163169649 -0.3971338857204984 0 0.10842900456350429 -0.40902968450337313 0 0.094697223511424872 -0.41093049450674729 0 0.093345012163169649 -0.3971338857204984 0 0.10842900456350429 -0.40902968450337313 0 0.124934607580345 -0.39724281984795029 0 0.1104608317160277 -0.37963054541847913 0 0.10842900456350429 -0.40902968450337313 0 0.1104608317160277 -0.37963054541847913 0 0.1104608317160277 -0.37963054541847913 0 0.09160731648008405 -0.38100674673715379 0 0.093345012163169649 -0.3971338857204984 0 0.1104608317160277 -0.37963054541847913 0 0.09160731648008405 -0.38100674673715379 0 0.095796721256996967 -0.36973006432325167 0 0.09160731648008405 -0.38100674673715379 0 0.084254589942203237 -0.39042567985056181 0 0.093345012163169649 -0.3971338857204984 0 0.09160731648008405 -0.38100674673715379 0 0.079288508960407664 -0.38111535076935282 0 0.086112103320483677 -0.37195001787659998 0 0.09160731648008405 -0.38100674673715379 0 0.079288508960407664 -0.38111535076935282 0 0.084254589942203237 -0.39042567985056181 0 0.079288508960407664 -0.38111535076935282 0 0.084254589942203237 -0.39042567985056181 0 0.07493915092398902 -0.39163287422623388 0 0.084254589942203237 -0.39042567985056181 0 0.093345012163169649 -0.3971338857204984 0 0.081552359290304313 -0.40197272493681052 0 0.094697223511424872 -0.41093049450674729 0 0.093345012163169649 -0.3971338857204984 0 0.081552359290304313 -0.40197272493681052 0 0.084254589942203237 -0.39042567985056181 0 0.081552359290304313 -0.40197272493681052 0 0.07493915092398902 -0.39163287422623388 0 0.081552359290304313 -0.40197272493681052 0 0.07493915092398902 -0.39163287422623388 0 0.060428398582670559 -0.40609899900419399 0 0.07493915092398902 -0.39163287422623388 0 0.063063541283728555 -0.39213733633708209 0 0.060428398582670559 -0.40609899900419399 0 0.07493915092398902 -0.39163287422623388 0 0.063063541283728555 -0.39213733633708209 0 0.069252960160587268 -0.38416134848408812 0 0.055954607205214009 -0.38392458003150359 0 0.067314733152159328 -0.374050436936605 0 0.072702197863454804 -0.37126557836724527 0 0.069252960160587268 -0.38416134848408812 0 0.055954607205214009 -0.38392458003150359 0 0.072702197863454804 -0.37126557836724527 0 0.055954607205214009 -0.38392458003150359 0 0.072702197863454804 -0.37126557836724527 0 0.063063541283728555 -0.39213733633708209 0 0.069252960160587268 -0.38416134848408812 0 0.055954607205214009 -0.38392458003150359 0 0.079288508960407664 -0.38111535076935282 0 0.069252960160587268 -0.38416134848408812 0 0.072702197863454804 -0.37126557836724527 0 0.079288508960407664 -0.38111535076935282 0 0.07493915092398902 -0.39163287422623388 0 0.069252960160587268 -0.38416134848408812 0 0.055954607205214009 -0.38392458003150359 0 0.039207016546972312 -0.39658358169576091 0 0.063063541283728555 -0.39213733633708209 0 0.055954607205214009 -0.38392458003150359 0 0.054742589546181941 -0.39486887993939102 0 0.063063541283728555 -0.39213733633708209 0 0.054742589546181941 -0.39486887993939102 0 0.060428398582670559 -0.40609899900419399 0 0.060428398582670559 -0.40609899900419399 0 0.039207016546972312 -0.39658358169576091 0 0.055954607205214009 -0.38392458003150359 0 0.054742589546181941 -0.39486887993939102 0 0.039207016546972312 -0.39658358169576091 0 0.054742589546181941 -0.39486887993939102 0 0.060428398582670559 -0.40609899900419399 0 0.039207016546972312 -0.39658358169576091 0 0.039207016546972312 -0.39658358169576091 0 0.040486631305561821 -0.40325785954584142 0 0.022361639647487809 -0.40931649704801992 0 0.060428398582670559 -0.40609899900419399 0 0.039207016546972312 -0.39658358169576091 0 0.040486631305561821 -0.40325785954584142 0 0.039207016546972312 -0.39658358169576091 0 0.03878733358577055 -0.38682960179693338 0 0.029879708372577411 -0.39240132676559408 0 0.039207016546972312 -0.39658358169576091 0 0.025451969753846618 -0.39794065642794357 0 0.029879708372577411 -0.39240132676559408 0 0.039207016546972312 -0.39658358169576091 0 0.029879708372577411 -0.39240132676559408 0 0.03878733358577055 -0.38682960179693338 0 0.02936911529734702 -0.38304529463940468 0 0.029879708372577411 -0.39240132676559408 0 0.055954607205214009 -0.38392458003150359 0 0.039207016546972312 -0.39658358169576091 0 0.03878733358577055 -0.38682960179693338 0 0.055954607205214009 -0.38392458003150359 0 0.039526220506741983 -0.37819322585240339 0 0.04437751246093314 -0.36615312635106312 0 0.055954607205214009 -0.38392458003150359 0 0.03878733358577055 -0.38682960179693338 0 0.039526220506741983 -0.37819322585240339 0 0.039526220506741983 -0.37819322585240339 0 0.02936911529734702 -0.38304529463940468 0 0.030618574486003351 -0.37258274117392792 0 0.03878733358577055 -0.38682960179693338 0 0.039526220506741983 -0.37819322585240339 0 0.02936911529734702 -0.38304529463940468 0 0.02936911529734702 -0.38304529463940468 0 0.01788221455160429 -0.3785836934152042 0 0.030618574486003351 -0.37258274117392792 0 0.02936911529734702 -0.38304529463940468 0 0.02113951966936883 -0.38787283312652943 0 0.029879708372577411 -0.39240132676559408 0 0.02936911529734702 -0.38304529463940468 0 0.02113951966936883 -0.38787283312652943 0 0.01788221455160429 -0.3785836934152042 0 0.02113951966936883 -0.38787283312652943 0 0.01788221455160429 -0.3785836934152042 0 0.012884388884344129 -0.38719381785202001 0 0.02113951966936883 -0.38787283312652943 0 0.012884388884344129 -0.38719381785202001 0 0.017141309740791349 -0.3962793486404188 0 0.01788221455160429 -0.3785836934152042 0 0.0034525236969518698 -0.38184759442032512 0 0.0044250660384099003 -0.36745488184495573 0 0.01788221455160429 -0.3785836934152042 0 0.012884388884344129 -0.38719381785202001 0 0.0034525236969518698 -0.38184759442032512 0 -0.0067425754456081639 -0.39069410610154642 0 0.0034525236969518698 -0.38184759442032512 0 0.0048063767630042971 -0.39138561965762242 0 0.012884388884344129 -0.38719381785202001 0 0.0034525236969518698 -0.38184759442032512 0 0.0048063767630042971 -0.39138561965762242 0 0.00086455765575302746 -0.4009210970433339 0 0.012335125110621421 -0.40257498038692152 0 0.0068611306111954068 -0.40725587629075982 0 0.00086455765575302746 -0.4009210970433339 0 0.0048063767630042971 -0.39138561965762242 0 0.012335125110621421 -0.40257498038692152 0 0.012884388884344129 -0.38719381785202001 0 0.0048063767630042971 -0.39138561965762242 0 0.017141309740791349 -0.3962793486404188 0 0.0048063767630042971 -0.39138561965762242 0 0.012335125110621421 -0.40257498038692152 0 0.017141309740791349 -0.3962793486404188 0 0.012335125110621421 -0.40257498038692152 0 0.018544719027288641 -0.40626949651398031 0 0.014222560137577941 -0.40901716807466137 0 0.019485320770079209 -0.40191345574055198 0 0.017141309740791349 -0.3962793486404188 0 0.025451969753846618 -0.39794065642794357 0 0.012335125110621421 -0.40257498038692152 0 0.019485320770079209 -0.40191345574055198 0 0.018544719027288641 -0.40626949651398031 0 0.039207016546972312 -0.39658358169576091 0 0.022361639647487809 -0.40931649704801992 0 0.039207016546972312 -0.39658358169576091 0 0.024982485801996589 -0.4026495632386311 0 0.022361639647487809 -0.40931649704801992 0 0.012335125110621421 -0.40257498038692152 0 0.019485320770079209 -0.40191345574055198 0 0.017141309740791349 -0.3962793486404188 0 0.019485320770079209 -0.40191345574055198 0 0.025451969753846618 -0.39794065642794357 0 0.024982485801996589 -0.4026495632386311 0 0.024982485801996589 -0.4026495632386311 0 0.022361639647487809 -0.40931649704801992 0 0.018544719027288641 -0.40626949651398031 0 0.019485320770079209 -0.40191345574055198 0 0.024982485801996589 -0.4026495632386311 0 0.018544719027288641 -0.40626949651398031 0 0.017141309740791349 -0.3962793486404188 0 0.023403126884146051 -0.39362354124012139 0 0.025451969753846618 -0.39794065642794357 0 0.02113951966936883 -0.38787283312652943 0 0.017141309740791349 -0.3962793486404188 0 0.023403126884146051 -0.39362354124012139 0 0.02113951966936883 -0.38787283312652943 0 0.023403126884146051 -0.39362354124012139 0 0.029879708372577411 -0.39240132676559408 0 0.023403126884146051 -0.39362354124012139 0 0.025451969753846618 -0.39794065642794357 0 0.029879708372577411 -0.39240132676559408 0 0.039207016546972312 -0.39658358169576091 0 0.025451969753846618 -0.39794065642794357 0 0.024982485801996589 -0.4026495632386311 0 0.022361639647487809 -0.40931649704801992 0 0.023001447026782161 -0.41265363597305971 0 0.0055162627480025237 -0.42204941240027782 0 0.023001447026782161 -0.41265363597305971 0 0.0055162627480025237 -0.42204941240027782 0 0.018564028975897099 -0.42192855649161032 0 0.040486631305561821 -0.40325785954584142 0 0.022361639647487809 -0.40931649704801992 0 0.023001447026782161 -0.41265363597305971 0 0.026538093659971021 -0.41633345046158587 0 0.023001447026782161 -0.41265363597305971 0 0.031425651894614617 -0.4143846260311238 0 0.026538093659971021 -0.41633345046158587 0 0.0276973921333033 -0.4219641834201695 0 0.031425651894614617 -0.4143846260311238 0 0.026538093659971021 -0.41633345046158587 0 0.0239607327646905 -0.41796474034814468 0 0.023001447026782161 -0.41265363597305971 0 0.026538093659971021 -0.41633345046158587 0 0.0239607327646905 -0.41796474034814468 0 0.0276973921333033 -0.4219641834201695 0 0.0239607327646905 -0.41796474034814468 0 0.018564028975897099 -0.42192855649161032 0 0.0276973921333033 -0.4219641834201695 0 0.0239607327646905 -0.41796474034814468 0 0.023001447026782161 -0.41265363597305971 0 0.018564028975897099 -0.42192855649161032 0 0.022361639647487809 -0.40931649704801992 0 0.018544719027288641 -0.40626949651398031 0 0.014222560137577941 -0.40901716807466137 0 0.022361639647487809 -0.40931649704801992 0 0.0088040001206800469 -0.41364191634462227 0 0.0055162627480025237 -0.42204941240027782 0 0.022361639647487809 -0.40931649704801992 0 0.0055162627480025237 -0.42204941240027782 0 0.022361639647487809 -0.40931649704801992 0 0.014222560137577941 -0.40901716807466137 0 0.0088040001206800469 -0.41364191634462227 0 0.023001447026782161 -0.41265363597305971 0 0.0055162627480025237 -0.42204941240027782 0 0.014222560137577941 -0.40901716807466137 0 0.0088040001206800469 -0.41364191634462227 0 0.0068611306111954068 -0.40725587629075982 0 0.012335125110621421 -0.40257498038692152 0 0.014222560137577941 -0.40901716807466137 0 0.0068611306111954068 -0.40725587629075982 0 -0.0012591713889099571 -0.4124205754594602 0 0.0088040001206800469 -0.41364191634462227 0 0.0055162627480025237 -0.42204941240027782 0 -0.0012591713889099571 -0.4124205754594602 0 0.0088040001206800469 -0.41364191634462227 0 0.0068611306111954068 -0.40725587629075982 0 -0.0012591713889099571 -0.4124205754594602 0 0.00086455765575302746 -0.4009210970433339 0 0.0068611306111954068 -0.40725587629075982 0 0.0012858825624279221 -0.43243677009768711 0 0.010819710092075319 -0.43202295663322349 0 0.002520803108117585 -0.44016184106386741 0 0.0012858825624279221 -0.43243677009768711 0 0.0055162627480025237 -0.42204941240027782 0 0.010819710092075319 -0.43202295663322349 0 0.0055162627480025237 -0.42204941240027782 0 0.010819710092075319 -0.43202295663322349 0 0.018564028975897099 -0.42192855649161032 0 0.010819710092075319 -0.43202295663322349 0 0.022563050867919519 -0.43249163704565508 0 0.01446823229008725 -0.44306952270024391 0 0.010819710092075319 -0.43202295663322349 0 0.022563050867919519 -0.43249163704565508 0 0.018564028975897099 -0.42192855649161032 0 0.022563050867919519 -0.43249163704565508 0 0.018564028975897099 -0.42192855649161032 0 0.0276973921333033 -0.4219641834201695 0 0.022563050867919519 -0.43249163704565508 0 0.0276973921333033 -0.4219641834201695 0 0.033010587829802832 -0.43245764027088729 0 0.022563050867919519 -0.43249163704565508 0 0.033010587829802832 -0.43245764027088729 0 0.032377080941721363 -0.44447458325822131 0 0.045311537273397609 -0.43320434817523001 0 0.037414297635260253 -0.42111688901251287 0 0.049279459129732049 -0.41294712401326128 0 0.033010587829802832 -0.43245764027088729 0 0.045311537273397609 -0.43320434817523001 0 0.032377080941721363 -0.44447458325822131 0 0.033010587829802832 -0.43245764027088729 0 0.045311537273397609 -0.43320434817523001 0 0.037414297635260253 -0.42111688901251287 0 0.0276973921333033 -0.4219641834201695 0 0.033010587829802832 -0.43245764027088729 0 0.037414297635260253 -0.42111688901251287 0 0.040486631305561821 -0.40325785954584142 0 0.023001447026782161 -0.41265363597305971 0 0.040486631305561821 -0.40325785954584142 0 0.023001447026782161 -0.41265363597305971 0 0.031425651894614617 -0.4143846260311238 0 0.0276973921333033 -0.4219641834201695 0 0.037414297635260253 -0.42111688901251287 0 0.031425651894614617 -0.4143846260311238 0 0.037414297635260253 -0.42111688901251287 0 0.031425651894614617 -0.4143846260311238 0 0.039651509991292189 -0.4129266246506848 0 0.040486631305561821 -0.40325785954584142 0 0.031425651894614617 -0.4143846260311238 0 0.039651509991292189 -0.4129266246506848 0 0.040486631305561821 -0.40325785954584142 0 0.039651509991292189 -0.4129266246506848 0 0.049279459129732049 -0.41294712401326128 0 0.037414297635260253 -0.42111688901251287 0 0.039651509991292189 -0.4129266246506848 0 0.049279459129732049 -0.41294712401326128 0 0.060428398582670559 -0.40609899900419399 0 0.040486631305561821 -0.40325785954584142 0 0.049279459129732049 -0.41294712401326128 0 0.060428398582670559 -0.40609899900419399 0 0.049279459129732049 -0.41294712401326128 0 0.061641413029039617 -0.42057327598065269 0 0.067955642600389818 -0.43365404824220699 0 0.045311537273397609 -0.43320434817523001 0 0.061641413029039617 -0.42057327598065269 0 0.045311537273397609 -0.43320434817523001 0 0.049279459129732049 -0.41294712401326128 0 0.061641413029039617 -0.42057327598065269 0 0.067955642600389818 -0.43365404824220699 0 0.045311537273397609 -0.43320434817523001 0 0.054456803847605539 -0.44585627052545851 0 0.067194926797312843 -0.45680268182630368 0 0.054456803847605539 -0.44585627052545851 0 0.038685689692444493 -0.46280451781431348 0 0.067194926797312843 -0.45680268182630368 0 0.038685689692444493 -0.46280451781431348 0 0.045311537273397609 -0.43320434817523001 0 0.054456803847605539 -0.44585627052545851 0 0.032377080941721363 -0.44447458325822131 0 0.054456803847605539 -0.44585627052545851 0 0.038685689692444493 -0.46280451781431348 0 0.032377080941721363 -0.44447458325822131 0 0.032377080941721363 -0.44447458325822131 0 0.01446823229008725 -0.44306952270024391 0 0.019703051098088301 -0.45469897292711858 0 0.022563050867919519 -0.43249163704565508 0 0.032377080941721363 -0.44447458325822131 0 0.01446823229008725 -0.44306952270024391 0 0.01446823229008725 -0.44306952270024391 0 0.0028077999786123601 -0.45433988706049089 0 0.019703051098088301 -0.45469897292711858 0 0.010819710092075319 -0.43202295663322349 0 0.01446823229008725 -0.44306952270024391 0 0.002520803108117585 -0.44016184106386741 0 0.01446823229008725 -0.44306952270024391 0 0.002520803108117585 -0.44016184106386741 0 0.0028077999786123601 -0.45433988706049089 0 0.0028077999786123601 -0.45433988706049089 0 0.019703051098088301 -0.45469897292711858 0 0.010176452587576049 -0.46880635380232327 0 -0.0049027206756070661 -0.46690035482721132 0 0.0028077999786123601 -0.45433988706049089 0 0.010176452587576049 -0.46880635380232327 0 0.038685689692444493 -0.46280451781431348 0 0.019703051098088301 -0.45469897292711858 0 0.010176452587576049 -0.46880635380232327 0 0.038685689692444493 -0.46280451781431348 0 0.010176452587576049 -0.46880635380232327 0 0.038685689692444493 -0.46280451781431348 0 0.032377080941721363 -0.44447458325822131 0 0.019703051098088301 -0.45469897292711858 0 0.038685689692444493 -0.46280451781431348 0 0.019014763528379029 -0.48350173680915121 0 0.010176452587576049 -0.46880635380232327 0 -0.007051701975383606 -0.48324500904034501 0 0.019014763528379029 -0.48350173680915121 0 0.010176452587576049 -0.46880635380232327 0 -0.007051701975383606 -0.48324500904034501 0 0.019014763528379029 -0.48350173680915121 0 -0.007051701975383606 -0.48324500904034501 0 0.019014763528379029 -0.48350173680915121 0 0.0055866102820615327 -0.5 0 0.019014763528379029 -0.48350173680915121 0 0.0055866102820615327 -0.5 0 0.032367825433861727 -0.50000000000000244 0 0.019014763528379029 -0.48350173680915121 0 0.032367825433861727 -0.50000000000000244 0 0.036996472941626161 -0.48330154643874879 0 0.032367825433861727 -0.50000000000000244 0 0.036996472941626161 -0.48330154643874879 0 0.056367000375397047 -0.4892759875577245 0 0.067194926797312843 -0.45680268182630368 0 0.038685689692444493 -0.46280451781431348 0 0.056367000375397047 -0.4892759875577245 0 0.032367825433861727 -0.50000000000000244 0 0.056367000375397047 -0.4892759875577245 0 0.038685689692444493 -0.46280451781431348 0 0.036996472941626161 -0.48330154643874879 0 0.056367000375397047 -0.4892759875577245 0 0.038685689692444493 -0.46280451781431348 0 0.019014763528379029 -0.48350173680915121 0 0.036996472941626161 -0.48330154643874879 0 0.032367825433861727 -0.50000000000000244 0 0.056367000375397047 -0.4892759875577245 0 0.05562584467007492 -0.5 0 0.080570999248568184 -0.30621614801790148 0 0.09864015372558535 -0.29409814443034599 0 0.093984722403939236 -0.28580533770932759 0 0.081649093877174589 -0.29351497739516402 0 0.080570999248568184 -0.30621614801790148 0 0.093984722403939236 -0.28580533770932759 0 0.080570999248568184 -0.30621614801790148 0 0.093984722403939236 -0.28580533770932759 0 0.081649093877174589 -0.29351497739516402 0 0.083192185865635204 -0.28562494563964153 0 0.076347619185195559 -0.29018226793529112 0 0.083192185865635204 -0.28562494563964153 0 0.077598168426374681 -0.279989891851189 0 0.086381325435491915 -0.27863225330723568 0 0.083192185865635204 -0.28562494563964153 0 0.076347619185195559 -0.29018226793529112 0 0.077598168426374681 -0.279989891851189 0 0.083192185865635204 -0.28562494563964153 0 0.086381325435491915 -0.27863225330723568 0 0.093984722403939236 -0.28580533770932759 0 0.081649093877174589 -0.29351497739516402 0 0.083192185865635204 -0.28562494563964153 0 0.093984722403939236 -0.28580533770932759 0 0.080570999248568184 -0.30621614801790148 0 0.096648804462405785 -0.30806087215826372 0 0.094638868529067069 -0.31338940557181871 0 0.080570999248568184 -0.30621614801790148 0 0.10615084009040821 -0.30081328349134162 0 0.080570999248568184 -0.30621614801790148 0 0.094638868529067069 -0.31338940557181871 0 0.086182600290006822 -0.31335745066633441 0 0.080570999248568184 -0.30621614801790148 0 0.081183663902277242 -0.3116515673905379 0 0.086182600290006822 -0.31335745066633441 0 0.080570999248568184 -0.30621614801790148 0 0.077401004018741143 -0.31103972835913668 0 0.080570999248568184 -0.30621614801790148 0 0.081183663902277242 -0.3116515673905379 0 0.077401004018741143 -0.31103972835913668 0 0.071118554128641612 -0.29895536135264789 0 0.059677869095980163 -0.29526461985052149 0 0.057531653427060077 -0.31108242005703829 0 0.080570999248568184 -0.30621614801790148 0 0.071352954493816276 -0.31148664734884268 0 0.057531653427060077 -0.31108242005703829 0 0.081649093877174589 -0.29351497739516402 0 0.080570999248568184 -0.30621614801790148 0 0.071118554128641612 -0.29895536135264789 0 0.080570999248568184 -0.30621614801790148 0 0.071118554128641612 -0.29895536135264789 0 0.057531653427060077 -0.31108242005703829 0 0.080570999248568184 -0.30621614801790148 0 0.057531653427060077 -0.31108242005703829 0 0.080570999248568184 -0.30621614801790148 0 0.077401004018741143 -0.31103972835913668 0 0.071352954493816276 -0.31148664734884268 0 0.071352954493816276 -0.31148664734884268 0 0.064035601913116427 -0.31375159176388279 0 0.057531653427060077 -0.31108242005703829 0 0.071118554128641612 -0.29895536135264789 0 0.066345876766798068 -0.28669905070128532 0 0.059677869095980163 -0.29526461985052149 0 0.071118554128641612 -0.29895536135264789 0 0.076347619185195559 -0.29018226793529112 0 0.066345876766798068 -0.28669905070128532 0 0.081649093877174589 -0.29351497739516402 0 0.071118554128641612 -0.29895536135264789 0 0.076347619185195559 -0.29018226793529112 0 0.076347619185195559 -0.29018226793529112 0 0.066345876766798068 -0.28669905070128532 0 0.077598168426374681 -0.279989891851189 0 0.066345876766798068 -0.28669905070128532 0 0.065812203452532955 -0.26920257458768082 0 0.077598168426374681 -0.279989891851189 0 0.065812203452532955 -0.26920257458768082 0 0.077598168426374681 -0.279989891851189 0 0.080873794350273975 -0.26960105549671071 0 0.065812203452532955 -0.26920257458768082 0 0.075357668747776663 -0.26118634055519152 0 0.080873794350273975 -0.26960105549671071 0 0.065812203452532955 -0.26920257458768082 0 0.069621436062782094 -0.25632746082006241 0 0.060568488386116323 -0.2527377194114907 0 0.069621436062782094 -0.25632746082006241 0 0.060568488386116323 -0.2527377194114907 0 0.072462681669391737 -0.24426177291940049 0 0.065812203452532955 -0.26920257458768082 0 0.069621436062782094 -0.25632746082006241 0 0.075357668747776663 -0.26118634055519152 0 0.069621436062782094 -0.25632746082006241 0 0.075357668747776663 -0.26118634055519152 0 0.078299639262990939 -0.25282750711809521 0 0.069621436062782094 -0.25632746082006241 0 0.078299639262990939 -0.25282750711809521 0 0.072462681669391737 -0.24426177291940049 0 0.078299639262990939 -0.25282750711809521 0 0.0853266445778951 -0.26155032280562901 0 0.089624746812020706 -0.25279476402730222 0 0.078299639262990939 -0.25282750711809521 0 0.089624746812020706 -0.25279476402730222 0 0.083468506435680864 -0.2451852086778922 0 0.075357668747776663 -0.26118634055519152 0 0.0853266445778951 -0.26155032280562901 0 0.080873794350273975 -0.26960105549671071 0 0.075357668747776663 -0.26118634055519152 0 0.078299639262990939 -0.25282750711809521 0 0.0853266445778951 -0.26155032280562901 0 0.0853266445778951 -0.26155032280562901 0 0.092027533994532701 -0.27042887494395729 0 0.09745571744551576 -0.26091081930926469 0 0.0853266445778951 -0.26155032280562901 0 0.089624746812020706 -0.25279476402730222 0 0.09745571744551576 -0.26091081930926469 0 0.077598168426374681 -0.279989891851189 0 0.080873794350273975 -0.26960105549671071 0 0.086381325435491915 -0.27863225330723568 0 0.080873794350273975 -0.26960105549671071 0 0.092027533994532701 -0.27042887494395729 0 0.086381325435491915 -0.27863225330723568 0 0.0853266445778951 -0.26155032280562901 0 0.080873794350273975 -0.26960105549671071 0 0.092027533994532701 -0.27042887494395729 0 0.092027533994532701 -0.27042887494395729 0 0.086381325435491915 -0.27863225330723568 0 0.093984722403939236 -0.28580533770932759 0 0.10739844555931211 -0.26539452740075498 0 0.093984722403939236 -0.28580533770932759 0 0.092027533994532701 -0.27042887494395729 0 0.10739844555931211 -0.26539452740075498 0 0.093984722403939236 -0.28580533770932759 0 0.10739844555931211 -0.26539452740075498 0 0.104395229142038 -0.28449265419108921 0 0.093984722403939236 -0.28580533770932759 0 0.097497114306209609 -0.25224325822444549 0 0.09745571744551576 -0.26091081930926469 0 0.1064824157530737 -0.25121458220748633 0 0.089624746812020706 -0.25279476402730222 0 0.097497114306209609 -0.25224325822444549 0 0.09745571744551576 -0.26091081930926469 0 0.092027533994532701 -0.27042887494395729 0 0.09745571744551576 -0.26091081930926469 0 0.10739844555931211 -0.26539452740075498 0 0.09745571744551576 -0.26091081930926469 0 0.10739844555931211 -0.26539452740075498 0 0.1064824157530737 -0.25121458220748633 0 0.1180488418166126 -0.26176484162401731 0 0.13170245449118731 -0.23903702905694529 0 0.10739844555931211 -0.26539452740075498 0 0.1180488418166126 -0.26176484162401731 0 0.120812168714685 -0.24498371709218231 0 0.10739844555931211 -0.26539452740075498 0 0.1064824157530737 -0.25121458220748633 0 0.120812168714685 -0.24498371709218231 0 0.10739844555931211 -0.26539452740075498 0 0.120812168714685 -0.24498371709218231 0 0.1180488418166126 -0.26176484162401731 0 0.104395229142038 -0.28449265419108921 0 0.1180488418166126 -0.26176484162401731 0 0.1248559401496294 -0.27989681384712378 0 0.1143489880033795 -0.2820511513220238 0 0.1180488418166126 -0.26176484162401731 0 0.1143489880033795 -0.2820511513220238 0 0.104395229142038 -0.28449265419108921 0 0.1317528145223168 -0.26779753191328559 0 0.1180488418166126 -0.26176484162401731 0 0.1248559401496294 -0.27989681384712378 0 0.10739844555931211 -0.26539452740075498 0 0.1180488418166126 -0.26176484162401731 0 0.104395229142038 -0.28449265419108921 0 0.13173068093224799 -0.29541041896478037 0 0.1248559401496294 -0.27989681384712378 0 0.1163459511656446 -0.29093814820581881 0 0.13173068093224799 -0.29541041896478037 0 0.1163459511656446 -0.29093814820581881 0 0.10615084009040821 -0.30081328349134162 0 0.1248559401496294 -0.27989681384712378 0 0.1163459511656446 -0.29093814820581881 0 0.1143489880033795 -0.2820511513220238 0 0.1163459511656446 -0.29093814820581881 0 0.1079762324254112 -0.29047867632812391 0 0.10615084009040821 -0.30081328349134162 0 0.1163459511656446 -0.29093814820581881 0 0.1143489880033795 -0.2820511513220238 0 0.1079762324254112 -0.29047867632812391 0 0.1143489880033795 -0.2820511513220238 0 0.104395229142038 -0.28449265419108921 0 0.1079762324254112 -0.29047867632812391 0 0.1079762324254112 -0.29047867632812391 0 0.09864015372558535 -0.29409814443034599 0 0.10615084009040821 -0.30081328349134162 0 0.104395229142038 -0.28449265419108921 0 0.1079762324254112 -0.29047867632812391 0 0.09864015372558535 -0.29409814443034599 0 0.104395229142038 -0.28449265419108921 0 0.09864015372558535 -0.29409814443034599 0 0.093984722403939236 -0.28580533770932759 0 0.080570999248568184 -0.30621614801790148 0 0.096648804462405785 -0.30806087215826372 0 0.10615084009040821 -0.30081328349134162 0 0.080570999248568184 -0.30621614801790148 0 0.09864015372558535 -0.29409814443034599 0 0.10615084009040821 -0.30081328349134162 0 0.096648804462405785 -0.30806087215826372 0 0.1052345099815796 -0.31182465155199268 0 0.094638868529067069 -0.31338940557181871 0 0.10615084009040821 -0.30081328349134162 0 0.1052345099815796 -0.31182465155199268 0 0.1158437239328596 -0.30174380354425412 0 0.096648804462405785 -0.30806087215826372 0 0.10615084009040821 -0.30081328349134162 0 0.1052345099815796 -0.31182465155199268 0 0.13173068093224799 -0.29541041896478037 0 0.10615084009040821 -0.30081328349134162 0 0.1158437239328596 -0.30174380354425412 0 0.13173068093224799 -0.29541041896478037 0 0.10615084009040821 -0.30081328349134162 0 0.1299924741055126 -0.33410355420520371 0 0.1303035201169937 -0.31492294617863859 0 0.1141681914007054 -0.32598760493891971 0 0.1303035201169937 -0.31492294617863859 0 0.1158437239328596 -0.30174380354425412 0 0.1141681914007054 -0.32598760493891971 0 0.1158437239328596 -0.30174380354425412 0 0.1141681914007054 -0.32598760493891971 0 0.1052345099815796 -0.31182465155199268 0 0.1158437239328596 -0.30174380354425412 0 0.1141681914007054 -0.32598760493891971 0 0.1299924741055126 -0.33410355420520371 0 0.1141681914007054 -0.32598760493891971 0 0.1124926588685573 -0.35023140633358552 0 0.1141681914007054 -0.32598760493891971 0 0.1124926588685573 -0.35023140633358552 0 0.1141681914007054 -0.32598760493891971 0 0.100299289275231 -0.33533925166271072 0 0.1124926588685573 -0.35023140633358552 0 0.100299289275231 -0.33533925166271072 0 0.099718456210305478 -0.32232284131481381 0 0.091086758489248937 -0.32778054619490582 0 0.099718456210305478 -0.32232284131481381 0 0.091298692895008138 -0.31976513406103341 0 0.091086758489248937 -0.32778054619490582 0 0.099718456210305478 -0.32232284131481381 0 0.094638868529067069 -0.31338940557181871 0 0.091298692895008138 -0.31976513406103341 0 0.1052345099815796 -0.31182465155199268 0 0.099718456210305478 -0.32232284131481381 0 0.094638868529067069 -0.31338940557181871 0 0.1052345099815796 -0.31182465155199268 0 0.1141681914007054 -0.32598760493891971 0 0.099718456210305478 -0.32232284131481381 0 0.1141681914007054 -0.32598760493891971 0 0.100299289275231 -0.33533925166271072 0 0.099718456210305478 -0.32232284131481381 0 0.13941880936574369 -0.35363923793010871 0 0.1104608317160277 -0.37963054541847913 0 0.1124926588685573 -0.35023140633358552 0 0.1104608317160277 -0.37963054541847913 0 0.1124926588685573 -0.35023140633358552 0 0.1124926588685573 -0.35023140633358552 0 0.092654979055660308 -0.34772070685297529 0 0.1124926588685573 -0.35023140633358552 0 0.1013535662466938 -0.35745643488103901 0 0.092654979055660308 -0.34772070685297529 0 0.100299289275231 -0.33533925166271072 0 0.1124926588685573 -0.35023140633358552 0 0.092654979055660308 -0.34772070685297529 0 0.1013535662466938 -0.35745643488103901 0 0.089449788521695578 -0.3586065767029869 0 0.092654979055660308 -0.34772070685297529 0 0.1104608317160277 -0.37963054541847913 0 0.1124926588685573 -0.35023140633358552 0 0.1013535662466938 -0.35745643488103901 0 0.1104608317160277 -0.37963054541847913 0 0.1013535662466938 -0.35745643488103901 0 0.095796721256996967 -0.36973006432325167 0 0.1013535662466938 -0.35745643488103901 0 0.095796721256996967 -0.36973006432325167 0 0.089449788521695578 -0.3586065767029869 0 0.089449788521695578 -0.3586065767029869 0 0.072702197863454804 -0.37126557836724527 0 0.086112103320483677 -0.37195001787659998 0 0.089449788521695578 -0.3586065767029869 0 0.072702197863454804 -0.37126557836724527 0 0.089449788521695578 -0.3586065767029869 0 0.07548261507049428 -0.35728122427260922 0 0.072702197863454804 -0.37126557836724527 0 0.079288508960407664 -0.38111535076935282 0 0.086112103320483677 -0.37195001787659998 0 0.072702197863454804 -0.37126557836724527 0 0.09160731648008405 -0.38100674673715379 0 0.095796721256996967 -0.36973006432325167 0 0.086112103320483677 -0.37195001787659998 0 0.095796721256996967 -0.36973006432325167 0 0.086112103320483677 -0.37195001787659998 0 0.089449788521695578 -0.3586065767029869 0 0.092654979055660308 -0.34772070685297529 0 0.072817299242763256 -0.34521000737236551 0 0.092654979055660308 -0.34772070685297529 0 0.072817299242763256 -0.34521000737236551 0 0.07548261507049428 -0.35728122427260922 0 0.089449788521695578 -0.3586065767029869 0 0.092654979055660308 -0.34772070685297529 0 0.07548261507049428 -0.35728122427260922 0 0.07548261507049428 -0.35728122427260922 0 0.063749811574031964 -0.36479174453176832 0 0.058871999323118263 -0.35520835673131879 0 0.072817299242763256 -0.34521000737236551 0 0.07548261507049428 -0.35728122427260922 0 0.058871999323118263 -0.35520835673131879 0 0.07548261507049428 -0.35728122427260922 0 0.063749811574031964 -0.36479174453176832 0 0.072702197863454804 -0.37126557836724527 0 0.063749811574031964 -0.36479174453176832 0 0.067314733152159328 -0.374050436936605 0 0.072702197863454804 -0.37126557836724527 0 0.0845221623443419 -0.32168879883195478 0 0.091086758489248937 -0.32778054619490582 0 0.080827429160432673 -0.33060627322613417 0 0.0845221623443419 -0.32168879883195478 0 0.080827429160432673 -0.33060627322613417 0 0.077157441179561984 -0.32263044632454208 0 0.0845221623443419 -0.32168879883195478 0 0.080580052051792819 -0.31599294251877902 0 0.077157441179561984 -0.32263044632454208 0 0.0845221623443419 -0.32168879883195478 0 0.080580052051792819 -0.31599294251877902 0 0.086182600290006822 -0.31335745066633441 0 0.081183663902277242 -0.3116515673905379 0 0.077401004018741143 -0.31103972835913668 0 0.080580052051792819 -0.31599294251877902 0 0.081183663902277242 -0.3116515673905379 0 0.080580052051792819 -0.31599294251877902 0 0.086182600290006822 -0.31335745066633441 0 0.0845221623443419 -0.32168879883195478 0 0.091298692895008138 -0.31976513406103341 0 0.086182600290006822 -0.31335745066633441 0 0.094638868529067069 -0.31338940557181871 0 0.091298692895008138 -0.31976513406103341 0 0.086182600290006822 -0.31335745066633441 0 0.0845221623443419 -0.32168879883195478 0 0.091298692895008138 -0.31976513406103341 0 0.091086758489248937 -0.32778054619490582 0 0.100299289275231 -0.33533925166271072 0 0.091086758489248937 -0.32778054619490582 0 0.088046006601933513 -0.33743200386716699 0 0.091086758489248937 -0.32778054619490582 0 0.088046006601933513 -0.33743200386716699 0 0.080827429160432673 -0.33060627322613417 0 0.092654979055660308 -0.34772070685297529 0 0.072817299242763256 -0.34521000737236551 0 0.088046006601933513 -0.33743200386716699 0 0.100299289275231 -0.33533925166271072 0 0.092654979055660308 -0.34772070685297529 0 0.088046006601933513 -0.33743200386716699 0 0.072817299242763256 -0.34521000737236551 0 0.088046006601933513 -0.33743200386716699 0 0.080827429160432673 -0.33060627322613417 0 0.072817299242763256 -0.34521000737236551 0 0.080827429160432673 -0.33060627322613417 0 0.06971814959951024 -0.32835759202715908 0 0.072817299242763256 -0.34521000737236551 0 0.063287537275906691 -0.33617332120412069 0 0.06971814959951024 -0.32835759202715908 0 0.072817299242763256 -0.34521000737236551 0 0.063287537275906691 -0.33617332120412069 0 0.052401712915557758 -0.34362580058238729 0 0.063287537275906691 -0.33617332120412069 0 0.06971814959951024 -0.32835759202715908 0 0.058212987345795553 -0.32749988483457082 0 0.06971814959951024 -0.32835759202715908 0 0.066505224398023394 -0.32210764509928841 0 0.058212987345795553 -0.32749988483457082 0 0.06971814959951024 -0.32835759202715908 0 0.066505224398023394 -0.32210764509928841 0 0.071526257245298916 -0.32122409084291148 0 0.080827429160432673 -0.33060627322613417 0 0.06971814959951024 -0.32835759202715908 0 0.077157441179561984 -0.32263044632454208 0 0.06971814959951024 -0.32835759202715908 0 0.071526257245298916 -0.32122409084291148 0 0.077157441179561984 -0.32263044632454208 0 0.077401004018741143 -0.31103972835913668 0 0.080580052051792819 -0.31599294251877902 0 0.07480530572211383 -0.31634075895290159 0 0.077401004018741143 -0.31103972835913668 0 0.071352954493816276 -0.31148664734884268 0 0.07480530572211383 -0.31634075895290159 0 0.080580052051792819 -0.31599294251877902 0 0.077157441179561984 -0.32263044632454208 0 0.07480530572211383 -0.31634075895290159 0 0.071526257245298916 -0.32122409084291148 0 0.077157441179561984 -0.32263044632454208 0 0.07480530572211383 -0.31634075895290159 0 0.071526257245298916 -0.32122409084291148 0 0.07480530572211383 -0.31634075895290159 0 0.069101710080519824 -0.3165566639008397 0 0.071352954493816276 -0.31148664734884268 0 0.07480530572211383 -0.31634075895290159 0 0.069101710080519824 -0.3165566639008397 0 0.071352954493816276 -0.31148664734884268 0 0.069101710080519824 -0.3165566639008397 0 0.064035601913116427 -0.31375159176388279 0 0.066505224398023394 -0.32210764509928841 0 0.069101710080519824 -0.3165566639008397 0 0.063609507319537295 -0.31651503004742843 0 0.066505224398023394 -0.32210764509928841 0 0.071526257245298916 -0.32122409084291148 0 0.069101710080519824 -0.3165566639008397 0 0.066505224398023394 -0.32210764509928841 0 0.063609507319537295 -0.31651503004742843 0 0.061006960222228741 -0.32032137801944172 0 0.069101710080519824 -0.3165566639008397 0 0.063609507319537295 -0.31651503004742843 0 0.064035601913116427 -0.31375159176388279 0 0.063609507319537295 -0.31651503004742843 0 0.064035601913116427 -0.31375159176388279 0 0.058582184244648637 -0.31311719746526512 0 0.064035601913116427 -0.31375159176388279 0 0.058582184244648637 -0.31311719746526512 0 0.057531653427060077 -0.31108242005703829 0 0.063609507319537295 -0.31651503004742843 0 0.058582184244648637 -0.31311719746526512 0 0.059572776442410671 -0.31693118135617521 0 0.059572776442410671 -0.31693118135617521 0 0.056231872026809182 -0.31940047702149332 0 0.061006960222228741 -0.32032137801944172 0 0.063609507319537295 -0.31651503004742843 0 0.059572776442410671 -0.31693118135617521 0 0.061006960222228741 -0.32032137801944172 0 0.056231872026809182 -0.31940047702149332 0 0.056473663899319203 -0.31572133416348841 0 0.051736122795728749 -0.3153631588479946 0 0.059572776442410671 -0.31693118135617521 0 0.056231872026809182 -0.31940047702149332 0 0.056473663899319203 -0.31572133416348841 0 0.056245363986998698 -0.31379465612651369 0 0.051736122795728749 -0.3153631588479946 0 0.057531653427060077 -0.31108242005703829 0 0.056473663899319203 -0.31572133416348841 0 0.056245363986998698 -0.31379465612651369 0 0.051736122795728749 -0.3153631588479946 0 0.058582184244648637 -0.31311719746526512 0 0.056473663899319203 -0.31572133416348841 0 0.056245363986998698 -0.31379465612651369 0 0.058582184244648637 -0.31311719746526512 0 0.056245363986998698 -0.31379465612651369 0 0.057531653427060077 -0.31108242005703829 0 0.058582184244648637 -0.31311719746526512 0 0.059572776442410671 -0.31693118135617521 0 0.056473663899319203 -0.31572133416348841 0 0.056231872026809182 -0.31940047702149332 0 0.051736122795728749 -0.3153631588479946 0 0.051235458119248407 -0.32198849231887439 0 0.051736122795728749 -0.3153631588479946 0 0.051235458119248407 -0.32198849231887439 0 0.044694808437107811 -0.31924353548722728 0 0.051235458119248407 -0.32198849231887439 0 0.058212987345795553 -0.32749988483457082 0 0.045301499990800742 -0.32843540540308602 0 0.051235458119248407 -0.32198849231887439 0 0.045301499990800742 -0.32843540540308602 0 0.044694808437107811 -0.31924353548722728 0 0.056231872026809182 -0.31940047702149332 0 0.058212987345795553 -0.32749988483457082 0 0.061006960222228741 -0.32032137801944172 0 0.056231872026809182 -0.31940047702149332 0 0.051235458119248407 -0.32198849231887439 0 0.058212987345795553 -0.32749988483457082 0 0.066505224398023394 -0.32210764509928841 0 0.058212987345795553 -0.32749988483457082 0 0.061006960222228741 -0.32032137801944172 0 0.058212987345795553 -0.32749988483457082 0 0.052401712915557758 -0.34362580058238729 0 0.045301499990800742 -0.32843540540308602 0 0.063287537275906691 -0.33617332120412069 0 0.058212987345795553 -0.32749988483457082 0 0.052401712915557758 -0.34362580058238729 0 0.052401712915557758 -0.34362580058238729 0 0.045301499990800742 -0.32843540540308602 0 0.035140684398721533 -0.33952055430081279 0 0.045301499990800742 -0.32843540540308602 0 0.035140684398721533 -0.33952055430081279 0 0.034431792658146172 -0.32833847444948328 0 0.031110393156509639 -0.31666300559490212 0 0.057531653427060077 -0.31108242005703829 0 0.051736122795728749 -0.3153631588479946 0 0.044694808437107811 -0.31924353548722728 0 0.031110393156509639 -0.31666300559490212 0 0.051736122795728749 -0.3153631588479946 0 0.031110393156509639 -0.31666300559490212 0 0.057531653427060077 -0.31108242005703829 0 0.034431792658146172 -0.32833847444948328 0 0.037241658359082809 -0.32244495863716283 0 0.031467574066528843 -0.32417093572057992 0 0.045301499990800742 -0.32843540540308602 0 0.034431792658146172 -0.32833847444948328 0 0.037241658359082809 -0.32244495863716283 0 0.037241658359082809 -0.32244495863716283 0 0.031467574066528843 -0.32417093572057992 0 0.031110393156509639 -0.31666300559490212 0 0.037241658359082809 -0.32244495863716283 0 0.044694808437107811 -0.31924353548722728 0 0.031110393156509639 -0.31666300559490212 0 0.045301499990800742 -0.32843540540308602 0 0.037241658359082809 -0.32244495863716283 0 0.044694808437107811 -0.31924353548722728 0 0.067314733152159328 -0.374050436936605 0 0.04437751246093314 -0.36615312635106312 0 0.063749811574031964 -0.36479174453176832 0 0.067314733152159328 -0.374050436936605 0 0.04437751246093314 -0.36615312635106312 0 0.055954607205214009 -0.38392458003150359 0 0.067314733152159328 -0.374050436936605 0 0.04437751246093314 -0.36615312635106312 0 0.063749811574031964 -0.36479174453176832 0 0.058871999323118263 -0.35520835673131879 0 0.04437751246093314 -0.36615312635106312 0 0.052401712915557758 -0.34362580058238729 0 0.058871999323118263 -0.35520835673131879 0 0.041212185131710252 -0.35233287428017063 0 0.058871999323118263 -0.35520835673131879 0 0.041212185131710252 -0.35233287428017063 0 0.04437751246093314 -0.36615312635106312 0 0.072817299242763256 -0.34521000737236551 0 0.052401712915557758 -0.34362580058238729 0 0.058871999323118263 -0.35520835673131879 0 0.041212185131710252 -0.35233287428017063 0 0.04437751246093314 -0.36615312635106312 0 0.021440291769706871 -0.35825581576552112 0 0.035140684398721533 -0.33952055430081279 0 0.041212185131710252 -0.35233287428017063 0 0.021440291769706871 -0.35825581576552112 0 0.052401712915557758 -0.34362580058238729 0 0.035140684398721533 -0.33952055430081279 0 0.041212185131710252 -0.35233287428017063 0 0.04437751246093314 -0.36615312635106312 0 0.030618574486003351 -0.37258274117392792 0 0.021440291769706871 -0.35825581576552112 0 0.04437751246093314 -0.36615312635106312 0 0.021440291769706871 -0.35825581576552112 0 0.039526220506741983 -0.37819322585240339 0 0.04437751246093314 -0.36615312635106312 0 0.030618574486003351 -0.37258274117392792 0 0.01788221455160429 -0.3785836934152042 0 0.030618574486003351 -0.37258274117392792 0 0.021440291769706871 -0.35825581576552112 0 0.035140684398721533 -0.33952055430081279 0 0.021440291769706871 -0.35825581576552112 0 0.016714953837674539 -0.34290000007637872 0 -0.0014969289215187439 -0.35035850517997769 0 0.021440291769706871 -0.35825581576552112 0 0.0044250660384099003 -0.36745488184495573 0 -0.0014969289215187439 -0.35035850517997769 0 0.021440291769706871 -0.35825581576552112 0 -0.0014969289215187439 -0.35035850517997769 0 0.021440291769706871 -0.35825581576552112 0 0.016714953837674539 -0.34290000007637872 0 0.01788221455160429 -0.3785836934152042 0 0.021440291769706871 -0.35825581576552112 0 0.0044250660384099003 -0.36745488184495573 0 0.031110393156509639 -0.31666300559490212 0 0.004689132885959027 -0.3222435911327648 0 0.02643795538885493 -0.30967933480258442 0 0.031110393156509639 -0.31666300559490212 0 0.023086452092376759 -0.32923730420077107 0 0.004689132885959027 -0.3222435911327648 0 0.031110393156509639 -0.31666300559490212 0 0.004689132885959027 -0.3222435911327648 0 0.034431792658146172 -0.32833847444948328 0 0.031467574066528843 -0.32417093572057992 0 0.023086452092376759 -0.32923730420077107 0 0.031467574066528843 -0.32417093572057992 0 0.031110393156509639 -0.31666300559490212 0 0.023086452092376759 -0.32923730420077107 0 0.035140684398721533 -0.33952055430081279 0 0.016714953837674539 -0.34290000007637872 0 0.023086452092376759 -0.32923730420077107 0 0.035140684398721533 -0.33952055430081279 0 0.034431792658146172 -0.32833847444948328 0 0.023086452092376759 -0.32923730420077107 0 0.016714953837674539 -0.34290000007637872 0 0.023086452092376759 -0.32923730420077107 0 0.0080526913044355747 -0.33064536918972948 0 -0.0014969289215187439 -0.35035850517997769 0 0.016714953837674539 -0.34290000007637872 0 0.0080526913044355747 -0.33064536918972948 0 -0.0014969289215187439 -0.35035850517997769 0 0.0080526913044355747 -0.33064536918972948 0 -0.002908285929325368 -0.33749859650698749 0 -0.0014969289215187439 -0.35035850517997769 0 0.0080526913044355747 -0.33064536918972948 0 -0.00050422992947994551 -0.32905922693348189 0 -0.002908285929325368 -0.33749859650698749 0 0.0080526913044355747 -0.33064536918972948 0 0.004689132885959027 -0.3222435911327648 0 0.010493140548922541 -0.30812986664254571 0 0.02643795538885493 -0.30967933480258442 0 -0.0041781846208717921 -0.32265759814764838 0 -0.00050422992947994551 -0.32905922693348189 0 0.004689132885959027 -0.3222435911327648 0 0.023086452092376759 -0.32923730420077107 0 0.0080526913044355747 -0.33064536918972948 0 0.004689132885959027 -0.3222435911327648 0 -0.00050422992947994551 -0.32905922693348189 0 0.0080526913044355747 -0.33064536918972948 0 0.004689132885959027 -0.3222435911327648 0 0.004689132885959027 -0.3222435911327648 0 -5.9311289176037681e-06 -0.31236656648630162 0 0.010493140548922541 -0.30812986664254571 0 -0.0041781846208717921 -0.32265759814764838 0 0.004689132885959027 -0.3222435911327648 0 -5.9311289176037681e-06 -0.31236656648630162 0 -5.9311289176037681e-06 -0.31236656648630162 0 0.0035997542519150211 -0.30175886436002369 0 0.010493140548922541 -0.30812986664254571 0 0.0035997542519150211 -0.30175886436002369 0 0.010493140548922541 -0.30812986664254571 0 0.014263239955481819 -0.29339443842822582 0 0.014263239955481819 -0.29339443842822582 0 0.0020885245221143561 -0.27710954205386301 0 -0.0001997628994672238 -0.29157893335398249 0 0.014263239955481819 -0.29339443842822582 0 0.0020885245221143561 -0.27710954205386301 0 0.014263239955481819 -0.29339443842822582 0 0.014746859474991519 -0.2803394764533772 0 0.0020885245221143561 -0.27710954205386301 0 -0.0001997628994672238 -0.29157893335398249 0 0.0035997542519150211 -0.30175886436002369 0 0.014263239955481819 -0.29339443842822582 0 0.029960231214617411 -0.29435264969373032 0 0.026863088211150479 -0.27678197125058879 0 0.014746859474991519 -0.2803394764533772 0 0.014263239955481819 -0.29339443842822582 0 0.029960231214617411 -0.29435264969373032 0 0.014746859474991519 -0.2803394764533772 0 0.014263239955481819 -0.29339443842822582 0 0.029960231214617411 -0.29435264969373032 0 0.02643795538885493 -0.30967933480258442 0 0.010493140548922541 -0.30812986664254571 0 0.014263239955481819 -0.29339443842822582 0 0.02643795538885493 -0.30967933480258442 0 0.014263239955481819 -0.29339443842822582 0 0.02643795538885493 -0.30967933480258442 0 0.029960231214617411 -0.29435264969373032 0 0.02643795538885493 -0.30967933480258442 0 0.03670643767470614 -0.30723606137433462 0 0.03670643767470614 -0.30723606137433462 0 0.04176814017636786 -0.30095493228123432 0 0.057531653427060077 -0.31108242005703829 0 0.031110393156509639 -0.31666300559490212 0 0.02643795538885493 -0.30967933480258442 0 0.03670643767470614 -0.30723606137433462 0 0.031110393156509639 -0.31666300559490212 0 0.03670643767470614 -0.30723606137433462 0 0.057531653427060077 -0.31108242005703829 0 0.029960231214617411 -0.29435264969373032 0 0.03670643767470614 -0.30723606137433462 0 0.04176814017636786 -0.30095493228123432 0 0.029960231214617411 -0.29435264969373032 0 0.043715392061420937 -0.28432164729111492 0 0.026863088211150479 -0.27678197125058879 0 0.029960231214617411 -0.29435264969373032 0 0.04176814017636786 -0.30095493228123432 0 0.043715392061420937 -0.28432164729111492 0 0.066345876766798068 -0.28669905070128532 0 0.043715392061420937 -0.28432164729111492 0 0.059677869095980163 -0.29526461985052149 0 0.043715392061420937 -0.28432164729111492 0 0.057531653427060077 -0.31108242005703829 0 0.04176814017636786 -0.30095493228123432 0 0.043715392061420937 -0.28432164729111492 0 0.057531653427060077 -0.31108242005703829 0 0.043715392061420937 -0.28432164729111492 0 0.059677869095980163 -0.29526461985052149 0 0.057531653427060077 -0.31108242005703829 0 0.058582184244648637 -0.31311719746526512 0 0.057531653427060077 -0.31108242005703829 0 0.065812203452532955 -0.26920257458768082 0 0.052199857356539418 -0.26329167196642961 0 0.060568488386116323 -0.2527377194114907 0 0.052199857356539418 -0.26329167196642961 0 0.049293726973205318 -0.25288842300565118 0 0.042428783594613113 -0.26179987275223948 0 0.052199857356539418 -0.26329167196642961 0 0.049293726973205318 -0.25288842300565118 0 0.060568488386116323 -0.2527377194114907 0 0.066345876766798068 -0.28669905070128532 0 0.065812203452532955 -0.26920257458768082 0 0.043715392061420937 -0.28432164729111492 0 0.065812203452532955 -0.26920257458768082 0 0.043715392061420937 -0.28432164729111492 0 0.052199857356539418 -0.26329167196642961 0 0.043715392061420937 -0.28432164729111492 0 0.052199857356539418 -0.26329167196642961 0 0.042428783594613113 -0.26179987275223948 0 0.043715392061420937 -0.28432164729111492 0 0.02989913069577696 -0.25756087452519377 0 0.026863088211150479 -0.27678197125058879 0 0.043715392061420937 -0.28432164729111492 0 0.042428783594613113 -0.26179987275223948 0 0.02989913069577696 -0.25756087452519377 0 0.043715392061420937 -0.28432164729111492 0 0.02989913069577696 -0.25756087452519377 0 0.049293726973205318 -0.25288842300565118 0 0.042428783594613113 -0.26179987275223948 0 0.02989913069577696 -0.25756087452519377 0 0.049293726973205318 -0.25288842300565118 0 0.02989913069577696 -0.25756087452519377 0 0.053000096911828498 -0.24132271325216531 0 0.02891132837237682 -0.2556475961921777 0 0.02989913069577696 -0.25756087452519377 0 0.039832357336821403 -0.24726812971209869 0 0.02891132837237682 -0.2556475961921777 0 0.02989913069577696 -0.25756087452519377 0 0.019138254561674409 -0.25668496026698362 0 0.0244675821803477 -0.25188902666823121 0 0.02891132837237682 -0.2556475961921777 0 0.019138254561674409 -0.25668496026698362 0 0.02891132837237682 -0.2556475961921777 0 0.02989913069577696 -0.25756087452519377 0 0.02989913069577696 -0.25756087452519377 0 0.019138254561674409 -0.25668496026698362 0 0.01599382760894558 -0.26733520828952823 0 0.02989913069577696 -0.25756087452519377 0 0.01599382760894558 -0.26733520828952823 0 0.0244675821803477 -0.25188902666823121 0 0.019138254561674409 -0.25668496026698362 0 0.017383234256593539 -0.24783247757761501 0 0.02989913069577696 -0.25756087452519377 0 0.026863088211150479 -0.27678197125058879 0 0.01599382760894558 -0.26733520828952823 0 0.026863088211150479 -0.27678197125058879 0 0.01599382760894558 -0.26733520828952823 0 0.014746859474991519 -0.2803394764533772 0 0.01599382760894558 -0.26733520828952823 0 0.014746859474991519 -0.2803394764533772 0 0.0020885245221143561 -0.27710954205386301 0 0.01599382760894558 -0.26733520828952823 0 0.0020885245221143561 -0.27710954205386301 0 0.0075659834877222429 -0.26417842238823502 0 0.01599382760894558 -0.26733520828952823 0 0.0020885245221143561 -0.27710954205386301 0 -0.0065008459662223399 -0.26562040219766958 0 0.0020885245221143561 -0.27710954205386301 0 0.0075659834877222429 -0.26417842238823502 0 -0.0065008459662223399 -0.26562040219766958 0 0.0094232111161485013 -0.25549752627769329 0 0.0095294292409746698 -0.2431713689579636 0 -0.0065008459662223399 -0.26562040219766958 0 0.0094232111161485013 -0.25549752627769329 0 0.0075659834877222429 -0.26417842238823502 0 -0.0065008459662223399 -0.26562040219766958 0 0.0095294292409746698 -0.2431713689579636 0 0.019138254561674409 -0.25668496026698362 0 0.0094232111161485013 -0.25549752627769329 0 0.017383234256593539 -0.24783247757761501 0 0.019138254561674409 -0.25668496026698362 0 0.0094232111161485013 -0.25549752627769329 0 0.0075659834877222429 -0.26417842238823502 0 0.019138254561674409 -0.25668496026698362 0 0.01599382760894558 -0.26733520828952823 0 0.0075659834877222429 -0.26417842238823502 0 0.0095294292409746698 -0.2431713689579636 0 0.0051275031140051606 -0.23472751853248211 0 0.0098954089936462934 -0.22648478614824921 0 0.0095294292409746698 -0.2431713689579636 0 0.017383234256593539 -0.24783247757761501 0 0.01890065496586249 -0.23625788220400759 0 0.0094232111161485013 -0.25549752627769329 0 0.0095294292409746698 -0.2431713689579636 0 0.017383234256593539 -0.24783247757761501 0 -0.0037240369044004179 -0.23806801751691031 0 0.0095294292409746698 -0.2431713689579636 0 0.0051275031140051606 -0.23472751853248211 0 0.0095294292409746698 -0.2431713689579636 0 0.0098954089936462934 -0.22648478614824921 0 0.025559704448173522 -0.22072233571825889 0 -0.003667722801450707 -0.216757636362539 0 0.0051275031140051606 -0.23472751853248211 0 0.0098954089936462934 -0.22648478614824921 0 0.0095294292409746698 -0.2431713689579636 0 0.025559704448173522 -0.22072233571825889 0 0.0098954089936462934 -0.22648478614824921 0 0.025559704448173522 -0.22072233571825889 0 0.020428433537833701 -0.21342004208727669 0 0.0095294292409746698 -0.2431713689579636 0 0.025559704448173522 -0.22072233571825889 0 0.01890065496586249 -0.23625788220400759 0 0.025559704448173522 -0.22072233571825889 0 0.029653161388527541 -0.2334544688511605 0 0.034891182057259378 -0.22633959582287011 0 0.025559704448173522 -0.22072233571825889 0 0.029653161388527541 -0.2334544688511605 0 0.01890065496586249 -0.23625788220400759 0 0.02891132837237682 -0.2556475961921777 0 0.01890065496586249 -0.23625788220400759 0 0.0244675821803477 -0.25188902666823121 0 0.017383234256593539 -0.24783247757761501 0 0.01890065496586249 -0.23625788220400759 0 0.029653161388527541 -0.2334544688511605 0 0.027752355645157531 -0.24158413914067889 0 0.033544277853863248 -0.24097660931536971 0 0.02891132837237682 -0.2556475961921777 0 0.027752355645157531 -0.24158413914067889 0 0.01890065496586249 -0.23625788220400759 0 0.029653161388527541 -0.2334544688511605 0 0.027752355645157531 -0.24158413914067889 0 0.01890065496586249 -0.23625788220400759 0 0.0244675821803477 -0.25188902666823121 0 0.02891132837237682 -0.2556475961921777 0 0.01890065496586249 -0.23625788220400759 0 0.02891132837237682 -0.2556475961921777 0 0.027752355645157531 -0.24158413914067889 0 0.033544277853863248 -0.24097660931536971 0 0.0086200852296540835 -0.19332317736482679 0 0.015968202297996632 -0.19609645737815151 0 0.01574208798430873 -0.17974058548895511 0 -0.0033902693685317338 -0.1900224435201405 0 0.0086200852296540835 -0.19332317736482679 0 0.0036942380870163098 -0.1869767201477103 0 0.0086200852296540835 -0.19332317736482679 0 0.0070763963435472891 -0.18227050705023601 0 0.0036942380870163098 -0.1869767201477103 0 0.011222033046330749 -0.2008737129081003 0 0.019342412887830861 -0.2040444818635683 0 0.015968202297996632 -0.19609645737815151 0 0.0086200852296540835 -0.19332317736482679 0 0.011222033046330749 -0.2008737129081003 0 0.015968202297996632 -0.19609645737815151 0 -0.003667722801450707 -0.216757636362539 0 0.0086200852296540835 -0.19332317736482679 0 0.011222033046330749 -0.2008737129081003 0 -0.003667722801450707 -0.216757636362539 0 0.011222033046330749 -0.2008737129081003 0 0.011942819343721741 -0.2121625204482071 0 -0.003667722801450707 -0.216757636362539 0 0.0086200852296540835 -0.19332317736482679 0 0.011222033046330749 -0.2008737129081003 0 0.011942819343721741 -0.2121625204482071 0 0.019342412887830861 -0.2040444818635683 0 -0.003667722801450707 -0.216757636362539 0 0.0098954089936462934 -0.22648478614824921 0 0.011942819343721741 -0.2121625204482071 0 0.0098954089936462934 -0.22648478614824921 0 0.011942819343721741 -0.2121625204482071 0 0.020428433537833701 -0.21342004208727669 0 0.025559704448173522 -0.22072233571825889 0 0.029099536896774279 -0.20859895915160559 0 0.036609047361243353 -0.2170205128934197 0 0.025559704448173522 -0.22072233571825889 0 0.020428433537833701 -0.21342004208727669 0 0.029099536896774279 -0.20859895915160559 0 0.011942819343721741 -0.2121625204482071 0 0.020428433537833701 -0.21342004208727669 0 0.019342412887830861 -0.2040444818635683 0 0.020428433537833701 -0.21342004208727669 0 0.029099536896774279 -0.20859895915160559 0 0.019342412887830861 -0.2040444818635683 0 0.015968202297996632 -0.19609645737815151 0 0.022420812440540821 -0.1941697723202806 0 0.01574208798430873 -0.17974058548895511 0 0.019342412887830861 -0.2040444818635683 0 0.015968202297996632 -0.19609645737815151 0 0.022420812440540821 -0.1941697723202806 0 0.029099536896774279 -0.20859895915160559 0 0.022420812440540821 -0.1941697723202806 0 0.029099536896774279 -0.20859895915160559 0 0.022420812440540821 -0.1941697723202806 0 0.033093740906408313 -0.19670259896609121 0 0.029099536896774279 -0.20859895915160559 0 0.019342412887830861 -0.2040444818635683 0 0.022420812440540821 -0.1941697723202806 0 0.022420812440540821 -0.1941697723202806 0 0.033093740906408313 -0.19670259896609121 0 0.026983028279272781 -0.18246037584073141 0 0.045715712522978798 -0.19450466285923909 0 0.033093740906408313 -0.19670259896609121 0 0.038002977254008162 -0.1836055185767505 0 0.033093740906408313 -0.19670259896609121 0 0.038002977254008162 -0.1836055185767505 0 0.026983028279272781 -0.18246037584073141 0 0.045715712522978798 -0.19450466285923909 0 0.040960554137125141 -0.20583401079196309 0 0.053125656368071331 -0.2047152048750579 0 0.045715712522978798 -0.19450466285923909 0 0.033093740906408313 -0.19670259896609121 0 0.040960554137125141 -0.20583401079196309 0 0.029099536896774279 -0.20859895915160559 0 0.040960554137125141 -0.20583401079196309 0 0.036609047361243353 -0.2170205128934197 0 0.029099536896774279 -0.20859895915160559 0 0.033093740906408313 -0.19670259896609121 0 0.040960554137125141 -0.20583401079196309 0 0.036609047361243353 -0.2170205128934197 0 0.048119630767274803 -0.2134621260063653 0 0.045243599087473232 -0.2228102327087475 0 0.040960554137125141 -0.20583401079196309 0 0.036609047361243353 -0.2170205128934197 0 0.048119630767274803 -0.2134621260063653 0 0.053125656368071331 -0.2047152048750579 0 0.061774383995948777 -0.19601713953995309 0 0.066126418362230099 -0.21343507356553831 0 0.048119630767274803 -0.2134621260063653 0 0.053125656368071331 -0.2047152048750579 0 0.066126418362230099 -0.21343507356553831 0 0.048119630767274803 -0.2134621260063653 0 0.045243599087473232 -0.2228102327087475 0 0.066126418362230099 -0.21343507356553831 0 0.040960554137125141 -0.20583401079196309 0 0.048119630767274803 -0.2134621260063653 0 0.053125656368071331 -0.2047152048750579 0 0.045715712522978798 -0.19450466285923909 0 0.061774383995948777 -0.19601713953995309 0 0.051814825535029647 -0.1801379603172733 0 0.045715712522978798 -0.19450466285923909 0 0.053125656368071331 -0.2047152048750579 0 0.061774383995948777 -0.19601713953995309 0 0.02891132837237682 -0.2556475961921777 0 0.039832357336821403 -0.24726812971209869 0 0.047518873367303309 -0.23454133487885789 0 0.02989913069577696 -0.25756087452519377 0 0.053000096911828498 -0.24132271325216531 0 0.02891132837237682 -0.2556475961921777 0 0.047518873367303309 -0.23454133487885789 0 0.02989913069577696 -0.25756087452519377 0 0.039832357336821403 -0.24726812971209869 0 0.053000096911828498 -0.24132271325216531 0 0.02891132837237682 -0.2556475961921777 0 0.033544277853863248 -0.24097660931536971 0 0.047518873367303309 -0.23454133487885789 0 0.039832357336821403 -0.24726812971209869 0 0.047518873367303309 -0.23454133487885789 0 0.053000096911828498 -0.24132271325216531 0 0.033544277853863248 -0.24097660931536971 0 0.038196442609528453 -0.2320627530854337 0 0.047518873367303309 -0.23454133487885789 0 0.029653161388527541 -0.2334544688511605 0 0.033544277853863248 -0.24097660931536971 0 0.038196442609528453 -0.2320627530854337 0 0.029653161388527541 -0.2334544688511605 0 0.038196442609528453 -0.2320627530854337 0 0.034891182057259378 -0.22633959582287011 0 0.025559704448173522 -0.22072233571825889 0 0.036609047361243353 -0.2170205128934197 0 0.034891182057259378 -0.22633959582287011 0 0.036609047361243353 -0.2170205128934197 0 0.034891182057259378 -0.22633959582287011 0 0.045243599087473232 -0.2228102327087475 0 0.038196442609528453 -0.2320627530854337 0 0.045243599087473232 -0.2228102327087475 0 0.047518873367303309 -0.23454133487885789 0 0.038196442609528453 -0.2320627530854337 0 0.034891182057259378 -0.22633959582287011 0 0.045243599087473232 -0.2228102327087475 0 0.045243599087473232 -0.2228102327087475 0 0.047518873367303309 -0.23454133487885789 0 0.066126418362230099 -0.21343507356553831 0 0.060916808486772708 -0.22866931732647369 0 0.047518873367303309 -0.23454133487885789 0 0.066126418362230099 -0.21343507356553831 0 0.047518873367303309 -0.23454133487885789 0 0.066126418362230099 -0.21343507356553831 0 0.060916808486772708 -0.22866931732647369 0 0.047518873367303309 -0.23454133487885789 0 0.053000096911828498 -0.24132271325216531 0 0.049293726973205318 -0.25288842300565118 0 0.060568488386116323 -0.2527377194114907 0 0.053000096911828498 -0.24132271325216531 0 0.060568488386116323 -0.2527377194114907 0 0.053000096911828498 -0.24132271325216531 0 0.065533082523804173 -0.24085168939054841 0 0.053000096911828498 -0.24132271325216531 0 0.065533082523804173 -0.24085168939054841 0 0.076101063127880147 -0.22508455197913699 0 0.060568488386116323 -0.2527377194114907 0 0.065533082523804173 -0.24085168939054841 0 0.072462681669391737 -0.24426177291940049 0 0.065533082523804173 -0.24085168939054841 0 0.072462681669391737 -0.24426177291940049 0 0.076101063127880147 -0.22508455197913699 0 0.072462681669391737 -0.24426177291940049 0 0.080358854669133645 -0.23551035027146619 0 0.076101063127880147 -0.22508455197913699 0 0.078299639262990939 -0.25282750711809521 0 0.072462681669391737 -0.24426177291940049 0 0.083468506435680864 -0.2451852086778922 0 0.072462681669391737 -0.24426177291940049 0 0.083468506435680864 -0.2451852086778922 0 0.080358854669133645 -0.23551035027146619 0 0.083468506435680864 -0.2451852086778922 0 0.080358854669133645 -0.23551035027146619 0 0.090774749338205937 -0.2370805656386312 0 0.083468506435680864 -0.2451852086778922 0 0.090774749338205937 -0.2370805656386312 0 0.096425577214228342 -0.24405286735372919 0 0.089624746812020706 -0.25279476402730222 0 0.083468506435680864 -0.2451852086778922 0 0.096425577214228342 -0.24405286735372919 0 0.092627040971308736 -0.2269134676744882 0 0.076101063127880147 -0.22508455197913699 0 0.099202029343931894 -0.2088463907061085 0 0.080358854669133645 -0.23551035027146619 0 0.092627040971308736 -0.2269134676744882 0 0.076101063127880147 -0.22508455197913699 0 0.080358854669133645 -0.23551035027146619 0 0.090774749338205937 -0.2370805656386312 0 0.092627040971308736 -0.2269134676744882 0 0.053000096911828498 -0.24132271325216531 0 0.076101063127880147 -0.22508455197913699 0 0.060916808486772708 -0.22866931732647369 0 0.053000096911828498 -0.24132271325216531 0 0.076101063127880147 -0.22508455197913699 0 0.060916808486772708 -0.22866931732647369 0 0.076101063127880147 -0.22508455197913699 0 0.066126418362230099 -0.21343507356553831 0 0.066126418362230099 -0.21343507356553831 0 0.084733963357156883 -0.19232881225221879 0 0.082444639015608195 -0.20955794620700249 0 0.076101063127880147 -0.22508455197913699 0 0.066126418362230099 -0.21343507356553831 0 0.082444639015608195 -0.20955794620700249 0 0.061774383995948777 -0.19601713953995309 0 0.066126418362230099 -0.21343507356553831 0 0.084733963357156883 -0.19232881225221879 0 0.066126418362230099 -0.21343507356553831 0 0.084733963357156883 -0.19232881225221879 0 0.061774383995948777 -0.19601713953995309 0 0.084733963357156883 -0.19232881225221879 0 0.066729837038700515 -0.18239086507659891 0 0.084733963357156883 -0.19232881225221879 0 0.082444639015608195 -0.20955794620700249 0 0.096929667403918091 -0.19547585150003241 0 0.076101063127880147 -0.22508455197913699 0 0.099202029343931894 -0.2088463907061085 0 0.076101063127880147 -0.22508455197913699 0 0.082444639015608195 -0.20955794620700249 0 0.099202029343931894 -0.2088463907061085 0 0.082444639015608195 -0.20955794620700249 0 0.099202029343931894 -0.2088463907061085 0 0.096929667403918091 -0.19547585150003241 0 0.099202029343931894 -0.2088463907061085 0 0.11209731819761121 -0.21367618721485929 0 0.1093426272031969 -0.2265984344267791 0 0.099202029343931894 -0.2088463907061085 0 0.096929667403918091 -0.19547585150003241 0 0.11104250891305779 -0.19359595038108021 0 0.11104250891305779 -0.19359595038108021 0 0.1223029955599837 -0.19260822943308009 0 0.114565907713978 -0.1776146995300282 0 0.099202029343931894 -0.2088463907061085 0 0.1223029955599837 -0.19260822943308009 0 0.11761291118805151 -0.2051247165275841 0 0.099202029343931894 -0.2088463907061085 0 0.1223029955599837 -0.19260822943308009 0 0.099202029343931894 -0.2088463907061085 0 0.11104250891305779 -0.19359595038108021 0 0.1223029955599837 -0.19260822943308009 0 0.1223029955599837 -0.19260822943308009 0 0.11761291118805151 -0.2051247165275841 0 0.12918043214548919 -0.2007896671818783 0 0.099202029343931894 -0.2088463907061085 0 0.11209731819761121 -0.21367618721485929 0 0.11761291118805151 -0.2051247165275841 0 0.11761291118805151 -0.2051247165275841 0 0.12528178069324161 -0.20970310810199441 0 0.12918043214548919 -0.2007896671818783 0 0.11209731819761121 -0.21367618721485929 0 0.11761291118805151 -0.2051247165275841 0 0.12528178069324161 -0.20970310810199441 0 0.11209731819761121 -0.21367618721485929 0 0.12400225421129139 -0.22059755592636501 0 0.12528178069324161 -0.20970310810199441 0 0.1197239758713827 -0.23119541144502409 0 0.120812168714685 -0.24498371709218231 0 0.1342258918700579 -0.2245729067836095 0 0.12400225421129139 -0.22059755592636501 0 0.1197239758713827 -0.23119541144502409 0 0.1093426272031969 -0.2265984344267791 0 0.11209731819761121 -0.21367618721485929 0 0.12400225421129139 -0.22059755592636501 0 0.1093426272031969 -0.2265984344267791 0 0.1197239758713827 -0.23119541144502409 0 0.1102369373576824 -0.23922444299618481 0 0.1093426272031969 -0.2265984344267791 0 0.1180488418166126 -0.26176484162401731 0 0.120812168714685 -0.24498371709218231 0 0.13170245449118731 -0.23903702905694529 0 0.1064824157530737 -0.25121458220748633 0 0.120812168714685 -0.24498371709218231 0 0.1102369373576824 -0.23922444299618481 0 0.1197239758713827 -0.23119541144502409 0 0.120812168714685 -0.24498371709218231 0 0.1102369373576824 -0.23922444299618481 0 0.1102369373576824 -0.23922444299618481 0 0.096425577214228342 -0.24405286735372919 0 0.1009937674006781 -0.23374093421558029 0 0.1064824157530737 -0.25121458220748633 0 0.1102369373576824 -0.23922444299618481 0 0.096425577214228342 -0.24405286735372919 0 0.089624746812020706 -0.25279476402730222 0 0.097497114306209609 -0.25224325822444549 0 0.096425577214228342 -0.24405286735372919 0 0.097497114306209609 -0.25224325822444549 0 0.1064824157530737 -0.25121458220748633 0 0.096425577214228342 -0.24405286735372919 0 0.090774749338205937 -0.2370805656386312 0 0.096425577214228342 -0.24405286735372919 0 0.1009937674006781 -0.23374093421558029 0 0.092627040971308736 -0.2269134676744882 0 0.1009937674006781 -0.23374093421558029 0 0.1093426272031969 -0.2265984344267791 0 0.092627040971308736 -0.2269134676744882 0 0.099202029343931894 -0.2088463907061085 0 0.1093426272031969 -0.2265984344267791 0 0.090774749338205937 -0.2370805656386312 0 0.092627040971308736 -0.2269134676744882 0 0.1009937674006781 -0.23374093421558029 0 0.1102369373576824 -0.23922444299618481 0 0.1009937674006781 -0.23374093421558029 0 0.1093426272031969 -0.2265984344267791 0 0.100639820266508 -0.14297373326586471 0 0.1206275776693459 -0.15145666616197501 0 0.1059454781060206 -0.16040118516761531 0 0.100639820266508 -0.14297373326586471 0 0.1059454781060206 -0.16040118516761531 0 0.079655157872537741 -0.1515509534913051 0 0.100639820266508 -0.14297373326586471 0 0.1001200439732048 -0.12853275121963489 0 0.1178339040518066 -0.133871799411696 0 0.100639820266508 -0.14297373326586471 0 0.1001200439732048 -0.12853275121963489 0 0.084073337525069208 -0.13193661890216199 0 0.1001200439732048 -0.12853275121963489 0 0.1178339040518066 -0.133871799411696 0 0.1162931216096478 -0.1195317737783153 0 0.1178339040518066 -0.133871799411696 0 0.1162931216096478 -0.1195317737783153 0 0.13232617362294369 -0.12634332872489029 0 0.100639820266508 -0.14297373326586471 0 0.1178339040518066 -0.133871799411696 0 0.1206275776693459 -0.15145666616197501 0 0.12199740266402589 -0.1660433713446601 0 0.114565907713978 -0.1776146995300282 0 0.1059454781060206 -0.16040118516761531 0 0.1206275776693459 -0.15145666616197501 0 0.12199740266402589 -0.1660433713446601 0 0.1059454781060206 -0.16040118516761531 0 0.1223029955599837 -0.19260822943308009 0 0.114565907713978 -0.1776146995300282 0 0.1285043636466611 -0.17524681598437639 0 0.12199740266402589 -0.1660433713446601 0 0.114565907713978 -0.1776146995300282 0 0.1285043636466611 -0.17524681598437639 0 0.096929667403918091 -0.19547585150003241 0 0.11104250891305779 -0.19359595038108021 0 0.095348833392797816 -0.1725734519361927 0 0.11104250891305779 -0.19359595038108021 0 0.095348833392797816 -0.1725734519361927 0 0.11104250891305779 -0.19359595038108021 0 0.114565907713978 -0.1776146995300282 0 0.095348833392797816 -0.1725734519361927 0 0.114565907713978 -0.1776146995300282 0 0.095348833392797816 -0.1725734519361927 0 0.1059454781060206 -0.16040118516761531 0 0.095348833392797816 -0.1725734519361927 0 0.1059454781060206 -0.16040118516761531 0 0.079655157872537741 -0.1515509534913051 0 0.095348833392797816 -0.1725734519361927 0 0.076768378377704227 -0.1729324238757794 0 0.079655157872537741 -0.1515509534913051 0 0.095348833392797816 -0.1725734519361927 0 0.079655157872537741 -0.1515509534913051 0 0.084733963357156883 -0.19232881225221879 0 0.096929667403918091 -0.19547585150003241 0 0.095348833392797816 -0.1725734519361927 0 0.084733963357156883 -0.19232881225221879 0 0.095348833392797816 -0.1725734519361927 0 0.076768378377704227 -0.1729324238757794 0 0.084733963357156883 -0.19232881225221879 0 0.066729837038700515 -0.18239086507659891 0 0.076768378377704227 -0.1729324238757794 0 0.066729837038700515 -0.18239086507659891 0 0.076768378377704227 -0.1729324238757794 0 0.063881534017330238 -0.16423228993937869 0 0.076768378377704227 -0.1729324238757794 0 0.063881534017330238 -0.16423228993937869 0 0.079655157872537741 -0.1515509534913051 0 0.079655157872537741 -0.1515509534913051 0 0.063961482352277776 -0.13052845504641769 0 0.063792544741435003 -0.14887939078174281 0 0.079655157872537741 -0.1515509534913051 0 0.063961482352277776 -0.13052845504641769 0 0.063881534017330238 -0.16423228993937869 0 0.063792544741435003 -0.14887939078174281 0 0.079655157872537741 -0.1515509534913051 0 0.100639820266508 -0.14297373326586471 0 0.079655157872537741 -0.1515509534913051 0 0.084073337525069208 -0.13193661890216199 0 0.1001200439732048 -0.12853275121963489 0 0.084073337525069208 -0.13193661890216199 0 0.087057893820621068 -0.1189604455595262 0 0.084073337525069208 -0.13193661890216199 0 0.063961482352277776 -0.13052845504641769 0 0.073241631392407261 -0.1185238344207674 0 0.079655157872537741 -0.1515509534913051 0 0.084073337525069208 -0.13193661890216199 0 0.063961482352277776 -0.13052845504641769 0 0.053854830651633871 -0.14298699769611739 0 0.042052466826868973 -0.14738340868847291 0 0.046036379814288549 -0.13086197271507141 0 0.063961482352277776 -0.13052845504641769 0 0.046036379814288549 -0.13086197271507141 0 0.058703704924762033 -0.1178032105749884 0 0.063961482352277776 -0.13052845504641769 0 0.053854830651633871 -0.14298699769611739 0 0.046036379814288549 -0.13086197271507141 0 0.063792544741435003 -0.14887939078174281 0 0.063961482352277776 -0.13052845504641769 0 0.053854830651633871 -0.14298699769611739 0 0.063792544741435003 -0.14887939078174281 0 0.053195735974414411 -0.15422229223451381 0 0.053854830651633871 -0.14298699769611739 0 0.063881534017330238 -0.16423228993937869 0 0.063792544741435003 -0.14887939078174281 0 0.053195735974414411 -0.15422229223451381 0 0.053195735974414411 -0.15422229223451381 0 0.053854830651633871 -0.14298699769611739 0 0.042052466826868973 -0.14738340868847291 0 0.042052466826868973 -0.14738340868847291 0 0.03123785640853869 -0.13906111892287601 0 0.027612099619635538 -0.15558804579552429 0 0.053195735974414411 -0.15422229223451381 0 0.042052466826868973 -0.14738340868847291 0 0.040377898492702791 -0.16158002476673469 0 0.042052466826868973 -0.14738340868847291 0 0.040377898492702791 -0.16158002476673469 0 0.027612099619635538 -0.15558804579552429 0 0.042052466826868973 -0.14738340868847291 0 0.03123785640853869 -0.13906111892287601 0 0.046036379814288549 -0.13086197271507141 0 0.03123785640853869 -0.13906111892287601 0 0.046036379814288549 -0.13086197271507141 0 0.02934659504746313 -0.12431260919673549 0 0.066729837038700515 -0.18239086507659891 0 0.063881534017330238 -0.16423228993937869 0 0.051814825535029647 -0.1801379603172733 0 0.061774383995948777 -0.19601713953995309 0 0.066729837038700515 -0.18239086507659891 0 0.051814825535029647 -0.1801379603172733 0 0.051814825535029647 -0.1801379603172733 0 0.050231264230095329 -0.1664327197727114 0 0.042183279891292523 -0.17276997598892149 0 0.063881534017330238 -0.16423228993937869 0 0.051814825535029647 -0.1801379603172733 0 0.050231264230095329 -0.1664327197727114 0 0.063881534017330238 -0.16423228993937869 0 0.053195735974414411 -0.15422229223451381 0 0.050231264230095329 -0.1664327197727114 0 0.053195735974414411 -0.15422229223451381 0 0.050231264230095329 -0.1664327197727114 0 0.040377898492702791 -0.16158002476673469 0 0.040377898492702791 -0.16158002476673469 0 0.032239633746140611 -0.1710705196491169 0 0.027612099619635538 -0.15558804579552429 0 0.040377898492702791 -0.16158002476673469 0 0.032239633746140611 -0.1710705196491169 0 0.042183279891292523 -0.17276997598892149 0 0.050231264230095329 -0.1664327197727114 0 0.040377898492702791 -0.16158002476673469 0 0.042183279891292523 -0.17276997598892149 0 0.051814825535029647 -0.1801379603172733 0 0.042183279891292523 -0.17276997598892149 0 0.038002977254008162 -0.1836055185767505 0 0.032239633746140611 -0.1710705196491169 0 0.042183279891292523 -0.17276997598892149 0 0.038002977254008162 -0.1836055185767505 0 0.032239633746140611 -0.1710705196491169 0 0.038002977254008162 -0.1836055185767505 0 0.026983028279272781 -0.18246037584073141 0 0.045715712522978798 -0.19450466285923909 0 0.051814825535029647 -0.1801379603172733 0 0.038002977254008162 -0.1836055185767505 0 0.022420812440540821 -0.1941697723202806 0 0.01574208798430873 -0.17974058548895511 0 0.022420812440540821 -0.1941697723202806 0 0.01574208798430873 -0.17974058548895511 0 0.026983028279272781 -0.18246037584073141 0 0.032239633746140611 -0.1710705196491169 0 0.026983028279272781 -0.18246037584073141 0 0.021288416275330839 -0.16916301114902671 0 0.01574208798430873 -0.17974058548895511 0 0.021288416275330839 -0.16916301114902671 0 0.01574208798430873 -0.17974058548895511 0 0.026983028279272781 -0.18246037584073141 0 0.021288416275330839 -0.16916301114902671 0 0.01574208798430873 -0.17974058548895511 0 0.021288416275330839 -0.16916301114902671 0 0.01609552930556735 -0.15948906743890179 0 0.032239633746140611 -0.1710705196491169 0 0.021288416275330839 -0.16916301114902671 0 0.027612099619635538 -0.15558804579552429 0 0.021288416275330839 -0.16916301114902671 0 0.01609552930556735 -0.15948906743890179 0 0.027612099619635538 -0.15558804579552429 0 0.01574208798430873 -0.17974058548895511 0 0.0023115879498421211 -0.16915809622511249 0 0.0042359376227203427 -0.1548818876395931 0 0.01574208798430873 -0.17974058548895511 0 0.01609552930556735 -0.15948906743890179 0 0.0042359376227203427 -0.1548818876395931 0 0.01574208798430873 -0.17974058548895511 0 0.0042359376227203427 -0.1548818876395931 0 0.01574208798430873 -0.17974058548895511 0 0.0023115879498421211 -0.16915809622511249 0 0.0070763963435472891 -0.18227050705023601 0 -7.2502180123992725e-05 -0.18242754928670071 0 0.0023115879498421211 -0.16915809622511249 0 0.0070763963435472891 -0.18227050705023601 0 -7.2502180123992725e-05 -0.18242754928670071 0 0.0070763963435472891 -0.18227050705023601 0 0.0036942380870163098 -0.1869767201477103 0 -7.2502180123992725e-05 -0.18242754928670071 0 -0.0033902693685317338 -0.1900224435201405 0 0.0036942380870163098 -0.1869767201477103 0 0.0086200852296540835 -0.19332317736482679 0 0.01574208798430873 -0.17974058548895511 0 0.0086200852296540835 -0.19332317736482679 0 0.01574208798430873 -0.17974058548895511 0 0.0070763963435472891 -0.18227050705023601 0 0.015878097025296529 -0.1399072370087252 0 0.0095227933737201485 -0.1166750713313939 0 0.02934659504746313 -0.12431260919673549 0 0.03123785640853869 -0.13906111892287601 0 0.015878097025296529 -0.1399072370087252 0 0.02934659504746313 -0.12431260919673549 0 0.03123785640853869 -0.13906111892287601 0 0.015878097025296529 -0.1399072370087252 0 0.027612099619635538 -0.15558804579552429 0 0.01609552930556735 -0.15948906743890179 0 0.015878097025296529 -0.1399072370087252 0 0.027612099619635538 -0.15558804579552429 0 0.01609552930556735 -0.15948906743890179 0 0.015878097025296529 -0.1399072370087252 0 0.0042359376227203427 -0.1548818876395931 0 -0.0072702127388667073 -0.13002318979023039 0 0.015878097025296529 -0.1399072370087252 0 0.0042359376227203427 -0.1548818876395931 0 -0.0072702127388667073 -0.13002318979023039 0 0.015878097025296529 -0.1399072370087252 0 0.0095227933737201485 -0.1166750713313939 0 0.0095227933737201485 -0.1166750713313939 0 0.02934659504746313 -0.12431260919673549 0 0.029116483142495962 -0.1073593168472832 0 0.029116483142495962 -0.1073593168472832 0 0.0083263271382496232 -0.094540275567429041 0 0.034803307668796052 -0.09084960444019595 0 0.0095227933737201485 -0.1166750713313939 0 0.029116483142495962 -0.1073593168472832 0 0.0083263271382496232 -0.094540275567429041 0 -0.0020444196089744182 -0.071774698741020118 0 0.0083263271382496232 -0.094540275567429041 0 0.025270710400640752 -0.07621949281106552 0 -0.0020444196089744182 -0.071774698741020118 0 0.025270710400640752 -0.07621949281106552 0 -0.0020444196089744182 -0.071774698741020118 0 0.025270710400640752 -0.07621949281106552 0 0.01475542124843888 -0.057277792826055399 0 0.025270710400640752 -0.07621949281106552 0 0.01475542124843888 -0.057277792826055399 0 0.035928192635279167 -0.061202673239129958 0 0.0083263271382496232 -0.094540275567429041 0 0.025270710400640752 -0.07621949281106552 0 0.034803307668796052 -0.09084960444019595 0 0.034803307668796052 -0.09084960444019595 0 0.052585840410256053 -0.080664286881110964 0 0.049523785569974867 -0.1002420539246789 0 0.025270710400640752 -0.07621949281106552 0 0.052585840410256053 -0.080664286881110964 0 0.025270710400640752 -0.07621949281106552 0 0.034803307668796052 -0.09084960444019595 0 0.052585840410256053 -0.080664286881110964 0 0.025270710400640752 -0.07621949281106552 0 0.052585840410256053 -0.080664286881110964 0 0.035928192635279167 -0.061202673239129958 0 0.052585840410256053 -0.080664286881110964 0 0.05394463143710318 -0.06124372073323945 0 0.073070566850226698 -0.063773045826988506 0 0.052585840410256053 -0.080664286881110964 0 0.035928192635279167 -0.061202673239129958 0 0.05394463143710318 -0.06124372073323945 0 0.052585840410256053 -0.080664286881110964 0 0.049523785569974867 -0.1002420539246789 0 0.06930233767231668 -0.10145614576307289 0 0.049523785569974867 -0.1002420539246789 0 0.058703704924762033 -0.1178032105749884 0 0.06930233767231668 -0.10145614576307289 0 0.046036379814288549 -0.13086197271507141 0 0.058703704924762033 -0.1178032105749884 0 0.04304995957291239 -0.11502700002604239 0 0.049523785569974867 -0.1002420539246789 0 0.058703704924762033 -0.1178032105749884 0 0.04304995957291239 -0.11502700002604239 0 0.046036379814288549 -0.13086197271507141 0 0.02934659504746313 -0.12431260919673549 0 0.04304995957291239 -0.11502700002604239 0 0.02934659504746313 -0.12431260919673549 0 0.029116483142495962 -0.1073593168472832 0 0.04304995957291239 -0.11502700002604239 0 0.029116483142495962 -0.1073593168472832 0 0.049523785569974867 -0.1002420539246789 0 0.04304995957291239 -0.11502700002604239 0 0.029116483142495962 -0.1073593168472832 0 0.034803307668796052 -0.09084960444019595 0 0.049523785569974867 -0.1002420539246789 0 0.02195771354569279 0.00027068510611185341 0 0.02190271756857182 -0.0057628159259628534 0 0.047586019948014119 -0.0069708413330751753 0 0.024310021209645229 -0.012647398844456269 0 0.028619450510624148 -0.016676481890810949 0 0.032137623766032589 -0.01145678736356842 0 0.024310021209645229 -0.012647398844456269 0 0.02190271756857182 -0.0057628159259628534 0 0.032137623766032589 -0.01145678736356842 0 0.024310021209645229 -0.012647398844456269 0 0.018492357542233141 -0.011534653269405939 0 0.02190271756857182 -0.0057628159259628534 0 0.018492357542233141 -0.011534653269405939 0 0.02190271756857182 -0.0057628159259628534 0 0.0088263826454437738 -0.010148311930698119 0 0.024310021209645229 -0.012647398844456269 0 0.018492357542233141 -0.011534653269405939 0 0.018930308745271761 -0.017580086376506501 0 -0.0037805848108704472 -0.0045547905188501802 0 0.02190271756857182 -0.0057628159259628534 0 -0.0037805848108704472 -0.0045547905188501802 0 0.02195771354569279 0.00027068510611185341 0 0.02190271756857182 -0.0057628159259628534 0 -0.0037805848108704472 -0.0045547905188501802 0 0.02190271756857182 -0.0057628159259628534 0 0.0088263826454437738 -0.010148311930698119 0 -0.001564206153295278 -0.01656327972664837 0 -0.0016118125342605861 -0.01082199789130114 0 0.0088263826454437738 -0.010148311930698119 0 -0.0016118125342605861 -0.01082199789130114 0 -0.0037805848108704472 -0.0045547905188501802 0 0.0088263826454437738 -0.010148311930698119 0 0.018492357542233141 -0.011534653269405939 0 0.0088263826454437738 -0.010148311930698119 0 0.018930308745271761 -0.017580086376506501 0 0.0088263826454437738 -0.010148311930698119 0 0.0079958986943380675 -0.023801007064813501 0 0.018930308745271761 -0.017580086376506501 0 -0.001564206153295278 -0.01656327972664837 0 0.0088263826454437738 -0.010148311930698119 0 0.0079958986943380675 -0.023801007064813501 0 -0.0046318109277885136 -0.02826267259872681 0 -0.001564206153295278 -0.01656327972664837 0 0.0079958986943380675 -0.023801007064813501 0 -0.0046318109277885136 -0.02826267259872681 0 0.0079958986943380675 -0.023801007064813501 0 0.007371522745366091 -0.039158275089500767 0 0.0079958986943380675 -0.023801007064813501 0 0.02059862809037373 -0.030415124576170741 0 0.007371522745366091 -0.039158275089500767 0 0.02059862809037373 -0.030415124576170741 0 0.018930308745271761 -0.017580086376506501 0 0.030038299825343659 -0.02340254983833865 0 0.0079958986943380675 -0.023801007064813501 0 0.02059862809037373 -0.030415124576170741 0 0.018930308745271761 -0.017580086376506501 0 0.024310021209645229 -0.012647398844456269 0 0.018930308745271761 -0.017580086376506501 0 0.028619450510624148 -0.016676481890810949 0 0.018930308745271761 -0.017580086376506501 0 0.030038299825343659 -0.02340254983833865 0 0.028619450510624148 -0.016676481890810949 0 0.02059862809037373 -0.030415124576170741 0 0.030038299825343659 -0.02340254983833865 0 0.035107173379598323 -0.034508242930351957 0 0.02059862809037373 -0.030415124576170741 0 0.025677670915115219 -0.04496192438515418 0 0.007371522745366091 -0.039158275089500767 0 0.02059862809037373 -0.030415124576170741 0 0.025677670915115219 -0.04496192438515418 0 0.035107173379598323 -0.034508242930351957 0 -0.001131409320910022 -0.052669670764717437 0 -0.0020444196089744182 -0.071774698741020118 0 0.01475542124843888 -0.057277792826055399 0 -0.001131409320910022 -0.052669670764717437 0 0.007371522745366091 -0.039158275089500767 0 0.01475542124843888 -0.057277792826055399 0 0.025677670915115219 -0.04496192438515418 0 0.01475542124843888 -0.057277792826055399 0 0.035928192635279167 -0.061202673239129958 0 0.025677670915115219 -0.04496192438515418 0 0.007371522745366091 -0.039158275089500767 0 0.01475542124843888 -0.057277792826055399 0 0.025677670915115219 -0.04496192438515418 0 0.035928192635279167 -0.061202673239129958 0 0.043334881400121011 -0.046848821798154291 0 0.035928192635279167 -0.061202673239129958 0 0.05394463143710318 -0.06124372073323945 0 0.043334881400121011 -0.046848821798154291 0 0.05394463143710318 -0.06124372073323945 0 0.061812903243243643 -0.043982687354450503 0 0.043334881400121011 -0.046848821798154291 0 0.061812903243243643 -0.043982687354450503 0 0.048001007967219213 -0.03549450318178396 0 0.043334881400121011 -0.046848821798154291 0 0.061812903243243643 -0.043982687354450503 0 0.048001007967219213 -0.03549450318178396 0 0.055815949257505958 -0.026309380080884608 0 0.048001007967219213 -0.03549450318178396 0 0.035107173379598323 -0.034508242930351957 0 0.042050971603207123 -0.026029683859941609 0 0.048001007967219213 -0.03549450318178396 0 0.043334881400121011 -0.046848821798154291 0 0.035107173379598323 -0.034508242930351957 0 0.025677670915115219 -0.04496192438515418 0 0.043334881400121011 -0.046848821798154291 0 0.035107173379598323 -0.034508242930351957 0 0.030038299825343659 -0.02340254983833865 0 0.035107173379598323 -0.034508242930351957 0 0.042050971603207123 -0.026029683859941609 0 0.030038299825343659 -0.02340254983833865 0 0.037680999006827552 -0.018295587031184921 0 0.042050971603207123 -0.026029683859941609 0 0.030038299825343659 -0.02340254983833865 0 0.028619450510624148 -0.016676481890810949 0 0.037680999006827552 -0.018295587031184921 0 0.037680999006827552 -0.018295587031184921 0 0.042050971603207123 -0.026029683859941609 0 0.046927309715773788 -0.018375241411359891 0 0.037680999006827552 -0.018295587031184921 0 0.046927309715773788 -0.018375241411359891 0 0.043837053682391248 -0.01200264012329506 0 0.042050971603207123 -0.026029683859941609 0 0.055815949257505958 -0.026309380080884608 0 0.046927309715773788 -0.018375241411359891 0 0.048001007967219213 -0.03549450318178396 0 0.042050971603207123 -0.026029683859941609 0 0.055815949257505958 -0.026309380080884608 0 0.055815949257505958 -0.026309380080884608 0 0.05394498930247224 -0.016248121029561059 0 0.062775124876728261 -0.016975688305122399 0 0.055815949257505958 -0.026309380080884608 0 0.05394498930247224 -0.016248121029561059 0 0.046927309715773788 -0.018375241411359891 0 0.05394498930247224 -0.016248121029561059 0 0.046927309715773788 -0.018375241411359891 0 0.049789084823042173 -0.01219880318672383 0 0.049789084823042173 -0.01219880318672383 0 0.056650051466559471 -0.0073971720363279758 0 0.047586019948014119 -0.0069708413330751753 0 0.05394498930247224 -0.016248121029561059 0 0.049789084823042173 -0.01219880318672383 0 0.056650051466559471 -0.0073971720363279758 0 0.049485464115891477 -0.0044214396610316922 0 0.073214547606897384 -0.0084660789084670673 0 0.056650051466559471 -0.0073971720363279758 0 0.049485464115891477 -0.0044214396610316922 0 0.073214547606897384 -0.0084660789084670673 0 0.063722833214531371 0.0012779862689838799 0 0.049485464115891477 -0.0044214396610316922 0 0.073214547606897384 -0.0084660789084670673 0 0.046927309715773788 -0.018375241411359891 0 0.049789084823042173 -0.01219880318672383 0 0.043837053682391248 -0.01200264012329506 0 0.049789084823042173 -0.01219880318672383 0 0.047586019948014119 -0.0069708413330751753 0 0.043837053682391248 -0.01200264012329506 0 0.05394498930247224 -0.016248121029561059 0 0.056650051466559471 -0.0073971720363279758 0 0.062775124876728261 -0.016975688305122399 0 0.056650051466559471 -0.0073971720363279758 0 0.049485464115891477 -0.0044214396610316922 0 0.047586019948014119 -0.0069708413330751753 0 0.056650051466559471 -0.0073971720363279758 0 0.047586019948014119 -0.0069708413330751753 0 0.049485464115891477 -0.0044214396610316922 0 0.047586019948014119 -0.0069708413330751753 0 0.02195771354569279 0.00027068510611185341 0 0.049485464115891477 -0.0044214396610316922 0 0.02190271756857182 -0.0057628159259628534 0 0.047586019948014119 -0.0069708413330751753 0 0.02195771354569279 0.00027068510611185341 0 0.049485464115891477 -0.0044214396610316922 0 0.047586019948014119 -0.0069708413330751753 0 0.02190271756857182 -0.0057628159259628534 0 0.047586019948014119 -0.0069708413330751753 0 0.032137623766032589 -0.01145678736356842 0 0.047586019948014119 -0.0069708413330751753 0 0.040310424100816367 -0.01218146396278089 0 0.032137623766032589 -0.01145678736356842 0 0.047586019948014119 -0.0069708413330751753 0 0.043837053682391248 -0.01200264012329506 0 0.040310424100816367 -0.01218146396278089 0 0.047586019948014119 -0.0069708413330751753 0 0.043837053682391248 -0.01200264012329506 0 0.037680999006827552 -0.018295587031184921 0 0.043837053682391248 -0.01200264012329506 0 0.040310424100816367 -0.01218146396278089 0 0.028619450510624148 -0.016676481890810949 0 0.037680999006827552 -0.018295587031184921 0 0.032137623766032589 -0.01145678736356842 0 0.037680999006827552 -0.018295587031184921 0 0.040310424100816367 -0.01218146396278089 0 0.032137623766032589 -0.01145678736356842 0 0.075980605946258856 0.005337783885724247 0 0.073214547606897384 -0.0084660789084670673 0 0.096943631097903618 -0.01251071815590111 0 0.073214547606897384 -0.0084660789084670673 0 0.096943631097903618 -0.01251071815590111 0 0.063722833214531371 0.0012779862689838799 0 0.075980605946258856 0.005337783885724247 0 0.073214547606897384 -0.0084660789084670673 0 0.056650051466559471 -0.0073971720363279758 0 0.073214547606897384 -0.0084660789084670673 0 0.062775124876728261 -0.016975688305122399 0 0.073214547606897384 -0.0084660789084670673 0 0.074976301468875267 -0.027109796146331879 0 0.062775124876728261 -0.016975688305122399 0 0.055815949257505958 -0.026309380080884608 0 0.074976301468875267 -0.027109796146331879 0 0.062775124876728261 -0.016975688305122399 0 0.074976301468875267 -0.027109796146331879 0 0.09245676542212708 -0.035766686211982791 0 0.096943631097903618 -0.01251071815590111 0 0.073214547606897384 -0.0084660789084670673 0 0.074976301468875267 -0.027109796146331879 0 0.096943631097903618 -0.01251071815590111 0 0.074976301468875267 -0.027109796146331879 0 0.079719599795322171 -0.046147985036503837 0 0.09245676542212708 -0.035766686211982791 0 0.061812903243243643 -0.043982687354450503 0 0.055815949257505958 -0.026309380080884608 0 0.074976301468875267 -0.027109796146331879 0 0.061812903243243643 -0.043982687354450503 0 0.074976301468875267 -0.027109796146331879 0 0.079719599795322171 -0.046147985036503837 0 0.05394463143710318 -0.06124372073323945 0 0.061812903243243643 -0.043982687354450503 0 0.073070566850226698 -0.063773045826988506 0 0.061812903243243643 -0.043982687354450503 0 0.079719599795322171 -0.046147985036503837 0 0.073070566850226698 -0.063773045826988506 0 0.079719599795322171 -0.046147985036503837 0 0.095336529107698645 -0.061301663118300043 0 0.073070566850226698 -0.063773045826988506 0 0.079719599795322171 -0.046147985036503837 0 0.09245676542212708 -0.035766686211982791 0 0.095336529107698645 -0.061301663118300043 0 0.095336529107698645 -0.061301663118300043 0 0.1107720877955259 -0.037494245285442838 0 0.095336529107698645 -0.061301663118300043 0 0.12431847282835461 -0.059130027798205809 0 0.1107720877955259 -0.037494245285442838 0 0.12431847282835461 -0.059130027798205809 0 0.1107720877955259 -0.037494245285442838 0 0.12868689698667601 -0.034969201447917937 0 0.09245676542212708 -0.035766686211982791 0 0.095336529107698645 -0.061301663118300043 0 0.1107720877955259 -0.037494245285442838 0 0.09245676542212708 -0.035766686211982791 0 0.1107720877955259 -0.037494245285442838 0 0.096943631097903618 -0.01251071815590111 0 0.1107720877955259 -0.037494245285442838 0 0.12067271458890989 -0.01655535740333515 0 0.12868689698667601 -0.034969201447917937 0 0.1107720877955259 -0.037494245285442838 0 0.12067271458890989 -0.01655535740333515 0 0.096943631097903618 -0.01251071815590111 0 0.111748691765997 0.0062994286708312674 0 0.13901877174334179 0.0058069614355472322 0 0.12067271458890989 -0.01655535740333515 0 0.111748691765997 0.0062994286708312674 0 0.12067271458890989 -0.01655535740333515 0 0.096943631097903618 -0.01251071815590111 0 0.12067271458890989 -0.01655535740333515 0 0.096943631097903618 -0.01251071815590111 0 0.081129335596960006 -0.10837868211502449 0 0.085106233671482526 -0.096757129573246142 0 0.06930233767231668 -0.10145614576307289 0 0.085106233671482526 -0.096757129573246142 0 0.06930233767231668 -0.10145614576307289 0 0.079900970419871126 -0.085109080951157143 0 0.085106233671482526 -0.096757129573246142 0 0.092580691671527576 -0.1043733299089451 0 0.097874432554199212 -0.094257935064948117 0 0.081129335596960006 -0.10837868211502449 0 0.085106233671482526 -0.096757129573246142 0 0.092580691671527576 -0.1043733299089451 0 0.081129335596960006 -0.10837868211502449 0 0.092580691671527576 -0.1043733299089451 0 0.087057893820621068 -0.1189604455595262 0 0.084073337525069208 -0.13193661890216199 0 0.087057893820621068 -0.1189604455595262 0 0.073241631392407261 -0.1185238344207674 0 0.081129335596960006 -0.10837868211502449 0 0.087057893820621068 -0.1189604455595262 0 0.073241631392407261 -0.1185238344207674 0 0.058703704924762033 -0.1178032105749884 0 0.06930233767231668 -0.10145614576307289 0 0.081129335596960006 -0.10837868211502449 0 0.073241631392407261 -0.1185238344207674 0 0.06930233767231668 -0.10145614576307289 0 0.058703704924762033 -0.1178032105749884 0 0.073241631392407261 -0.1185238344207674 0 0.06930233767231668 -0.10145614576307289 0 0.063961482352277776 -0.13052845504641769 0 0.058703704924762033 -0.1178032105749884 0 0.073241631392407261 -0.1185238344207674 0 0.06930233767231668 -0.10145614576307289 0 0.079900970419871126 -0.085109080951157143 0 0.052585840410256053 -0.080664286881110964 0 0.06930233767231668 -0.10145614576307289 0 0.079900970419871126 -0.085109080951157143 0 0.052585840410256053 -0.080664286881110964 0 0.079900970419871126 -0.085109080951157143 0 0.052585840410256053 -0.080664286881110964 0 0.073070566850226698 -0.063773045826988506 0 0.079900970419871126 -0.085109080951157143 0 0.095336529107698645 -0.061301663118300043 0 0.079900970419871126 -0.085109080951157143 0 0.090037949508923715 -0.086758598435690948 0 0.095336529107698645 -0.061301663118300043 0 0.073070566850226698 -0.063773045826988506 0 0.079900970419871126 -0.085109080951157143 0 0.095336529107698645 -0.061301663118300043 0 0.079900970419871126 -0.085109080951157143 0 0.079900970419871126 -0.085109080951157143 0 0.090037949508923715 -0.086758598435690948 0 0.085106233671482526 -0.096757129573246142 0 0.079900970419871126 -0.085109080951157143 0 0.090037949508923715 -0.086758598435690948 0 0.085106233671482526 -0.096757129573246142 0 0.090037949508923715 -0.086758598435690948 0 0.097874432554199212 -0.094257935064948117 0 0.090037949508923715 -0.086758598435690948 0 0.10715500642495331 -0.080911808952020992 0 0.097874432554199212 -0.094257935064948117 0 0.10715500642495331 -0.080911808952020992 0 0.10826165130896639 -0.097381427171297108 0 0.097874432554199212 -0.094257935064948117 0 0.095336529107698645 -0.061301663118300043 0 0.12431847282835461 -0.059130027798205809 0 0.10715500642495331 -0.080911808952020992 0 0.095336529107698645 -0.061301663118300043 0 0.090037949508923715 -0.086758598435690948 0 0.10715500642495331 -0.080911808952020992 0 0.12431847282835461 -0.059130027798205809 0 0.10715500642495331 -0.080911808952020992 0 0.1254407182166527 -0.086763330011910667 0 0.10715500642495331 -0.080911808952020992 0 0.10826165130896639 -0.097381427171297108 0 0.1254407182166527 -0.086763330011910667 0 0.11784757173594131 -0.1064302729362821 0 0.10826165130896639 -0.097381427171297108 0 0.1254407182166527 -0.086763330011910667 0 0.11784757173594131 -0.1064302729362821 0 0.13102107144960631 -0.1069102577327558 0 0.1254407182166527 -0.086763330011910667 0 0.11784757173594131 -0.1064302729362821 0 0.10826165130896639 -0.097381427171297108 0 0.1036934956866515 -0.1125350000956668 0 0.092580691671527576 -0.1043733299089451 0 0.10826165130896639 -0.097381427171297108 0 0.097874432554199212 -0.094257935064948117 0 0.092580691671527576 -0.1043733299089451 0 0.10826165130896639 -0.097381427171297108 0 0.1036934956866515 -0.1125350000956668 0 0.092580691671527576 -0.1043733299089451 0 0.087057893820621068 -0.1189604455595262 0 0.1036934956866515 -0.1125350000956668 0 0.1001200439732048 -0.12853275121963489 0 0.087057893820621068 -0.1189604455595262 0 0.1036934956866515 -0.1125350000956668 0 0.1001200439732048 -0.12853275121963489 0 0.1036934956866515 -0.1125350000956668 0 0.1162931216096478 -0.1195317737783153 0 0.11784757173594131 -0.1064302729362821 0 0.1036934956866515 -0.1125350000956668 0 0.1162931216096478 -0.1195317737783153 0 0.11784757173594131 -0.1064302729362821 0 0.1162931216096478 -0.1195317737783153 0 0.13102107144960631 -0.1069102577327558 0 0.1162931216096478 -0.1195317737783153 0 0.13102107144960631 -0.1069102577327558 0 0.13232617362294369 -0.12634332872489029 0 0.14009076827615369 -0.1134015931759674 0 0.13102107144960631 -0.1069102577327558 0 0.13232617362294369 -0.12634332872489029 0 0.14009076827615369 -0.1134015931759674 0 0.15008676095112811 -0.1183490133929731 0 0.13232617362294369 -0.12634332872489029 0 0.15008676095112811 -0.1183490133929731 0 0.16054443653540021 -0.1187716905538113 0 0.1552416294656522 -0.1343573718922467 0 0.14009076827615369 -0.1134015931759674 0 0.15008676095112811 -0.1183490133929731 0 0.1469290670809365 -0.1020037728532505 0 0.15008676095112811 -0.1183490133929731 0 0.1469290670809365 -0.1020037728532505 0 0.16047519124216639 -0.09232697384284555 0 0.1469290670809365 -0.1020037728532505 0 0.14161989839513231 -0.089776581382589676 0 0.16047519124216639 -0.09232697384284555 0 0.15008676095112811 -0.1183490133929731 0 0.16047519124216639 -0.09232697384284555 0 0.14009076827615369 -0.1134015931759674 0 0.1469290670809365 -0.1020037728532505 0 0.13102107144960631 -0.1069102577327558 0 0.1469290670809365 -0.1020037728532505 0 0.13102107144960631 -0.1069102577327558 0 0.14161989839513231 -0.089776581382589676 0 0.13102107144960631 -0.1069102577327558 0 0.1254407182166527 -0.086763330011910667 0 0.14161989839513231 -0.089776581382589676 0 0.1254407182166527 -0.086763330011910667 0 0.14630221987455841 -0.072483524989022885 0 0.14161989839513231 -0.089776581382589676 0 0.12431847282835461 -0.059130027798205809 0 0.1254407182166527 -0.086763330011910667 0 0.14630221987455841 -0.072483524989022885 0 0.14630221987455841 -0.072483524989022885 0 0.14161989839513231 -0.089776581382589676 0 0.16047519124216639 -0.09232697384284555 0 0.16047519124216639 -0.09232697384284555 0 0.17086362153320481 -0.066304934292717985 0 0.1798870955806301 -0.089657583449105918 0 0.16047519124216639 -0.09232697384284555 0 0.17086362153320481 -0.066304934292717985 0 0.14630221987455841 -0.072483524989022885 0 0.16047519124216639 -0.09232697384284555 0 0.17086362153320481 -0.066304934292717985 0 0.17086362153320481 -0.066304934292717985 0 0.18654131265589899 -0.058407546651117907 0 0.19176141753904091 -0.073561746182889048 0 0.17086362153320481 -0.066304934292717985 0 0.1798870955806301 -0.089657583449105918 0 0.19176141753904091 -0.073561746182889048 0 0.1798870955806301 -0.089657583449105918 0 0.16749787851873929 -0.10553103400327769 0 0.1882837097199199 -0.10623481668802399 0 0.17798839512522749 -0.11701735342384829 0 0.16749787851873929 -0.10553103400327769 0 0.1882837097199199 -0.10623481668802399 0 0.17798839512522749 -0.11701735342384829 0 0.1941313504280705 -0.121923917949254 0 0.1753838116505009 -0.1335295967642709 0 0.17798839512522749 -0.11701735342384829 0 0.1941313504280705 -0.121923917949254 0 0.1882837097199199 -0.10623481668802399 0 0.15008676095112811 -0.1183490133929731 0 0.16054443653540021 -0.1187716905538113 0 0.16749787851873929 -0.10553103400327769 0 0.17798839512522749 -0.11701735342384829 0 0.16054443653540021 -0.1187716905538113 0 0.1753838116505009 -0.1335295967642709 0 0.17798839512522749 -0.11701735342384829 0 0.16054443653540021 -0.1187716905538113 0 0.16749787851873929 -0.10553103400327769 0 0.16047519124216639 -0.09232697384284555 0 0.1798870955806301 -0.089657583449105918 0 0.16749787851873929 -0.10553103400327769 0 0.15008676095112811 -0.1183490133929731 0 0.16047519124216639 -0.09232697384284555 0 0.16749787851873929 -0.10553103400327769 0 0.13901877174334179 0.0058069614355472322 0 0.14260871557628979 -0.01919444628096021 0 0.1596816684900709 -0.0045255925504788857 0 0.13901877174334179 0.0058069614355472322 0 0.12067271458890989 -0.01655535740333515 0 0.14260871557628979 -0.01919444628096021 0 0.12067271458890989 -0.01655535740333515 0 0.14260871557628979 -0.01919444628096021 0 0.12868689698667601 -0.034969201447917937 0 0.14260871557628979 -0.01919444628096021 0 0.1450624941442995 -0.042471930471645707 0 0.16137047324238829 -0.024206245200263671 0 0.14260871557628979 -0.01919444628096021 0 0.16137047324238829 -0.024206245200263671 0 0.1596816684900709 -0.0045255925504788857 0 0.14260871557628979 -0.01919444628096021 0 0.1450624941442995 -0.042471930471645707 0 0.12868689698667601 -0.034969201447917937 0 0.12431847282835461 -0.059130027798205809 0 0.1450624941442995 -0.042471930471645707 0 0.12868689698667601 -0.034969201447917937 0 0.12431847282835461 -0.059130027798205809 0 0.14630221987455841 -0.072483524989022885 0 0.1450624941442995 -0.042471930471645707 0 0.14630221987455841 -0.072483524989022885 0 0.1450624941442995 -0.042471930471645707 0 0.16371863901852471 -0.046874248516770037 0 0.14630221987455841 -0.072483524989022885 0 0.17086362153320481 -0.066304934292717985 0 0.16371863901852471 -0.046874248516770037 0 0.17086362153320481 -0.066304934292717985 0 0.16371863901852471 -0.046874248516770037 0 0.18125205182424309 -0.040282894742590433 0 0.17086362153320481 -0.066304934292717985 0 0.18654131265589899 -0.058407546651117907 0 0.18125205182424309 -0.040282894742590433 0 0.17086362153320481 -0.066304934292717985 0 0.18125205182424309 -0.040282894742590433 0 0.16371863901852471 -0.046874248516770037 0 0.18125205182424309 -0.040282894742590433 0 0.17585005373342449 -0.02843328014210093 0 0.18125205182424309 -0.040282894742590433 0 0.17585005373342449 -0.02843328014210093 0 0.1909847237407184 -0.029251960033766181 0 0.16371863901852471 -0.046874248516770037 0 0.16137047324238829 -0.024206245200263671 0 0.17585005373342449 -0.02843328014210093 0 0.1450624941442995 -0.042471930471645707 0 0.16371863901852471 -0.046874248516770037 0 0.16137047324238829 -0.024206245200263671 0 0.17585005373342449 -0.02843328014210093 0 0.17968128775432959 -0.0050233086812581373 0 0.1909847237407184 -0.029251960033766181 0 0.16137047324238829 -0.024206245200263671 0 0.17585005373342449 -0.02843328014210093 0 0.17968128775432959 -0.0050233086812581373 0 0.17968128775432959 -0.0050233086812581373 0 0.1909847237407184 -0.029251960033766181 0 0.16137047324238829 -0.024206245200263671 0 0.17968128775432959 -0.0050233086812581373 0 0.1596816684900709 -0.0045255925504788857 0 0.19639849458081471 0.0066490508137971582 0 0.17968128775432959 -0.0050233086812581373 0 0.1976380980387622 -0.012576092719077789 0 0.19639849458081471 0.0066490508137971582 0 0.21151018488638801 -0.0065786541425667854 0 0.1976380980387622 -0.012576092719077789 0 0.17968128775432959 -0.0050233086812581373 0 0.1976380980387622 -0.012576092719077789 0 0.1909847237407184 -0.029251960033766181 0 0.1976380980387622 -0.012576092719077789 0 0.1909847237407184 -0.029251960033766181 0 0.21159622781088941 -0.02804788352890589 0 0.21151018488638801 -0.0065786541425667854 0 0.21159622781088941 -0.02804788352890589 0 0.227087226477487 -0.0128536802907099 0 0.21151018488638801 -0.0065786541425667854 0 0.1976380980387622 -0.012576092719077789 0 0.21159622781088941 -0.02804788352890589 0 0.21159622781088941 -0.02804788352890589 0 0.20228815972710709 -0.053480611386274218 0 0.22392760489159169 -0.051119759318515423 0 0.1909847237407184 -0.029251960033766181 0 0.21159622781088941 -0.02804788352890589 0 0.20228815972710709 -0.053480611386274218 0 0.1909847237407184 -0.029251960033766181 0 0.20228815972710709 -0.053480611386274218 0 0.18125205182424309 -0.040282894742590433 0 0.1909847237407184 -0.029251960033766181 0 0.20228815972710709 -0.053480611386274218 0 0.18654131265589899 -0.058407546651117907 0 0.18125205182424309 -0.040282894742590433 0 0.20228815972710709 -0.053480611386274218 0 0.18654131265589899 -0.058407546651117907 0 0.20228815972710709 -0.053480611386274218 0 0.19176141753904091 -0.073561746182889048 0 0.20228815972710709 -0.053480611386274218 0 0.22392760489159169 -0.051119759318515423 0 0.2135915957134959 -0.077709262738782259 0 0.22392760489159169 -0.051119759318515423 0 0.24402431198102109 -0.056541483586260599 0 0.23437493224700801 -0.07250456993910584 0 0.25709784077608921 -0.044424429572376301 0 0.24402431198102109 -0.056541483586260599 0 0.23838481141133119 -0.043411345021317757 0 0.22392760489159169 -0.051119759318515423 0 0.24402431198102109 -0.056541483586260599 0 0.23838481141133119 -0.043411345021317757 0 0.24756494005480839 -0.033887202490842053 0 0.23838481141133119 -0.043411345021317757 0 0.23093659401298311 -0.03062429629588204 0 0.25709784077608921 -0.044424429572376301 0 0.24756494005480839 -0.033887202490842053 0 0.23838481141133119 -0.043411345021317757 0 0.21159622781088941 -0.02804788352890589 0 0.22392760489159169 -0.051119759318515423 0 0.23093659401298311 -0.03062429629588204 0 0.22392760489159169 -0.051119759318515423 0 0.23838481141133119 -0.043411345021317757 0 0.23093659401298311 -0.03062429629588204 0 0.21159622781088941 -0.02804788352890589 0 0.23093659401298311 -0.03062429629588204 0 0.227087226477487 -0.0128536802907099 0 0.23093659401298311 -0.03062429629588204 0 0.24131686124071669 -0.02160629731830695 0 0.227087226477487 -0.0128536802907099 0 0.25885049403245908 -0.025253221824478068 0 0.24131686124071669 -0.02160629731830695 0 0.2414431017406225 -0.0042112777133020444 0 0.25885049403245908 -0.025253221824478068 0 0.24756494005480839 -0.033887202490842053 0 0.24131686124071669 -0.02160629731830695 0 0.24756494005480839 -0.033887202490842053 0 0.23093659401298311 -0.03062429629588204 0 0.24131686124071669 -0.02160629731830695 0 0.24131686124071669 -0.02160629731830695 0 0.2414431017406225 -0.0042112777133020444 0 0.227087226477487 -0.0128536802907099 0 0.22403570944878601 0.01683066639787395 0 0.2414431017406225 -0.0042112777133020444 0 0.227087226477487 -0.0128536802907099 0 0.22403570944878601 0.01683066639787395 0 0.21151018488638801 -0.0065786541425667854 0 0.227087226477487 -0.0128536802907099 0 0.21095842409503521 -0.10975442677889399 0 0.20044075493070951 -0.093985995684881404 0 0.22496645837383331 -0.092785332055773523 0 0.21095842409503521 -0.10975442677889399 0 0.2241607992537083 -0.11940410141902109 0 0.21237071107608471 -0.1279972359841012 0 0.21095842409503521 -0.10975442677889399 0 0.1941313504280705 -0.121923917949254 0 0.21237071107608471 -0.1279972359841012 0 0.21095842409503521 -0.10975442677889399 0 0.1941313504280705 -0.121923917949254 0 0.1882837097199199 -0.10623481668802399 0 0.1798870955806301 -0.089657583449105918 0 0.20044075493070951 -0.093985995684881404 0 0.1882837097199199 -0.10623481668802399 0 0.21095842409503521 -0.10975442677889399 0 0.20044075493070951 -0.093985995684881404 0 0.1882837097199199 -0.10623481668802399 0 0.20044075493070951 -0.093985995684881404 0 0.19176141753904091 -0.073561746182889048 0 0.2135915957134959 -0.077709262738782259 0 0.1798870955806301 -0.089657583449105918 0 0.20044075493070951 -0.093985995684881404 0 0.19176141753904091 -0.073561746182889048 0 0.20228815972710709 -0.053480611386274218 0 0.19176141753904091 -0.073561746182889048 0 0.2135915957134959 -0.077709262738782259 0 0.20228815972710709 -0.053480611386274218 0 0.2135915957134959 -0.077709262738782259 0 0.20044075493070951 -0.093985995684881404 0 0.2135915957134959 -0.077709262738782259 0 0.22496645837383331 -0.092785332055773523 0 0.22496645837383331 -0.092785332055773523 0 0.23437493224700801 -0.07250456993910584 0 0.24260757852132581 -0.086972743885844209 0 0.2135915957134959 -0.077709262738782259 0 0.22496645837383331 -0.092785332055773523 0 0.23437493224700801 -0.07250456993910584 0 0.22392760489159169 -0.051119759318515423 0 0.2135915957134959 -0.077709262738782259 0 0.23437493224700801 -0.07250456993910584 0 0.25658434339092911 -0.072244835605310226 0 0.24402431198102109 -0.056541483586260599 0 0.23437493224700801 -0.07250456993910584 0 0.25658434339092911 -0.072244835605310226 0 0.23437493224700801 -0.07250456993910584 0 0.24260757852132581 -0.086972743885844209 0 0.22496645837383331 -0.092785332055773523 0 0.24260757852132581 -0.086972743885844209 0 0.2449733129926695 -0.1008425048982888 0 0.25705980902034259 -0.087081582156659412 0 0.24260757852132581 -0.086972743885844209 0 0.2449733129926695 -0.1008425048982888 0 0.2449733129926695 -0.1008425048982888 0 0.2278186101165891 -0.10772782046461821 0 0.23645448161112309 -0.1156332869383582 0 0.21095842409503521 -0.10975442677889399 0 0.22496645837383331 -0.092785332055773523 0 0.2278186101165891 -0.10772782046461821 0 0.22496645837383331 -0.092785332055773523 0 0.2449733129926695 -0.1008425048982888 0 0.2278186101165891 -0.10772782046461821 0 0.21095842409503521 -0.10975442677889399 0 0.2278186101165891 -0.10772782046461821 0 0.2241607992537083 -0.11940410141902109 0 0.2241607992537083 -0.11940410141902109 0 0.23645448161112309 -0.1156332869383582 0 0.2334255986037635 -0.1329636297254691 0 0.2278186101165891 -0.10772782046461821 0 0.2241607992537083 -0.11940410141902109 0 0.23645448161112309 -0.1156332869383582 0 0.25200600170591198 -0.1157563245825616 0 0.2334255986037635 -0.1329636297254691 0 0.25200600170591198 -0.1157563245825616 0 0.23645448161112309 -0.1156332869383582 0 0.2334255986037635 -0.1329636297254691 0 0.25200600170591198 -0.1157563245825616 0 0.2449733129926695 -0.1008425048982888 0 0.23645448161112309 -0.1156332869383582 0 0.25200600170591198 -0.1157563245825616 0 0.25278991145217811 -0.13329751277266699 0 0.2334255986037635 -0.1329636297254691 0 0.25278991145217811 -0.13329751277266699 0 0.24251452423871919 -0.15135382529707669 0 0.2334255986037635 -0.1329636297254691 0 0.24251452423871919 -0.15135382529707669 0 0.2278812078801867 -0.14740214135102869 0 0.2334255986037635 -0.1329636297254691 0 0.2334255986037635 -0.1329636297254691 0 0.21484519550161491 -0.1501709348683766 0 0.2334255986037635 -0.1329636297254691 0 0.21315822162090139 -0.14413476866275829 0 0.21484519550161491 -0.1501709348683766 0 0.2278812078801867 -0.14740214135102869 0 0.2334255986037635 -0.1329636297254691 0 0.21484519550161491 -0.1501709348683766 0 0.24251452423871919 -0.15135382529707669 0 0.2278812078801867 -0.14740214135102869 0 0.21394573216571819 -0.16027230134141551 0 0.24251452423871919 -0.15135382529707669 0 0.21394573216571819 -0.16027230134141551 0 0.2278812078801867 -0.14740214135102869 0 0.21484519550161491 -0.1501709348683766 0 0.21394573216571819 -0.16027230134141551 0 0.2334255986037635 -0.1329636297254691 0 0.21237071107608471 -0.1279972359841012 0 0.21315822162090139 -0.14413476866275829 0 0.2241607992537083 -0.11940410141902109 0 0.2334255986037635 -0.1329636297254691 0 0.21237071107608471 -0.1279972359841012 0 0.21237071107608471 -0.1279972359841012 0 0.21315822162090139 -0.14413476866275829 0 0.19980305090165501 -0.13701007805638571 0 0.21237071107608471 -0.1279972359841012 0 0.21315822162090139 -0.14413476866275829 0 0.21315822162090139 -0.14413476866275829 0 0.21484519550161491 -0.1501709348683766 0 0.21394573216571819 -0.16027230134141551 0 0.21315822162090139 -0.14413476866275829 0 0.20443855066691571 -0.15055001204409621 0 0.21394573216571819 -0.16027230134141551 0 0.21315822162090139 -0.14413476866275829 0 0.21394573216571819 -0.16027230134141551 0 0.21315822162090139 -0.14413476866275829 0 0.20443855066691571 -0.15055001204409621 0 0.19980305090165501 -0.13701007805638571 0 0.20443855066691571 -0.15055001204409621 0 0.19022318676560171 -0.14828750297473051 0 0.19980305090165501 -0.13701007805638571 0 0.19022318676560171 -0.14828750297473051 0 0.20506256188070321 -0.16304540918518931 0 0.20443855066691571 -0.15055001204409621 0 0.19022318676560171 -0.14828750297473051 0 0.20506256188070321 -0.16304540918518931 0 0.1941313504280705 -0.121923917949254 0 0.19980305090165501 -0.13701007805638571 0 0.1753838116505009 -0.1335295967642709 0 0.1941313504280705 -0.121923917949254 0 0.21237071107608471 -0.1279972359841012 0 0.19980305090165501 -0.13701007805638571 0 0.19022318676560171 -0.14828750297473051 0 0.19980305090165501 -0.13701007805638571 0 0.1753838116505009 -0.1335295967642709 0 0.19797874785879349 -0.18612506919960481 0 0.20187468717377841 -0.17415166282511471 0 0.18441171772143369 -0.1694920961315308 0 0.19022318676560171 -0.14828750297473051 0 0.20506256188070321 -0.16304540918518931 0 0.18441171772143369 -0.1694920961315308 0 0.20506256188070321 -0.16304540918518931 0 0.18441171772143369 -0.1694920961315308 0 0.20187468717377841 -0.17415166282511471 0 0.20506256188070321 -0.16304540918518931 0 0.18441171772143369 -0.1694920961315308 0 0.20187468717377841 -0.17415166282511471 0 0.20506256188070321 -0.16304540918518931 0 0.21454107084294241 -0.17247188066359001 0 0.20506256188070321 -0.16304540918518931 0 0.21454107084294241 -0.17247188066359001 0 0.20506256188070321 -0.16304540918518931 0 0.21394573216571819 -0.16027230134141551 0 0.20443855066691571 -0.15055001204409621 0 0.20506256188070321 -0.16304540918518931 0 0.21394573216571819 -0.16027230134141551 0 0.21394573216571819 -0.16027230134141551 0 0.21454107084294241 -0.17247188066359001 0 0.20506256188070321 -0.16304540918518931 0 0.21394573216571819 -0.16027230134141551 0 0.21454107084294241 -0.17247188066359001 0 0.21394573216571819 -0.16027230134141551 0 0.21454107084294241 -0.17247188066359001 0 0.22502693658511519 -0.17238821367641219 0 0.21454107084294241 -0.17247188066359001 0 0.2157917576932025 -0.19810074373052569 0 0.19797874785879349 -0.18612506919960481 0 0.20187468717377841 -0.17415166282511471 0 0.21454107084294241 -0.17247188066359001 0 0.19797874785879349 -0.18612506919960481 0 0.21454107084294241 -0.17247188066359001 0 0.2157917576932025 -0.19810074373052569 0 0.21454107084294241 -0.17247188066359001 0 0.2259507729700666 -0.1838189429607078 0 0.2157917576932025 -0.19810074373052569 0 0.21454107084294241 -0.17247188066359001 0 0.2259507729700666 -0.1838189429607078 0 0.21454107084294241 -0.17247188066359001 0 0.2259507729700666 -0.1838189429607078 0 0.22502693658511519 -0.17238821367641219 0 0.2259507729700666 -0.1838189429607078 0 0.22502693658511519 -0.17238821367641219 0 0.23353691237966631 -0.17863820043535539 0 0.22502693658511519 -0.17238821367641219 0 0.23353691237966631 -0.17863820043535539 0 0.23693501741856779 -0.16725207023071459 0 0.2259507729700666 -0.1838189429607078 0 0.23353691237966631 -0.17863820043535539 0 0.23624072879064639 -0.18746846689635149 0 0.21394573216571819 -0.16027230134141551 0 0.22502693658511519 -0.17238821367641219 0 0.23693501741856779 -0.16725207023071459 0 0.24251452423871919 -0.15135382529707669 0 0.21394573216571819 -0.16027230134141551 0 0.23693501741856779 -0.16725207023071459 0 0.25831068201549062 -0.1627575897226953 0 0.23693501741856779 -0.16725207023071459 0 0.24353110613393539 -0.1822633084125912 0 0.25831068201549062 -0.1627575897226953 0 0.24251452423871919 -0.15135382529707669 0 0.23693501741856779 -0.16725207023071459 0 0.23353691237966631 -0.17863820043535539 0 0.23624072879064639 -0.18746846689635149 0 0.24353110613393539 -0.1822633084125912 0 0.23353691237966631 -0.17863820043535539 0 0.23693501741856779 -0.16725207023071459 0 0.24353110613393539 -0.1822633084125912 0 0.24353110613393539 -0.1822633084125912 0 0.23736047509719069 -0.19516600525782571 0 0.2425149890166973 -0.20029222064052121 0 0.25959376107067561 -0.18478093295439479 0 0.24353110613393539 -0.1822633084125912 0 0.2425149890166973 -0.20029222064052121 0 0.23624072879064639 -0.18746846689635149 0 0.24353110613393539 -0.1822633084125912 0 0.23736047509719069 -0.19516600525782571 0 0.23624072879064639 -0.18746846689635149 0 0.23736047509719069 -0.19516600525782571 0 0.23736047509719069 -0.19516600525782571 0 0.23511283815644071 -0.20153232854682071 0 0.23862068060698319 -0.20382911064002851 0 0.23736047509719069 -0.19516600525782571 0 0.23862068060698319 -0.20382911064002851 0 0.23736047509719069 -0.19516600525782571 0 0.2425149890166973 -0.20029222064052121 0 0.23862068060698319 -0.20382911064002851 0 0.23511283815644071 -0.20153232854682071 0 0.23862068060698319 -0.20382911064002851 0 0.23434779179081811 -0.20377271982998679 0 0.23736047509719069 -0.19516600525782571 0 0.2425149890166973 -0.20029222064052121 0 0.2425149890166973 -0.20029222064052121 0 0.23862068060698319 -0.20382911064002851 0 0.23862068060698319 -0.20382911064002851 0 0.22861584522654591 -0.21379800236764179 0 0.24176165893330009 -0.22542132399948081 0 0.25493849033600441 -0.21264751632202741 0 0.2425149890166973 -0.20029222064052121 0 0.25493849033600441 -0.21264751632202741 0 0.2425149890166973 -0.20029222064052121 0 0.23862068060698319 -0.20382911064002851 0 0.25493849033600441 -0.21264751632202741 0 0.23862068060698319 -0.20382911064002851 0 0.24176165893330009 -0.22542132399948081 0 0.23862068060698319 -0.20382911064002851 0 0.24176165893330009 -0.22542132399948081 0 0.23862068060698319 -0.20382911064002851 0 0.23137894519482691 -0.20615290688040669 0 0.23434779179081811 -0.20377271982998679 0 0.23137894519482691 -0.20615290688040669 0 0.23434779179081811 -0.20377271982998679 0 0.22711697582790791 -0.20060839454041349 0 0.23137894519482691 -0.20615290688040669 0 0.22861584522654591 -0.21379800236764179 0 0.22711697582790791 -0.20060839454041349 0 0.22861584522654591 -0.21379800236764179 0 0.22711697582790791 -0.20060839454041349 0 0.2157917576932025 -0.19810074373052569 0 0.23862068060698319 -0.20382911064002851 0 0.23137894519482691 -0.20615290688040669 0 0.22861584522654591 -0.21379800236764179 0 0.22861584522654591 -0.21379800236764179 0 0.2170424445434648 -0.22372960679746129 0 0.2157917576932025 -0.19810074373052569 0 0.2259507729700666 -0.1838189429607078 0 0.23736047509719069 -0.19516600525782571 0 0.22711697582790791 -0.20060839454041349 0 0.2259507729700666 -0.1838189429607078 0 0.22711697582790791 -0.20060839454041349 0 0.2157917576932025 -0.19810074373052569 0 0.2259507729700666 -0.1838189429607078 0 0.23624072879064639 -0.18746846689635149 0 0.23736047509719069 -0.19516600525782571 0 0.2259507729700666 -0.1838189429607078 0 0.23736047509719069 -0.19516600525782571 0 0.23736047509719069 -0.19516600525782571 0 0.23511283815644071 -0.20153232854682071 0 0.22711697582790791 -0.20060839454041349 0 0.23511283815644071 -0.20153232854682071 0 0.23434779179081811 -0.20377271982998679 0 0.22711697582790791 -0.20060839454041349 0 0.244902637259619 -0.24701353735893281 0 0.24176165893330009 -0.22542132399948081 0 0.2312711503550155 -0.25302814347859781 0 0.244902637259619 -0.24701353735893281 0 0.22954566436966331 -0.2362041726071632 0 0.244902637259619 -0.24701353735893281 0 0.24176165893330009 -0.22542132399948081 0 0.22954566436966331 -0.2362041726071632 0 0.25624977092838908 -0.23386384710061689 0 0.244902637259619 -0.24701353735893281 0 0.24176165893330009 -0.22542132399948081 0 0.22861584522654591 -0.21379800236764179 0 0.24176165893330009 -0.22542132399948081 0 0.22954566436966331 -0.2362041726071632 0 0.22861584522654591 -0.21379800236764179 0 0.22954566436966331 -0.2362041726071632 0 0.2170424445434648 -0.22372960679746129 0 0.2312711503550155 -0.25302814347859781 0 0.22954566436966331 -0.2362041726071632 0 0.21474776374606869 -0.2492341283155978 0 0.22954566436966331 -0.2362041726071632 0 0.21474776374606869 -0.2492341283155978 0 0.2170424445434648 -0.22372960679746129 0 0.21474776374606869 -0.2492341283155978 0 0.2170424445434648 -0.22372960679746129 0 0.19616840244415679 -0.2306832201846665 0 0.21474776374606869 -0.2492341283155978 0 0.19616840244415679 -0.2306832201846665 0 0.2170424445434648 -0.22372960679746129 0 0.19616840244415679 -0.2306832201846665 0 0.20142220759756241 -0.21164692509224509 0 0.18704061167687469 -0.25416437777289619 0 0.21474776374606869 -0.2492341283155978 0 0.19616840244415679 -0.2306832201846665 0 0.2170424445434648 -0.22372960679746129 0 0.2157917576932025 -0.19810074373052569 0 0.20142220759756241 -0.21164692509224509 0 0.2170424445434648 -0.22372960679746129 0 0.2157917576932025 -0.19810074373052569 0 0.19616840244415679 -0.2306832201846665 0 0.20142220759756241 -0.21164692509224509 0 0.17758904114224491 -0.2121323120537352 0 0.20142220759756241 -0.21164692509224509 0 0.1899837946922005 -0.19954957839172199 0 0.17758904114224491 -0.2121323120537352 0 0.19797874785879349 -0.18612506919960481 0 0.1899837946922005 -0.19954957839172199 0 0.17738072666265689 -0.18275341671776951 0 0.2157917576932025 -0.19810074373052569 0 0.20142220759756241 -0.21164692509224509 0 0.1899837946922005 -0.19954957839172199 0 0.19797874785879349 -0.18612506919960481 0 0.2157917576932025 -0.19810074373052569 0 0.1899837946922005 -0.19954957839172199 0 0.1899837946922005 -0.19954957839172199 0 0.1734230328972288 -0.19500398706276151 0 0.17738072666265689 -0.18275341671776951 0 0.1899837946922005 -0.19954957839172199 0 0.1734230328972288 -0.19500398706276151 0 0.17758904114224491 -0.2121323120537352 0 0.1611272583854633 -0.21072791319459711 0 0.1642771143411666 -0.2264824924240475 0 0.14535606716576191 -0.2163092164898735 0 0.17758904114224491 -0.2121323120537352 0 0.1611272583854633 -0.21072791319459711 0 0.1642771143411666 -0.2264824924240475 0 0.17758904114224491 -0.2121323120537352 0 0.1611272583854633 -0.21072791319459711 0 0.15900967984033559 -0.19358140392280129 0 0.1734230328972288 -0.19500398706276151 0 0.17758904114224491 -0.2121323120537352 0 0.15900967984033559 -0.19358140392280129 0 0.17758904114224491 -0.2121323120537352 0 0.15900967984033559 -0.19358140392280129 0 0.15900967984033559 -0.19358140392280129 0 0.1529829998731938 -0.18756395345245749 0 0.16336792403135919 -0.18632666779867321 0 0.15900967984033559 -0.19358140392280129 0 0.16336792403135919 -0.18632666779867321 0 0.1734230328972288 -0.19500398706276151 0 0.17738072666265689 -0.18275341671776951 0 0.16336792403135919 -0.18632666779867321 0 0.1734230328972288 -0.19500398706276151 0 0.15900967984033559 -0.19358140392280129 0 0.16336792403135919 -0.18632666779867321 0 0.18704061167687469 -0.25416437777289619 0 0.17853369439848291 -0.23375267041800479 0 0.1675933023879716 -0.24530094965467869 0 0.18704061167687469 -0.25416437777289619 0 0.19616840244415679 -0.2306832201846665 0 0.17853369439848291 -0.23375267041800479 0 0.19616840244415679 -0.2306832201846665 0 0.17758904114224491 -0.2121323120537352 0 0.19616840244415679 -0.2306832201846665 0 0.17758904114224491 -0.2121323120537352 0 0.17853369439848291 -0.23375267041800479 0 0.17758904114224491 -0.2121323120537352 0 0.17853369439848291 -0.23375267041800479 0 0.1642771143411666 -0.2264824924240475 0 0.1642771143411666 -0.2264824924240475 0 0.1675933023879716 -0.24530094965467869 0 0.15006974999184261 -0.2355284728623013 0 0.1547367375858503 -0.25440718937350021 0 0.1675933023879716 -0.24530094965467869 0 0.15006974999184261 -0.2355284728623013 0 0.17853369439848291 -0.23375267041800479 0 0.1642771143411666 -0.2264824924240475 0 0.1675933023879716 -0.24530094965467869 0 0.15006974999184261 -0.2355284728623013 0 0.14309639145875069 -0.2473272623433824 0 0.13170245449118731 -0.23903702905694529 0 0.1547367375858503 -0.25440718937350021 0 0.15006974999184261 -0.2355284728623013 0 0.14309639145875069 -0.2473272623433824 0 0.15006974999184261 -0.2355284728623013 0 0.13170245449118731 -0.23903702905694529 0 0.14535606716576191 -0.2163092164898735 0 0.1642771143411666 -0.2264824924240475 0 0.15006974999184261 -0.2355284728623013 0 0.14535606716576191 -0.2163092164898735 0 0.1342258918700579 -0.2245729067836095 0 0.13170245449118731 -0.23903702905694529 0 0.14535606716576191 -0.2163092164898735 0 0.13170245449118731 -0.23903702905694529 0 0.14535606716576191 -0.2163092164898735 0 0.12400225421129139 -0.22059755592636501 0 0.1197239758713827 -0.23119541144502409 0 0.1342258918700579 -0.2245729067836095 0 0.120812168714685 -0.24498371709218231 0 0.1342258918700579 -0.2245729067836095 0 0.13315228571906421 -0.25575993808958492 0 0.14309639145875069 -0.2473272623433824 0 0.13170245449118731 -0.23903702905694529 0 0.120812168714685 -0.24498371709218231 0 0.1342258918700579 -0.2245729067836095 0 0.13170245449118731 -0.23903702905694529 0 0.14540656174770411 -0.20285628655050861 0 0.14761132123981421 -0.19487800652423529 0 0.13915450849455141 -0.19927931508189939 0 0.14370674546805259 -0.19007999832994071 0 0.14761132123981421 -0.19487800652423529 0 0.13915450849455141 -0.19927931508189939 0 0.14370674546805259 -0.19007999832994071 0 0.14761132123981421 -0.19487800652423529 0 0.1529829998731938 -0.18756395345245749 0 0.15900967984033559 -0.19358140392280129 0 0.14761132123981421 -0.19487800652423529 0 0.1529829998731938 -0.18756395345245749 0 0.15900967984033559 -0.19358140392280129 0 0.1529829998731938 -0.18756395345245749 0 0.15900967984033559 -0.19358140392280129 0 0.14540656174770411 -0.20285628655050861 0 0.14761132123981421 -0.19487800652423529 0 0.15900967984033559 -0.19358140392280129 0 0.14540656174770411 -0.20285628655050861 0 0.14535606716576191 -0.2163092164898735 0 0.1611272583854633 -0.21072791319459711 0 0.15900967984033559 -0.19358140392280129 0 0.14535606716576191 -0.2163092164898735 0 0.15900967984033559 -0.19358140392280129 0 0.14535606716576191 -0.2163092164898735 0 0.14540656174770411 -0.20285628655050861 0 0.14535606716576191 -0.2163092164898735 0 0.13590123199805729 -0.2102334907337334 0 0.14540656174770411 -0.20285628655050861 0 0.13590123199805729 -0.2102334907337334 0 0.13915450849455141 -0.19927931508189939 0 0.13590123199805729 -0.2102334907337334 0 0.12918043214548919 -0.2007896671818783 0 0.13915450849455141 -0.19927931508189939 0 0.1342258918700579 -0.2245729067836095 0 0.14535606716576191 -0.2163092164898735 0 0.13590123199805729 -0.2102334907337334 0 0.12400225421129139 -0.22059755592636501 0 0.1342258918700579 -0.2245729067836095 0 0.13590123199805729 -0.2102334907337334 0 0.12400225421129139 -0.22059755592636501 0 0.13590123199805729 -0.2102334907337334 0 0.12528178069324161 -0.20970310810199441 0 0.13590123199805729 -0.2102334907337334 0 0.12528178069324161 -0.20970310810199441 0 0.12918043214548919 -0.2007896671818783 0 0.12918043214548919 -0.2007896671818783 0 0.13915450849455141 -0.19927931508189939 0 0.13594972868882249 -0.19182545563737 0 0.14370674546805259 -0.19007999832994071 0 0.13915450849455141 -0.19927931508189939 0 0.13594972868882249 -0.19182545563737 0 0.1223029955599837 -0.19260822943308009 0 0.12918043214548919 -0.2007896671818783 0 0.13594972868882249 -0.19182545563737 0 0.1223029955599837 -0.19260822943308009 0 0.13594972868882249 -0.19182545563737 0 0.14540396177603521 -0.17637006816005171 0 0.1223029955599837 -0.19260822943308009 0 0.1285043636466611 -0.17524681598437639 0 0.14540396177603521 -0.17637006816005171 0 0.1223029955599837 -0.19260822943308009 0 0.14540396177603521 -0.17637006816005171 0 0.14370674546805259 -0.19007999832994071 0 0.13594972868882249 -0.19182545563737 0 0.14540396177603521 -0.17637006816005171 0 0.14370674546805259 -0.19007999832994071 0 0.1529829998731938 -0.18756395345245749 0 0.14540396177603521 -0.17637006816005171 0 0.14540396177603521 -0.17637006816005171 0 0.15619330579085311 -0.1718881290337303 0 0.15619022413843461 -0.17960949940015911 0 0.1529829998731938 -0.18756395345245749 0 0.14540396177603521 -0.17637006816005171 0 0.15619022413843461 -0.17960949940015911 0 0.1551136363193337 -0.1627465548327586 0 0.1376505302676245 -0.16107885483891349 0 0.1556257303172911 -0.14861807478849051 0 0.14540396177603521 -0.17637006816005171 0 0.1551136363193337 -0.1627465548327586 0 0.1376505302676245 -0.16107885483891349 0 0.14540396177603521 -0.17637006816005171 0 0.15619330579085311 -0.1718881290337303 0 0.1551136363193337 -0.1627465548327586 0 0.1285043636466611 -0.17524681598437639 0 0.14540396177603521 -0.17637006816005171 0 0.1376505302676245 -0.16107885483891349 0 0.12199740266402589 -0.1660433713446601 0 0.1285043636466611 -0.17524681598437639 0 0.1376505302676245 -0.16107885483891349 0 0.1206275776693459 -0.15145666616197501 0 0.12199740266402589 -0.1660433713446601 0 0.1376505302676245 -0.16107885483891349 0 0.1178339040518066 -0.133871799411696 0 0.1206275776693459 -0.15145666616197501 0 0.13969833066008991 -0.1443710529431006 0 0.1206275776693459 -0.15145666616197501 0 0.1376505302676245 -0.16107885483891349 0 0.13969833066008991 -0.1443710529431006 0 0.1178339040518066 -0.133871799411696 0 0.13969833066008991 -0.1443710529431006 0 0.13232617362294369 -0.12634332872489029 0 0.15008676095112811 -0.1183490133929731 0 0.13969833066008991 -0.1443710529431006 0 0.1552416294656522 -0.1343573718922467 0 0.15008676095112811 -0.1183490133929731 0 0.13969833066008991 -0.1443710529431006 0 0.13232617362294369 -0.12634332872489029 0 0.15008676095112811 -0.1183490133929731 0 0.13969833066008991 -0.1443710529431006 0 0.13969833066008991 -0.1443710529431006 0 0.1552416294656522 -0.1343573718922467 0 0.1556257303172911 -0.14861807478849051 0 0.1376505302676245 -0.16107885483891349 0 0.13969833066008991 -0.1443710529431006 0 0.1556257303172911 -0.14861807478849051 0 0.1556257303172911 -0.14861807478849051 0 0.1695483321906196 -0.15198014781897201 0 0.1753838116505009 -0.1335295967642709 0 0.1551136363193337 -0.1627465548327586 0 0.1556257303172911 -0.14861807478849051 0 0.1695483321906196 -0.15198014781897201 0 0.1552416294656522 -0.1343573718922467 0 0.1556257303172911 -0.14861807478849051 0 0.1753838116505009 -0.1335295967642709 0 0.16054443653540021 -0.1187716905538113 0 0.1552416294656522 -0.1343573718922467 0 0.1753838116505009 -0.1335295967642709 0 0.16054443653540021 -0.1187716905538113 0 0.1753838116505009 -0.1335295967642709 0 0.19022318676560171 -0.14828750297473051 0 0.1695483321906196 -0.15198014781897201 0 0.1712667063613785 -0.16534554474627161 0 0.19022318676560171 -0.14828750297473051 0 0.1695483321906196 -0.15198014781897201 0 0.1753838116505009 -0.1335295967642709 0 0.19022318676560171 -0.14828750297473051 0 0.1753838116505009 -0.1335295967642709 0 0.19022318676560171 -0.14828750297473051 0 0.18441171772143369 -0.1694920961315308 0 0.1712667063613785 -0.16534554474627161 0 0.18441171772143369 -0.1694920961315308 0 0.16376087356216479 -0.1759387830778745 0 0.1712667063613785 -0.16534554474627161 0 0.19797874785879349 -0.18612506919960481 0 0.18441171772143369 -0.1694920961315308 0 0.17738072666265689 -0.18275341671776951 0 0.18441171772143369 -0.1694920961315308 0 0.17738072666265689 -0.18275341671776951 0 0.16376087356216479 -0.1759387830778745 0 0.18441171772143369 -0.1694920961315308 0 0.16376087356216479 -0.1759387830778745 0 0.17738072666265689 -0.18275341671776951 0 0.16336792403135919 -0.18632666779867321 0 0.16376087356216479 -0.1759387830778745 0 0.1529829998731938 -0.18756395345245749 0 0.15619022413843461 -0.17960949940015911 0 0.16336792403135919 -0.18632666779867321 0 0.15619022413843461 -0.17960949940015911 0 0.16336792403135919 -0.18632666779867321 0 0.16376087356216479 -0.1759387830778745 0 0.15619330579085311 -0.1718881290337303 0 0.15619022413843461 -0.17960949940015911 0 0.16376087356216479 -0.1759387830778745 0 0.1551136363193337 -0.1627465548327586 0 0.1695483321906196 -0.15198014781897201 0 0.1712667063613785 -0.16534554474627161 0 0.15619330579085311 -0.1718881290337303 0 0.1551136363193337 -0.1627465548327586 0 0.1712667063613785 -0.16534554474627161 0 0.15619330579085311 -0.1718881290337303 0 0.16376087356216479 -0.1759387830778745 0 0.1712667063613785 -0.16534554474627161 0 
</DataArray>
</Points>
<Cells>
<DataArray type="UInt32" Name="connectivity" format="ascii">
0 1 2 3 4 5 6 7 8 9 10 11 12 13 14 15 16 17 18 19 20 21 22 23 24 25 26 27 28 29 30 31 32 33 34 35 36 37 38 39 40 41 42 43 44 45 46 47 48 49 50 51 52 53 54 55 56 57 58 59 60 61 62 63 64 65 66 67 68 69 70 71 72 73 74 75 76 77 78 79 80 81 82 83 84 85 86 87 88 89 90 91 92 93 94 95 96 97 98 99 100 101 102 103 104 105 106 107 108 109 110 111 112 113 114 115 116 117 118 119 120 121 122 123 124 125 126 127 128 129 130 131 132 133 134 135 136 137 138 139 140 141 142 143 144 145 146 147 148 149 150 151 152 153 154 155 156 157 158 159 160 161 162 163 164 165 166 167 168 169 170 171 172 173 174 175 176 177 178 179 180 181 182 183 184 185 186 187 188 189 190 191 192 193 194 195 196 197 198 199 200 201 202 203 204 205 206 207 208 209 210 211 212 213 214 215 216 217 218 219 220 221 222 223 224 225 226 227 228 229 230 231 232 233 234 235 236 237 238 239 240 241 242 243 244 245 246 247 248 249 250 251 252 253 254 255 256 257 258 259 260 261 262 263 264 265 266 267 268 269 270 271 272 273 274 275 276 277 278 279 280 281 282 283 284 285 286 287 288 289 290 291 292 293 294 295 296 297 298 299 300 301 302 303 304 305 306 307 308 309 310 311 312 313 314 315 316 317 318 319 320 321 322 323 324 325 326 327 328 329 330 331 332 333 334 335 336 337 338 339 340 341 342 343 344 345 346 347 348 349 350 351 352 353 354 355 356 357 358 359 360 361 362 363 364 365 366 367 368 369 370 371 372 373 374 375 376 377 378 379 380 381 382 383 384 385 386 387 388 389 390 391 392 393 394 395 396 397 398 399 400 401 402 403 404 405 406 407 408 409 410 411 412 413 414 415 416 417 418 419 420 421 422 423 424 425 426 427 428 429 430 431 432 433 434 435 436 437 438 439 440 441 442 443 444 445 446 447 448 449 450 451 452 453 454 455 456 457 458 459 460 461 462 463 464 465 466 467 468 469 470 471 472 473 474 475 476 477 478 479 480 481 482 483 484 485 486 487 488 489 490 491 492 493 494 495 496 497 498 499 500 501 502 503 504 505 506 507 508 509 510 511 512 513 514 515 516 517 518 519 520 521 522 523 524 525 526 527 528 529 530 531 532 533 534 535 536 537 538 539 540 541 542 543 544 545 546 547 548 549 550 551 552 553 554 555 556 557 558 559 560 561 562 563 564 565 566 567 568 569 570 571 572 573 574 575 576 577 578 579 580 581 582 583 584 585 586 587 588 589 590 591 592 593 594 595 596 597 598 599 600 601 602 603 604 605 606 607 608 609 610 611 612 613 614 615 616 617 618 619 620 621 622 623 624 625 626 627 628 629 630 631 632 633 634 635 636 637 638 639 640 641 642 643 644 645 646 647 648 649 650 651 652 653 654 655 656 657 658 659 660 661 662 663 664 665 666 667 668 669 670 671 672 673 674 675 676 677 678 679 680 681 682 683 684 685 686 687 688 689 690 691 692 693 694 695 696 697 698 699 700 701 702 703 704 705 706 707 708 709 710 711 712 713 714 715 716 717 718 719 720 721 722 723 724 725 726 727 728 729 730 731 732 733 734 735 736 737 738 739 740 741 742 743 744 745 746 747 748 749 750 751 752 753 754 755 756 757 758 759 760 761 762 763 764 765 766 767 768 769 770 771 772 773 774 775 776 777 778 779 780 781 782 783 784 785 786 787 788 789 790 791 792 793 794 795 796 797 798 799 800 801 802 803 804 805 806 807 808 809 810 811 812 813 814 815 816 817 818 819 820 821 822 823 824 825 826 827 828 829 830 831 832 833 834 835 836 837 838 839 840 841 842 843 844 845 846 847 848 849 850 851 852 853 854 855 856 857 858 859 860 861 862 863 864 865 866 867 868 869 870 871 872 873 874 875 876 877 878 879 880 881 882 883 884 885 886 887 888 889 890 891 892 893 894 895 896 897 898 899 900 901 902 903 904 905 906 907 908 909 910 911 912 913 914 915 916 917 918 919 920 921 922 923 924 925 926 927 928 929 930 931 932 933 934 935 936 937 938 939 940 941 942 943 944 945 946 947 948 949 950 951 952 953 954 955 956 957 958 959 960 961 962 963 964 965 966 967 968 969 970 971 972 973 974 975 976 977 978 979 980 981 982 983 984 985 986 987 988 989 990 991 992 993 994 995 996 997 998 999 1000 1001 1002 1003 1004 1005 1006 1007 1008 1009 1010 1011 1012 1013 1014 1015 1016 1017 1018 1019 1020 1021 1022 1023 1024 1025 1026 1027 1028 1029 1030 1031 1032 1033 1034 1035 1036 1037 1038 1039 1040 1041 1042 1043 1044 1045 1046 1047 1048 1049 1050 1051 1052 1053 1054 1055 1056 1057 1058 1059 1060 1061 1062 1063 1064 1065 1066 1067 1068 1069 1070 1071 1072 1073 1074 1075 1076 1077 1078 1079 1080 1081 1082 1083 1084 1085 1086 1087 1088 1089 1090 1091 1092 1093 1094 1095 1096 1097 1098 1099 1100 1101 1102 1103 1104 1105 1106 1107 1108 1109 1110 1111 1112 1113 1114 1115 1116 1117 1118 1119 1120 1121 1122 1123 1124 1125 1126 1127 1128 1129 1130 1131 1132 1133 1134 1135 1136 1137 1138 1139 1140 1141 1142 1143 1144 1145 1146 1147 1148 1149 1150 1151 1152 1153 1154 1155 1156 1157 1158 1159 1160 1161 1162 1163 1164 1165 1166 1167 1168 1169 1170 1171 1172 1173 1174 1175 1176 1177 1178 1179 1180 1181 1182 1183 1184 1185 1186 1187 1188 1189 1190 1191 1192 1193 1194 1195 1196 1197 1198 1199 1200 1201 1202 1203 1204 1205 1206 1207 1208 1209 1210 1211 1212 1213 1214 1215 1216 1217 1218 1219 1220 1221 1222 1223 1224 1225 1226 1227 1228 1229 1230 1231 1232 1233 1234 1235 1236 1237 1238 1239 1240 1241 1242 1243 1244 1245 1246 1247 1248 1249 1250 1251 1252 1253 1254 1255 1256 1257 1258 1259 1260 1261 1262 1263 1264 1265 1266 1267 1268 1269 1270 1271 1272 1273 1274 1275 1276 1277 1278 1279 1280 1281 1282 1283 1284 1285 1286 1287 1288 1289 1290 1291 1292 1293 1294 1295 1296 1297 1298 1299 1300 1301 1302 1303 1304 1305 1306 1307 1308 1309 1310 1311 1312 1313 1314 1315 1316 1317 1318 1319 1320 1321 1322 1323 1324 1325 1326 1327 1328 1329 1330 1331 1332 1333 1334 1335 1336 1337 1338 1339 1340 1341 1342 1343 1344 1345 1346 1347 1348 1349 1350 1351 1352 1353 1354 1355 1356 1357 1358 1359 1360 1361 1362 1363 1364 1365 1366 1367 1368 1369 1370 1371 1372 1373 1374 1375 1376 1377 1378 1379 1380 1381 1382 1383 1384 1385 1386 1387 1388 1389 1390 1391 1392 1393 1394 1395 1396 1397 1398 1399 1400 1401 1402 1403 1404 1405 1406 1407 1408 1409 1410 1411 1412 1413 1414 1415 1416 1417 1418 1419 1420 1421 1422 1423 1424 1425 1426 1427 1428 1429 1430 1431 1432 1433 1434 1435 1436 1437 1438 1439 1440 1441 1442 1443 1444 1445 1446 1447 1448 1449 1450 1451 1452 1453 1454 1455 1456 1457 1458 1459 1460 1461 1462 1463 1464 1465 1466 1467 1468 1469 1470 1471 1472 1473 1474 1475 1476 1477 1478 1479 1480 1481 1482 1483 1484 1485 1486 1487 1488 1489 1490 1491 1492 1493 1494 1495 1496 1497 1498 1499 1500 1501 1502 1503 1504 1505 1506 1507 1508 1509 1510 1511 1512 1513 1514 1515 1516 1517 1518 1519 1520 1521 1522 1523 1524 1525 1526 1527 1528 1529 1530 1531 1532 1533 1534 1535 1536 1537 1538 1539 1540 1541 1542 1543 1544 1545 1546 1547 1548 1549 1550 1551 1552 1553 1554 1555 1556 1557 1558 1559 1560 1561 1562 1563 1564 1565 1566 1567 1568 1569 1570 1571 1572 1573 1574 1575 1576 1577 1578 1579 1580 1581 1582 1583 1584 1585 1586 1587 1588 1589 1590 1591 1592 1593 1594 1595 1596 1597 1598 1599 1600 1601 1602 1603 1604 1605 1606 1607 1608 1609 1610 1611 1612 1613 1614 1615 1616 1617 1618 1619 1620 1621 1622 1623 1624 1625 1626 1627 1628 1629 1630 1631 1632 1633 1634 1635 1636 1637 1638 1639 1640 1641 1642 1643 1644 1645 1646 1647 1648 1649 1650 1651 1652 1653 1654 1655 1656 1657 1658 1659 1660 1661 1662 1663 1664 1665 1666 1667 1668 1669 1670 1671 1672 1673 1674 1675 1676 1677 1678 1679 1680 1681 1682 1683 1684 1685 1686 1687 1688 1689 1690 1691 1692 1693 1694 1695 1696 1697 1698 1699 1700 1701 1702 1703 1704 1705 1706 1707 1708 1709 1710 1711 1712 1713 1714 1715 1716 1717 1718 1719 1720 1721 1722 1723 1724 1725 1726 1727 1728 1729 1730 1731 1732 1733 1734 1735 1736 1737 1738 1739 1740 1741 1742 1743 1744 1745 1746 1747 1748 1749 1750 1751 1752 1753 1754 1755 1756 1757 1758 1759 1760 1761 1762 1763 1764 1765 1766 1767 1768 1769 1770 1771 1772 1773 1774 1775 1776 1777 1778 1779 1780 1781 1782 1783 1784 1785 1786 1787 1788 1789 1790 1791 1792 1793 1794 1795 1796 1797 1798 1799 1800 1801 1802 1803 1804 1805 1806 1807 1808 1809 1810 1811 1812 1813 1814 1815 1816 1817 1818 1819 1820 1821 1822 1823 1824 1825 1826 1827 1828 1829 1830 1831 1832 1833 1834 1835 1836 1837 1838 1839 1840 1841 1842 1843 1844 1845 1846 1847 1848 1849 1850 1851 1852 1853 1854 1855 1856 1857 1858 1859 1860 1861 1862 1863 1864 1865 1866 1867 1868 1869 1870 1871 1872 1873 1874 1875 1876 1877 1878 1879 1880 1881 1882 1883 1884 1885 1886 1887 1888 1889 1890 1891 1892 1893 1894 1895 1896 1897 1898 1899 1900 1901 1902 1903 1904 1905 1906 1907 1908 1909 1910 1911 1912 1913 1914 1915 1916 1917 1918 1919 1920 1921 1922 1923 1924 1925 1926 1927 1928 1929 1930 1931 1932 1933 1934 1935 1936 1937 1938 1939 1940 1941 1942 1943 1944 1945 1946 1947 1948 1949 1950 1951 1952 1953 1954 1955 1956 1957 1958 1959 1960 1961 1962 1963 1964 1965 1966 1967 1968 1969 1970 1971 1972 1973 1974 1975 1976 1977 1978 1979 1980 1981 1982 1983 1984 1985 1986 1987 1988 1989 1990 1991 1992 1993 1994 1995 1996 1997 1998 1999 2000 2001 2002 2003 2004 2005 2006 2007 2008 2009 2010 2011 2012 2013 2014 2015 2016 2017 2018 2019 2020 2021 2022 2023 2024 2025 2026 2027 2028 2029 2030 2031 2032 2033 2034 2035 2036 2037 2038 2039 2040 2041 2042 2043 2044 2045 2046 2047 2048 2049 2050 2051 2052 2053 2054 2055 2056 2057 2058 2059 2060 2061 2062 2063 2064 2065 2066 2067 2068 2069 2070 2071 2072 2073 2074 2075 2076 2077 2078 2079 2080 2081 2082 2083 2084 2085 2086 2087 2088 2089 2090 2091 2092 2093 2094 2095 2096 2097 2098 2099 2100 2101 2102 2103 2104 2105 2106 2107 2108 2109 2110 2111 2112 2113 2114 2115 2116 2117 2118 2119 2120 2121 2122 2123 2124 2125 2126 2127 2128 2129 2130 2131 2132 2133 2134 2135 2136 2137 2138 2139 2140 2141 2142 2143 2144 2145 2146 2147 2148 2149 2150 2151 2152 2153 2154 2155 2156 2157 2158 2159 2160 2161 2162 2163 2164 2165 2166 2167 2168 2169 2170 2171 2172 2173 2174 2175 2176 2177 2178 2179 2180 2181 2182 2183 2184 2185 2186 2187 2188 2189 2190 2191 2192 2193 2194 2195 2196 2197 2198 2199 2200 2201 2202 2203 2204 2205 2206 2207 2208 2209 2210 2211 2212 2213 2214 2215 2216 2217 2218 2219 2220 2221 2222 2223 2224 2225 2226 2227 2228 2229 2230 2231 2232 2233 2234 2235 2236 2237 2238 2239 2240 2241 2242 2243 2244 2245 2246 2247 2248 2249 2250 2251 2252 2253 2254 2255 2256 2257 2258 2259 2260 2261 2262 2263 2264 2265 2266 2267 2268 2269 2270 2271 2272 2273 2274 2275 2276 2277 2278 2279 2280 2281 2282 2283 2284 2285 2286 2287 2288 2289 2290 2291 2292 2293 2294 2295 2296 2297 2298 2299 2300 2301 2302 2303 2304 2305 2306 2307 2308 2309 2310 2311 2312 2313 2314 2315 2316 2317 2318 2319 2320 2321 2322 2323 2324 2325 2326 2327 2328 2329 2330 2331 2332 2333 2334 2335 2336 2337 2338 2339 2340 2341 2342 2343 2344 2345 2346 2347 2348 2349 2350 2351 2352 2353 2354 2355 2356 2357 2358 2359 2360 2361 2362 2363 2364 2365 2366 2367 2368 2369 2370 2371 2372 2373 2374 2375 2376 2377 2378 2379 2380 2381 2382 2383 2384 2385 2386 2387 2388 2389 2390 2391 2392 2393 2394 2395 2396 2397 2398 2399 2400 2401 2402 2403 2404 2405 2406 2407 2408 2409 2410 2411 2412 2413 2414 2415 2416 2417 2418 2419 2420 2421 2422 2423 2424 2425 2426 2427 2428 2429 2430 2431 2432 2433 2434 2435 2436 2437 2438 2439 2440 2441 2442 2443 2444 2445 2446 2447 2448 2449 2450 2451 2452 2453 2454 2455 2456 2457 2458 2459 2460 2461 2462 2463 2464 2465 2466 2467 2468 2469 2470 2471 2472 2473 2474 2475 2476 2477 2478 2479 2480 2481 2482 2483 2484 2485 2486 2487 2488 2489 2490 2491 2492 2493 2494 2495 2496 2497 2498 2499 2500 2501 2502 2503 2504 2505 2506 2507 2508 2509 2510 2511 2512 2513 2514 2515 2516 2517 2518 2519 2520 2521 2522 2523 2524 2525 2526 2527 2528 2529 2530 2531 2532 2533 2534 2535 2536 2537 2538 2539 2540 2541 2542 2543 2544 2545 2546 2547 2548 2549 2550 2551 2552 2553 2554 2555 2556 2557 2558 2559 2560 2561 2562 2563 2564 2565 2566 2567 2568 2569 2570 2571 2572 2573 2574 2575 2576 2577 2578 2579 2580 2581 2582 2583 2584 2585 2586 2587 2588 2589 2590 2591 2592 2593 2594 2595 2596 2597 2598 2599 2600 2601 2602 2603 2604 2605 2606 2607 2608 2609 2610 2611 2612 2613 2614 2615 2616 2617 2618 2619 2620 2621 2622 2623 2624 2625 2626 2627 2628 2629 2630 2631 2632 2633 2634 2635 2636 2637 2638 2639 2640 2641 2642 2643 2644 2645 2646 2647 2648 2649 2650 2651 2652 2653 2654 2655 2656 2657 2658 2659 2660 2661 2662 2663 2664 2665 2666 2667 2668 2669 2670 2671 2672 2673 2674 2675 2676 2677 2678 2679 2680 2681 2682 2683 2684 2685 2686 2687 2688 2689 2690 2691 2692 2693 2694 2695 2696 2697 2698 2699 2700 2701 2702 2703 2704 2705 2706 2707 2708 2709 2710 2711 2712 2713 2714 2715 2716 2717 2718 2719 2720 2721 2722 2723 2724 2725 2726 2727 2728 2729 2730 2731 2732 2733 2734 2735 2736 2737 2738 2739 2740 2741 2742 2743 2744 2745 2746 2747 2748 2749 2750 2751 2752 2753 2754 2755 2756 2757 2758 2759 2760 2761 2762 2763 2764 2765 2766 2767 2768 2769 2770 2771 2772 2773 2774 2775 2776 2777 2778 2779 2780 2781 2782 2783 2784 2785 2786 2787 2788 2789 2790 2791 2792 2793 2794 2795 2796 2797 2798 2799 2800 2801 2802 2803 2804 2805 2806 2807 2808 2809 2810 2811 2812 2813 2814 2815 2816 2817 2818 2819 2820 2821 2822 2823 2824 2825 2826 2827 2828 2829 2830 2831 2832 2833 2834 2835 2836 2837 2838 2839 2840 2841 2842 2843 2844 2845 2846 2847 2848 2849 2850 2851 2852 2853 2854 2855 2856 2857 2858 2859 2860 2861 2862 2863 2864 2865 2866 2867 2868 2869 2870 2871 2872 2873 2874 2875 2876 2877 2878 2879 2880 2881 2882 2883 2884 2885 2886 2887 2888 2889 2890 2891 2892 2893 2894 2895 2896 2897 2898 2899 2900 2901 2902 2903 2904 2905 2906 2907 2908 2909 2910 2911 2912 2913 2914 2915 2916 2917 2918 2919 2920 2921 2922 2923 2924 2925 2926 2927 2928 2929 2930 2931 2932 2933 2934 2935 2936 2937 2938 2939 2940 2941 2942 2943 2944 2945 2946 2947 2948 2949 2950 2951 2952 2953 2954 2955 2956 2957 2958 2959 2960 2961 2962 2963 2964 2965 2966 2967 2968 2969 2970 2971 2972 2973 2974 2975 2976 2977 2978 2979 2980 2981 2982 2983 2984 2985 2986 2987 2988 2989 2990 2991 2992 2993 2994 2995 2996 2997 2998 2999 3000 3001 3002 3003 3004 3005 3006 3007 3008 3009 3010 3011 3012 3013 3014 3015 3016 3017 3018 3019 3020 3021 3022 3023 3024 3025 3026 3027 3028 3029 3030 3031 3032 3033 3034 3035 3036 3037 3038 3039 3040 3041 3042 3043 3044 3045 3046 3047 3048 3049 3050 3051 3052 3053 3054 3055 3056 3057 3058 3059 3060 3061 3062 3063 3064 3065 3066 3067 3068 3069 3070 3071 3072 3073 3074 3075 3076 3077 3078 3079 3080 3081 3082 3083 3084 3085 3086 3087 3088 3089 3090 3091 3092 3093 3094 3095 3096 3097 3098 3099 3100 3101 3102 3103 3104 3105 3106 3107 3108 3109 3110 3111 3112 3113 3114 3115 3116 3117 3118 3119 3120 3121 3122 3123 3124 3125 3126 3127 3128 3129 3130 3131 3132 3133 3134 3135 3136 3137 3138 3139 3140 3141 3142 3143 3144 3145 3146 3147 3148 3149 3150 3151 3152 3153 3154 3155 3156 3157 3158 3159 3160 3161 3162 3163 3164 3165 3166 3167 3168 3169 3170 3171 3172 3173 3174 3175 3176 3177 3178 3179 3180 3181 3182 3183 3184 3185 3186 3187 3188 3189 3190 3191 3192 3193 3194 3195 3196 3197 3198 3199 3200 3201 3202 3203 3204 3205 3206 3207 3208 3209 3210 3211 3212 3213 3214 3215 3216 3217 3218 3219 3220 3221 3222 3223 3224 3225 3226 3227 3228 3229 3230 3231 3232 3233 3234 3235 3236 3237 3238 3239 3240 3241 3242 3243 3244 3245 3246 3247 3248 3249 3250 3251 3252 3253 3254 3255 3256 3257 3258 3259 3260 3261 3262 3263 3264 3265 3266 3267 3268 3269 3270 3271 3272 3273 3274 3275 3276 3277 3278 3279 3280 3281 3282 3283 3284 3285 3286 3287 3288 3289 3290 3291 3292 3293 3294 3295 3296 3297 3298 3299 3300 3301 3302 3303 3304 3305 3306 3307 3308 3309 3310 3311 3312 3313 3314 3315 3316 3317 3318 3319 3320 3321 3322 3323 3324 3325 3326 3327 3328 3329 3330 3331 3332 3333 3334 3335 3336 3337 3338 3339 3340 3341 3342 3343 3344 3345 3346 3347 3348 3349 3350 3351 3352 3353 3354 3355 3356 3357 3358 3359 3360 3361 3362 3363 3364 3365 3366 3367 3368 3369 3370 3371 3372 3373 3374 3375 3376 3377 3378 3379 3380 3381 3382 3383 3384 3385 3386 3387 3388 3389 3390 3391 3392 3393 3394 3395 3396 3397 3398 3399 3400 3401 3402 3403 3404 3405 3406 3407 3408 3409 3410 3411 3412 3413 3414 3415 3416 3417 3418 3419 3420 3421 3422 3423 3424 3425 3426 3427 3428 3429 3430 3431 3432 3433 3434 3435 3436 3437 3438 3439 3440 3441 3442 3443 3444 3445 3446 3447 3448 3449 3450 3451 3452 3453 3454 3455 3456 3457 3458 3459 3460 3461 3462 3463 3464 3465 3466 3467 3468 3469 3470 3471 3472 3473 3474 3475 3476 3477 3478 3479 3480 3481 3482 3483 3484 3485 3486 3487 3488 3489 3490 3491 3492 3493 3494 3495 3496 3497 3498 3499 3500 3501 3502 3503 3504 3505 3506 3507 3508 3509 3510 3511 3512 3513 3514 3515 3516 3517 3518 3519 3520 3521 3522 3523 3524 3525 3526 3527 3528 3529 3530 3531 3532 3533 3534 3535 3536 3537 3538 3539 3540 3541 3542 3543 3544 3545 3546 3547 3548 3549 3550 3551 3552 3553 3554 3555 3556 3557 3558 3559 3560 3561 3562 3563 3564 3565 3566 3567 3568 3569 3570 3571 3572 3573 3574 3575 3576 3577 3578 3579 3580 3581 3582 3583 3584 3585 3586 3587 3588 3589 3590 3591 3592 3593 3594 3595 3596 3597 3598 3599 3600 3601 3602 3603 3604 3605 3606 3607 3608 3609 3610 3611 3612 3613 3614 3615 3616 3617 3618 3619 3620 3621 3622 3623 3624 3625 3626 3627 3628 3629 3630 3631 3632 3633 3634 3635 3636 3637 3638 3639 3640 3641 3642 3643 3644 3645 3646 3647 3648 3649 3650 3651 3652 3653 3654 3655 3656 3657 3658 3659 3660 3661 3662 3663 3664 3665 3666 3667 3668 3669 3670 3671 3672 3673 3674 3675 3676 3677 3678 3679 3680 3681 3682 3683 3684 3685 3686 3687 3688 3689 3690 3691 3692 3693 3694 3695 3696 3697 3698 3699 3700 3701 3702 3703 3704 3705 3706 3707 3708 3709 3710 3711 3712 3713 3714 3715 3716 3717 3718 3719 3720 3721 3722 3723 3724 3725 3726 3727 3728 3729 3730 3731 3732 3733 3734 3735 3736 3737 3738 3739 3740 3741 3742 3743 3744 3745 3746 3747 3748 3749 3750 3751 3752 3753 3754 3755 3756 3757 3758 3759 3760 3761 3762 3763 3764 3765 3766 3767 3768 3769 3770 3771 3772 3773 3774 3775 3776 3777 3778 3779 3780 3781 3782 3783 3784 3785 3786 3787 3788 3789 3790 3791 3792 3793 3794 3795 3796 3797 3798 3799 3800 3801 3802 3803 3804 3805 3806 3807 3808 3809 3810 3811 3812 3813 3814 3815 3816 3817 3818 3819 3820 3821 3822 3823 3824 3825 3826 3827 3828 3829 3830 3831 3832 3833 3834 3835 3836 3837 3838 3839 3840 3841 3842 3843 3844 3845 3846 3847 3848 3849 3850 3851 3852 3853 3854 3855 3856 3857 3858 3859 3860 3861 3862 3863 3864 3865 3866 3867 3868 3869 3870 3871 3872 3873 3874 3875 3876 3877 3878 3879 3880 3881 3882 3883 3884 3885 3886 3887 3888 3889 3890 3891 3892 3893 3894 3895 3896 3897 3898 3899 3900 3901 3902 3903 3904 3905 3906 3907 3908 3909 3910 3911 3912 3913 3914 3915 3916 3917 3918 3919 3920 3921 3922 3923 3924 3925 3926 3927 3928 3929 3930 3931 3932 3933 3934 3935 3936 3937 3938 3939 3940 3941 3942 3943 3944 3945 3946 3947 3948 3949 3950 3951 3952 3953 3954 3955 3956 3957 3958 3959 3960 3961 3962 3963 3964 3965 3966 3967 3968 3969 3970 3971 3972 3973 3974 3975 3976 3977 3978 3979 3980 3981 3982 3983 3984 3985 3986 3987 3988 3989 3990 3991 3992 3993 3994 3995 3996 3997 3998 3999 4000 4001 4002 4003 4004 4005 4006 4007 4008 4009 4010 4011 4012 4013 4014 4015 4016 4017 4018 4019 4020 4021 4022 4023 4024 4025 4026 4027 4028 4029 4030 4031 4032 4033 4034 4035 4036 4037 4038 4039 4040 4041 4042 4043 4044 4045 4046 4047 4048 4049 4050 4051 4052 4053 4054 4055 4056 4057 4058 4059 4060 4061 4062 4063 4064 4065 4066 4067 4068 4069 4070 4071 4072 4073 4074 4075 4076 4077 4078 4079 4080 4081 4082 4083 4084 4085 4086 4087 4088 4089 4090 4091 4092 4093 4094 4095 4096 4097 4098 4099 4100 4101 4102 4103 4104 4105 4106 4107 4108 4109 4110 4111 4112 4113 4114 4115 4116 4117 4118 4119 4120 4121 4122 4123 4124 4125 4126 4127 4128 4129 4130 4131 4132 4133 4134 4135 4136 4137 4138 4139 4140 4141 4142 4143 4144 4145 4146 4147 4148 4149 4150 4151 4152 4153 4154 4155 4156 4157 4158 4159 4160 4161 4162 4163 4164 4165 4166 4167 4168 4169 4170 4171 4172 4173 4174 4175 4176 4177 4178 4179 4180 4181 4182 4183 4184 4185 4186 4187 4188 4189 4190 4191 4192 4193 4194 4195 4196 4197 4198 4199 4200 4201 4202 4203 4204 4205 4206 4207 4208 4209 4210 4211 4212 4213 4214 4215 4216 4217 4218 4219 4220 4221 4222 4223 4224 4225 4226 4227 4228 4229 4230 4231 4232 4233 4234 4235 4236 4237 4238 4239 4240 4241 4242 4243 4244 4245 4246 4247 4248 4249 4250 4251 4252 4253 4254 4255 4256 4257 4258 4259 4260 4261 4262 4263 4264 4265 4266 4267 4268 4269 4270 4271 4272 4273 4274 4275 4276 4277 4278 4279 4280 4281 4282 4283 4284 4285 4286 4287 4288 4289 4290 4291 4292 4293 4294 4295 4296 4297 4298 4299 4300 4301 4302 4303 4304 4305 4306 4307 4308 4309 4310 4311 4312 4313 4314 4315 4316 4317 4318 4319 4320 4321 4322 4323 4324 4325 4326 4327 4328 4329 4330 4331 4332 4333 4334 4335 4336 4337 4338 4339 4340 4341 4342 4343 4344 4345 4346 4347 4348 4349 4350 4351 4352 4353 4354 4355 4356 4357 4358 4359 4360 4361 4362 4363 4364 4365 4366 4367 4368 4369 4370 4371 4372 4373 4374 4375 4376 4377 4378 4379 4380 4381 4382 4383 4384 4385 4386 4387 4388 4389 4390 4391 4392 4393 4394 4395 4396 4397 4398 4399 4400 4401 4402 4403 4404 4405 4406 4407 4408 4409 4410 4411 4412 4413 4414 4415 4416 4417 4418 4419 4420 4421 4422 4423 4424 4425 4426 4427 4428 4429 4430 4431 4432 4433 4434 4435 4436 4437 4438 4439 4440 4441 4442 4443 4444 4445 4446 4447 4448 4449 4450 4451 4452 4453 4454 4455 4456 4457 4458 4459 4460 4461 4462 4463 4464 4465 4466 4467 4468 4469 4470 4471 4472 4473 4474 4475 4476 4477 4478 4479 4480 4481 4482 4483 4484 4485 4486 4487 4488 4489 4490 4491 4492 4493 4494 4495 4496 4497 4498 4499 4500 4501 4502 4503 4504 4505 4506 4507 4508 4509 4510 4511 4512 4513 4514 4515 4516 4517 4518 4519 4520 4521 4522 4523 4524 4525 4526 4527 4528 4529 4530 4531 4532 4533 4534 4535 4536 4537 4538 4539 4540 4541 4542 4543 4544 4545 4546 4547 4548 4549 4550 4551 4552 4553 4554 4555 4556 4557 4558 4559 4560 4561 4562 4563 4564 4565 4566 4567 4568 4569 4570 4571 4572 4573 4574 4575 4576 4577 4578 4579 4580 4581 4582 4583 4584 4585 4586 4587 4588 4589 4590 4591 4592 4593 4594 4595 4596 4597 4598 4599 4600 4601 4602 4603 4604 4605 4606 4607 4608 4609 4610 4611 4612 4613 4614 4615 4616 4617 4618 4619 4620 4621 4622 4623 4624 4625 4626 4627 4628 4629 4630 4631 4632 4633 4634 4635 4636 4637 4638 4639 4640 4641 4642 4643 4644 4645 4646 4647 4648 4649 4650 4651 4652 4653 4654 4655 4656 4657 4658 4659 4660 4661 4662 4663 4664 4665 4666 4667 4668 4669 4670 4671 4672 4673 4674 4675 4676 4677 4678 4679 4680 4681 4682 4683 4684 4685 4686 4687 4688 4689 4690 4691 4692 4693 4694 4695 4696 4697 4698 4699 4700 4701 4702 4703 4704 4705 4706 4707 4708 4709 4710 4711 4712 4713 4714 4715 4716 4717 4718 4719 4720 4721 4722 4723 4724 4725 4726 4727 4728 4729 4730 4731 4732 4733 4734 4735 4736 4737 4738 4739 4740 4741 4742 4743 4744 4745 4746 4747 4748 4749 4750 4751 4752 4753 4754 4755 4756 4757 4758 4759 4760 4761 4762 4763 4764 4765 4766 4767 4768 4769 4770 4771 4772 4773 4774 4775 4776 4777 4778 4779 4780 4781 4782 4783 4784 4785 4786 4787 4788 4789 4790 4791 4792 4793 4794 4795 4796 4797 4798 4799 4800 4801 4802 4803 4804 4805 4806 4807 4808 4809 4810 4811 4812 4813 4814 4815 4816 4817 4818 4819 4820 4821 4822 4823 4824 4825 4826 4827 4828 4829 4830 4831 4832 4833 4834 4835 4836 4837 4838 4839 4840 4841 4842 4843 4844 4845 4846 4847 4848 4849 4850 4851 4852 4853 4854 4855 4856 4857 4858 4859 4860 4861 4862 4863 4864 4865 4866 4867 4868 4869 4870 4871 4872 4873 4874 4875 4876 4877 4878 4879 4880 4881 4882 4883 4884 4885 4886 4887 4888 4889 4890 4891 4892 4893 4894 4895 4896 4897 4898 4899 4900 4901 4902 4903 4904 4905 4906 4907 4908 4909 4910 4911 4912 4913 4914 4915 4916 4917 4918 4919 4920 4921 4922 4923 4924 4925 4926 4927 4928 4929 4930 4931 4932 4933 4934 4935 4936 4937 4938 4939 4940 4941 4942 4943 4944 4945 4946 4947 4948 4949 4950 4951 4952 4953 4954 4955 4956 4957 4958 4959 4960 4961 4962 4963 4964 4965 4966 4967 4968 4969 4970 4971 4972 4973 4974 4975 4976 4977 4978 4979 4980 4981 4982 4983 4984 4985 4986 4987 4988 4989 4990 4991 4992 4993 4994 4995 4996 4997 4998 4999 5000 5001 5002 5003 5004 5005 5006 5007 5008 5009 5010 5011 5012 5013 5014 5015 5016 5017 5018 5019 5020 5021 5022 5023 5024 5025 5026 5027 5028 5029 5030 5031 5032 5033 5034 5035 5036 5037 5038 5039 5040 5041 5042 5043 5044 5045 5046 5047 5048 5049 5050 5051 5052 5053 5054 5055 5056 5057 5058 5059 5060 5061 5062 5063 5064 5065 5066 5067 5068 5069 5070 5071 5072 5073 5074 5075 5076 5077 5078 5079 5080 5081 5082 5083 5084 5085 5086 5087 5088 5089 5090 5091 5092 5093 5094 5095 5096 5097 5098 5099 5100 5101 5102 5103 5104 5105 5106 5107 5108 5109 5110 5111 5112 5113 5114 5115 5116 5117 5118 5119 5120 5121 5122 5123 5124 5125 5126 5127 5128 5129 5130 5131 5132 5133 5134 5135 5136 5137 5138 5139 5140 5141 5142 5143 5144 5145 5146 5147 5148 5149 5150 5151 5152 5153 5154 5155 5156 5157 5158 5159 5160 5161 5162 5163 5164 5165 5166 5167 5168 5169 5170 5171 5172 5173 5174 5175 5176 5177 5178 5179 5180 5181 5182 5183 5184 5185 5186 5187 5188 5189 5190 5191 5192 5193 5194 5195 5196 5197 5198 5199 5200 5201 5202 5203 5204 5205 5206 5207 5208 5209 5210 5211 5212 5213 5214 5215 5216 5217 5218 5219 5220 5221 5222 5223 5224 5225 5226 5227 5228 5229 5230 5231 5232 5233 5234 5235 5236 5237 5238 5239 5240 5241 5242 5243 5244 5245 5246 5247 5248 5249 5250 5251 5252 5253 5254 5255 5256 5257 5258 5259 5260 5261 5262 5263 5264 5265 5266 5267 5268 5269 5270 5271 5272 5273 5274 5275 5276 5277 5278 5279 5280 5281 5282 5283 5284 5285 5286 5287 5288 5289 5290 5291 5292 5293 5294 5295 5296 5297 5298 5299 5300 5301 5302 5303 5304 5305 5306 5307 5308 5309 5310 5311 5312 5313 5314 5315 5316 5317 5318 5319 5320 5321 5322 5323 5324 5325 5326 5327 5328 5329 5330 5331 5332 5333 5334 5335 5336 5337 5338 5339 5340 5341 5342 5343 5344 5345 5346 5347 5348 5349 5350 5351 5352 5353 5354 5355 5356 5357 5358 5359 5360 5361 5362 5363 5364 5365 5366 5367 5368 5369 5370 5371 5372 5373 5374 5375 5376 5377 5378 5379 5380 5381 5382 5383 5384 5385 5386 5387 5388 5389 5390 5391 5392 5393 5394 5395 5396 5397 5398 5399 5400 5401 5402 5403 5404 5405 5406 5407 5408 5409 5410 5411 5412 5413 5414 5415 5416 5417 5418 5419 5420 5421 5422 5423 5424 5425 5426 5427 5428 5429 5430 5431 5432 5433 5434 5435 5436 5437 5438 5439 5440 5441 5442 5443 5444 5445 5446 5447 5448 5449 5450 5451 5452 5453 5454 5455 5456 5457 5458 5459 5460 5461 5462 5463 5464 5465 5466 5467 5468 5469 5470 5471 5472 5473 5474 5475 5476 5477 5478 5479 5480 5481 5482 5483 5484 5485 5486 5487 5488 5489 5490 5491 5492 5493 5494 5495 5496 5497 5498 5499 5500 5501 5502 5503 5504 5505 5506 5507 5508 5509 5510 5511 5512 5513 5514 5515 5516 5517 5518 5519 5520 5521 5522 5523 5524 5525 5526 5527 5528 5529 5530 5531 5532 5533 5534 5535 5536 5537 5538 5539 5540 5541 5542 5543 5544 5545 5546 5547 5548 5549 5550 5551 5552 5553 5554 5555 5556 5557 5558 5559 5560 5561 5562 5563 5564 5565 5566 5567 5568 5569 5570 5571 5572 5573 5574 5575 5576 5577 5578 5579 5580 5581 5582 5583 5584 5585 5586 5587 5588 5589 5590 5591 5592 5593 5594 5595 5596 5597 5598 5599 5600 5601 5602 5603 5604 5605 5606 5607 5608 5609 5610 5611 5612 5613 5614 5615 5616 5617 5618 5619 5620 5621 5622 5623 5624 5625 5626 5627 5628 5629 5630 5631 5632 5633 5634 5635 5636 5637 5638 5639 5640 5641 5642 5643 5644 5645 5646 5647 5648 5649 5650 5651 5652 5653 5654 5655 5656 5657 5658 5659 5660 5661 5662 5663 5664 5665 5666 5667 5668 5669 5670 5671 5672 5673 5674 5675 5676 5677 5678 5679 5680 5681 5682 5683 5684 5685 5686 5687 5688 5689 5690 5691 5692 5693 5694 5695 5696 5697 5698 5699 5700 5701 5702 5703 5704 5705 5706 5707 5708 5709 5710 5711 5712 5713 5714 5715 5716 5717 5718 5719 5720 5721 5722 5723 5724 5725 5726 5727 5728 5729 5730 5731 5732 5733 5734 5735 5736 5737 5738 5739 5740 5741 5742 5743 5744 5745 5746 5747 5748 5749 5750 5751 5752 5753 5754 5755 5756 5757 5758 5759 5760 5761 5762 5763 5764 5765 5766 5767 5768 5769 5770 5771 5772 5773 5774 5775 5776 5777 5778 5779 5780 5781 5782 5783 5784 5785 5786 5787 5788 5789 5790 5791 5792 5793 5794 5795 5796 5797 5798 5799 5800 5801 5802 5803 5804 5805 5806 5807 5808 5809 5810 5811 5812 5813 5814 5815 5816 5817 5818 5819 5820 5821 5822 5823 5824 5825 5826 5827 5828 5829 5830 5831 5832 5833 5834 5835 5836 5837 5838 5839 5840 5841 5842 5843 5844 5845 5846 5847 5848 5849 5850 5851 5852 5853 5854 5855 5856 5857 5858 5859 5860 5861 5862 5863 5864 5865 5866 5867 5868 5869 5870 5871 5872 5873 5874 5875 5876 5877 5878 5879 5880 5881 5882 5883 5884 5885 5886 5887 5888 5889 5890 5891 5892 5893 5894 5895 5896 5897 5898 5899 5900 5901 5902 5903 5904 5905 5906 5907 5908 5909 5910 5911 5912 5913 5914 5915 5916 5917 5918 5919 5920 5921 5922 5923 5924 5925 5926 5927 5928 5929 5930 5931 5932 5933 5934 5935 5936 5937 5938 5939 5940 5941 5942 5943 5944 5945 5946 5947 5948 5949 5950 5951 5952 5953 5954 5955 5956 5957 5958 5959 5960 5961 5962 5963 5964 5965 5966 5967 5968 5969 5970 5971 5972 5973 5974 5975 5976 5977 5978 5979 5980 5981 5982 5983 5984 5985 5986 5987 5988 5989 5990 5991 5992 5993 5994 5995 5996 5997 5998 5999 6000 6001 6002 6003 6004 6005 6006 6007 6008 6009 6010 6011 6012 6013 6014 6015 6016 6017 6018 6019 6020 6021 6022 6023 6024 6025 6026 6027 6028 6029 6030 6031 6032 6033 6034 6035 6036 6037 6038 6039 6040 6041 6042 6043 6044 6045 6046 6047 6048 6049 6050 6051 6052 6053 6054 6055 6056 6057 6058 6059 6060 6061 6062 6063 6064 6065 6066 6067 6068 6069 6070 6071 6072 6073 6074 6075 6076 6077 6078 6079 6080 6081 6082 6083 6084 6085 6086 6087 6088 6089 6090 6091 6092 6093 6094 6095 6096 6097 6098 6099 6100 6101 6102 6103 6104 6105 6106 6107 6108 6109 6110 6111 6112 6113 6114 6115 6116 6117 6118 6119 6120 6121 6122 6123 6124 6125 6126 6127 6128 6129 6130 6131 6132 6133 6134 6135 6136 6137 6138 6139 6140 6141 6142 6143 6144 6145 6146 6147 6148 6149 6150 6151 6152 6153 6154 6155 6156 6157 6158 6159 6160 6161 6162 6163 6164 6165 6166 6167 6168 6169 6170 6171 6172 6173 6174 6175 6176 6177 6178 6179 6180 6181 6182 6183 6184 6185 6186 6187 6188 6189 6190 6191 6192 6193 6194 6195 6196 6197 6198 6199 6200 6201 6202 6203 6204 6205 6206 6207 6208 6209 6210 6211 6212 6213 6214 6215 6216 6217 6218 6219 6220 6221 6222 6223 6224 6225 6226 6227 6228 6229 6230 6231 6232 6233 6234 6235 6236 6237 6238 6239 6240 6241 6242 6243 6244 6245 6246 6247 6248 6249 6250 6251 6252 6253 6254 6255 6256 6257 6258 6259 6260 6261 6262 6263 6264 6265 6266 6267 6268 6269 6270 6271 6272 6273 6274 6275 6276 6277 6278 6279 6280 6281 6282 6283 6284 6285 6286 6287 6288 6289 6290 6291 6292 6293 6294 6295 6296 6297 6298 6299 6300 6301 6302 6303 6304 6305 6306 6307 6308 6309 6310 6311 6312 6313 6314 6315 6316 6317 6318 6319 6320 6321 6322 6323 6324 6325 6326 6327 6328 6329 6330 6331 6332 6333 6334 6335 6336 6337 6338 6339 6340 6341 6342 6343 6344 6345 6346 6347 6348 6349 6350 6351 6352 6353 6354 6355 6356 6357 6358 6359 6360 6361 6362 6363 6364 6365 6366 6367 6368 6369 6370 6371 6372 6373 6374 6375 6376 6377 6378 6379 6380 6381 6382 6383 6384 6385 6386 6387 6388 6389 6390 6391 6392 6393 6394 6395 6396 6397 6398 6399 6400 6401 6402 6403 6404 6405 6406 6407 6408 6409 6410 6411 6412 6413 6414 6415 6416 6417 6418 6419 6420 6421 6422 6423 6424 6425 6426 6427 6428 6429 6430 6431 6432 6433 6434 6435 6436 6437 6438 6439 6440 6441 6442 6443 6444 6445 6446 6447 6448 6449 6450 6451 6452 6453 6454 6455 6456 6457 6458 6459 6460 6461 6462 6463 6464 6465 6466 6467 6468 6469 6470 6471 6472 6473 6474 6475 6476 6477 6478 6479 6480 6481 6482 6483 6484 6485 6486 6487 6488 6489 6490 6491 6492 6493 6494 6495 6496 6497 6498 6499 6500 6501 6502 6503 6504 6505 6506 6507 6508 6509 6510 6511 6512 6513 6514 6515 6516 6517 6518 6519 6520 6521 6522 6523 6524 6525 6526 6527 6528 6529 6530 6531 6532 6533 6534 6535 6536 6537 6538 6539 6540 6541 6542 6543 6544 6545 6546 6547 6548 6549 6550 6551 6552 6553 6554 6555 6556 6557 6558 6559 6560 6561 6562 6563 6564 6565 6566 6567 6568 6569 6570 6571 6572 6573 6574 6575 6576 6577 6578 6579 6580 6581 6582 6583 6584 6585 6586 6587 6588 6589 6590 6591 6592 6593 6594 6595 6596 6597 6598 6599 6600 6601 6602 6603 6604 6605 6606 6607 6608 6609 6610 6611 6612 6613 6614 6615 6616 6617 6618 6619 6620 6621 6622 6623 6624 6625 6626 6627 6628 6629 6630 6631 6632 6633 6634 6635 6636 6637 6638 6639 6640 6641 6642 6643 6644 6645 6646 6647 6648 6649 6650 6651 6652 6653 6654 6655 6656 6657 6658 6659 6660 6661 6662 6663 6664 6665 6666 6667 6668 6669 6670 6671 6672 6673 6674 6675 6676 6677 6678 6679 6680 6681 6682 6683 6684 6685 6686 6687 6688 6689 6690 6691 6692 6693 6694 6695 6696 6697 6698 6699 6700 6701 6702 6703 6704 6705 6706 6707 6708 6709 6710 6711 6712 6713 6714 6715 6716 6717 6718 6719 6720 6721 6722 6723 6724 6725 6726 6727 6728 6729 6730 6731 6732 6733 6734 6735 6736 6737 6738 6739 6740 6741 6742 6743 6744 6745 6746 6747 6748 6749 6750 6751 6752 6753 6754 6755 6756 6757 6758 6759 6760 6761 6762 6763 6764 6765 6766 6767 6768 6769 6770 6771 6772 6773 6774 6775 6776 6777 6778 6779 6780 6781 6782 6783 6784 6785 6786 6787 6788 6789 6790 6791 6792 6793 6794 6795 6796 6797 6798 6799 6800 6801 6802 6803 6804 6805 6806 6807 6808 6809 6810 6811 6812 6813 6814 6815 6816 6817 6818 6819 6820 6821 6822 6823 6824 6825 6826 6827 6828 6829 6830 6831 6832 6833 6834 6835 6836 6837 6838 6839 6840 6841 6842 6843 6844 6845 6846 6847 6848 6849 6850 6851 6852 6853 6854 6855 6856 6857 6858 6859 6860 6861 6862 6863 6864 6865 6866 6867 6868 6869 6870 6871 6872 6873 6874 6875 6876 6877 6878 6879 6880 6881 6882 6883 6884 6885 6886 6887 6888 6889 6890 6891 6892 6893 6894 6895 6896 6897 6898 6899 6900 6901 6902 6903 6904 6905 6906 6907 6908 6909 6910 6911 6912 6913 6914 6915 6916 6917 6918 6919 6920 6921 6922 6923 6924 6925 6926 6927 6928 6929 6930 6931 6932 6933 6934 6935 6936 6937 6938 6939 6940 6941 6942 6943 6944 6945 6946 6947 6948 6949 6950 6951 6952 6953 6954 6955 6956 6957 6958 6959 6960 6961 6962 6963 6964 6965 6966 6967 6968 6969 6970 6971 6972 6973 6974 6975 6976 6977 6978 6979 6980 6981 6982 6983 6984 6985 6986 6987 6988 6989 6990 6991 6992 6993 6994 6995 6996 6997 6998 6999 7000 7001 7002 7003 7004 7005 7006 7007 7008 7009 7010 7011 7012 7013 7014 7015 7016 7017 7018 7019 7020 7021 7022 7023 7024 7025 7026 7027 7028 7029 7030 7031 7032 7033 7034 7035 7036 7037 7038 7039 7040 7041 7042 7043 7044 7045 7046 7047 7048 7049 7050 7051 7052 7053 7054 7055 7056 7057 7058 7059 7060 7061 7062 7063 7064 7065 7066 7067 7068 7069 7070 7071 7072 7073 7074 7075 7076 7077 7078 7079 7080 7081 7082 7083 7084 7085 7086 7087 7088 7089 7090 7091 7092 7093 7094 7095 7096 7097 7098 7099 7100 7101 7102 7103 7104 7105 7106 7107 7108 7109 7110 7111 7112 7113 7114 7115 7116 7117 7118 7119 7120 7121 7122 7123 7124 7125 7126 7127 7128 7129 7130 7131 7132 7133 7134 7135 7136 7137 7138 7139 7140 7141 7142 7143 7144 7145 7146 7147 7148 7149 7150 7151 7152 7153 7154 7155 7156 7157 7158 7159 7160 7161 7162 7163 7164 7165 7166 7167 7168 7169 7170 7171 7172 7173 7174 7175 7176 7177 7178 7179 7180 7181 7182 7183 7184 7185 7186 7187 7188 7189 7190 7191 7192 7193 7194 7195 7196 7197 7198 7199 7200 7201 7202 7203 7204 7205 7206 7207 7208 7209 7210 7211 7212 7213 7214 7215 7216 7217 7218 7219 7220 7221 7222 7223 7224 7225 7226 7227 7228 7229 7230 7231 7232 7233 7234 7235 7236 7237 7238 7239 7240 7241 7242 7243 7244 7245 7246 7247 7248 7249 7250 7251 7252 7253 7254 7255 7256 7257 7258 7259 7260 7261 7262 7263 7264 7265 7266 7267 7268 7269 7270 7271 7272 7273 7274 7275 7276 7277 7278 7279 7280 7281 7282 7283 7284 7285 7286 7287 7288 7289 7290 7291 7292 7293 7294 7295 7296 7297 7298 7299 7300 7301 7302 7303 7304 7305 7306 7307 7308 7309 7310 7311 7312 7313 7314 7315 7316 7317 7318 7319 7320 7321 7322 7323 7324 7325 7326 7327 7328 7329 7330 7331 7332 7333 7334 7335 7336 7337 7338 7339 7340 7341 7342 7343 7344 7345 7346 7347 7348 7349 7350 7351 7352 7353 7354 7355 7356 7357 7358 7359 7360 7361 7362 7363 7364 7365 7366 7367 7368 7369 7370 7371 7372 7373 7374 7375 7376 7377 7378 7379 7380 7381 7382 7383 7384 7385 7386 7387 7388 7389 7390 7391 7392 7393 7394 7395 7396 7397 7398 7399 7400 7401 7402 7403 7404 7405 7406 7407 7408 7409 7410 7411 7412 7413 7414 7415 7416 7417 7418 7419 7420 7421 7422 7423 7424 7425 7426 7427 7428 7429 7430 7431 7432 7433 7434 7435 7436 7437 7438 7439 7440 7441 7442 7443 7444 7445 7446 7447 7448 7449 7450 7451 7452 7453 7454 7455 7456 7457 7458 7459 7460 7461 7462 7463 7464 7465 7466 7467 7468 7469 7470 7471 7472 7473 7474 7475 7476 7477 7478 7479 7480 7481 7482 7483 7484 7485 7486 7487 7488 7489 7490 7491 7492 7493 7494 7495 7496 7497 7498 7499 7500 7501 7502 7503 7504 7505 7506 7507 7508 7509 7510 7511 7512 7513 7514 7515 7516 7517 7518 7519 7520 7521 7522 7523 7524 7525 7526 7527 7528 7529 7530 7531 7532 7533 7534 7535 7536 7537 7538 7539 7540 7541 7542 7543 7544 7545 7546 7547 7548 7549 7550 7551 7552 7553 7554 7555 7556 7557 7558 7559 7560 7561 7562 7563 7564 7565 7566 7567 7568 7569 7570 7571 7572 7573 7574 7575 7576 7577 7578 7579 7580 7581 7582 7583 7584 7585 7586 7587 7588 7589 7590 7591 7592 7593 7594 7595 7596 7597 7598 7599 7600 7601 7602 7603 7604 7605 7606 7607 7608 7609 7610 7611 7612 7613 7614 7615 7616 7617 7618 7619 7620 7621 7622 7623 7624 7625 7626 7627 7628 7629 7630 7631 7632 7633 7634 7635 7636 7637 7638 7639 7640 7641 7642 7643 7644 7645 7646 7647 7648 7649 7650 7651 7652 7653 7654 7655 7656 7657 7658 7659 7660 7661 7662 7663 7664 7665 7666 7667 7668 7669 7670 7671 7672 7673 7674 7675 7676 7677 7678 7679 7680 7681 7682 7683 7684 7685 7686 7687 7688 7689 7690 7691 7692 7693 7694 7695 7696 7697 7698 7699 7700 7701 7702 7703 7704 7705 7706 7707 7708 7709 7710 7711 7712 7713 7714 7715 7716 7717 7718 7719 7720 7721 7722 7723 7724 7725 7726 7727 7728 7729 7730 7731 7732 7733 7734 7735 7736 7737 7738 7739 7740 7741 7742 7743 7744 7745 7746 7747 7748 7749 7750 7751 7752 7753 7754 7755 7756 7757 7758 7759 7760 7761 7762 7763 7764 7765 7766 7767 7768 7769 7770 7771 7772 7773 7774 7775 7776 7777 7778 7779 7780 7781 7782 7783 7784 7785 7786 7787 7788 7789 7790 7791 7792 7793 7794 7795 7796 7797 7798 7799 7800 7801 7802 7803 7804 7805 7806 7807 7808 7809 7810 7811 7812 7813 7814 7815 7816 7817 7818 7819 7820 7821 7822 7823 7824 7825 7826 7827 7828 7829 7830 7831 7832 7833 7834 7835 7836 7837 7838 7839 7840 7841 7842 7843 7844 7845 7846 7847 7848 7849 7850 7851 7852 7853 7854 7855 7856 7857 7858 7859 7860 7861 7862 7863 7864 7865 7866 7867 7868 7869 7870 7871 7872 7873 7874 7875 7876 7877 7878 7879 7880 7881 7882 7883 7884 7885 7886 7887 7888 7889 7890 7891 7892 7893 7894 7895 7896 7897 7898 7899 7900 7901 7902 7903 7904 7905 7906 7907 7908 7909 7910 7911 7912 7913 7914 7915 7916 7917 7918 7919 7920 7921 7922 7923 7924 7925 7926 7927 7928 7929 7930 7931 7932 7933 7934 7935 7936 7937 7938 7939 7940 7941 7942 7943 7944 7945 7946 7947 7948 7949 7950 7951 7952 7953 7954 7955 7956 7957 7958 7959 7960 7961 7962 7963 7964 7965 7966 7967 7968 7969 7970 7971 7972 7973 7974 7975 7976 7977 7978 7979 7980 7981 7982 7983 7984 7985 7986 7987 7988 7989 7990 7991 7992 7993 7994 7995 7996 7997 7998 7999 8000 8001 8002 8003 8004 8005 8006 8007 8008 8009 8010 8011 8012 8013 8014 8015 8016 8017 8018 8019 8020 8021 8022 8023 8024 8025 8026 8027 8028 8029 8030 8031 8032 8033 8034 8035 8036 8037 8038 8039 8040 8041 8042 8043 8044 8045 8046 8047 8048 8049 8050 8051 8052 8053 8054 8055 8056 8057 8058 8059 8060 8061 8062 8063 8064 8065 8066 8067 8068 8069 8070 8071 8072 8073 8074 8075 8076 8077 8078 8079 8080 8081 8082 8083 8084 8085 8086 8087 8088 8089 8090 8091 8092 8093 8094 8095 8096 8097 8098 8099 8100 8101 8102 8103 8104 8105 8106 8107 8108 8109 8110 8111 8112 8113 8114 8115 8116 8117 8118 8119 8120 8121 8122 8123 8124 8125 8126 8127 8128 8129 8130 8131 8132 8133 8134 8135 8136 8137 8138 8139 8140 8141 8142 8143 8144 8145 8146 8147 8148 8149 8150 8151 8152 8153 8154 8155 8156 8157 8158 8159 8160 8161 8162 8163 8164 8165 8166 8167 8168 8169 8170 8171 8172 8173 8174 8175 8176 8177 8178 8179 8180 8181 8182 8183 8184 8185 8186 8187 8188 8189 8190 8191 8192 8193 8194 8195 8196 8197 8198 8199 8200 8201 8202 8203 8204 8205 8206 8207 8208 8209 8210 8211 8212 8213 8214 8215 8216 8217 8218 8219 8220 8221 8222 8223 8224 8225 8226 8227 8228 8229 8230 8231 8232 8233 8234 8235 8236 8237 8238 8239 8240 8241 8242 8243 8244 8245 8246 8247 8248 8249 8250 8251 8252 8253 8254 8255 8256 8257 8258 8259 8260 8261 8262 8263 8264 8265 8266 8267 8268 8269 8270 8271 8272 8273 8274 8275 8276 8277 8278 8279 8280 8281 8282 8283 8284 8285 8286 8287 8288 8289 8290 8291 8292 8293 8294 8295 8296 8297 8298 8299 8300 8301 8302 8303 8304 8305 8306 8307 8308 8309 8310 8311 8312 8313 8314 8315 8316 8317 8318 8319 8320 8321 8322 8323 8324 8325 8326 8327 8328 8329 8330 8331 8332 8333 8334 8335 8336 8337 8338 8339 8340 8341 8342 8343 8344 8345 8346 8347 8348 8349 8350 8351 8352 8353 8354 8355 8356 8357 8358 8359 8360 8361 8362 8363 8364 8365 8366 8367 8368 8369 8370 8371 8372 8373 8374 8375 8376 8377 8378 8379 8380 8381 8382 8383 8384 8385 8386 8387 8388 8389 8390 8391 8392 8393 8394 8395 8396 8397 8398 8399 8400 8401 8402 8403 8404 8405 8406 8407 8408 8409 8410 8411 8412 8413 8414 8415 8416 8417 8418 8419 8420 8421 8422 8423 8424 8425 8426 8427 8428 8429 8430 8431 8432 8433 8434 8435 8436 8437 8438 8439 8440 8441 8442 8443 8444 8445 8446 8447 8448 8449 8450 8451 8452 8453 8454 8455 8456 8457 8458 8459 8460 8461 8462 8463 8464 8465 8466 8467 8468 8469 8470 8471 8472 8473 8474 8475 8476 8477 8478 8479 8480 8481 8482 8483 8484 8485 8486 8487 8488 8489 8490 8491 8492 8493 8494 8495 8496 8497 8498 8499 8500 8501 8502 8503 8504 8505 8506 8507 8508 8509 8510 8511 8512 8513 8514 8515 8516 8517 8518 8519 8520 8521 8522 8523 8524 8525 8526 8527 8528 8529 8530 8531 8532 8533 8534 8535 8536 8537 8538 8539 8540 8541 8542 8543 8544 8545 8546 8547 8548 8549 8550 8551 8552 8553 8554 8555 8556 8557 8558 8559 8560 8561 8562 8563 8564 8565 8566 8567 8568 8569 8570 8571 8572 8573 8574 8575 8576 8577 8578 8579 8580 8581 8582 8583 8584 8585 8586 8587 8588 8589 8590 8591 8592 8593 8594 8595 8596 8597 8598 8599 8600 8601 8602 8603 8604 8605 8606 8607 8608 8609 8610 8611 8612 8613 8614 8615 8616 8617 8618 8619 8620 8621 8622 8623 8624 8625 8626 8627 8628 8629 8630 8631 8632 8633 8634 8635 8636 8637 8638 8639 8640 8641 8642 8643 8644 8645 8646 8647 8648 8649 8650 8651 8652 8653 8654 8655 8656 8657 8658 8659 8660 8661 8662 8663 8664 8665 8666 8667 8668 8669 8670 8671 8672 8673 8674 8675 8676 8677 8678 8679 8680 8681 8682 8683 8684 8685 8686 8687 8688 8689 8690 8691 8692 8693 8694 8695 8696 8697 8698 8699 8700 8701 8702 8703 8704 8705 8706 8707 8708 8709 8710 8711 8712 8713 8714 8715 8716 8717 8718 8719 8720 8721 8722 8723 8724 8725 8726 8727 8728 8729 8730 8731 8732 8733 8734 8735 8736 8737 8738 8739 8740 8741 8742 8743 8744 8745 8746 8747 8748 8749 8750 8751 8752 8753 8754 8755 8756 8757 8758 8759 8760 8761 8762 8763 8764 8765 8766 8767 8768 8769 8770 8771 8772 8773 8774 8775 8776 8777 8778 8779 8780 8781 8782 8783 8784 8785 8786 8787 8788 8789 8790 8791 8792 8793 8794 8795 8796 8797 8798 8799 8800 8801 8802 8803 8804 8805 8806 8807 8808 8809 8810 8811 8812 8813 8814 8815 8816 8817 8818 8819 8820 8821 8822 8823 8824 8825 8826 8827 8828 8829 8830 8831 8832 8833 8834 8835 8836 8837 8838 8839 8840 8841 8842 8843 8844 8845 8846 8847 8848 8849 8850 8851 8852 8853 8854 8855 8856 8857 8858 8859 8860 8861 8862 8863 8864 8865 8866 8867 8868 8869 8870 8871 8872 8873 8874 8875 8876 8877 8878 8879 8880 8881 8882 8883 8884 8885 8886 8887 8888 8889 8890 8891 8892 8893 8894 8895 8896 8897 8898 8899 8900 8901 8902 8903 8904 8905 8906 8907 8908 8909 8910 8911 8912 8913 8914 8915 8916 8917 8918 8919 8920 8921 8922 8923 8924 8925 8926 8927 8928 8929 8930 8931 8932 8933 8934 8935 8936 8937 8938 8939 8940 8941 8942 8943 8944 8945 8946 8947 8948 8949 8950 8951 8952 8953 8954 8955 8956 8957 8958 8959 8960 8961 8962 8963 8964 8965 8966 8967 8968 8969 8970 8971 8972 8973 8974 8975 8976 8977 8978 8979 8980 8981 8982 8983 8984 8985 8986 8987 8988 8989 8990 8991 8992 8993 8994 8995 8996 8997 8998 8999 9000 9001 9002 9003 9004 9005 9006 9007 9008 9009 9010 9011 9012 9013 9014 9015 9016 9017 9018 9019 9020 9021 9022 9023 9024 9025 9026 9027 9028 9029 9030 9031 9032 9033 9034 9035 9036 9037 9038 9039 9040 9041 9042 9043 9044 9045 9046 9047 9048 9049 9050 9051 9052 9053 9054 9055 9056 9057 9058 9059 9060 9061 9062 9063 9064 9065 9066 9067 9068 9069 9070 9071 9072 9073 9074 9075 9076 9077 9078 9079 9080 9081 9082 9083 9084 9085 9086 9087 9088 9089 9090 9091 9092 9093 9094 9095 9096 9097 9098 9099 9100 9101 9102 9103 9104 9105 9106 9107 9108 9109 9110 9111 9112 9113 9114 9115 9116 9117 9118 9119 9120 9121 9122 9123 9124 9125 9126 9127 9128 9129 9130 9131 9132 9133 9134 9135 9136 9137 9138 9139 9140 9141 9142 9143 9144 9145 9146 9147 9148 9149 9150 9151 9152 9153 9154 9155 9156 9157 9158 9159 9160 9161 9162 9163 9164 9165 9166 9167 9168 9169 9170 9171 9172 9173 9174 9175 9176 9177 9178 9179 9180 9181 9182 9183 9184 9185 9186 9187 9188 9189 9190 9191 9192 9193 9194 9195 9196 9197 9198 9199 9200 9201 9202 9203 9204 9205 9206 9207 9208 9209 9210 9211 9212 9213 9214 9215 9216 9217 9218 9219 9220 9221 9222 9223 9224 9225 9226 9227 9228 9229 9230 9231 9232 9233 9234 9235 9236 9237 9238 9239 9240 9241 9242 9243 9244 9245 9246 9247 9248 9249 9250 9251 9252 9253 9254 9255 9256 9257 9258 9259 9260 9261 9262 9263 9264 9265 9266 9267 9268 9269 9270 9271 9272 9273 9274 9275 9276 9277 9278 9279 9280 9281 9282 9283 9284 9285 9286 9287 9288 9289 9290 9291 9292 9293 9294 9295 9296 9297 9298 9299 9300 9301 9302 9303 9304 9305 9306 9307 9308 9309 9310 9311 9312 9313 9314 9315 9316 9317 9318 9319 9320 9321 9322 9323 9324 9325 9326 9327 9328 9329 9330 9331 9332 9333 9334 9335 9336 9337 9338 9339 9340 9341 9342 9343 9344 9345 9346 9347 9348 9349 9350 9351 9352 9353 9354 9355 9356 9357 9358 9359 9360 9361 9362 9363 9364 9365 9366 9367 9368 9369 9370 9371 9372 9373 9374 9375 9376 9377 9378 9379 9380 9381 9382 9383 9384 9385 9386 9387 9388 9389 9390 9391 9392 9393 9394 9395 9396 9397 9398 9399 9400 9401 9402 9403 9404 9405 9406 9407 9408 9409 9410 9411 9412 9413 9414 9415 9416 9417 9418 9419 9420 9421 9422 9423 9424 9425 9426 9427 9428 9429 9430 9431 9432 9433 9434 9435 9436 9437 9438 9439 9440 9441 9442 9443 9444 9445 9446 9447 9448 9449 9450 9451 9452 9453 9454 9455 9456 9457 9458 9459 9460 9461 9462 9463 9464 9465 9466 9467 9468 9469 9470 9471 9472 9473 9474 9475 9476 9477 9478 9479 9480 9481 9482 9483 9484 9485 9486 9487 9488 9489 9490 9491 9492 9493 9494 9495 9496 9497 9498 9499 9500 9501 9502 9503 9504 9505 9506 9507 9508 9509 9510 9511 9512 9513 9514 9515 9516 9517 9518 9519 9520 9521 9522 9523 9524 9525 9526 9527 9528 9529 9530 9531 9532 9533 9534 9535 9536 9537 9538 9539 9540 9541 9542 9543 9544 9545 9546 9547 9548 9549 9550 9551 9552 9553 9554 9555 9556 9557 9558 9559 9560 9561 9562 9563 9564 9565 9566 9567 9568 9569 9570 9571 9572 9573 9574 9575 9576 9577 9578 9579 9580 9581 9582 9583 9584 9585 9586 9587 9588 9589 9590 9591 9592 9593 9594 9595 9596 9597 9598 9599 9600 9601 9602 9603 9604 9605 9606 9607 9608 9609 9610 9611 9612 9613 9614 9615 9616 9617 9618 9619 9620 9621 9622 9623 9624 9625 9626 9627 9628 9629 9630 9631 9632 9633 9634 9635 9636 9637 9638 9639 9640 9641 9642 9643 9644 9645 9646 9647 9648 9649 9650 9651 9652 9653 9654 9655 9656 9657 9658 9659 9660 9661 9662 9663 9664 9665 9666 9667 9668 9669 9670 9671 9672 9673 9674 9675 9676 9677 9678 9679 9680 9681 9682 9683 9684 9685 9686 9687 9688 9689 9690 9691 9692 9693 9694 9695 9696 9697 9698 9699 9700 9701 9702 9703 9704 9705 9706 9707 9708 9709 9710 9711 9712 9713 9714 9715 9716 9717 9718 9719 9720 9721 9722 9723 9724 9725 9726 9727 9728 9729 9730 9731 9732 9733 9734 9735 9736 9737 9738 9739 9740 9741 9742 9743 9744 9745 9746 9747 9748 9749 9750 9751 9752 9753 9754 9755 9756 9757 9758 9759 9760 9761 9762 9763 9764 9765 9766 9767 9768 9769 9770 9771 9772 9773 9774 9775 9776 9777 9778 9779 9780 9781 9782 9783 9784 9785 9786 9787 9788 9789 9790 9791 9792 9793 9794 9795 9796 9797 9798 9799 9800 9801 9802 9803 9804 9805 9806 9807 9808 9809 9810 9811 9812 9813 9814 9815 9816 9817 9818 9819 9820 9821 9822 9823 9824 9825 9826 9827 9828 9829 9830 9831 9832 9833 9834 9835 9836 9837 9838 9839 9840 9841 9842 9843 9844 9845 9846 9847 9848 9849 9850 9851 9852 9853 9854 9855 9856 9857 9858 9859 9860 9861 9862 9863 9864 9865 9866 9867 9868 9869 9870 9871 9872 9873 9874 9875 9876 9877 9878 9879 9880 9881 9882 9883 9884 9885 9886 9887 9888 9889 9890 9891 9892 9893 9894 9895 9896 9897 9898 9899 9900 9901 9902 9903 9904 9905 9906 9907 9908 9909 9910 9911 9912 9913 9914 9915 9916 9917 9918 9919 9920 9921 9922 9923 9924 9925 9926 9927 9928 9929 9930 9931 9932 9933 9934 9935 9936 9937 9938 9939 9940 9941 9942 9943 9944 9945 9946 9947 9948 9949 9950 9951 9952 9953 9954 9955 9956 9957 9958 9959 9960 9961 9962 9963 9964 9965 9966 9967 9968 9969 9970 9971 9972 9973 9974 9975 9976 9977 9978 9979 9980 9981 9982 9983 9984 9985 9986 9987 9988 9989 9990 9991 9992 9993 9994 9995 9996 9997 9998 9999 10000 10001 10002 10003 10004 10005 10006 10007 10008 10009 10010 10011 10012 10013 10014 10015 10016 10017 10018 10019 10020 10021 10022 10023 10024 10025 10026 10027 10028 10029 10030 10031 10032 10033 10034 10035 10036 10037 10038 10039 10040 10041 10042 10043 10044 10045 10046 10047 10048 10049 10050 10051 10052 10053 10054 10055 10056 10057 10058 10059 10060 10061 10062 10063 10064 10065 10066 10067 10068 10069 10070 10071 10072 10073 10074 10075 10076 10077 10078 10079 10080 10081 10082 10083 10084 10085 10086 10087 10088 10089 10090 10091 10092 10093 10094 10095 10096 10097 10098 10099 10100 10101 10102 10103 10104 10105 10106 10107 10108 10109 10110 10111 10112 10113 10114 10115 10116 10117 10118 10119 10120 10121 10122 10123 10124 10125 10126 10127 10128 10129 10130 10131 10132 10133 10134 10135 10136 10137 10138 10139 10140 10141 10142 10143 10144 10145 10146 10147 10148 10149 10150 10151 10152 10153 10154 10155 10156 10157 10158 10159 10160 10161 10162 10163 10164 10165 10166 10167 10168 10169 10170 10171 10172 10173 10174 10175 10176 10177 10178 10179 10180 10181 10182 10183 10184 10185 10186 10187 10188 10189 10190 10191 10192 10193 10194 10195 10196 10197 10198 10199 10200 10201 10202 10203 10204 10205 10206 10207 10208 10209 10210 10211 10212 10213 10214 10215 10216 10217 10218 10219 10220 10221 10222 10223 10224 10225 10226 10227 10228 10229 10230 10231 10232 10233 10234 10235 10236 10237 10238 10239 10240 10241 10242 10243 10244 10245 10246 10247 10248 10249 10250 10251 10252 10253 10254 10255 10256 10257 10258 10259 10260 10261 10262 10263 10264 10265 10266 10267 10268 10269 10270 10271 10272 10273 10274 10275 10276 10277 10278 10279 10280 10281 10282 10283 10284 10285 10286 10287 10288 10289 10290 10291 10292 10293 10294 10295 10296 10297 10298 10299 10300 10301 10302 10303 10304 10305 10306 10307 10308 10309 10310 10311 10312 10313 10314 10315 10316 10317 10318 10319 10320 10321 10322 10323 10324 10325 10326 10327 10328 10329 10330 10331 10332 10333 10334 10335 10336 10337 10338 10339 10340 10341 10342 10343 10344 10345 10346 10347 10348 10349 10350 10351 10352 10353 10354 10355 10356 10357 10358 10359 10360 10361 10362 10363 10364 10365 10366 10367 10368 10369 10370 10371 10372 10373 10374 10375 10376 10377 10378 10379 10380 10381 10382 10383 10384 10385 10386 10387 10388 10389 10390 10391 10392 10393 10394 10395 10396 10397 10398 10399 10400 10401 10402 10403 10404 10405 10406 10407 10408 10409 10410 10411 10412 10413 10414 10415 10416 10417 10418 10419 10420 10421 10422 10423 10424 10425 10426 10427 10428 10429 10430 10431 10432 10433 10434 10435 10436 10437 10438 10439 10440 10441 10442 10443 10444 10445 10446 10447 10448 10449 10450 10451 10452 10453 10454 10455 10456 10457 10458 10459 10460 10461 10462 10463 10464 10465 10466 10467 10468 10469 10470 10471 10472 10473 10474 10475 10476 10477 10478 10479 10480 10481 10482 10483 10484 10485 10486 10487 10488 10489 10490 10491 10492 10493 10494 10495 10496 10497 10498 10499 10500 10501 10502 10503 10504 10505 10506 10507 10508 10509 10510 10511 10512 10513 10514 10515 10516 10517 10518 10519 10520 10521 10522 10523 10524 10525 10526 10527 10528 10529 10530 10531 10532 10533 10534 10535 10536 10537 10538 10539 10540 10541 10542 10543 10544 10545 10546 10547 10548 10549 10550 10551 10552 10553 10554 10555 10556 10557 10558 10559 10560 10561 10562 10563 10564 10565 10566 10567 10568 10569 10570 10571 10572 10573 10574 10575 10576 10577 10578 10579 10580 10581 10582 10583 10584 10585 10586 10587 10588 10589 10590 10591 10592 10593 10594 10595 10596 10597 10598 10599 10600 10601 10602 10603 10604 10605 10606 10607 10608 10609 10610 10611 10612 10613 10614 10615 10616 10617 10618 10619 10620 10621 10622 10623 10624 10625 10626 10627 10628 10629 10630 10631 10632 10633 10634 10635 10636 10637 10638 10639 10640 10641 10642 10643 10644 10645 10646 10647 10648 10649 10650 10651 10652 10653 10654 10655 10656 10657 10658 10659 10660 10661 10662 10663 10664 10665 10666 10667 10668 10669 10670 10671 10672 10673 10674 10675 10676 10677 10678 10679 10680 10681 10682 10683 10684 10685 10686 10687 10688 10689 10690 10691 10692 10693 10694 10695 10696 10697 10698 10699 10700 10701 10702 10703 10704 10705 10706 10707 10708 10709 10710 10711 10712 10713 10714 10715 10716 10717 10718 10719 10720 10721 10722 10723 10724 10725 10726 10727 10728 10729 10730 10731 10732 10733 10734 10735 10736 10737 10738 10739 10740 10741 10742 10743 10744 10745 10746 10747 10748 10749 10750 10751 10752 10753 10754 10755 10756 10757 10758 10759 10760 10761 10762 10763 10764 10765 10766 10767 10768 10769 10770 10771 10772 10773 10774 10775 10776 10777 10778 10779 10780 10781 10782 10783 10784 10785 10786 10787 10788 10789 10790 10791 10792 10793 10794 10795 10796 10797 10798 10799 10800 10801 10802 10803 10804 10805 10806 10807 10808 10809 10810 10811 10812 10813 10814 10815 10816 10817 10818 10819 10820 10821 10822 10823 10824 10825 10826 10827 10828 10829 10830 10831 10832 10833 10834 10835 10836 10837 10838 10839 10840 10841 10842 10843 10844 10845 10846 10847 10848 10849 10850 10851 10852 10853 10854 10855 10856 10857 10858 10859 10860 10861 10862 10863 10864 10865 10866 10867 10868 10869 10870 10871 10872 10873 10874 10875 10876 10877 10878 10879 10880 10881 10882 10883 10884 10885 10886 10887 10888 10889 10890 10891 10892 10893 10894 10895 10896 10897 10898 10899 10900 10901 10902 10903 10904 10905 10906 10907 10908 10909 10910 10911 10912 10913 10914 10915 10916 10917 10918 10919 10920 10921 10922 10923 10924 10925 10926 10927 10928 10929 10930 10931 10932 10933 10934 10935 10936 10937 10938 10939 10940 10941 10942 10943 10944 10945 10946 10947 10948 10949 10950 10951 10952 10953 10954 10955 10956 10957 10958 10959 10960 10961 10962 10963 10964 10965 10966 10967 10968 10969 10970 10971 10972 10973 10974 10975 10976 10977 10978 10979 10980 10981 10982 10983 10984 10985 10986 10987 10988 10989 10990 10991 10992 10993 10994 10995 10996 10997 10998 10999 11000 11001 11002 11003 11004 11005 11006 11007 11008 11009 11010 11011 11012 11013 11014 11015 11016 11017 11018 11019 11020 11021 11022 11023 11024 11025 11026 11027 11028 11029 11030 11031 11032 11033 11034 11035 11036 11037 11038 11039 11040 11041 11042 11043 11044 11045 11046 11047 11048 11049 11050 11051 11052 11053 11054 11055 11056 11057 11058 11059 11060 11061 11062 11063 11064 11065 11066 11067 11068 11069 11070 11071 11072 11073 11074 11075 11076 11077 11078 11079 11080 11081 11082 11083 11084 11085 11086 11087 11088 11089 11090 11091 11092 11093 11094 11095 11096 11097 11098 11099 11100 11101 11102 11103 11104 11105 11106 11107 11108 11109 11110 11111 11112 11113 11114 11115 11116 11117 11118 11119 11120 11121 11122 11123 11124 11125 11126 11127 11128 11129 11130 11131 11132 11133 11134 11135 11136 11137 11138 11139 11140 11141 11142 11143 11144 11145 11146 11147 11148 11149 11150 11151 11152 11153 11154 11155 11156 11157 11158 11159 11160 11161 11162 11163 11164 11165 11166 11167 11168 11169 11170 11171 11172 11173 11174 11175 11176 11177 11178 11179 11180 11181 11182 11183 11184 11185 11186 11187 11188 11189 11190 11191 11192 11193 11194 11195 11196 11197 11198 11199 11200 11201 11202 11203 11204 11205 11206 11207 11208 11209 11210 11211 11212 11213 11214 11215 11216 11217 11218 11219 11220 11221 11222 11223 11224 11225 11226 11227 11228 11229 11230 11231 11232 11233 11234 11235 11236 11237 11238 11239 11240 11241 11242 11243 11244 11245 11246 11247 11248 11249 11250 11251 11252 11253 11254 11255 11256 11257 11258 11259 11260 11261 11262 11263 11264 11265 11266 11267 11268 11269 11270 11271 11272 11273 11274 11275 11276 11277 11278 11279 11280 11281 11282 11283 11284 11285 11286 11287 11288 11289 11290 11291 11292 11293 11294 11295 11296 11297 11298 11299 11300 11301 11302 11303 11304 11305 11306 11307 11308 11309 11310 11311 11312 11313 11314 11315 11316 11317 11318 11319 11320 11321 11322 11323 11324 11325 11326 11327 11328 11329 11330 11331 11332 11333 11334 11335 11336 11337 11338 11339 11340 11341 11342 11343 11344 11345 11346 11347 11348 11349 11350 11351 11352 11353 11354 11355 11356 11357 11358 11359 11360 11361 11362 11363 11364 11365 11366 11367 11368 11369 11370 11371 11372 11373 11374 11375 11376 11377 11378 11379 11380 11381 11382 11383 11384 11385 11386 11387 11388 11389 11390 11391 11392 11393 11394 11395 11396 11397 11398 11399 11400 11401 11402 11403 11404 11405 11406 11407 11408 11409 11410 11411 11412 11413 11414 11415 11416 11417 11418 11419 11420 11421 11422 11423 11424 11425 11426 11427 11428 11429 11430 11431 11432 11433 11434 11435 11436 11437 11438 11439 11440 11441 11442 11443 11444 11445 11446 11447 11448 11449 11450 11451 11452 11453 11454 11455 11456 11457 11458 11459 11460 11461 11462 11463 11464 11465 11466 11467 11468 11469 11470 11471 11472 11473 11474 11475 11476 11477 11478 11479 11480 11481 11482 11483 11484 11485 11486 11487 11488 11489 11490 11491 11492 11493 11494 11495 11496 11497 11498 11499 11500 11501 11502 11503 11504 11505 11506 11507 11508 11509 11510 11511 11512 11513 11514 11515 11516 11517 11518 11519 11520 11521 11522 11523 11524 11525 11526 11527 11528 11529 11530 11531 11532 11533 11534 11535 11536 11537 11538 11539 11540 11541 11542 11543 11544 11545 11546 11547 11548 11549 11550 11551 11552 11553 11554 11555 11556 11557 11558 11559 11560 11561 11562 11563 11564 11565 11566 11567 11568 11569 11570 11571 11572 11573 11574 11575 11576 11577 11578 11579 11580 11581 11582 11583 11584 11585 11586 11587 11588 11589 11590 11591 11592 11593 11594 11595 11596 11597 11598 11599 11600 11601 11602 11603 11604 11605 11606 11607 11608 11609 11610 11611 11612 11613 11614 11615 11616 11617 11618 11619 11620 11621 11622 11623 11624 11625 11626 11627 11628 11629 11630 11631 11632 11633 11634 11635 11636 11637 11638 11639 11640 11641 11642 11643 11644 11645 11646 11647 11648 11649 11650 11651 11652 11653 11654 11655 11656 11657 11658 11659 11660 11661 11662 11663 11664 11665 11666 11667 11668 11669 11670 11671 11672 11673 11674 11675 11676 11677 11678 11679 11680 11681 11682 11683 11684 11685 11686 11687 11688 11689 11690 11691 11692 11693 11694 11695 11696 11697 11698 11699 11700 11701 11702 11703 11704 11705 11706 11707 11708 11709 11710 11711 11712 11713 11714 11715 11716 11717 11718 11719 11720 11721 11722 11723 11724 11725 11726 11727 11728 11729 11730 11731 11732 11733 11734 11735 11736 11737 11738 11739 11740 11741 11742 11743 11744 11745 11746 11747 11748 11749 11750 11751 11752 11753 11754 11755 11756 11757 11758 11759 11760 11761 11762 11763 11764 11765 11766 11767 11768 11769 11770 11771 11772 11773 11774 11775 11776 11777 11778 11779 11780 11781 11782 11783 11784 11785 11786 11787 11788 11789 11790 11791 11792 11793 11794 11795 11796 11797 11798 11799 11800 11801 11802 11803 11804 11805 11806 11807 11808 11809 11810 11811 11812 11813 11814 11815 11816 11817 11818 11819 11820 11821 11822 11823 11824 11825 11826 11827 11828 11829 11830 11831 11832 11833 11834 11835 11836 11837 11838 11839 11840 11841 11842 11843 11844 11845 11846 11847 11848 11849 11850 11851 11852 11853 11854 11855 11856 11857 11858 11859 11860 11861 11862 11863 11864 11865 11866 11867 11868 11869 11870 11871 11872 11873 11874 11875 11876 11877 11878 11879 11880 11881 11882 11883 11884 11885 11886 11887 11888 11889 11890 11891 11892 11893 11894 11895 11896 11897 11898 11899 11900 11901 11902 11903 11904 11905 11906 11907 11908 11909 11910 11911 11912 11913 11914 11915 11916 11917 11918 11919 11920 11921 11922 11923 11924 11925 11926 11927 11928 11929 11930 11931 11932 11933 11934 11935 11936 11937 11938 11939 11940 11941 11942 11943 11944 11945 11946 11947 11948 11949 11950 11951 11952 11953 11954 11955 11956 11957 11958 11959 11960 11961 11962 11963 11964 11965 11966 11967 11968 11969 11970 11971 11972 11973 11974 11975 11976 11977 11978 11979 11980 11981 11982 11983 11984 11985 11986 11987 11988 11989 11990 11991 11992 11993 11994 11995 11996 11997 11998 11999 12000 12001 12002 12003 12004 12005 12006 12007 12008 12009 12010 12011 12012 12013 12014 12015 12016 12017 12018 12019 12020 12021 12022 12023 12024 12025 12026 12027 12028 12029 12030 12031 12032 12033 12034 12035 12036 12037 12038 12039 12040 12041 12042 12043 12044 12045 12046 12047 12048 12049 12050 12051 12052 12053 12054 12055 12056 12057 12058 12059 12060 12061 12062 12063 12064 12065 12066 12067 12068 12069 12070 12071 12072 12073 12074 12075 12076 12077 12078 12079 12080 12081 12082 12083 12084 12085 12086 12087 12088 12089 12090 12091 12092 12093 12094 12095 12096 12097 12098 12099 12100 12101 12102 12103 12104 12105 12106 12107 12108 12109 12110 12111 12112 12113 12114 12115 12116 12117 12118 12119 12120 12121 12122 12123 12124 12125 12126 12127 12128 12129 12130 12131 12132 12133 12134 12135 12136 12137 12138 12139 12140 12141 12142 12143 12144 12145 12146 12147 12148 12149 12150 12151 12152 12153 12154 12155 12156 12157 12158 12159 12160 12161 12162 12163 12164 12165 12166 12167 12168 12169 12170 12171 12172 12173 12174 12175 12176 12177 12178 12179 12180 12181 12182 12183 12184 12185 12186 12187 12188 12189 12190 12191 12192 12193 12194 12195 12196 12197 12198 12199 12200 12201 12202 12203 12204 12205 12206 12207 12208 12209 12210 12211 12212 12213 12214 12215 12216 12217 12218 12219 12220 12221 12222 12223 12224 12225 12226 12227 12228 12229 12230 12231 12232 12233 12234 12235 12236 12237 12238 12239 12240 12241 12242 12243 12244 12245 12246 12247 12248 12249 12250 12251 12252 12253 12254 12255 12256 12257 12258 12259 12260 12261 12262 12263 12264 12265 12266 12267 12268 12269 12270 12271 12272 12273 12274 12275 12276 12277 12278 12279 12280 12281 12282 12283 12284 12285 12286 12287 12288 12289 12290 12291 12292 12293 12294 12295 12296 12297 12298 12299 12300 12301 12302 12303 12304 12305 12306 12307 12308 12309 12310 12311 12312 12313 12314 12315 12316 12317 12318 12319 12320 12321 12322 12323 12324 12325 12326 12327 12328 12329 12330 12331 12332 12333 12334 12335 12336 12337 12338 12339 12340 12341 12342 12343 12344 12345 12346 12347 12348 12349 12350 12351 12352 12353 12354 12355 12356 12357 12358 12359 12360 12361 12362 12363 12364 12365 12366 12367 12368 12369 12370 12371 12372 12373 12374 12375 12376 12377 12378 12379 12380 12381 12382 12383 12384 12385 12386 12387 12388 12389 12390 12391 12392 12393 12394 12395 12396 12397 12398 12399 12400 12401 12402 12403 12404 12405 12406 12407 12408 12409 12410 12411 12412 12413 12414 12415 12416 12417 12418 12419 12420 12421 12422 12423 12424 12425 12426 12427 12428 12429 12430 12431 12432 12433 12434 12435 12436 12437 12438 12439 12440 12441 12442 12443 12444 12445 12446 12447 12448 12449 12450 12451 12452 12453 12454 12455 12456 12457 12458 12459 12460 12461 12462 12463 12464 12465 12466 12467 12468 12469 12470 12471 12472 12473 12474 12475 12476 12477 12478 12479 12480 12481 12482 12483 12484 12485 12486 12487 12488 12489 12490 12491 12492 12493 12494 12495 12496 12497 12498 12499 12500 12501 12502 12503 12504 12505 12506 12507 12508 12509 12510 12511 12512 12513 12514 12515 12516 12517 12518 12519 12520 12521 12522 12523 12524 12525 12526 12527 12528 12529 12530 12531 12532 12533 12534 12535 12536 12537 12538 12539 12540 12541 12542 12543 12544 12545 12546 12547 12548 12549 12550 12551 12552 12553 12554 12555 12556 12557 12558 12559 12560 12561 12562 12563 12564 12565 12566 12567 12568 12569 12570 12571 12572 12573 12574 12575 12576 12577 12578 12579 12580 12581 12582 12583 12584 12585 12586 12587 12588 12589 12590 12591 12592 12593 12594 12595 12596 12597 12598 12599 12600 12601 12602 12603 12604 12605 12606 12607 12608 12609 12610 12611 12612 12613 12614 12615 12616 12617 12618 12619 12620 12621 12622 12623 12624 12625 12626 12627 12628 12629 12630 12631 12632 12633 12634 12635 12636 12637 12638 12639 12640 12641 12642 12643 12644 12645 12646 12647 12648 12649 12650 12651 12652 12653 12654 12655 12656 12657 12658 12659 12660 12661 12662 12663 12664 12665 12666 12667 12668 12669 12670 12671 12672 12673 12674 12675 12676 12677 12678 12679 12680 12681 12682 12683 12684 12685 12686 12687 12688 12689 12690 12691 12692 12693 12694 12695 12696 12697 12698 12699 12700 12701 12702 12703 12704 12705 12706 12707 12708 12709 12710 12711 12712 12713 12714 12715 12716 12717 12718 12719 12720 12721 12722 12723 12724 12725 12726 12727 12728 12729 12730 12731 12732 12733 12734 12735 12736 12737 12738 12739 12740 12741 12742 12743 12744 12745 12746 12747 12748 12749 12750 12751 12752 12753 12754 12755 12756 12757 12758 12759 12760 12761 12762 12763 12764 12765 12766 12767 12768 12769 12770 12771 12772 12773 12774 12775 12776 12777 12778 12779 12780 12781 12782 12783 12784 12785 12786 12787 12788 12789 12790 12791 12792 12793 12794 12795 12796 12797 12798 12799 12800 12801 12802 12803 12804 12805 12806 12807 12808 12809 12810 12811 12812 12813 12814 12815 12816 12817 12818 12819 12820 12821 12822 12823 12824 12825 12826 12827 12828 12829 12830 12831 12832 12833 12834 12835 12836 12837 12838 12839 12840 12841 12842 12843 12844 12845 12846 12847 12848 12849 12850 12851 12852 12853 12854 12855 12856 12857 12858 12859 12860 12861 12862 12863 12864 12865 12866 12867 12868 12869 12870 12871 12872 12873 12874 12875 12876 12877 12878 12879 12880 12881 12882 12883 12884 12885 12886 12887 12888 12889 12890 12891 12892 12893 12894 12895 12896 12897 12898 12899 12900 12901 12902 12903 12904 12905 12906 12907 12908 12909 12910 12911 12912 12913 12914 12915 12916 12917 12918 12919 12920 12921 12922 12923 12924 12925 12926 12927 12928 12929 12930 12931 12932 12933 12934 12935 12936 12937 12938 12939 12940 12941 12942 12943 12944 12945 12946 12947 12948 12949 12950 12951 12952 12953 12954 12955 12956 12957 12958 12959 12960 12961 12962 12963 12964 12965 12966 12967 12968 12969 12970 12971 12972 12973 12974 12975 12976 12977 12978 12979 12980 12981 12982 12983 12984 12985 12986 12987 12988 12989 12990 12991 12992 12993 12994 12995 12996 12997 12998 12999 13000 13001 13002 13003 13004 13005 13006 13007 13008 13009 13010 13011 13012 13013 13014 13015 13016 13017 13018 13019 13020 13021 13022 13023 13024 13025 13026 13027 13028 13029 13030 13031 13032 13033 13034 13035 13036 13037 13038 13039 13040 13041 13042 13043 13044 13045 13046 13047 13048 13049 13050 13051 13052 13053 13054 13055 13056 13057 13058 13059 13060 13061 13062 13063 13064 13065 13066 13067 13068 13069 13070 13071 13072 13073 13074 13075 13076 13077 13078 13079 13080 13081 13082 13083 13084 13085 13086 13087 13088 13089 13090 13091 13092 13093 13094 13095 13096 13097 13098 13099 13100 13101 13102 13103 13104 13105 13106 13107 13108 13109 13110 13111 13112 13113 13114 13115 13116 13117 13118 13119 13120 13121 13122 13123 13124 13125 13126 13127 13128 13129 13130 13131 13132 13133 13134 13135 13136 13137 13138 13139 13140 13141 13142 13143 13144 13145 13146 13147 13148 13149 13150 13151 13152 13153 13154 13155 13156 13157 13158 13159 13160 13161 13162 13163 13164 13165 13166 13167 13168 13169 13170 13171 13172 13173 13174 13175 13176 13177 13178 13179 13180 13181 13182 13183 13184 13185 13186 13187 13188 13189 13190 13191 13192 13193 13194 13195 13196 13197 13198 13199 13200 13201 13202 13203 13204 13205 13206 13207 13208 13209 13210 13211 13212 13213 13214 13215 13216 13217 13218 13219 13220 13221 13222 13223 13224 13225 13226 13227 13228 13229 13230 13231 13232 13233 13234 13235 13236 13237 13238 13239 13240 13241 13242 13243 13244 13245 13246 13247 13248 13249 13250 13251 13252 13253 13254 13255 13256 13257 13258 13259 13260 13261 13262 13263 13264 13265 13266 13267 13268 13269 13270 13271 13272 13273 13274 13275 13276 13277 13278 13279 13280 13281 13282 13283 13284 13285 13286 13287 13288 13289 13290 13291 13292 13293 13294 13295 13296 13297 13298 13299 13300 13301 13302 13303 13304 13305 13306 13307 13308 13309 13310 13311 13312 13313 13314 13315 13316 13317 13318 13319 13320 13321 13322 13323 13324 13325 13326 13327 13328 13329 13330 13331 13332 13333 13334 13335 13336 13337 13338 13339 13340 13341 13342 13343 13344 13345 13346 13347 13348 13349 13350 13351 13352 13353 13354 13355 13356 13357 13358 13359 13360 13361 13362 13363 13364 13365 13366 13367 13368 13369 13370 13371 13372 13373 13374 13375 13376 13377 13378 13379 13380 13381 13382 13383 13384 13385 13386 13387 13388 13389 13390 13391 13392 13393 13394 13395 13396 13397 13398 13399 13400 13401 13402 13403 13404 13405 13406 13407 13408 13409 13410 13411 13412 13413 13414 13415 13416 13417 13418 13419 13420 13421 13422 13423 13424 13425 13426 13427 13428 13429 13430 13431 13432 13433 13434 13435 13436 13437 13438 13439 13440 13441 13442 13443 13444 13445 13446 13447 13448 13449 13450 13451 13452 13453 13454 13455 13456 13457 13458 13459 13460 13461 13462 13463 13464 13465 13466 13467 13468 13469 13470 13471 13472 13473 13474 13475 13476 13477 13478 13479 13480 13481 13482 13483 13484 13485 13486 13487 13488 13489 13490 13491 13492 13493 13494 13495 13496 13497 13498 13499 13500 13501 13502 13503 13504 13505 13506 13507 13508 13509 13510 13511 13512 13513 13514 13515 13516 13517 13518 13519 13520 13521 13522 13523 13524 13525 13526 13527 13528 13529 13530 13531 13532 13533 13534 13535 13536 13537 13538 13539 13540 13541 13542 13543 13544 13545 13546 13547 13548 13549 13550 13551 13552 13553 13554 13555 13556 13557 13558 13559 13560 13561 13562 13563 13564 13565 13566 13567 13568 13569 13570 13571 13572 13573 13574 13575 13576 13577 13578 13579 13580 13581 13582 13583 13584 13585 13586 13587 13588 13589 13590 13591 13592 13593 13594 13595 13596 13597 13598 13599 13600 13601 13602 13603 13604 13605 13606 13607 13608 13609 13610 13611 13612 13613 13614 13615 13616 13617 13618 13619 13620 13621 13622 13623 13624 13625 13626 13627 13628 13629 13630 13631 13632 13633 13634 13635 13636 13637 13638 13639 13640 13641 13642 13643 13644 13645 13646 13647 13648 13649 13650 13651 13652 13653 13654 13655 13656 13657 13658 13659 13660 13661 13662 13663 13664 13665 13666 13667 13668 13669 13670 13671 13672 13673 13674 13675 13676 13677 13678 13679 13680 13681 13682 13683 13684 13685 13686 13687 13688 13689 13690 13691 13692 13693 13694 13695 13696 13697 13698 13699 13700 13701 13702 13703 13704 13705 13706 13707 13708 13709 13710 13711 13712 13713 13714 13715 13716 13717 13718 13719 13720 13721 13722 13723 13724 13725 13726 13727 13728 13729 13730 13731 13732 13733 13734 13735 13736 13737 13738 13739 13740 13741 13742 13743 13744 13745 13746 13747 13748 13749 13750 13751 13752 13753 13754 13755 13756 13757 13758 13759 13760 13761 13762 13763 13764 13765 13766 13767 13768 13769 13770 13771 13772 13773 13774 13775 13776 13777 13778 13779 13780 13781 13782 13783 13784 13785 13786 13787 13788 13789 13790 13791 13792 13793 13794 13795 13796 13797 13798 13799 13800 13801 13802 13803 13804 13805 13806 13807 13808 13809 13810 13811 13812 13813 13814 13815 13816 13817 13818 13819 13820 13821 13822 13823 13824 13825 13826 13827 13828 13829 13830 13831 13832 13833 13834 13835 13836 13837 13838 13839 13840 13841 13842 13843 13844 13845 13846 13847 13848 13849 13850 13851 13852 13853 13854 13855 13856 13857 13858 13859 13860 13861 13862 13863 13864 13865 13866 13867 13868 13869 13870 13871 13872 13873 13874 13875 13876 13877 13878 13879 13880 13881 13882 13883 13884 13885 13886 13887 13888 13889 13890 13891 13892 13893 13894 13895 13896 13897 13898 13899 13900 13901 13902 13903 13904 13905 13906 13907 13908 13909 13910 13911 13912 13913 13914 13915 13916 13917 13918 13919 13920 13921 13922 13923 13924 13925 13926 13927 13928 13929 13930 13931 13932 13933 13934 13935 13936 13937 13938 13939 13940 13941 13942 13943 13944 13945 13946 13947 13948 13949 13950 13951 13952 13953 13954 13955 13956 13957 13958 13959 13960 13961 13962 13963 13964 13965 13966 13967 13968 13969 13970 13971 13972 13973 13974 13975 13976 13977 13978 13979 13980 13981 13982 13983 13984 13985 13986 13987 13988 13989 13990 13991 13992 13993 13994 13995 13996 13997 13998 13999 14000 14001 14002 14003 14004 14005 14006 14007 14008 14009 14010 14011 14012 14013 14014 14015 14016 14017 14018 14019 14020 14021 14022 14023 14024 14025 14026 14027 14028 14029 14030 14031 14032 14033 14034 14035 14036 14037 14038 14039 14040 14041 14042 14043 14044 14045 14046 14047 14048 14049 14050 14051 14052 14053 14054 14055 14056 14057 14058 14059 14060 14061 14062 14063 14064 14065 14066 14067 14068 14069 14070 14071 14072 14073 14074 14075 14076 14077 14078 14079 14080 14081 14082 14083 14084 14085 14086 14087 14088 14089 14090 14091 14092 14093 14094 14095 14096 14097 14098 14099 14100 14101 14102 14103 14104 14105 14106 14107 14108 14109 14110 14111 14112 14113 14114 14115 14116 14117 14118 14119 14120 14121 14122 14123 14124 14125 14126 14127 14128 14129 14130 14131 14132 14133 14134 14135 14136 14137 14138 14139 14140 14141 14142 14143 14144 14145 14146 14147 14148 14149 14150 14151 14152 14153 14154 14155 14156 14157 14158 14159 14160 14161 14162 14163 14164 14165 14166 14167 14168 14169 14170 14171 14172 14173 14174 14175 14176 14177 14178 14179 14180 14181 14182 14183 14184 14185 14186 14187 14188 14189 14190 14191 14192 14193 14194 14195 14196 14197 14198 14199 14200 14201 14202 14203 14204 14205 14206 14207 14208 14209 14210 14211 14212 14213 14214 14215 14216 14217 14218 14219 14220 14221 14222 14223 14224 14225 14226 14227 14228 14229 14230 14231 14232 14233 14234 14235 14236 14237 14238 14239 14240 14241 14242 14243 14244 14245 14246 14247 14248 14249 14250 14251 14252 14253 14254 14255 14256 14257 14258 14259 14260 14261 14262 14263 14264 14265 14266 14267 14268 14269 14270 14271 14272 14273 14274 14275 14276 14277 14278 14279 14280 14281 14282 14283 14284 14285 14286 14287 14288 14289 14290 14291 14292 14293 14294 14295 14296 14297 14298 14299 14300 14301 14302 14303 14304 14305 14306 14307 14308 14309 14310 14311 14312 14313 14314 14315 14316 14317 14318 14319 14320 14321 14322 14323 14324 14325 14326 14327 14328 14329 14330 14331 14332 14333 14334 14335 14336 14337 14338 14339 14340 14341 14342 14343 14344 14345 14346 14347 14348 14349 14350 14351 14352 14353 14354 14355 14356 14357 14358 14359 14360 14361 14362 14363 14364 14365 14366 14367 14368 14369 14370 14371 14372 14373 14374 14375 14376 14377 14378 14379 14380 14381 14382 14383 14384 14385 14386 14387 14388 14389 14390 14391 14392 14393 14394 14395 14396 14397 14398 14399 14400 14401 14402 14403 14404 14405 14406 14407 14408 14409 14410 14411 14412 14413 14414 14415 14416 14417 14418 14419 14420 14421 14422 14423 14424 14425 14426 14427 14428 14429 14430 14431 14432 14433 14434 14435 14436 14437 14438 14439 14440 14441 14442 14443 14444 14445 14446 14447 14448 14449 14450 14451 14452 14453 14454 14455 14456 14457 14458 14459 14460 14461 14462 14463 14464 14465 14466 14467 14468 14469 14470 14471 14472 14473 14474 14475 14476 14477 14478 14479 14480 14481 14482 14483 14484 14485 14486 14487 14488 14489 14490 14491 14492 14493 14494 14495 14496 14497 14498 14499 14500 14501 14502 14503 14504 14505 14506 14507 14508 14509 14510 14511 14512 14513 14514 14515 14516 14517 14518 14519 14520 14521 14522 14523 14524 14525 14526 14527 14528 14529 14530 14531 14532 14533 14534 14535 14536 14537 14538 14539 14540 14541 14542 14543 14544 14545 14546 14547 14548 14549 14550 14551 14552 14553 14554 14555 14556 14557 14558 14559 14560 14561 14562 14563 14564 14565 14566 14567 14568 14569 14570 14571 14572 14573 14574 14575 14576 14577 14578 14579 14580 14581 14582 14583 14584 14585 14586 14587 14588 14589 14590 14591 14592 14593 14594 14595 14596 14597 14598 14599 14600 14601 14602 14603 14604 14605 14606 14607 14608 14609 14610 14611 14612 14613 14614 14615 14616 14617 14618 14619 14620 14621 14622 14623 14624 14625 14626 14627 14628 14629 14630 14631 14632 14633 14634 14635 14636 14637 14638 14639 14640 14641 14642 14643 14644 14645 14646 14647 14648 14649 14650 14651 14652 14653 14654 14655 14656 14657 14658 14659 14660 14661 14662 14663 14664 14665 14666 14667 14668 14669 14670 14671 14672 14673 14674 14675 14676 14677 14678 14679 14680 14681 14682 14683 14684 14685 14686 14687 14688 14689 14690 14691 14692 14693 14694 14695 14696 14697 14698 14699 14700 14701 14702 14703 14704 14705 14706 14707 14708 14709 14710 14711 14712 14713 14714 14715 14716 14717 14718 14719 14720 14721 14722 14723 14724 14725 14726 14727 14728 14729 14730 14731 14732 14733 14734 14735 14736 14737 14738 14739 14740 14741 14742 14743 14744 14745 14746 14747 14748 14749 14750 14751 14752 14753 14754 14755 14756 14757 14758 14759 14760 14761 14762 14763 14764 14765 14766 14767 14768 14769 14770 14771 14772 14773 14774 14775 14776 14777 14778 14779 14780 14781 14782 14783 14784 14785 14786 14787 14788 14789 14790 14791 14792 14793 14794 14795 14796 14797 14798 14799 14800 14801 14802 14803 14804 14805 14806 14807 14808 14809 14810 14811 14812 14813 14814 14815 14816 14817 14818 14819 14820 14821 14822 14823 14824 14825 14826 14827 14828 14829 14830 14831 14832 14833 14834 14835 14836 14837 14838 14839 14840 14841 14842 14843 14844 14845 14846 14847 14848 14849 14850 14851 14852 14853 14854 14855 14856 14857 14858 14859 14860 14861 14862 14863 14864 14865 14866 14867 14868 14869 14870 14871 14872 14873 14874 14875 14876 14877 14878 14879 14880 14881 14882 14883 14884 14885 14886 14887 14888 14889 14890 14891 14892 14893 14894 14895 14896 14897 14898 14899 14900 14901 14902 14903 14904 14905 14906 14907 14908 14909 14910 14911 14912 14913 14914 14915 14916 14917 14918 14919 14920 14921 14922 14923 14924 14925 14926 14927 14928 14929 14930 14931 14932 14933 14934 14935 14936 14937 14938 14939 14940 14941 14942 14943 14944 14945 14946 14947 14948 14949 14950 14951 14952 14953 14954 14955 14956 14957 14958 14959 14960 14961 14962 14963 14964 14965 14966 14967 14968 14969 14970 14971 14972 14973 14974 14975 14976 14977 14978 14979 14980 14981 14982 14983 14984 14985 14986 14987 14988 14989 14990 14991 14992 14993 14994 14995 14996 14997 14998 14999 15000 15001 15002 15003 15004 15005 15006 15007 15008 15009 15010 15011 15012 15013 15014 15015 15016 15017 15018 15019 15020 15021 15022 15023 15024 15025 15026 15027 15028 15029 15030 15031 15032 15033 15034 15035 15036 15037 15038 15039 15040 15041 15042 15043 15044 15045 15046 15047 15048 15049 15050 15051 15052 15053 15054 15055 15056 15057 15058 15059 15060 15061 15062 15063 15064 15065 15066 15067 15068 15069 15070 15071 15072 15073 15074 15075 15076 15077 15078 15079 15080 15081 15082 15083 15084 15085 15086 15087 15088 15089 15090 15091 15092 15093 15094 15095 15096 15097 15098 15099 15100 15101 15102 15103 15104 15105 15106 15107 15108 15109 15110 15111 15112 15113 15114 15115 15116 15117 15118 15119 15120 15121 15122 15123 15124 15125 15126 15127 15128 15129 15130 15131 15132 15133 15134 15135 15136 15137 15138 15139 15140 15141 15142 15143 15144 15145 15146 15147 15148 15149 15150 15151 15152 15153 15154 15155 15156 15157 15158 15159 15160 15161 15162 15163 15164 15165 15166 15167 15168 15169 15170 15171 15172 15173 15174 15175 15176 15177 15178 15179 15180 15181 15182 15183 15184 15185 15186 15187 15188 15189 15190 15191 15192 15193 15194 15195 15196 15197 15198 15199 15200 15201 15202 15203 15204 15205 15206 15207 15208 15209 15210 15211 15212 15213 15214 15215 15216 15217 15218 15219 15220 15221 15222 15223 15224 15225 15226 15227 15228 15229 15230 15231 15232 15233 15234 15235 15236 15237 15238 15239 15240 15241 15242 15243 15244 15245 15246 15247 15248 15249 15250 15251 15252 15253 15254 15255 15256 15257 15258 15259 15260 15261 15262 15263 15264 15265 15266 15267 15268 15269 15270 15271 15272 15273 15274 15275 15276 15277 15278 15279 15280 15281 15282 15283 15284 15285 15286 15287 15288 15289 15290 15291 15292 15293 15294 15295 15296 15297 15298 15299 15300 15301 15302 15303 15304 15305 15306 15307 15308 15309 15310 15311 15312 15313 15314 15315 15316 15317 15318 15319 15320 15321 15322 15323 15324 15325 15326 15327 15328 15329 15330 15331 15332 15333 15334 15335 15336 15337 15338 15339 15340 15341 15342 15343 15344 15345 15346 15347 15348 15349 15350 15351 15352 15353 15354 15355 15356 15357 15358 15359 15360 15361 15362 15363 15364 15365 15366 15367 15368 15369 15370 15371 15372 15373 15374 15375 15376 15377 15378 15379 15380 15381 15382 15383 15384 15385 15386 15387 15388 15389 15390 15391 15392 15393 15394 15395 15396 15397 15398 15399 15400 15401 15402 15403 15404 15405 15406 15407 15408 15409 15410 15411 15412 15413 15414 15415 15416 15417 15418 15419 15420 15421 15422 15423 15424 15425 15426 15427 15428 15429 15430 15431 15432 15433 15434 15435 15436 15437 15438 15439 15440 15441 15442 15443 15444 15445 15446 15447 15448 15449 15450 15451 15452 15453 15454 15455 15456 15457 15458 15459 15460 15461 15462 15463 15464 15465 15466 15467 15468 15469 15470 15471 15472 15473 15474 15475 15476 15477 15478 15479 15480 15481 15482 15483 15484 15485 15486 15487 15488 15489 15490 15491 15492 15493 15494 15495 15496 15497 15498 15499 15500 15501 15502 15503 15504 15505 15506 15507 15508 15509 15510 15511 15512 15513 15514 15515 15516 15517 15518 15519 15520 15521 15522 15523 15524 15525 15526 15527 15528 15529 15530 15531 15532 15533 15534 15535 15536 15537 15538 15539 15540 15541 15542 15543 15544 15545 15546 15547 15548 15549 15550 15551 15552 15553 15554 15555 15556 15557 15558 15559 15560 15561 15562 15563 15564 15565 15566 15567 15568 15569 15570 15571 15572 15573 15574 15575 15576 15577 15578 15579 15580 15581 15582 15583 15584 15585 15586 15587 15588 15589 15590 15591 15592 15593 15594 15595 15596 15597 15598 15599 15600 15601 15602 15603 15604 15605 15606 15607 15608 15609 15610 15611 15612 15613 15614 15615 15616 15617 15618 15619 15620 15621 15622 15623 15624 15625 15626 15627 15628 15629 15630 15631 15632 15633 15634 15635 15636 15637 15638 15639 15640 15641 15642 15643 15644 15645 15646 15647 15648 15649 15650 15651 15652 15653 15654 15655 15656 15657 15658 15659 15660 15661 15662 15663 15664 15665 15666 15667 15668 15669 15670 15671 15672 15673 15674 15675 15676 15677 15678 15679 15680 15681 15682 15683 15684 15685 15686 15687 15688 15689 15690 15691 15692 15693 15694 15695 15696 15697 15698 15699 15700 15701 15702 15703 15704 15705 15706 15707 15708 15709 15710 15711 15712 15713 15714 15715 15716 15717 15718 15719 15720 15721 15722 15723 15724 15725 15726 15727 15728 15729 15730 15731 15732 15733 15734 15735 15736 15737 15738 15739 15740 15741 15742 15743 15744 15745 15746 15747 15748 15749 15750 15751 15752 15753 15754 15755 15756 15757 15758 15759 15760 15761 15762 15763 15764 15765 15766 15767 15768 15769 15770 15771 15772 15773 15774 15775 15776 15777 15778 15779 15780 15781 15782 15783 15784 15785 15786 15787 15788 15789 15790 15791 15792 15793 15794 15795 15796 15797 15798 15799 15800 15801 15802 15803 15804 15805 15806 15807 15808 15809 15810 15811 15812 15813 15814 15815 15816 15817 15818 15819 15820 15821 15822 15823 15824 15825 15826 15827 15828 15829 15830 15831 15832 15833 15834 15835 15836 15837 15838 15839 15840 15841 15842 15843 15844 15845 15846 15847 15848 15849 15850 15851 15852 15853 15854 15855 15856 15857 15858 15859 15860 15861 15862 15863 15864 15865 15866 15867 15868 15869 15870 15871 15872 15873 15874 15875 15876 15877 15878 15879 15880 15881 15882 15883 15884 15885 15886 15887 15888 15889 15890 15891 15892 15893 15894 15895 15896 15897 15898 15899 15900 15901 15902 15903 15904 15905 15906 15907 15908 15909 15910 15911 15912 15913 15914 15915 15916 15917 15918 15919 15920 15921 15922 15923 15924 15925 15926 15927 15928 15929 15930 15931 15932 15933 15934 15935 15936 15937 15938 15939 15940 15941 15942 15943 15944 15945 15946 15947 15948 15949 15950 15951 15952 15953 15954 15955 15956 15957 15958 15959 15960 15961 15962 15963 15964 15965 15966 15967 15968 15969 15970 15971 15972 15973 15974 15975 15976 15977 15978 15979 15980 15981 15982 15983 15984 15985 15986 15987 15988 15989 15990 15991 15992 15993 15994 15995 15996 15997 15998 15999 16000 16001 16002 16003 16004 16005 16006 16007 16008 16009 16010 16011 16012 16013 16014 16015 16016 16017 16018 16019 16020 16021 16022 16023 16024 16025 16026 16027 16028 16029 16030 16031 16032 16033 16034 16035 16036 16037 16038 16039 16040 16041 16042 16043 16044 16045 16046 16047 16048 16049 16050 16051 16052 16053 16054 16055 16056 16057 16058 16059 16060 16061 16062 16063 16064 16065 16066 16067 16068 16069 16070 16071 16072 16073 16074 16075 16076 16077 16078 16079 16080 16081 16082 16083 16084 16085 16086 16087 16088 16089 16090 16091 16092 16093 16094 16095 16096 16097 16098 16099 16100 16101 16102 16103 16104 16105 16106 16107 16108 16109 16110 16111 16112 16113 16114 16115 16116 16117 16118 16119 16120 16121 16122 16123 16124 16125 16126 16127 16128 16129 16130 16131 16132 16133 16134 16135 16136 16137 16138 16139 16140 16141 16142 16143 16144 16145 16146 16147 16148 16149 16150 16151 16152 16153 16154 16155 16156 16157 16158 16159 16160 16161 16162 16163 16164 16165 16166 16167 16168 16169 16170 16171 16172 16173 16174 16175 16176 16177 16178 16179 16180 16181 16182 16183 16184 16185 16186 16187 16188 16189 16190 16191 16192 16193 16194 16195 16196 16197 16198 16199 16200 16201 16202 16203 16204 16205 16206 16207 16208 16209 16210 16211 16212 16213 16214 16215 16216 16217 16218 16219 16220 16221 16222 16223 16224 16225 16226 16227 16228 16229 16230 16231 16232 16233 16234 16235 16236 16237 16238 16239 16240 16241 16242 16243 16244 16245 16246 16247 16248 16249 16250 16251 16252 16253 16254 16255 16256 16257 16258 16259 16260 16261 16262 16263 16264 16265 16266 16267 16268 16269 16270 16271 16272 16273 16274 16275 16276 16277 16278 16279 16280 16281 16282 16283 16284 16285 16286 16287 16288 16289 16290 16291 16292 16293 16294 16295 16296 16297 16298 16299 16300 16301 16302 16303 16304 16305 16306 16307 16308 16309 16310 16311 16312 16313 16314 16315 16316 16317 16318 16319 16320 16321 16322 16323 16324 16325 16326 16327 16328 16329 16330 16331 16332 16333 16334 16335 16336 16337 16338 16339 16340 16341 16342 16343 16344 16345 16346 16347 16348 16349 16350 16351 16352 16353 16354 16355 16356 16357 16358 16359 16360 16361 16362 16363 16364 16365 16366 16367 16368 16369 16370 16371 16372 16373 16374 16375 16376 16377 16378 16379 16380 16381 16382 16383 16384 16385 16386 16387 16388 16389 16390 16391 16392 16393 16394 16395 16396 16397 16398 16399 16400 16401 16402 16403 16404 16405 16406 16407 16408 16409 16410 16411 16412 16413 16414 16415 16416 16417 16418 16419 16420 16421 16422 16423 16424 16425 16426 16427 16428 16429 16430 16431 16432 16433 16434 16435 16436 16437 16438 16439 16440 16441 16442 16443 16444 16445 16446 16447 16448 16449 16450 16451 16452 16453 16454 16455 16456 16457 16458 16459 16460 16461 16462 16463 16464 16465 16466 16467 16468 16469 16470 16471 16472 16473 16474 16475 16476 16477 16478 16479 16480 16481 16482 16483 16484 16485 16486 16487 16488 16489 16490 16491 16492 16493 16494 16495 16496 16497 16498 16499 16500 16501 16502 16503 16504 16505 16506 16507 16508 16509 16510 16511 16512 16513 16514 16515 16516 16517 16518 16519 16520 16521 16522 16523 16524 16525 16526 16527 16528 16529 16530 16531 16532 16533 16534 16535 16536 16537 16538 16539 16540 16541 16542 16543 16544 16545 16546 16547 16548 16549 16550 16551 16552 16553 16554 16555 16556 16557 16558 16559 16560 16561 16562 16563 16564 16565 16566 16567 16568 16569 16570 16571 16572 16573 16574 16575 16576 16577 16578 16579 16580 16581 16582 16583 16584 16585 16586 16587 16588 16589 16590 16591 16592 16593 16594 16595 16596 16597 16598 16599 16600 16601 16602 16603 16604 16605 16606 16607 16608 16609 16610 16611 16612 16613 16614 16615 16616 16617 16618 16619 16620 16621 16622 16623 16624 16625 16626 16627 16628 16629 16630 16631 16632 16633 16634 16635 16636 16637 16638 16639 16640 16641 16642 16643 16644 16645 16646 16647 16648 16649 16650 16651 16652 16653 16654 16655 16656 16657 16658 16659 16660 16661 16662 16663 16664 16665 16666 16667 16668 16669 16670 16671 16672 16673 16674 16675 16676 16677 16678 16679 16680 16681 16682 16683 16684 16685 16686 16687 16688 16689 16690 16691 16692 16693 16694 16695 16696 16697 16698 16699 16700 16701 16702 16703 16704 16705 16706 16707 16708 16709 16710 16711 16712 16713 16714 16715 16716 16717 16718 16719 16720 16721 16722 16723 16724 16725 16726 16727 16728 16729 16730 16731 16732 16733 16734 16735 16736 16737 16738 16739 16740 16741 16742 16743 16744 16745 16746 16747 16748 16749 16750 16751 16752 16753 16754 16755 16756 16757 16758 16759 16760 16761 16762 16763 16764 16765 16766 16767 16768 16769 16770 16771 16772 16773 16774 16775 16776 16777 16778 16779 16780 16781 16782 16783 16784 16785 16786 16787 16788 16789 16790 16791 16792 16793 16794 16795 16796 16797 16798 16799 16800 16801 16802 16803 16804 16805 16806 16807 16808 16809 16810 16811 16812 16813 16814 16815 16816 16817 16818 16819 16820 16821 16822 16823 16824 16825 16826 16827 16828 16829 16830 16831 16832 16833 16834 16835 16836 16837 16838 16839 16840 16841 16842 16843 16844 16845 16846 16847 16848 16849 16850 16851 16852 16853 16854 16855 16856 16857 16858 16859 16860 16861 16862 16863 16864 16865 16866 16867 16868 16869 16870 16871 16872 16873 16874 16875 16876 16877 16878 16879 16880 16881 16882 16883 16884 16885 16886 16887 16888 16889 16890 16891 16892 16893 16894 16895 16896 16897 16898 16899 16900 16901 16902 16903 16904 16905 16906 16907 16908 16909 16910 16911 16912 16913 16914 16915 16916 16917 16918 16919 16920 16921 16922 16923 16924 16925 16926 16927 16928 16929 16930 16931 16932 16933 16934 16935 16936 16937 16938 16939 16940 16941 16942 16943 16944 16945 16946 16947 16948 16949 16950 16951 16952 16953 16954 16955 16956 16957 16958 16959 16960 16961 16962 16963 16964 16965 16966 16967 16968 16969 16970 16971 16972 16973 16974 16975 16976 16977 16978 16979 16980 16981 16982 16983 16984 16985 16986 16987 16988 16989 16990 16991 16992 16993 16994 16995 16996 16997 16998 16999 17000 17001 17002 17003 17004 17005 17006 17007 17008 17009 17010 17011 17012 17013 17014 17015 17016 17017 17018 17019 17020 17021 17022 17023 17024 17025 17026 17027 17028 17029 17030 17031 17032 17033 17034 17035 17036 17037 17038 17039 17040 17041 17042 17043 17044 17045 17046 17047 17048 17049 17050 17051 17052 17053 17054 17055 17056 17057 17058 17059 17060 17061 17062 17063 17064 17065 17066 17067 17068 17069 17070 17071 17072 17073 17074 17075 17076 17077 17078 17079 17080 17081 17082 17083 17084 17085 17086 17087 17088 17089 17090 17091 17092 17093 17094 17095 17096 17097 17098 17099 17100 17101 17102 17103 17104 17105 17106 17107 17108 17109 17110 17111 17112 17113 17114 17115 17116 17117 17118 17119 17120 17121 17122 17123 17124 17125 17126 17127 17128 17129 17130 17131 17132 17133 17134 17135 17136 17137 17138 17139 17140 17141 17142 17143 17144 17145 17146 17147 17148 17149 17150 17151 17152 17153 17154 17155 17156 17157 17158 17159 17160 17161 17162 17163 17164 17165 17166 17167 17168 17169 17170 17171 17172 17173 17174 17175 17176 17177 17178 17179 17180 17181 17182 17183 17184 17185 17186 17187 17188 17189 17190 17191 17192 17193 17194 17195 17196 17197 17198 17199 17200 17201 17202 17203 17204 17205 17206 17207 17208 17209 17210 17211 17212 17213 17214 17215 17216 17217 17218 17219 17220 17221 17222 17223 17224 17225 17226 17227 17228 17229 17230 17231 17232 17233 17234 17235 17236 17237 17238 17239 17240 17241 17242 17243 17244 17245 17246 17247 17248 17249 17250 17251 17252 17253 17254 17255 17256 17257 17258 17259 17260 17261 17262 17263 17264 17265 17266 17267 17268 17269 17270 17271 17272 17273 17274 17275 17276 17277 17278 17279 17280 17281 17282 17283 17284 17285 17286 17287 17288 17289 17290 17291 17292 17293 17294 17295 17296 17297 17298 17299 17300 17301 17302 17303 17304 17305 17306 17307 17308 17309 17310 17311 17312 17313 17314 17315 17316 17317 17318 17319 17320 17321 17322 17323 17324 17325 17326 17327 17328 17329 17330 17331 17332 17333 17334 17335 17336 17337 17338 17339 17340 17341 17342 17343 17344 17345 17346 17347 17348 17349 17350 17351 17352 17353 17354 17355 17356 17357 17358 17359 17360 17361 17362 17363 17364 17365 17366 17367 17368 17369 17370 17371 17372 17373 17374 17375 17376 17377 17378 17379 17380 17381 17382 17383 17384 17385 17386 17387 17388 17389 17390 17391 17392 17393 17394 17395 17396 17397 17398 17399 17400 17401 17402 17403 17404 17405 17406 17407 17408 17409 17410 17411 17412 17413 17414 17415 17416 17417 17418 17419 17420 17421 17422 17423 17424 17425 17426 17427 17428 17429 17430 17431 17432 17433 17434 17435 17436 17437 17438 17439 17440 17441 17442 17443 17444 17445 17446 17447 17448 17449 17450 17451 17452 17453 17454 17455 17456 17457 17458 17459 17460 17461 17462 17463 17464 17465 17466 17467 17468 17469 17470 17471 17472 17473 17474 17475 17476 17477 17478 17479 17480 17481 17482 17483 17484 17485 17486 17487 17488 17489 17490 17491 17492 17493 17494 17495 17496 17497 17498 17499 17500 17501 17502 17503 17504 17505 17506 17507 17508 17509 17510 17511 17512 17513 17514 17515 17516 17517 17518 17519 17520 17521 17522 17523 17524 17525 17526 17527 17528 17529 17530 17531 17532 17533 17534 17535 17536 17537 17538 17539 17540 17541 17542 17543 17544 17545 17546 17547 17548 17549 17550 17551 17552 17553 17554 17555 17556 17557 17558 17559 17560 17561 17562 17563 17564 17565 17566 17567 17568 17569 17570 17571 17572 17573 17574 17575 17576 17577 17578 17579 17580 17581 17582 17583 17584 17585 17586 17587 17588 17589 17590 17591 17592 17593 17594 17595 17596 17597 17598 17599 17600 17601 17602 17603 17604 17605 17606 17607 17608 17609 17610 17611 17612 17613 17614 17615 17616 17617 17618 17619 17620 17621 17622 17623 17624 17625 17626 17627 17628 17629 17630 17631 17632 17633 17634 17635 17636 17637 17638 17639 17640 17641 17642 17643 17644 17645 17646 17647 17648 17649 17650 17651 17652 17653 17654 17655 17656 17657 17658 17659 17660 17661 17662 17663 17664 17665 17666 17667 17668 17669 17670 17671 17672 17673 17674 17675 17676 17677 17678 17679 17680 17681 17682 17683 17684 17685 17686 17687 17688 17689 17690 17691 17692 17693 17694 17695 17696 17697 17698 17699 17700 17701 17702 17703 17704 17705 17706 17707 17708 17709 17710 17711 17712 17713 17714 17715 17716 17717 17718 17719 17720 17721 17722 17723 17724 17725 17726 17727 17728 17729 17730 17731 17732 17733 17734 17735 17736 17737 17738 17739 17740 17741 17742 17743 17744 17745 17746 17747 17748 17749 17750 17751 17752 17753 17754 17755 17756 17757 17758 17759 17760 17761 17762 17763 17764 17765 17766 17767 17768 17769 17770 17771 17772 17773 17774 17775 17776 17777 17778 17779 17780 17781 17782 17783 17784 17785 17786 17787 17788 17789 17790 17791 17792 17793 17794 17795 17796 17797 17798 17799 17800 17801 17802 17803 17804 17805 17806 17807 17808 17809 17810 17811 17812 17813 17814 17815 17816 17817 17818 17819 17820 17821 17822 17823 17824 17825 17826 17827 17828 17829 17830 17831 17832 17833 17834 17835 17836 17837 17838 17839 17840 17841 17842 17843 17844 17845 17846 17847 17848 17849 17850 17851 17852 17853 17854 17855 17856 17857 17858 17859 17860 17861 17862 17863 17864 17865 17866 17867 17868 17869 17870 17871 17872 17873 17874 17875 17876 17877 17878 17879 17880 17881 17882 17883 17884 17885 17886 17887 17888 17889 17890 17891 17892 17893 17894 17895 17896 17897 17898 17899 17900 17901 17902 17903 17904 17905 17906 17907 17908 17909 17910 17911 17912 17913 17914 17915 17916 17917 17918 17919 17920 17921 17922 17923 17924 17925 17926 17927 17928 17929 17930 17931 17932 17933 17934 17935 17936 17937 17938 17939 17940 17941 17942 17943 17944 17945 17946 17947 17948 17949 17950 17951 17952 17953 17954 17955 17956 17957 17958 17959 17960 17961 17962 17963 17964 17965 17966 17967 17968 17969 17970 17971 17972 17973 17974 17975 17976 17977 17978 17979 17980 17981 17982 17983 17984 17985 17986 17987 17988 17989 17990 17991 17992 17993 17994 17995 17996 17997 17998 17999 18000 18001 18002 18003 18004 18005 18006 18007 18008 18009 18010 18011 18012 18013 18014 18015 18016 18017 18018 18019 18020 18021 18022 18023 18024 18025 18026 18027 18028 18029 18030 18031 18032 18033 18034 18035 18036 18037 18038 18039 18040 18041 18042 18043 18044 18045 18046 18047 18048 18049 18050 18051 18052 18053 18054 18055 18056 18057 18058 18059 18060 18061 18062 18063 18064 18065 18066 18067 18068 18069 18070 18071 18072 18073 18074 18075 18076 18077 18078 18079 18080 18081 18082 18083 18084 18085 18086 18087 18088 18089 18090 18091 18092 18093 18094 18095 18096 18097 18098 18099 18100 18101 18102 18103 18104 18105 18106 18107 18108 18109 18110 18111 18112 18113 18114 18115 18116 18117 18118 18119 18120 18121 18122 18123 18124 18125 18126 18127 18128 18129 18130 18131 18132 18133 18134 18135 18136 18137 18138 18139 18140 18141 18142 18143 18144 18145 18146 18147 18148 18149 18150 18151 18152 18153 18154 18155 18156 18157 18158 18159 18160 18161 18162 18163 18164 18165 18166 18167 18168 18169 18170 18171 18172 18173 18174 18175 18176 18177 18178 18179 18180 18181 18182 18183 18184 18185 18186 18187 18188 18189 18190 18191 18192 18193 18194 18195 18196 18197 18198 18199 18200 18201 18202 18203 18204 18205 18206 18207 18208 18209 18210 18211 18212 18213 18214 18215 18216 18217 18218 18219 18220 18221 18222 18223 18224 18225 18226 18227 18228 18229 18230 18231 18232 18233 18234 18235 18236 18237 18238 18239 18240 18241 18242 18243 18244 18245 18246 18247 18248 18249 18250 18251 18252 18253 18254 18255 18256 18257 18258 18259 18260 18261 18262 18263 18264 18265 18266 18267 18268 18269 18270 18271 18272 18273 18274 18275 18276 18277 18278 18279 18280 18281 18282 18283 18284 18285 18286 18287 18288 18289 18290 18291 18292 18293 18294 18295 18296 18297 18298 18299 18300 18301 18302 18303 18304 18305 18306 18307 18308 18309 18310 18311 18312 18313 18314 18315 18316 18317 18318 18319 18320 18321 18322 18323 18324 18325 18326 18327 18328 18329 18330 18331 18332 18333 18334 18335 18336 18337 18338 18339 18340 18341 18342 18343 18344 18345 18346 18347 18348 18349 18350 18351 18352 18353 18354 18355 18356 18357 18358 18359 18360 18361 18362 18363 18364 18365 18366 18367 18368 18369 18370 18371 18372 18373 18374 18375 18376 18377 18378 18379 18380 18381 18382 18383 18384 18385 18386 18387 18388 18389 18390 18391 18392 18393 18394 18395 18396 18397 18398 18399 18400 18401 18402 18403 18404 18405 18406 18407 18408 18409 18410 18411 18412 18413 18414 18415 18416 18417 18418 18419 18420 18421 18422 18423 18424 18425 18426 18427 18428 18429 18430 18431 18432 18433 18434 18435 18436 18437 18438 18439 18440 18441 18442 18443 18444 18445 18446 18447 18448 18449 18450 18451 18452 18453 18454 18455 18456 18457 18458 18459 18460 18461 18462 18463 18464 18465 18466 18467 18468 18469 18470 18471 18472 18473 18474 18475 18476 18477 18478 18479 18480 18481 18482 18483 18484 18485 18486 18487 18488 18489 18490 18491 18492 18493 18494 18495 18496 18497 18498 18499 18500 18501 18502 18503 18504 18505 18506 18507 18508 18509 18510 18511 18512 18513 18514 18515 18516 18517 18518 18519 18520 18521 18522 18523 18524 18525 18526 18527 18528 18529 18530 18531 18532 18533 18534 18535 18536 18537 18538 18539 18540 18541 18542 18543 18544 18545 18546 18547 18548 18549 18550 18551 18552 18553 18554 18555 18556 18557 18558 18559 18560 18561 18562 18563 18564 18565 18566 18567 18568 18569 18570 18571 18572 18573 18574 18575 18576 18577 18578 18579 18580 18581 18582 18583 18584 18585 18586 18587 18588 18589 18590 18591 18592 18593 18594 18595 18596 18597 18598 18599 18600 18601 18602 18603 18604 18605 18606 18607 18608 18609 18610 18611 18612 18613 18614 18615 18616 18617 18618 18619 18620 18621 18622 18623 18624 18625 18626 18627 18628 18629 18630 18631 18632 18633 18634 18635 18636 18637 18638 18639 18640 18641 18642 18643 18644 18645 18646 18647 18648 18649 18650 18651 18652 18653 18654 18655 18656 18657 18658 18659 18660 18661 18662 18663 18664 18665 18666 18667 18668 18669 18670 18671 18672 18673 18674 18675 18676 18677 18678 18679 18680 18681 18682 18683 18684 18685 18686 18687 18688 18689 18690 18691 18692 18693 18694 18695 18696 18697 18698 18699 18700 18701 18702 18703 18704 18705 18706 18707 18708 18709 18710 18711 18712 18713 18714 18715 18716 18717 18718 18719 18720 18721 18722 18723 18724 18725 18726 18727 18728 18729 18730 18731 18732 18733 18734 18735 18736 18737 18738 18739 18740 18741 18742 18743 18744 18745 18746 18747 18748 18749 18750 18751 18752 18753 18754 18755 18756 18757 18758 18759 18760 18761 18762 18763 18764 18765 18766 18767 18768 18769 18770 18771 18772 18773 18774 18775 18776 18777 18778 18779 18780 18781 18782 18783 18784 18785 18786 18787 18788 18789 18790 18791 18792 18793 18794 18795 18796 18797 18798 18799 18800 18801 18802 18803 18804 18805 18806 18807 18808 18809 18810 18811 18812 18813 18814 18815 18816 18817 18818 18819 18820 18821 18822 18823 18824 18825 18826 18827 18828 18829 18830 18831 18832 18833 18834 18835 18836 18837 18838 18839 18840 18841 18842 18843 18844 18845 18846 18847 18848 18849 18850 18851 18852 18853 18854 18855 18856 18857 18858 18859 18860 18861 18862 18863 18864 18865 18866 18867 18868 18869 18870 18871 18872 18873 18874 18875 18876 18877 18878 18879 18880 18881 18882 18883 18884 18885 18886 18887 18888 18889 18890 18891 18892 18893 18894 18895 18896 18897 18898 18899 18900 18901 18902 18903 18904 18905 18906 18907 18908 18909 18910 18911 18912 18913 18914 18915 18916 18917 18918 18919 18920 18921 18922 18923 18924 18925 18926 18927 18928 18929 18930 18931 18932 18933 18934 18935 18936 18937 18938 18939 18940 18941 18942 18943 18944 18945 18946 18947 18948 18949 18950 18951 18952 18953 18954 18955 18956 18957 18958 18959 18960 18961 18962 18963 18964 18965 18966 18967 18968 18969 18970 18971 18972 18973 18974 18975 18976 18977 18978 18979 18980 18981 18982 18983 18984 18985 18986 18987 18988 18989 18990 18991 18992 18993 18994 18995 18996 18997 18998 18999 19000 19001 19002 19003 19004 19005 19006 19007 19008 19009 19010 19011 19012 19013 19014 19015 19016 19017 19018 19019 19020 19021 19022 19023 19024 19025 19026 19027 19028 19029 19030 19031 19032 19033 19034 19035 19036 19037 19038 19039 19040 19041 19042 19043 19044 19045 19046 19047 19048 19049 19050 19051 19052 19053 19054 19055 19056 19057 19058 19059 19060 19061 19062 19063 19064 19065 19066 19067 19068 19069 19070 19071 19072 19073 19074 19075 19076 19077 19078 19079 19080 19081 19082 19083 19084 19085 19086 19087 19088 19089 19090 19091 19092 19093 19094 19095 19096 19097 19098 19099 19100 19101 19102 19103 19104 19105 19106 19107 19108 19109 19110 19111 19112 19113 19114 19115 19116 19117 19118 19119 19120 19121 19122 19123 19124 19125 19126 19127 19128 19129 19130 19131 19132 19133 19134 19135 19136 19137 19138 19139 19140 19141 19142 19143 19144 19145 19146 19147 19148 19149 19150 19151 19152 19153 19154 19155 19156 19157 19158 19159 19160 19161 19162 19163 19164 19165 19166 19167 19168 19169 19170 19171 19172 19173 19174 19175 19176 19177 19178 19179 19180 19181 19182 19183 19184 19185 19186 19187 19188 19189 19190 19191 19192 19193 19194 19195 19196 19197 19198 19199 19200 19201 19202 19203 19204 19205 19206 19207 19208 19209 19210 19211 19212 19213 19214 19215 19216 19217 19218 19219 19220 19221 19222 19223 19224 19225 19226 19227 19228 19229 19230 19231 19232 19233 19234 19235 19236 19237 19238 19239 19240 19241 19242 19243 19244 19245 19246 19247 19248 19249 19250 19251 19252 19253 19254 19255 19256 19257 19258 19259 19260 19261 19262 19263 19264 19265 19266 19267 19268 19269 19270 19271 19272 19273 19274 19275 19276 19277 19278 19279 19280 19281 19282 19283 19284 19285 19286 19287 19288 19289 19290 19291 19292 19293 19294 19295 19296 19297 19298 19299 19300 19301 19302 19303 19304 19305 19306 19307 19308 19309 19310 19311 19312 19313 19314 19315 19316 19317 19318 19319 19320 19321 19322 19323 19324 19325 19326 19327 19328 19329 19330 19331 19332 19333 19334 19335 19336 19337 19338 19339 19340 19341 19342 19343 19344 19345 19346 19347 19348 19349 19350 19351 19352 19353 19354 19355 19356 19357 19358 19359 19360 19361 19362 19363 19364 19365 19366 19367 19368 19369 19370 19371 19372 19373 19374 19375 19376 19377 19378 19379 19380 19381 19382 19383 19384 19385 19386 19387 19388 19389 19390 19391 19392 19393 19394 19395 19396 19397 19398 19399 19400 19401 19402 19403 19404 19405 19406 19407 19408 19409 19410 19411 19412 19413 19414 19415 19416 19417 19418 19419 19420 19421 19422 19423 19424 19425 19426 19427 19428 19429 19430 19431 19432 19433 19434 19435 19436 19437 19438 19439 19440 19441 19442 19443 19444 19445 19446 19447 19448 19449 19450 19451 19452 19453 19454 19455 19456 19457 19458 19459 19460 19461 19462 19463 19464 19465 19466 19467 19468 19469 19470 19471 19472 19473 19474 19475 19476 19477 19478 19479 19480 19481 19482 19483 19484 19485 19486 19487 19488 19489 19490 19491 19492 19493 19494 19495 19496 19497 19498 19499 19500 19501 19502 19503 19504 19505 19506 19507 19508 19509 19510 19511 19512 19513 19514 19515 19516 19517 19518 19519 19520 19521 19522 19523 19524 19525 19526 19527 19528 19529 19530 19531 19532 19533 19534 19535 19536 19537 19538 19539 19540 19541 19542 19543 19544 19545 19546 19547 19548 19549 19550 19551 19552 19553 19554 19555 19556 19557 19558 19559 19560 19561 19562 19563 19564 19565 19566 19567 19568 19569 19570 19571 19572 19573 19574 19575 19576 19577 19578 19579 19580 19581 19582 19583 19584 19585 19586 19587 19588 19589 19590 19591 19592 19593 19594 19595 19596 19597 19598 19599 19600 19601 19602 19603 19604 19605 19606 19607 19608 19609 19610 19611 19612 19613 19614 19615 19616 19617 19618 19619 19620 19621 19622 19623 19624 19625 19626 19627 19628 19629 19630 19631 19632 19633 19634 19635 19636 19637 19638 19639 19640 19641 19642 19643 19644 19645 19646 19647 19648 19649 19650 19651 19652 19653 19654 19655 19656 19657 19658 19659 19660 19661 19662 19663 19664 19665 19666 19667 19668 19669 19670 19671 19672 19673 19674 19675 19676 19677 19678 19679 19680 19681 19682 19683 19684 19685 19686 19687 19688 19689 19690 19691 19692 19693 19694 19695 19696 19697 19698 19699 19700 19701 19702 19703 19704 19705 19706 19707 19708 19709 19710 19711 19712 19713 19714 19715 19716 19717 19718 19719 19720 19721 19722 19723 19724 19725 19726 19727 19728 19729 19730 19731 19732 19733 19734 19735 19736 19737 19738 19739 19740 19741 19742 19743 19744 19745 19746 19747 19748 19749 19750 19751 19752 19753 19754 19755 19756 19757 19758 19759 19760 19761 19762 19763 19764 19765 19766 19767 19768 19769 19770 19771 19772 19773 19774 19775 19776 19777 19778 19779 19780 19781 19782 19783 19784 19785 19786 19787 19788 19789 19790 19791 19792 19793 19794 19795 19796 19797 19798 19799 19800 19801 19802 19803 19804 19805 19806 19807 19808 19809 19810 19811 19812 19813 19814 19815 19816 19817 19818 19819 19820 19821 19822 19823 19824 19825 19826 19827 19828 19829 19830 19831 19832 19833 19834 19835 19836 19837 19838 19839 19840 19841 19842 19843 19844 19845 19846 19847 19848 19849 19850 19851 19852 19853 19854 19855 19856 19857 19858 19859 19860 19861 19862 19863 19864 19865 19866 19867 19868 19869 19870 19871 19872 19873 19874 19875 19876 19877 19878 19879 19880 19881 19882 19883 19884 19885 19886 19887 19888 19889 19890 19891 19892 19893 19894 19895 19896 19897 19898 19899 19900 19901 19902 19903 19904 19905 19906 19907 19908 19909 19910 19911 19912 19913 19914 19915 19916 19917 19918 19919 19920 19921 19922 19923 19924 19925 19926 19927 19928 19929 19930 19931 19932 19933 19934 19935 19936 19937 19938 19939 19940 19941 19942 19943 19944 19945 19946 19947 19948 19949 19950 19951 19952 19953 19954 19955 19956 19957 19958 19959 19960 19961 19962 19963 19964 19965 19966 19967 19968 19969 19970 19971 19972 19973 19974 19975 19976 19977 19978 19979 19980 19981 19982 19983 19984 19985 19986 19987 19988 19989 19990 19991 19992 19993 19994 19995 19996 19997 19998 19999 20000 20001 20002 20003 20004 20005 20006 20007 20008 20009 20010 20011 20012 20013 20014 20015 20016 20017 20018 20019 20020 20021 20022 20023 20024 20025 20026 20027 20028 20029 20030 20031 20032 20033 20034 20035 20036 20037 20038 20039 20040 20041 20042 20043 20044 20045 20046 20047 20048 20049 20050 20051 20052 20053 20054 20055 20056 20057 20058 20059 20060 20061 20062 20063 20064 20065 20066 20067 20068 20069 20070 20071 20072 20073 20074 20075 20076 20077 20078 20079 20080 20081 20082 20083 20084 20085 20086 20087 20088 20089 20090 20091 20092 20093 20094 20095 20096 20097 20098 20099 20100 20101 20102 20103 20104 20105 20106 20107 20108 20109 20110 20111 20112 20113 20114 20115 20116 20117 20118 20119 20120 20121 20122 20123 20124 20125 20126 20127 20128 20129 20130 20131 20132 20133 20134 20135 20136 20137 20138 20139 20140 20141 20142 20143 20144 20145 20146 20147 20148 20149 20150 20151 20152 20153 20154 20155 20156 20157 20158 20159 20160 20161 20162 20163 20164 20165 20166 20167 20168 20169 20170 20171 20172 20173 20174 20175 20176 20177 20178 20179 20180 20181 20182 20183 20184 20185 20186 20187 20188 20189 20190 20191 20192 20193 20194 20195 20196 20197 20198 20199 20200 20201 20202 20203 20204 20205 20206 20207 20208 20209 20210 20211 20212 20213 20214 20215 20216 20217 20218 20219 20220 20221 20222 20223 20224 20225 20226 20227 20228 20229 20230 20231 20232 20233 20234 20235 20236 20237 20238 20239 20240 20241 20242 20243 20244 20245 20246 20247 20248 20249 20250 20251 20252 20253 20254 20255 20256 20257 20258 20259 20260 20261 20262 20263 20264 20265 20266 20267 20268 20269 20270 20271 20272 20273 20274 20275 20276 20277 20278 20279 20280 20281 20282 20283 20284 20285 20286 20287 20288 20289 20290 20291 20292 20293 20294 20295 20296 20297 20298 20299 20300 20301 20302 20303 20304 20305 20306 20307 20308 20309 20310 20311 20312 20313 20314 20315 20316 20317 20318 20319 20320 20321 20322 20323 20324 20325 20326 20327 20328 20329 20330 20331 20332 20333 20334 20335 20336 20337 20338 20339 20340 20341 20342 20343 20344 20345 20346 20347 20348 20349 20350 20351 20352 20353 20354 20355 20356 20357 20358 20359 20360 20361 20362 20363 20364 20365 20366 20367 20368 20369 20370 20371 20372 20373 20374 20375 20376 20377 20378 20379 20380 20381 20382 20383 20384 20385 20386 20387 20388 20389 20390 20391 20392 20393 20394 20395 20396 20397 20398 20399 20400 20401 20402 20403 20404 20405 20406 20407 20408 20409 20410 20411 20412 20413 20414 20415 20416 20417 20418 20419 20420 20421 20422 20423 20424 20425 20426 20427 20428 20429 20430 20431 20432 20433 20434 20435 20436 20437 20438 20439 20440 20441 20442 20443 20444 20445 20446 20447 20448 20449 20450 20451 20452 20453 20454 20455 20456 20457 20458 20459 20460 20461 20462 20463 20464 20465 20466 20467 20468 20469 20470 20471 20472 20473 20474 20475 20476 20477 20478 20479 20480 20481 20482 20483 20484 20485 20486 20487 20488 20489 20490 20491 20492 20493 20494 20495 20496 20497 20498 20499 20500 20501 20502 20503 20504 20505 20506 20507 20508 20509 20510 20511 20512 20513 20514 20515 20516 20517 20518 20519 20520 20521 20522 20523 20524 20525 20526 20527 20528 20529 20530 20531 20532 20533 20534 20535 20536 20537 20538 20539 20540 20541 20542 20543 20544 20545 20546 20547 20548 20549 20550 20551 20552 20553 20554 20555 20556 20557 20558 20559 20560 20561 20562 20563 20564 20565 20566 20567 20568 20569 20570 20571 20572 20573 20574 20575 20576 20577 20578 20579 20580 20581 20582 20583 20584 20585 20586 20587 20588 20589 20590 20591 20592 20593 20594 20595 20596 20597 20598 20599 20600 20601 20602 20603 20604 20605 20606 20607 20608 20609 20610 20611 20612 20613 20614 20615 20616 20617 20618 20619 20620 20621 20622 20623 20624 20625 20626 20627 20628 20629 20630 20631 20632 20633 20634 20635 20636 20637 20638 20639 20640 20641 20642 20643 20644 20645 20646 20647 20648 20649 20650 20651 20652 20653 20654 20655 20656 20657 20658 20659 20660 20661 20662 20663 20664 20665 20666 20667 20668 20669 20670 20671 20672 20673 20674 20675 20676 20677 20678 20679 20680 20681 20682 20683 20684 20685 20686 20687 20688 20689 20690 20691 20692 20693 20694 20695 20696 20697 20698 20699 20700 20701 20702 20703 20704 20705 20706 20707 20708 20709 20710 20711 20712 20713 20714 20715 20716 20717 20718 20719 20720 20721 20722 20723 20724 20725 20726 20727 20728 20729 20730 20731 20732 20733 20734 20735 20736 20737 20738 20739 20740 20741 20742 20743 20744 20745 20746 20747 20748 20749 20750 20751 20752 20753 20754 20755 20756 20757 20758 20759 20760 20761 20762 20763 20764 20765 20766 20767 20768 20769 20770 20771 20772 20773 20774 20775 20776 20777 20778 20779 20780 20781 20782 20783 20784 20785 20786 20787 20788 20789 20790 20791 20792 20793 20794 20795 20796 20797 20798 20799 20800 20801 20802 20803 20804 20805 20806 20807 20808 20809 20810 20811 20812 20813 20814 20815 20816 20817 20818 20819 20820 20821 20822 20823 20824 20825 20826 20827 20828 20829 20830 20831 20832 20833 20834 20835 20836 20837 20838 20839 20840 20841 20842 20843 20844 20845 20846 20847 20848 20849 20850 20851 20852 20853 20854 20855 20856 20857 20858 20859 20860 20861 20862 20863 20864 20865 20866 20867 20868 20869 20870 20871 20872 20873 20874 20875 20876 20877 20878 20879 20880 20881 20882 20883 20884 20885 20886 20887 20888 20889 20890 20891 20892 20893 20894 20895 20896 20897 20898 20899 20900 20901 20902 20903 20904 20905 20906 20907 20908 20909 20910 20911 20912 20913 20914 20915 20916 20917 20918 20919 20920 20921 20922 20923 20924 20925 20926 20927 20928 20929 20930 20931 20932 20933 20934 20935 20936 20937 20938 20939 20940 20941 20942 20943 20944 20945 20946 20947 20948 20949 20950 20951 20952 20953 20954 20955 20956 20957 20958 20959 20960 20961 20962 20963 20964 20965 20966 20967 20968 20969 20970 20971 20972 20973 20974 20975 20976 20977 20978 20979 20980 20981 20982 20983 20984 20985 20986 20987 20988 20989 20990 20991 20992 20993 20994 20995 20996 20997 20998 20999 21000 21001 21002 21003 21004 21005 21006 21007 21008 21009 21010 21011 21012 21013 21014 21015 21016 21017 21018 21019 21020 21021 21022 21023 21024 21025 21026 21027 21028 21029 21030 21031 21032 21033 21034 21035 21036 21037 21038 21039 21040 21041 21042 21043 21044 21045 21046 21047 21048 21049 21050 21051 21052 21053 21054 21055 21056 21057 21058 21059 21060 21061 21062 21063 21064 21065 21066 21067 21068 21069 21070 21071 21072 21073 21074 21075 21076 21077 21078 21079 21080 21081 21082 21083 21084 21085 21086 21087 21088 21089 21090 21091 21092 21093 21094 21095 21096 21097 21098 21099 21100 21101 21102 21103 21104 21105 21106 21107 21108 21109 21110 21111 21112 21113 21114 21115 21116 21117 21118 21119 21120 21121 21122 21123 21124 21125 21126 21127 21128 21129 21130 21131 21132 21133 21134 21135 21136 21137 21138 21139 21140 21141 21142 21143 21144 21145 21146 21147 21148 21149 21150 21151 21152 21153 21154 21155 21156 21157 21158 21159 21160 21161 21162 21163 21164 21165 21166 21167 21168 21169 21170 21171 21172 21173 21174 21175 21176 21177 21178 21179 21180 21181 21182 21183 21184 21185 21186 21187 21188 21189 21190 21191 21192 21193 21194 21195 21196 21197 21198 21199 21200 21201 21202 21203 21204 21205 21206 21207 21208 21209 21210 21211 21212 21213 21214 21215 21216 21217 21218 21219 21220 21221 21222 21223 21224 21225 21226 21227 21228 21229 21230 21231 21232 21233 21234 21235 21236 21237 21238 21239 21240 21241 21242 21243 21244 21245 21246 21247 21248 21249 21250 21251 21252 21253 21254 21255 21256 21257 21258 21259 21260 21261 21262 21263 21264 21265 21266 21267 21268 21269 21270 21271 21272 21273 21274 21275 21276 21277 21278 21279 21280 21281 21282 21283 21284 21285 21286 21287 21288 21289 21290 21291 21292 21293 21294 21295 21296 21297 21298 21299 21300 21301 21302 21303 21304 21305 21306 21307 21308 21309 21310 21311 21312 21313 21314 21315 21316 21317 21318 21319 21320 21321 21322 21323 21324 21325 21326 21327 21328 21329 21330 21331 21332 21333 21334 21335 21336 21337 21338 21339 21340 21341 21342 21343 21344 21345 21346 21347 21348 21349 21350 21351 21352 21353 21354 21355 21356 21357 21358 21359 21360 21361 21362 21363 21364 21365 21366 21367 21368 21369 21370 21371 21372 21373 21374 21375 21376 21377 21378 21379 21380 21381 21382 21383 21384 21385 21386 21387 21388 21389 21390 21391 21392 21393 21394 21395 21396 21397 21398 21399 21400 21401 21402 21403 21404 21405 21406 21407 21408 21409 21410 21411 21412 21413 21414 21415 21416 21417 21418 21419 21420 21421 21422 21423 21424 21425 21426 21427 21428 21429 21430 21431 21432 21433 21434 21435 21436 21437 21438 21439 21440 21441 21442 21443 21444 21445 21446 21447 21448 21449 21450 21451 21452 21453 21454 21455 21456 21457 21458 21459 21460 21461 21462 21463 21464 21465 21466 21467 21468 21469 21470 21471 21472 21473 21474 21475 21476 21477 21478 21479 21480 21481 21482 21483 21484 21485 21486 21487 21488 21489 21490 21491 21492 21493 21494 21495 21496 21497 21498 21499 21500 21501 21502 21503 21504 21505 21506 21507 21508 21509 21510 21511 21512 21513 21514 21515 21516 21517 21518 21519 21520 21521 21522 21523 21524 21525 21526 21527 21528 21529 21530 21531 21532 21533 21534 21535 21536 21537 21538 21539 21540 21541 21542 21543 21544 21545 21546 21547 21548 21549 21550 21551 21552 21553 21554 21555 21556 21557 21558 21559 21560 21561 21562 21563 21564 21565 21566 21567 21568 21569 21570 21571 21572 21573 21574 21575 21576 21577 21578 21579 21580 21581 21582 21583 21584 21585 21586 21587 21588 21589 21590 21591 21592 21593 21594 21595 21596 21597 21598 21599 21600 21601 21602 21603 21604 21605 21606 21607 21608 21609 21610 21611 21612 21613 21614 21615 21616 21617 21618 21619 21620 21621 21622 21623 21624 21625 21626 21627 21628 21629 21630 21631 21632 21633 21634 21635 21636 21637 21638 21639 21640 21641 21642 21643 21644 21645 21646 21647 21648 21649 21650 21651 21652 21653 21654 21655 21656 21657 21658 21659 21660 21661 21662 21663 21664 21665 21666 21667 21668 21669 21670 21671 21672 21673 21674 21675 21676 21677 21678 21679 21680 21681 21682 21683 21684 21685 21686 21687 21688 21689 21690 21691 21692 21693 21694 21695 21696 21697 21698 21699 21700 21701 21702 21703 21704 21705 21706 21707 21708 21709 21710 21711 21712 21713 21714 21715 21716 21717 21718 21719 21720 21721 21722 21723 21724 21725 21726 21727 21728 21729 21730 21731 21732 21733 21734 21735 21736 21737 21738 21739 21740 21741 21742 21743 21744 21745 21746 21747 21748 21749 21750 21751 21752 21753 21754 21755 21756 21757 21758 21759 21760 21761 21762 21763 21764 21765 21766 21767 21768 21769 21770 21771 21772 21773 21774 21775 21776 21777 21778 21779 21780 21781 21782 21783 21784 21785 21786 21787 21788 21789 21790 21791 21792 21793 21794 21795 21796 21797 21798 21799 21800 21801 21802 21803 21804 21805 21806 21807 21808 21809 21810 21811 21812 21813 21814 21815 21816 21817 21818 21819 21820 21821 21822 21823 21824 21825 21826 21827 21828 21829 21830 21831 21832 21833 21834 21835 21836 21837 21838 21839 21840 21841 21842 21843 21844 21845 21846 21847 21848 21849 21850 21851 21852 21853 21854 21855 21856 21857 21858 21859 21860 21861 21862 21863 21864 21865 21866 21867 21868 21869 21870 21871 21872 21873 21874 21875 21876 21877 21878 21879 21880 21881 21882 21883 21884 21885 21886 21887 21888 21889 21890 21891 21892 21893 21894 21895 21896 21897 21898 21899 21900 21901 21902 21903 21904 21905 21906 21907 21908 21909 21910 21911 21912 21913 21914 21915 21916 21917 21918 21919 21920 21921 21922 21923 21924 21925 21926 21927 21928 21929 21930 21931 21932 21933 21934 21935 21936 21937 21938 21939 21940 21941 21942 21943 21944 21945 21946 21947 21948 21949 21950 21951 21952 21953 21954 21955 21956 21957 21958 21959 21960 21961 21962 21963 21964 21965 21966 21967 21968 21969 21970 21971 21972 21973 21974 21975 21976 21977 21978 21979 21980 21981 21982 21983 21984 21985 21986 21987 21988 21989 21990 21991 21992 21993 21994 21995 21996 21997 21998 21999 22000 22001 22002 22003 22004 22005 22006 22007 22008 22009 22010 22011 22012 22013 22014 22015 22016 22017 22018 22019 22020 22021 22022 22023 22024 22025 22026 22027 22028 22029 22030 22031 22032 22033 22034 22035 22036 22037 22038 22039 22040 22041 22042 22043 22044 22045 22046 22047 22048 22049 22050 22051 22052 22053 22054 22055 22056 22057 22058 22059 22060 22061 22062 22063 22064 22065 22066 22067 22068 22069 22070 22071 22072 22073 22074 22075 22076 22077 22078 22079 22080 22081 22082 22083 22084 22085 22086 22087 22088 22089 22090 22091 22092 22093 22094 22095 22096 22097 22098 22099 22100 22101 22102 22103 22104 22105 22106 22107 22108 22109 22110 22111 22112 22113 22114 22115 22116 22117 22118 22119 22120 22121 22122 22123 22124 22125 22126 22127 22128 22129 22130 22131 22132 22133 22134 22135 22136 22137 22138 22139 22140 22141 22142 22143 22144 22145 22146 22147 22148 22149 22150 22151 22152 22153 22154 22155 22156 22157 22158 22159 22160 22161 22162 22163 22164 22165 22166 22167 22168 22169 22170 22171 22172 22173 22174 22175 22176 22177 22178 22179 22180 22181 22182 22183 22184 22185 22186 22187 22188 22189 22190 22191 22192 22193 22194 22195 22196 22197 22198 22199 22200 22201 22202 22203 22204 22205 22206 22207 22208 22209 22210 22211 22212 22213 22214 22215 22216 22217 22218 22219 22220 22221 22222 22223 22224 22225 22226 22227 22228 22229 22230 22231 22232 22233 22234 22235 22236 22237 22238 22239 22240 22241 22242 22243 22244 22245 22246 22247 22248 22249 22250 22251 22252 22253 22254 22255 22256 22257 22258 22259 22260 22261 22262 22263 22264 22265 22266 22267 22268 22269 22270 22271 22272 22273 22274 22275 22276 22277 22278 22279 22280 22281 22282 22283 22284 22285 22286 22287 22288 22289 22290 22291 22292 22293 22294 22295 22296 22297 22298 22299 22300 22301 22302 22303 22304 22305 22306 22307 22308 22309 22310 22311 22312 22313 22314 22315 22316 22317 22318 22319 22320 22321 22322 22323 22324 22325 22326 22327 22328 22329 22330 22331 22332 22333 22334 22335 22336 22337 22338 22339 22340 22341 22342 22343 22344 22345 22346 22347 22348 22349 22350 22351 22352 22353 22354 22355 22356 22357 22358 22359 22360 22361 22362 22363 22364 22365 22366 22367 22368 22369 22370 22371 22372 22373 22374 22375 22376 22377 22378 22379 22380 22381 22382 22383 22384 22385 22386 22387 22388 22389 22390 22391 22392 22393 22394 22395 22396 22397 22398 22399 22400 22401 22402 22403 22404 22405 22406 22407 22408 22409 22410 22411 22412 22413 22414 22415 22416 22417 22418 22419 22420 22421 22422 22423 22424 22425 22426 22427 22428 22429 22430 22431 22432 22433 22434 22435 22436 22437 22438 22439 22440 22441 22442 22443 22444 22445 22446 22447 22448 22449 22450 22451 22452 22453 22454 22455 22456 22457 22458 22459 22460 22461 22462 22463 22464 22465 22466 22467 22468 22469 22470 22471 22472 22473 22474 22475 22476 22477 22478 22479 22480 22481 22482 22483 22484 22485 22486 22487 22488 22489 22490 22491 22492 22493 22494 22495 22496 22497 22498 22499 22500 22501 22502 22503 22504 22505 22506 22507 22508 22509 22510 22511 22512 22513 22514 22515 22516 22517 22518 22519 22520 22521 22522 22523 22524 22525 22526 22527 22528 22529 22530 22531 22532 22533 22534 22535 22536 22537 22538 22539 22540 22541 22542 22543 22544 22545 22546 22547 22548 22549 22550 22551 22552 22553 22554 22555 22556 22557 22558 22559 22560 22561 22562 22563 22564 22565 22566 22567 22568 22569 22570 22571 22572 22573 22574 22575 22576 22577 22578 22579 22580 22581 22582 22583 22584 22585 22586 22587 22588 22589 22590 22591 22592 22593 22594 22595 22596 22597 22598 22599 22600 22601 22602 22603 22604 22605 22606 22607 22608 22609 22610 22611 22612 22613 22614 22615 22616 22617 22618 22619 22620 22621 22622 22623 22624 22625 22626 22627 22628 22629 22630 22631 22632 22633 22634 22635 22636 22637 22638 22639 22640 22641 22642 22643 22644 22645 22646 22647 22648 22649 22650 22651 22652 22653 22654 22655 22656 22657 22658 22659 22660 22661 22662 22663 22664 22665 22666 22667 22668 22669 22670 22671 22672 22673 22674 22675 22676 22677 22678 22679 22680 22681 22682 22683 22684 22685 22686 22687 22688 22689 22690 22691 22692 22693 22694 22695 22696 22697 22698 22699 22700 22701 22702 22703 22704 22705 22706 22707 22708 22709 22710 22711 22712 22713 22714 22715 22716 22717 22718 22719 22720 22721 22722 22723 22724 22725 22726 22727 22728 22729 22730 22731 22732 22733 22734 22735 22736 22737 22738 22739 22740 22741 22742 22743 22744 22745 22746 22747 22748 22749 22750 22751 22752 22753 22754 22755 22756 22757 22758 22759 22760 22761 22762 22763 22764 22765 22766 22767 22768 22769 22770 22771 22772 22773 22774 22775 22776 22777 22778 22779 22780 22781 22782 22783 22784 22785 22786 22787 22788 22789 22790 22791 22792 22793 22794 22795 22796 22797 22798 22799 22800 22801 22802 22803 22804 22805 22806 22807 22808 22809 22810 22811 22812 22813 22814 22815 22816 22817 22818 22819 22820 22821 22822 22823 22824 22825 22826 22827 22828 22829 22830 22831 22832 22833 22834 22835 22836 22837 22838 22839 22840 22841 22842 22843 22844 22845 22846 22847 22848 22849 22850 22851 22852 22853 22854 22855 22856 22857 22858 22859 22860 22861 22862 22863 22864 22865 22866 22867 22868 22869 22870 22871 22872 22873 22874 22875 22876 22877 22878 22879 22880 22881 22882 22883 22884 22885 22886 22887 22888 22889 22890 22891 22892 22893 22894 22895 22896 22897 22898 22899 22900 22901 22902 22903 22904 22905 22906 22907 22908 22909 22910 22911 22912 22913 22914 22915 22916 22917 22918 22919 22920 22921 22922 22923 22924 22925 22926 22927 22928 22929 22930 22931 22932 22933 22934 22935 22936 22937 22938 22939 22940 22941 22942 22943 22944 22945 22946 22947 22948 22949 22950 22951 22952 22953 22954 22955 22956 22957 22958 22959 22960 22961 22962 22963 22964 22965 22966 22967 22968 22969 22970 22971 22972 22973 22974 22975 22976 22977 22978 22979 22980 22981 22982 22983 22984 22985 22986 22987 22988 22989 22990 22991 22992 22993 22994 22995 22996 22997 22998 22999 23000 23001 23002 23003 23004 23005 23006 23007 23008 23009 23010 23011 23012 23013 23014 23015 23016 23017 23018 23019 23020 23021 23022 23023 23024 23025 23026 23027 23028 23029 23030 23031 23032 23033 23034 23035 23036 23037 23038 23039 23040 23041 23042 23043 23044 23045 23046 23047 23048 23049 23050 23051 23052 23053 23054 23055 23056 23057 23058 23059 23060 23061 23062 23063 23064 23065 23066 23067 23068 23069 23070 23071 23072 23073 23074 23075 23076 23077 23078 23079 23080 23081 23082 23083 23084 23085 23086 23087 23088 23089 23090 23091 23092 23093 23094 23095 23096 23097 23098 23099 23100 23101 23102 23103 23104 23105 23106 23107 23108 23109 23110 23111 23112 23113 23114 23115 23116 23117 23118 23119 23120 23121 23122 23123 23124 23125 23126 23127 23128 23129 23130 23131 23132 23133 23134 23135 23136 23137 23138 23139 23140 23141 23142 23143 23144 23145 23146 23147 23148 23149 23150 23151 23152 23153 23154 23155 23156 23157 23158 23159 23160 23161 23162 23163 23164 23165 23166 23167 23168 23169 23170 23171 23172 23173 23174 23175 23176 23177 23178 23179 23180 23181 23182 23183 23184 23185 23186 23187 23188 23189 23190 23191 23192 23193 23194 23195 23196 23197 23198 23199 23200 23201 23202 23203 23204 23205 23206 23207 23208 23209 23210 23211 23212 23213 23214 23215 23216 23217 23218 23219 23220 23221 23222 23223 23224 23225 23226 23227 23228 23229 23230 23231 23232 23233 23234 23235 23236 23237 23238 23239 23240 23241 23242 23243 23244 23245 23246 23247 23248 23249 23250 23251 23252 23253 23254 23255 23256 23257 23258 23259 23260 23261 23262 23263 23264 23265 23266 23267 23268 23269 23270 23271 23272 23273 23274 23275 23276 23277 23278 23279 23280 23281 23282 23283 23284 23285 23286 23287 23288 23289 23290 23291 23292 23293 23294 23295 23296 23297 23298 23299 23300 23301 23302 23303 23304 23305 23306 23307 23308 23309 23310 23311 23312 23313 23314 23315 23316 23317 23318 23319 23320 23321 23322 23323 23324 23325 23326 23327 23328 23329 23330 23331 23332 23333 23334 23335 23336 23337 23338 23339 23340 23341 23342 23343 23344 23345 23346 23347 23348 23349 23350 23351 23352 23353 23354 23355 23356 23357 23358 23359 23360 23361 23362 23363 23364 23365 23366 23367 23368 23369 23370 23371 23372 23373 23374 23375 23376 23377 23378 23379 23380 23381 23382 23383 23384 23385 23386 23387 23388 23389 23390 23391 23392 23393 23394 23395 23396 23397 23398 23399 23400 23401 23402 23403 23404 23405 23406 23407 23408 23409 23410 23411 23412 23413 23414 23415 23416 23417 23418 23419 23420 23421 23422 23423 23424 23425 23426 23427 23428 23429 23430 23431 23432 23433 23434 23435 23436 23437 23438 23439 23440 23441 23442 23443 23444 23445 23446 23447 23448 23449 23450 23451 23452 23453 23454 23455 23456 23457 23458 23459 23460 23461 23462 23463 23464 23465 23466 23467 23468 23469 23470 23471 23472 23473 23474 23475 23476 23477 23478 23479 23480 23481 23482 23483 23484 23485 23486 23487 23488 23489 23490 23491 23492 23493 23494 23495 23496 23497 23498 23499 23500 23501 23502 23503 23504 23505 23506 23507 23508 23509 23510 23511 23512 23513 23514 23515 23516 23517 23518 23519 23520 23521 23522 23523 23524 23525 23526 23527 23528 23529 23530 23531 23532 23533 23534 23535 23536 23537 23538 23539 23540 23541 23542 23543 23544 23545 23546 23547 23548 23549 23550 23551 23552 23553 23554 23555 23556 23557 23558 23559 23560 23561 23562 23563 23564 23565 23566 23567 23568 23569 23570 23571 23572 23573 23574 23575 23576 23577 23578 23579 23580 23581 23582 23583 23584 23585 23586 23587 23588 23589 23590 23591 23592 23593 23594 23595 23596 23597 23598 23599 23600 23601 23602 23603 23604 23605 23606 23607 23608 23609 23610 23611 23612 23613 23614 23615 23616 23617 23618 23619 23620 23621 23622 23623 23624 23625 23626 23627 23628 23629 23630 23631 23632 23633 23634 23635 23636 23637 23638 23639 23640 23641 23642 23643 23644 23645 23646 23647 23648 23649 23650 23651 23652 23653 23654 23655 23656 23657 23658 23659 23660 23661 23662 23663 23664 23665 23666 23667 23668 23669 23670 23671 23672 23673 23674 23675 23676 23677 23678 23679 23680 23681 23682 23683 23684 23685 23686 23687 23688 23689 23690 23691 23692 23693 23694 23695 23696 23697 23698 23699 23700 23701 23702 23703 23704 23705 23706 23707 23708 23709 23710 23711 23712 23713 23714 23715 23716 23717 23718 23719 23720 23721 23722 23723 23724 23725 23726 23727 23728 23729 23730 23731 23732 23733 23734 23735 23736 23737 23738 23739 23740 23741 23742 23743 23744 23745 23746 23747 23748 23749 23750 23751 23752 23753 23754 23755 23756 23757 23758 23759 23760 23761 23762 23763 23764 23765 23766 23767 23768 23769 23770 23771 23772 23773 23774 23775 23776 23777 23778 23779 23780 23781 23782 23783 23784 23785 23786 23787 23788 23789 23790 23791 23792 23793 23794 23795 23796 23797 23798 23799 23800 23801 23802 23803 23804 23805 23806 23807 23808 23809 23810 23811 23812 23813 23814 23815 23816 23817 23818 23819 23820 23821 23822 23823 23824 23825 23826 23827 23828 23829 23830 23831 23832 23833 23834 23835 23836 23837 23838 23839 23840 23841 23842 23843 23844 23845 23846 23847 23848 23849 23850 23851 23852 23853 23854 23855 23856 23857 23858 23859 23860 23861 23862 23863 23864 23865 23866 23867 23868 23869 23870 23871 23872 23873 23874 23875 23876 23877 23878 23879 23880 23881 23882 23883 23884 23885 23886 23887 23888 23889 23890 23891 23892 23893 23894 23895 23896 23897 23898 23899 23900 23901 23902 23903 23904 23905 23906 23907 23908 23909 23910 23911 23912 23913 23914 23915 23916 23917 23918 23919 23920 23921 23922 23923 23924 23925 23926 23927 23928 23929 23930 23931 23932 23933 23934 23935 23936 23937 23938 23939 23940 23941 23942 23943 23944 23945 23946 23947 23948 23949 23950 23951 23952 23953 23954 23955 23956 23957 23958 23959 23960 23961 23962 23963 23964 23965 23966 23967 23968 23969 23970 23971 23972 23973 23974 23975 23976 23977 23978 23979 23980 23981 23982 23983 23984 23985 23986 23987 23988 23989 23990 23991 23992 23993 23994 23995 23996 23997 23998 23999 24000 24001 24002 24003 24004 24005 24006 24007 24008 24009 24010 24011 24012 24013 24014 24015 24016 24017 24018 24019 24020 24021 24022 24023 24024 24025 24026 24027 24028 24029 24030 24031 24032 24033 24034 24035 24036 24037 24038 24039 24040 24041 24042 24043 24044 24045 24046 24047 24048 24049 24050 24051 24052 24053 24054 24055 24056 24057 24058 24059 24060 24061 24062 24063 24064 24065 24066 24067 24068 24069 24070 24071 24072 24073 24074 24075 24076 24077 24078 24079 24080 24081 24082 24083 24084 24085 24086 24087 24088 24089 24090 24091 24092 24093 24094 24095 24096 24097 24098 24099 24100 24101 24102 24103 24104 24105 24106 24107 24108 24109 24110 24111 24112 24113 24114 24115 24116 24117 24118 24119 24120 24121 24122 24123 24124 24125 24126 24127 24128 24129 24130 24131 24132 24133 24134 24135 24136 24137 24138 24139 24140 24141 24142 24143 24144 24145 24146 24147 24148 24149 24150 24151 24152 24153 24154 24155 24156 24157 24158 24159 24160 24161 24162 24163 24164 24165 24166 24167 24168 24169 24170 24171 24172 24173 24174 24175 24176 24177 24178 24179 24180 24181 24182 24183 24184 24185 24186 24187 24188 24189 24190 24191 24192 24193 24194 24195 24196 24197 24198 24199 24200 24201 24202 24203 24204 24205 24206 24207 24208 24209 24210 24211 24212 24213 24214 24215 24216 24217 24218 24219 24220 24221 24222 24223 24224 24225 24226 24227 24228 24229 24230 24231 24232 24233 24234 24235 24236 24237 24238 24239 24240 24241 24242 24243 24244 24245 24246 24247 24248 24249 24250 24251 24252 24253 24254 24255 24256 24257 24258 24259 24260 24261 24262 24263 24264 24265 24266 24267 24268 24269 24270 24271 24272 24273 24274 24275 24276 24277 24278 24279 24280 24281 24282 24283 24284 24285 24286 24287 24288 24289 24290 24291 24292 24293 24294 24295 24296 24297 24298 24299 24300 24301 24302 24303 24304 24305 24306 24307 24308 24309 24310 24311 24312 24313 24314 24315 24316 24317 24318 24319 24320 24321 24322 24323 24324 24325 24326 24327 24328 24329 24330 24331 24332 24333 24334 24335 24336 24337 24338 24339 24340 24341 24342 24343 24344 24345 24346 24347 24348 24349 24350 24351 24352 24353 24354 24355 24356 24357 24358 24359 24360 24361 24362 24363 24364 24365 24366 24367 24368 24369 24370 24371 24372 24373 24374 24375 24376 24377 24378 24379 24380 24381 24382 24383 24384 24385 24386 24387 24388 24389 24390 24391 24392 24393 24394 24395 24396 24397 24398 24399 24400 24401 24402 24403 24404 24405 24406 24407 24408 24409 24410 24411 24412 24413 24414 24415 24416 24417 24418 24419 24420 24421 24422 24423 24424 24425 24426 24427 24428 24429 24430 24431 24432 24433 24434 24435 24436 24437 24438 24439 24440 24441 24442 24443 24444 24445 24446 24447 24448 24449 24450 24451 24452 24453 24454 24455 24456 24457 24458 24459 24460 24461 24462 24463 24464 24465 24466 24467 24468 24469 24470 24471 24472 24473 24474 24475 24476 24477 24478 24479 24480 24481 24482 24483 24484 24485 24486 24487 24488 24489 24490 24491 24492 24493 24494 24495 24496 24497 24498 24499 24500 24501 24502 24503 24504 24505 24506 24507 24508 24509 24510 24511 24512 24513 24514 24515 24516 24517 24518 24519 24520 24521 24522 24523 24524 24525 24526 24527 24528 24529 24530 24531 24532 24533 24534 24535 24536 24537 24538 24539 24540 24541 24542 24543 24544 24545 24546 24547 24548 24549 24550 24551 24552 24553 24554 24555 24556 24557 24558 24559 24560 24561 24562 24563 24564 24565 24566 24567 24568 24569 24570 24571 24572 24573 24574 24575 24576 24577 24578 24579 24580 24581 24582 24583 24584 24585 24586 24587 24588 24589 24590 24591 24592 24593 24594 24595 24596 24597 24598 24599 24600 24601 24602 24603 24604 24605 24606 24607 24608 24609 24610 24611 24612 24613 24614 24615 24616 24617 24618 24619 24620 24621 24622 24623 24624 24625 24626 24627 24628 24629 24630 24631 24632 24633 24634 24635 24636 24637 24638 24639 24640 24641 24642 24643 24644 24645 24646 24647 24648 24649 24650 24651 24652 24653 24654 24655 24656 24657 24658 24659 24660 24661 24662 24663 24664 24665 24666 24667 24668 24669 24670 24671 24672 24673 24674 24675 24676 24677 24678 24679 24680 24681 24682 24683 24684 24685 24686 24687 24688 24689 24690 24691 24692 24693 24694 24695 24696 24697 24698 24699 24700 24701 24702 24703 24704 24705 24706 24707 24708 24709 24710 24711 24712 24713 24714 24715 24716 24717 24718 24719 24720 24721 24722 24723 24724 24725 24726 24727 24728 24729 24730 24731 24732 24733 24734 24735 24736 24737 24738 24739 24740 24741 24742 24743 24744 24745 24746 24747 24748 24749 24750 24751 24752 24753 24754 24755 24756 24757 24758 24759 24760 24761 24762 24763 24764 24765 24766 24767 24768 24769 24770 24771 24772 24773 24774 24775 24776 24777 24778 24779 24780 24781 24782 24783 24784 24785 24786 24787 24788 24789 24790 24791 24792 24793 24794 24795 24796 24797 24798 24799 24800 24801 24802 24803 24804 24805 24806 24807 24808 24809 24810 24811 24812 24813 24814 24815 24816 24817 24818 24819 24820 24821 24822 24823 24824 24825 24826 24827 24828 24829 24830 24831 24832 24833 24834 24835 24836 24837 24838 24839 24840 24841 24842 24843 24844 24845 24846 24847 24848 24849 24850 24851 24852 24853 24854 24855 24856 24857 24858 24859 24860 24861 24862 24863 24864 24865 24866 24867 24868 24869 24870 24871 24872 24873 24874 24875 24876 24877 24878 24879 24880 24881 24882 24883 24884 24885 24886 24887 24888 24889 24890 24891 24892 24893 24894 24895 24896 24897 24898 24899 24900 24901 24902 24903 24904 24905 24906 24907 24908 24909 24910 24911 24912 24913 24914 24915 24916 24917 24918 24919 24920 24921 24922 24923 24924 24925 24926 24927 24928 24929 24930 24931 24932 24933 24934 24935 24936 24937 24938 24939 24940 24941 24942 24943 24944 24945 24946 24947 24948 24949 24950 24951 24952 24953 24954 24955 24956 24957 24958 24959 24960 24961 24962 24963 24964 24965 24966 24967 24968 24969 24970 24971 24972 24973 24974 24975 24976 24977 24978 24979 24980 24981 24982 24983 24984 24985 24986 24987 24988 24989 24990 24991 24992 24993 24994 24995 24996 24997 24998 24999 25000 25001 25002 25003 25004 25005 25006 25007 25008 25009 25010 25011 25012 25013 25014 25015 25016 25017 25018 25019 25020 25021 25022 25023 25024 25025 25026 25027 25028 25029 25030 25031 25032 25033 25034 25035 25036 25037 25038 25039 25040 25041 25042 25043 25044 25045 25046 25047 25048 25049 25050 25051 25052 25053 25054 25055 25056 25057 25058 25059 25060 25061 25062 25063 25064 25065 25066 25067 25068 25069 25070 25071 25072 25073 25074 25075 25076 25077 25078 25079 25080 25081 25082 25083 25084 25085 25086 25087 25088 25089 25090 25091 25092 25093 25094 25095 25096 25097 25098 25099 25100 25101 25102 25103 25104 25105 25106 25107 25108 25109 25110 25111 25112 25113 25114 25115 25116 25117 25118 25119 25120 25121 25122 25123 25124 25125 25126 25127 25128 25129 25130 25131 25132 25133 25134 25135 25136 25137 25138 25139 25140 25141 25142 25143 25144 25145 25146 25147 25148 25149 25150 25151 25152 25153 25154 25155 25156 25157 25158 25159 25160 25161 25162 25163 25164 25165 25166 25167 25168 25169 25170 25171 25172 25173 25174 25175 25176 25177 25178 25179 25180 25181 25182 25183 25184 25185 25186 25187 25188 25189 25190 25191 25192 25193 25194 25195 25196 25197 25198 25199 25200 25201 25202 25203 25204 25205 25206 25207 25208 25209 25210 25211 25212 25213 25214 25215 25216 25217 25218 25219 25220 25221 25222 25223 25224 25225 25226 25227 25228 25229 25230 25231 25232 25233 25234 25235 25236 25237 25238 25239 25240 25241 25242 25243 25244 25245 25246 25247 25248 25249 25250 25251 25252 25253 25254 25255 25256 25257 25258 25259 25260 25261 25262 25263 25264 25265 25266 25267 25268 25269 25270 25271 25272 25273 25274 25275 25276 25277 25278 25279 25280 25281 25282 25283 25284 25285 25286 25287 25288 25289 25290 25291 25292 25293 25294 25295 25296 25297 25298 25299 25300 25301 25302 25303 25304 25305 25306 25307 25308 25309 25310 25311 25312 25313 25314 25315 25316 25317 25318 25319 25320 25321 25322 25323 25324 25325 25326 25327 25328 25329 25330 25331 25332 25333 25334 25335 25336 25337 25338 25339 25340 25341 25342 25343 25344 25345 25346 25347 25348 25349 25350 25351 25352 25353 25354 25355 25356 25357 25358 25359 25360 25361 25362 25363 25364 25365 25366 25367 25368 25369 25370 25371 25372 25373 25374 25375 25376 25377 25378 25379 25380 25381 25382 25383 25384 25385 25386 25387 25388 25389 25390 25391 25392 25393 25394 25395 25396 25397 25398 25399 25400 25401 25402 25403 25404 25405 25406 25407 25408 25409 25410 25411 25412 25413 25414 25415 25416 25417 25418 25419 25420 25421 25422 25423 25424 25425 25426 25427 25428 25429 25430 25431 25432 25433 25434 25435 25436 25437 25438 25439 25440 25441 25442 25443 25444 25445 25446 25447 25448 25449 25450 25451 25452 25453 25454 25455 25456 25457 25458 25459 25460 25461 25462 25463 25464 25465 25466 25467 25468 25469 25470 25471 25472 25473 25474 25475 25476 25477 25478 25479 25480 25481 25482 25483 25484 25485 25486 25487 25488 25489 25490 25491 25492 25493 25494 25495 25496 25497 25498 25499 25500 25501 25502 25503 25504 25505 25506 25507 25508 25509 25510 25511 25512 25513 25514 25515 25516 25517 25518 25519 25520 25521 25522 25523 25524 25525 25526 25527 25528 25529 25530 25531 25532 25533 25534 25535 25536 25537 25538 25539 25540 25541 25542 25543 25544 25545 25546 25547 25548 25549 25550 25551 25552 25553 25554 25555 25556 25557 25558 25559 25560 25561 25562 25563 25564 25565 25566 25567 25568 25569 25570 25571 25572 25573 25574 25575 25576 25577 25578 25579 25580 25581 25582 25583 25584 25585 25586 25587 25588 25589 25590 25591 25592 25593 25594 25595 25596 25597 25598 25599 25600 25601 25602 25603 25604 25605 25606 25607 25608 25609 25610 25611 25612 25613 25614 25615 25616 25617 25618 25619 25620 25621 25622 25623 25624 25625 25626 25627 25628 25629 25630 25631 25632 25633 25634 25635 25636 25637 25638 25639 25640 25641 25642 25643 25644 25645 25646 25647 25648 25649 25650 25651 25652 25653 25654 25655 25656 25657 25658 25659 25660 25661 25662 25663 25664 25665 25666 25667 25668 25669 25670 25671 25672 25673 25674 25675 25676 25677 25678 25679 25680 25681 25682 25683 25684 25685 25686 25687 25688 25689 25690 25691 25692 25693 25694 25695 25696 25697 25698 25699 25700 25701 25702 25703 25704 25705 25706 25707 25708 25709 25710 25711 25712 25713 25714 25715 25716 25717 25718 25719 25720 25721 25722 25723 25724 25725 25726 25727 25728 25729 25730 25731 25732 25733 25734 25735 25736 25737 25738 25739 25740 25741 25742 25743 25744 25745 25746 25747 25748 25749 25750 25751 25752 25753 25754 25755 25756 25757 25758 25759 25760 25761 25762 25763 25764 25765 25766 25767 25768 25769 25770 25771 25772 25773 25774 25775 25776 25777 25778 25779 25780 25781 25782 25783 25784 25785 25786 25787 25788 25789 25790 25791 25792 25793 25794 25795 25796 25797 25798 25799 25800 25801 25802 25803 25804 25805 25806 25807 25808 25809 25810 25811 25812 25813 25814 25815 25816 25817 25818 25819 25820 25821 25822 25823 25824 25825 25826 25827 25828 25829 25830 25831 25832 25833 25834 25835 25836 25837 25838 25839 25840 25841 25842 25843 25844 25845 25846 25847 25848 25849 25850 25851 25852 25853 25854 25855 25856 25857 25858 25859 25860 25861 25862 25863 25864 25865 25866 25867 25868 25869 25870 25871 25872 25873 25874 25875 25876 25877 25878 25879 25880 25881 25882 25883 25884 25885 25886 25887 25888 25889 25890 25891 25892 25893 25894 25895 25896 25897 25898 25899 25900 25901 25902 25903 25904 25905 25906 25907 25908 25909 25910 25911 25912 25913 25914 25915 25916 25917 25918 25919 25920 25921 25922 25923 25924 25925 25926 25927 25928 25929 25930 25931 25932 25933 25934 25935 25936 25937 25938 25939 25940 25941 25942 25943 25944 25945 25946 25947 25948 25949 25950 25951 25952 25953 25954 25955 25956 25957 25958 25959 25960 25961 25962 25963 25964 25965 25966 25967 25968 25969 25970 25971 25972 25973 25974 25975 25976 25977 25978 25979 25980 25981 25982 25983 25984 25985 25986 25987 25988 25989 25990 25991 25992 25993 25994 25995 25996 25997 25998 25999 26000 26001 26002 26003 26004 26005 26006 26007 26008 26009 26010 26011 26012 26013 26014 26015 26016 26017 26018 26019 26020 26021 26022 26023 26024 26025 26026 26027 26028 26029 26030 26031 26032 26033 26034 26035 26036 26037 26038 26039 26040 26041 26042 26043 26044 26045 26046 26047 26048 26049 26050 26051 26052 26053 26054 26055 26056 26057 26058 26059 26060 26061 26062 26063 26064 26065 26066 26067 26068 26069 26070 26071 26072 26073 26074 26075 26076 26077 26078 26079 26080 26081 26082 26083 26084 26085 26086 26087 26088 26089 26090 26091 26092 26093 26094 26095 26096 26097 26098 26099 26100 26101 26102 26103 26104 26105 26106 26107 26108 26109 26110 26111 26112 26113 26114 26115 26116 26117 26118 26119 26120 26121 26122 26123 26124 26125 26126 26127 26128 26129 26130 26131 26132 26133 26134 26135 26136 26137 26138 26139 26140 26141 26142 26143 26144 26145 26146 26147 26148 26149 26150 26151 26152 26153 26154 26155 26156 26157 26158 26159 26160 26161 26162 26163 26164 26165 26166 26167 26168 26169 26170 26171 26172 26173 26174 26175 26176 26177 26178 26179 26180 26181 26182 26183 26184 26185 26186 26187 26188 26189 26190 26191 26192 26193 26194 26195 26196 26197 26198 26199 26200 26201 26202 26203 26204 26205 26206 26207 26208 26209 26210 26211 26212 26213 26214 26215 26216 26217 26218 26219 26220 26221 26222 26223 26224 26225 26226 26227 26228 26229 26230 26231 26232 26233 26234 26235 26236 26237 26238 26239 26240 26241 26242 26243 26244 26245 26246 26247 26248 26249 26250 26251 26252 26253 26254 26255 26256 26257 26258 26259 26260 26261 26262 26263 26264 26265 26266 26267 26268 26269 26270 26271 26272 26273 26274 26275 26276 26277 26278 26279 26280 26281 26282 26283 26284 26285 26286 26287 26288 26289 26290 26291 26292 26293 26294 26295 26296 26297 26298 26299 26300 26301 26302 26303 26304 26305 26306 26307 26308 26309 26310 26311 26312 26313 26314 26315 26316 26317 26318 26319 26320 26321 26322 26323 26324 26325 26326 26327 26328 26329 26330 26331 26332 26333 26334 26335 26336 26337 26338 26339 26340 26341 26342 26343 26344 26345 26346 26347 26348 26349 26350 26351 26352 26353 26354 26355 26356 26357 26358 26359 26360 26361 26362 26363 26364 26365 26366 26367 26368 26369 26370 26371 26372 26373 26374 26375 26376 26377 26378 26379 26380 26381 26382 26383 26384 26385 26386 26387 26388 26389 26390 26391 26392 26393 26394 26395 26396 26397 26398 26399 26400 26401 26402 26403 26404 26405 26406 26407 26408 26409 26410 26411 26412 26413 26414 26415 26416 26417 26418 26419 26420 26421 26422 26423 26424 26425 26426 26427 26428 26429 26430 26431 26432 26433 26434 26435 26436 26437 26438 26439 26440 26441 26442 26443 26444 26445 26446 26447 26448 26449 26450 26451 26452 26453 26454 26455 26456 26457 26458 26459 26460 26461 26462 26463 26464 26465 26466 26467 26468 26469 26470 26471 26472 26473 26474 26475 26476 26477 26478 26479 26480 26481 26482 26483 26484 26485 26486 26487 26488 26489 26490 26491 26492 26493 26494 26495 26496 26497 26498 26499 26500 26501 26502 26503 26504 26505 26506 26507 26508 26509 26510 26511 26512 26513 26514 26515 26516 26517 26518 26519 26520 26521 26522 26523 26524 26525 26526 26527 26528 26529 26530 26531 26532 26533 26534 26535 26536 26537 26538 26539 26540 26541 26542 26543 26544 26545 26546 26547 26548 26549 26550 26551 26552 26553 26554 26555 26556 26557 26558 26559 26560 26561 26562 26563 26564 26565 26566 26567 26568 26569 26570 26571 26572 26573 26574 26575 26576 26577 26578 26579 26580 26581 26582 26583 26584 26585 26586 26587 26588 26589 26590 26591 26592 26593 26594 26595 26596 26597 26598 26599 26600 26601 26602 26603 26604 26605 26606 26607 26608 26609 26610 26611 26612 26613 26614 26615 26616 26617 26618 26619 26620 26621 26622 26623 26624 26625 26626 26627 26628 26629 26630 26631 26632 26633 26634 26635 26636 26637 26638 26639 26640 26641 26642 26643 26644 26645 26646 26647 26648 26649 26650 26651 26652 26653 26654 26655 26656 26657 26658 26659 26660 26661 26662 26663 26664 26665 26666 26667 26668 26669 26670 26671 26672 26673 26674 26675 26676 26677 26678 26679 26680 26681 26682 26683 26684 26685 26686 26687 26688 26689 26690 26691 26692 26693 26694 26695 26696 26697 26698 26699 26700 26701 26702 26703 26704 26705 26706 26707 26708 26709 26710 26711 26712 26713 26714 26715 26716 26717 26718 26719 26720 26721 26722 26723 26724 26725 26726 26727 26728 26729 26730 26731 26732 26733 26734 26735 26736 26737 26738 26739 26740 26741 26742 26743 26744 26745 26746 26747 26748 26749 26750 26751 26752 26753 26754 26755 26756 26757 26758 26759 26760 26761 26762 26763 26764 26765 26766 26767 26768 26769 26770 26771 26772 26773 26774 26775 26776 26777 26778 26779 26780 26781 26782 26783 26784 26785 26786 26787 26788 26789 26790 26791 26792 26793 26794 26795 26796 26797 26798 26799 26800 26801 26802 26803 26804 26805 26806 26807 26808 26809 26810 26811 26812 26813 26814 26815 26816 26817 26818 26819 26820 26821 26822 26823 26824 26825 26826 26827 26828 26829 26830 26831 26832 26833 26834 26835 26836 26837 26838 26839 26840 26841 26842 26843 26844 26845 26846 26847 26848 26849 26850 26851 26852 26853 26854 26855 26856 26857 26858 26859 26860 26861 26862 26863 26864 26865 26866 26867 26868 26869 26870 26871 26872 26873 26874 26875 26876 26877 26878 26879 26880 26881 26882 26883 26884 26885 26886 26887 26888 26889 26890 26891 26892 26893 26894 26895 26896 26897 26898 26899 26900 26901 26902 26903 26904 26905 26906 26907 26908 26909 26910 26911 26912 26913 26914 26915 26916 26917 26918 26919 26920 26921 26922 26923 26924 26925 26926 26927 26928 26929 26930 26931 26932 26933 26934 26935 26936 26937 26938 26939 26940 26941 26942 26943 26944 26945 26946 26947 26948 26949 26950 26951 26952 26953 26954 26955 26956 26957 26958 26959 26960 26961 26962 26963 26964 26965 26966 26967 26968 26969 26970 26971 26972 26973 26974 26975 26976 26977 26978 26979 26980 26981 26982 26983 26984 26985 26986 26987 26988 26989 26990 26991 26992 26993 26994 26995 26996 26997 26998 26999 27000 27001 27002 27003 27004 27005 27006 27007 27008 27009 27010 27011 27012 27013 27014 27015 27016 27017 27018 27019 27020 27021 27022 27023 27024 27025 27026 27027 27028 27029 27030 27031 27032 27033 27034 27035 27036 27037 27038 27039 27040 27041 27042 27043 27044 27045 27046 27047 27048 27049 27050 27051 27052 27053 27054 27055 27056 27057 27058 27059 27060 27061 27062 27063 27064 27065 27066 27067 27068 27069 27070 27071 27072 27073 27074 27075 27076 27077 27078 27079 27080 27081 27082 27083 27084 27085 27086 27087 27088 27089 27090 27091 27092 27093 27094 27095 27096 27097 27098 27099 27100 27101 27102 27103 27104 27105 27106 27107 27108 27109 27110 27111 27112 27113 27114 27115 27116 27117 27118 27119 27120 27121 27122 27123 27124 27125 27126 27127 27128 27129 27130 27131 27132 27133 27134 27135 27136 27137 27138 27139 27140 27141 27142 27143 27144 27145 27146 27147 27148 27149 27150 27151 27152 27153 27154 27155 27156 27157 27158 27159 27160 27161 27162 27163 27164 27165 27166 27167 27168 27169 27170 27171 27172 27173 27174 27175 27176 27177 27178 27179 27180 27181 27182 27183 27184 27185 27186 27187 27188 27189 27190 27191 27192 27193 27194 27195 27196 27197 27198 27199 27200 27201 27202 27203 27204 27205 27206 27207 27208 27209 27210 27211 27212 27213 27214 27215 27216 27217 27218 27219 27220 27221 27222 27223 27224 27225 27226 27227 27228 27229 27230 27231 27232 27233 27234 27235 27236 27237 27238 27239 27240 27241 27242 27243 27244 27245 27246 27247 27248 27249 27250 27251 27252 27253 27254 27255 27256 27257 27258 27259 27260 27261 27262 27263 27264 27265 27266 27267 27268 27269 27270 27271 27272 27273 27274 27275 27276 27277 27278 27279 27280 27281 27282 27283 27284 27285 27286 27287 27288 27289 27290 27291 27292 27293 27294 27295 27296 27297 27298 27299 27300 27301 27302 27303 27304 27305 27306 27307 27308 27309 27310 27311 27312 27313 27314 27315 27316 27317 27318 27319 27320 27321 27322 27323 27324 27325 27326 27327 27328 27329 27330 27331 27332 27333 27334 27335 27336 27337 27338 27339 27340 27341 27342 27343 27344 27345 27346 27347 27348 27349 27350 27351 27352 27353 27354 27355 27356 27357 27358 27359 27360 27361 27362 27363 27364 27365 27366 27367 27368 27369 27370 27371 27372 27373 27374 27375 27376 27377 27378 27379 27380 27381 27382 27383 27384 27385 27386 27387 27388 27389 27390 27391 27392 27393 27394 27395 27396 27397 27398 27399 27400 27401 27402 27403 27404 27405 27406 27407 27408 27409 27410 27411 27412 27413 27414 27415 27416 27417 27418 27419 27420 27421 27422 27423 27424 27425 27426 27427 27428 27429 27430 27431 27432 27433 27434 27435 27436 27437 27438 27439 27440 27441 27442 27443 27444 27445 27446 27447 27448 27449 27450 27451 27452 27453 27454 27455 27456 27457 27458 27459 27460 27461 27462 27463 27464 27465 27466 27467 27468 27469 27470 27471 27472 27473 27474 27475 27476 27477 27478 27479 27480 27481 27482 27483 27484 27485 27486 27487 27488 27489 27490 27491 27492 27493 27494 27495 27496 27497 27498 27499 27500 27501 27502 27503 27504 27505 27506 27507 27508 27509 27510 27511 27512 27513 27514 27515 27516 27517 27518 27519 27520 27521 27522 27523 27524 27525 27526 27527 27528 27529 27530 27531 27532 27533 27534 27535 27536 27537 27538 27539 27540 27541 27542 27543 27544 27545 27546 27547 27548 27549 27550 27551 27552 27553 27554 27555 27556 27557 27558 27559 27560 27561 27562 27563 27564 27565 27566 27567 27568 27569 27570 27571 27572 27573 27574 27575 27576 27577 27578 27579 27580 27581 27582 27583 27584 27585 27586 27587 27588 27589 27590 27591 27592 27593 27594 27595 27596 27597 27598 27599 27600 27601 27602 27603 27604 27605 27606 27607 27608 27609 27610 27611 27612 27613 27614 27615 27616 27617 27618 27619 27620 27621 27622 27623 27624 27625 27626 27627 27628 27629 27630 27631 27632 27633 27634 27635 27636 27637 27638 27639 27640 27641 27642 27643 27644 27645 27646 27647 27648 27649 27650 27651 27652 27653 27654 27655 27656 27657 27658 27659 27660 27661 27662 27663 27664 27665 27666 27667 27668 27669 27670 27671 27672 27673 27674 27675 27676 27677 27678 27679 27680 27681 27682 27683 27684 27685 27686 27687 27688 27689 27690 27691 27692 27693 27694 27695 27696 27697 27698 27699 27700 27701 27702 27703 27704 27705 27706 27707 27708 27709 27710 27711 27712 27713 27714 27715 27716 27717 27718 27719 27720 27721 27722 27723 27724 27725 27726 27727 27728 27729 27730 27731 27732 27733 27734 27735 27736 27737 27738 27739 27740 27741 27742 27743 27744 27745 27746 27747 27748 27749 27750 27751 27752 27753 27754 27755 27756 27757 27758 27759 27760 27761 27762 27763 27764 27765 27766 27767 27768 27769 27770 27771 27772 27773 27774 27775 27776 27777 27778 27779 27780 27781 27782 27783 27784 27785 27786 27787 27788 27789 27790 27791 27792 27793 27794 27795 27796 27797 27798 27799 27800 27801 27802 27803 27804 27805 27806 27807 27808 27809 27810 27811 27812 27813 27814 27815 27816 27817 27818 27819 27820 27821 27822 27823 27824 27825 27826 27827 27828 27829 27830 27831 27832 27833 27834 27835 27836 27837 27838 27839 27840 27841 27842 27843 27844 27845 27846 27847 27848 27849 27850 27851 27852 27853 27854 27855 27856 27857 27858 27859 27860 27861 27862 27863 27864 27865 27866 27867 27868 27869 27870 27871 27872 27873 27874 27875 27876 27877 27878 27879 27880 27881 27882 27883 27884 27885 27886 27887 27888 27889 27890 27891 27892 27893 27894 27895 27896 27897 27898 27899 27900 27901 27902 27903 27904 27905 27906 27907 27908 27909 27910 27911 27912 27913 27914 27915 27916 27917 27918 27919 27920 27921 27922 27923 27924 27925 27926 27927 27928 27929 27930 27931 27932 27933 27934 27935 27936 27937 27938 27939 27940 27941 27942 27943 27944 27945 27946 27947 27948 27949 27950 27951 27952 27953 27954 27955 27956 27957 27958 27959 27960 27961 27962 27963 27964 27965 27966 27967 27968 27969 27970 27971 27972 27973 27974 27975 27976 27977 27978 27979 27980 27981 27982 27983 27984 27985 27986 27987 27988 27989 27990 27991 27992 27993 27994 27995 27996 27997 27998 27999 28000 28001 28002 28003 28004 28005 28006 28007 28008 28009 28010 28011 28012 28013 28014 28015 28016 28017 28018 28019 28020 28021 28022 28023 28024 28025 28026 28027 28028 28029 28030 28031 28032 28033 28034 28035 28036 28037 28038 28039 28040 28041 28042 28043 28044 28045 28046 28047 28048 28049 28050 28051 28052 28053 28054 28055 28056 28057 28058 28059 28060 28061 28062 28063 28064 28065 28066 28067 28068 28069 28070 28071 28072 28073 28074 28075 28076 28077 28078 28079 28080 28081 28082 28083 28084 28085 28086 28087 28088 28089 28090 28091 28092 28093 28094 28095 28096 28097 28098 28099 28100 28101 28102 28103 28104 28105 28106 28107 28108 28109 28110 28111 28112 28113 28114 28115 28116 28117 28118 28119 28120 28121 28122 28123 28124 28125 28126 28127 28128 28129 28130 28131 28132 28133 28134 28135 28136 28137 28138 28139 28140 28141 28142 28143 28144 28145 28146 28147 28148 28149 28150 28151 28152 28153 28154 28155 28156 28157 28158 28159 28160 28161 28162 28163 28164 28165 28166 28167 28168 28169 28170 28171 28172 28173 28174 28175 28176 28177 28178 28179 28180 28181 28182 28183 28184 28185 28186 28187 28188 28189 28190 28191 28192 28193 28194 28195 28196 28197 28198 28199 28200 28201 28202 28203 28204 28205 28206 28207 28208 28209 28210 28211 28212 28213 28214 28215 28216 28217 28218 28219 28220 28221 28222 28223 28224 28225 28226 28227 28228 28229 28230 28231 28232 28233 28234 28235 28236 28237 28238 28239 28240 28241 28242 28243 28244 28245 28246 28247 28248 28249 28250 28251 28252 28253 28254 28255 28256 28257 28258 28259 28260 28261 28262 28263 28264 28265 28266 28267 28268 28269 28270 28271 28272 28273 28274 28275 28276 28277 28278 28279 28280 28281 28282 28283 28284 28285 28286 28287 28288 28289 28290 28291 28292 28293 28294 28295 28296 28297 28298 28299 28300 28301 28302 28303 28304 28305 28306 28307 28308 28309 28310 28311 28312 28313 28314 28315 28316 28317 28318 28319 28320 28321 28322 28323 28324 28325 28326 28327 28328 28329 28330 28331 28332 28333 28334 28335 28336 28337 28338 28339 28340 28341 28342 28343 28344 28345 28346 28347 28348 28349 28350 28351 28352 28353 28354 28355 28356 28357 28358 28359 28360 28361 28362 28363 28364 28365 28366 28367 28368 28369 28370 28371 28372 28373 28374 28375 28376 28377 28378 28379 28380 28381 28382 28383 28384 28385 28386 28387 28388 28389 28390 28391 28392 28393 28394 28395 28396 28397 28398 28399 28400 28401 28402 28403 28404 28405 28406 28407 28408 28409 28410 28411 28412 28413 28414 28415 28416 28417 28418 28419 28420 28421 28422 28423 28424 28425 28426 28427 28428 28429 28430 28431 28432 28433 28434 28435 28436 28437 28438 28439 28440 28441 28442 28443 28444 28445 28446 28447 28448 28449 28450 28451 28452 28453 28454 28455 28456 28457 28458 28459 28460 28461 28462 28463 28464 28465 28466 28467 28468 28469 28470 28471 28472 28473 28474 28475 28476 28477 28478 28479 28480 28481 28482 28483 28484 28485 28486 28487 28488 28489 28490 28491 28492 28493 28494 28495 28496 28497 28498 28499 28500 28501 28502 28503 28504 28505 28506 28507 28508 28509 28510 28511 28512 28513 28514 28515 28516 28517 28518 28519 28520 28521 28522 28523 28524 28525 28526 28527 28528 28529 28530 28531 28532 28533 28534 28535 28536 28537 28538 28539 28540 28541 28542 28543 28544 28545 28546 28547 28548 28549 28550 28551 28552 28553 28554 28555 28556 28557 28558 28559 28560 28561 28562 28563 28564 28565 28566 28567 28568 28569 28570 28571 28572 28573 28574 28575 28576 28577 28578 28579 28580 28581 28582 28583 28584 28585 28586 28587 28588 28589 28590 28591 28592 28593 28594 28595 28596 28597 28598 28599 28600 28601 28602 28603 28604 28605 28606 28607 28608 28609 28610 28611 28612 28613 28614 28615 28616 28617 28618 28619 28620 28621 28622 28623 28624 28625 28626 28627 28628 28629 28630 28631 28632 28633 28634 28635 28636 28637 28638 28639 28640 28641 28642 28643 28644 28645 28646 28647 28648 28649 28650 28651 28652 28653 28654 28655 28656 28657 28658 28659 28660 28661 28662 28663 28664 28665 28666 28667 28668 28669 28670 28671 28672 28673 28674 28675 28676 28677 28678 28679 28680 28681 28682 28683 28684 28685 28686 28687 28688 28689 28690 28691 28692 28693 28694 28695 28696 28697 28698 28699 28700 28701 28702 28703 28704 28705 28706 28707 28708 28709 28710 28711 28712 28713 28714 28715 28716 28717 28718 28719 28720 28721 28722 28723 28724 28725 28726 28727 28728 28729 28730 28731 28732 28733 28734 28735 28736 28737 28738 28739 28740 28741 28742 28743 28744 28745 28746 28747 28748 28749 28750 28751 28752 28753 28754 28755 28756 28757 28758 28759 28760 28761 28762 28763 28764 28765 28766 28767 28768 28769 28770 28771 28772 28773 28774 28775 28776 28777 28778 28779 28780 28781 28782 28783 28784 28785 28786 28787 28788 28789 28790 28791 28792 28793 28794 28795 28796 28797 28798 28799 28800 28801 28802 28803 28804 28805 28806 28807 28808 28809 28810 28811 28812 28813 28814 28815 28816 28817 28818 28819 28820 28821 28822 28823 28824 28825 28826 28827 28828 28829 28830 28831 28832 28833 28834 28835 28836 28837 28838 28839 28840 28841 28842 28843 28844 28845 28846 28847 28848 28849 28850 28851 28852 28853 28854 28855 28856 28857 28858 28859 28860 28861 28862 28863 28864 28865 28866 28867 28868 28869 28870 28871 28872 28873 28874 28875 28876 28877 28878 28879 28880 28881 28882 28883 28884 28885 28886 28887 28888 28889 28890 28891 28892 28893 28894 28895 28896 28897 28898 28899 28900 28901 28902 28903 28904 28905 28906 28907 28908 28909 28910 28911 28912 28913 28914 28915 28916 28917 28918 28919 28920 28921 28922 28923 28924 28925 28926 28927 28928 28929 28930 28931 28932 28933 28934 28935 28936 28937 28938 28939 28940 28941 28942 28943 28944 28945 28946 28947 28948 28949 28950 28951 28952 28953 28954 28955 28956 28957 28958 28959 28960 28961 28962 28963 28964 28965 28966 28967 28968 28969 28970 28971 28972 28973 28974 28975 28976 28977 28978 28979 28980 28981 28982 28983 28984 28985 28986 28987 28988 28989 28990 28991 28992 28993 28994 28995 28996 28997 28998 28999 29000 29001 29002 29003 29004 29005 29006 29007 29008 29009 29010 29011 29012 29013 29014 29015 29016 29017 29018 29019 29020 29021 29022 29023 29024 29025 29026 29027 29028 29029 29030 29031 29032 29033 29034 29035 29036 29037 29038 29039 29040 29041 29042 29043 29044 29045 29046 29047 29048 29049 29050 29051 29052 29053 29054 29055 29056 29057 29058 29059 29060 29061 29062 29063 29064 29065 29066 29067 29068 29069 29070 29071 29072 29073 29074 29075 29076 29077 29078 29079 29080 29081 29082 29083 29084 29085 29086 29087 29088 29089 29090 29091 29092 29093 29094 29095 29096 29097 29098 29099 29100 29101 29102 29103 29104 29105 29106 29107 29108 29109 29110 29111 29112 29113 29114 29115 29116 29117 29118 29119 29120 29121 29122 29123 29124 29125 29126 29127 29128 29129 29130 29131 29132 29133 29134 29135 29136 29137 29138 29139 29140 29141 29142 29143 29144 29145 29146 29147 29148 29149 29150 29151 29152 29153 29154 29155 29156 29157 29158 29159 29160 29161 29162 29163 29164 29165 29166 29167 29168 29169 29170 29171 29172 29173 29174 29175 29176 29177 29178 29179 29180 29181 29182 29183 29184 29185 29186 29187 29188 29189 29190 29191 29192 29193 29194 29195 29196 29197 29198 29199 29200 29201 29202 29203 29204 29205 29206 29207 29208 29209 29210 29211 29212 29213 29214 29215 29216 29217 29218 29219 29220 29221 29222 29223 29224 29225 29226 29227 29228 29229 29230 29231 29232 29233 29234 29235 29236 29237 29238 29239 29240 29241 29242 29243 29244 29245 29246 29247 29248 29249 29250 29251 29252 29253 29254 29255 29256 29257 29258 29259 29260 29261 29262 29263 29264 29265 29266 29267 29268 29269 29270 29271 29272 29273 29274 29275 29276 29277 29278 29279 29280 29281 29282 29283 29284 29285 29286 29287 29288 29289 29290 29291 29292 29293 29294 29295 29296 29297 29298 29299 29300 29301 29302 29303 29304 29305 29306 29307 29308 29309 29310 29311 29312 29313 29314 29315 29316 29317 29318 29319 29320 29321 29322 29323 29324 29325 29326 29327 29328 29329 29330 29331 29332 29333 29334 29335 29336 29337 29338 29339 29340 29341 29342 29343 29344 29345 29346 29347 29348 29349 29350 29351 29352 29353 29354 29355 29356 29357 29358 29359 29360 29361 29362 29363 29364 29365 29366 29367 29368 29369 29370 29371 29372 29373 29374 29375 29376 29377 29378 29379 29380 29381 29382 29383 29384 29385 29386 29387 29388 29389 29390 29391 29392 29393 29394 29395 29396 29397 29398 29399 29400 29401 29402 29403 29404 29405 29406 29407 29408 29409 29410 29411 29412 29413 29414 29415 29416 29417 29418 29419 29420 29421 29422 29423 29424 29425 29426 29427 29428 29429 29430 29431 29432 29433 29434 29435 29436 29437 29438 29439 29440 29441 29442 29443 29444 29445 29446 29447 29448 29449 29450 29451 29452 29453 29454 29455 29456 29457 29458 29459 29460 29461 29462 29463 29464 29465 29466 29467 29468 29469 29470 29471 29472 29473 29474 29475 29476 29477 29478 29479 29480 29481 29482 29483 29484 29485 29486 29487 29488 29489 29490 29491 29492 29493 29494 29495 29496 29497 29498 29499 29500 29501 29502 29503 29504 29505 29506 29507 29508 29509 29510 29511 29512 29513 29514 29515 29516 29517 29518 29519 29520 29521 29522 29523 29524 29525 29526 29527 29528 29529 29530 29531 29532 29533 29534 29535 29536 29537 29538 29539 29540 29541 29542 29543 29544 29545 29546 29547 29548 29549 29550 29551 29552 29553 29554 29555 29556 29557 29558 29559 29560 29561 29562 29563 29564 29565 29566 29567 29568 29569 29570 29571 29572 29573 29574 29575 29576 29577 29578 29579 29580 29581 29582 29583 29584 29585 29586 29587 29588 29589 29590 29591 29592 29593 29594 29595 29596 29597 29598 29599 29600 29601 29602 29603 29604 29605 29606 29607 29608 29609 29610 29611 29612 29613 29614 29615 29616 29617 29618 29619 29620 29621 29622 29623 29624 29625 29626 29627 29628 29629 29630 29631 29632 29633 29634 29635 29636 29637 29638 29639 29640 29641 29642 29643 29644 29645 29646 29647 29648 29649 29650 29651 29652 29653 29654 29655 29656 29657 29658 29659 29660 29661 29662 29663 29664 29665 29666 29667 29668 29669 29670 29671 29672 29673 29674 29675 29676 29677 29678 29679 29680 29681 29682 29683 29684 29685 29686 29687 29688 29689 29690 29691 29692 29693 29694 29695 29696 29697 29698 29699 29700 29701 29702 29703 29704 29705 29706 29707 29708 29709 29710 29711 29712 29713 29714 29715 29716 29717 29718 29719 29720 29721 29722 29723 29724 29725 29726 29727 29728 29729 29730 29731 29732 29733 29734 29735 29736 29737 29738 29739 29740 29741 29742 29743 29744 29745 29746 29747 29748 29749 29750 29751 29752 29753 29754 29755 29756 29757 29758 29759 29760 29761 29762 29763 29764 29765 29766 29767 29768 29769 29770 29771 29772 29773 29774 29775 29776 29777 29778 29779 29780 29781 29782 29783 29784 29785 29786 29787 29788 29789 29790 29791 29792 29793 29794 29795 29796 29797 29798 29799 29800 29801 29802 29803 29804 29805 29806 29807 29808 29809 29810 29811 29812 29813 29814 29815 29816 29817 29818 29819 29820 29821 29822 29823 29824 29825 29826 29827 29828 29829 29830 29831 29832 29833 29834 29835 29836 29837 29838 29839 29840 29841 29842 29843 29844 29845 29846 29847 29848 29849 29850 29851 29852 29853 29854 29855 29856 29857 29858 29859 29860 29861 29862 29863 29864 29865 29866 29867 29868 29869 29870 29871 29872 29873 29874 29875 29876 29877 29878 29879 29880 29881 29882 29883 29884 29885 29886 29887 29888 29889 29890 29891 29892 29893 29894 29895 29896 29897 29898 29899 29900 29901 29902 29903 29904 29905 29906 29907 29908 29909 29910 29911 29912 29913 29914 29915 29916 29917 29918 29919 29920 29921 29922 29923 29924 29925 29926 29927 29928 29929 29930 29931 29932 29933 29934 29935 29936 29937 29938 29939 29940 29941 29942 29943 29944 29945 29946 29947 29948 29949 29950 29951 29952 29953 29954 29955 29956 29957 29958 29959 29960 29961 29962 29963 29964 29965 29966 29967 29968 29969 29970 29971 29972 29973 29974 29975 29976 29977 29978 29979 29980 29981 29982 29983 29984 29985 29986 29987 29988 29989 29990 29991 29992 29993 29994 29995 29996 29997 29998 29999 30000 30001 30002 30003 30004 30005 30006 30007 30008 30009 30010 30011 30012 30013 30014 30015 30016 30017 30018 30019 30020 30021 30022 30023 30024 30025 30026 30027 30028 30029 30030 30031 30032 30033 30034 30035 30036 30037 30038 30039 30040 30041 30042 30043 30044 30045 30046 30047 30048 30049 30050 30051 30052 30053 30054 30055 30056 30057 30058 30059 30060 30061 30062 30063 30064 30065 30066 30067 30068 30069 30070 30071 30072 30073 30074 30075 30076 30077 30078 30079 30080 30081 30082 30083 30084 30085 30086 30087 30088 30089 30090 30091 30092 30093 30094 30095 30096 30097 30098 30099 30100 30101 30102 30103 30104 30105 30106 30107 30108 30109 30110 30111 30112 30113 30114 30115 30116 30117 30118 30119 30120 30121 30122 30123 30124 30125 30126 30127 30128 30129 30130 30131 30132 30133 30134 30135 30136 30137 30138 30139 30140 30141 30142 30143 30144 30145 30146 30147 30148 30149 30150 30151 30152 30153 30154 30155 30156 30157 30158 30159 30160 30161 30162 30163 30164 30165 30166 30167 30168 30169 30170 30171 30172 30173 30174 30175 30176 30177 30178 30179 30180 30181 30182 30183 30184 30185 30186 30187 30188 30189 30190 30191 30192 30193 30194 30195 30196 30197 30198 30199 30200 30201 30202 30203 30204 30205 30206 30207 30208 30209 30210 30211 30212 
</DataArray>
<DataArray type="UInt32" Name="offsets" format="ascii">
3 6 9 11 14 16 19 22 25 27 30 32 35 38 40 43 46 49 52 55 58 61 64 67 70 73 76 79 82 85 87 90 93 95 98 101 104 107 110 113 116 119 122 125 128 131 134 136 139 141 144 147 149 152 155 158 161 164 167 170 173 176 179 182 184 186 189 192 195 198 201 204 207 210 213 216 219 222 224 227 230 233 236 239 242 245 247 250 253 256 259 261 264 267 270 273 276 279 282 284 287 290 292 295 298 301 304 306 309 312 315 317 319 322 325 328 331 334 337 340 342 345 348 351 354 356 359 362 365 368 371 374 376 379 382 385 388 390 393 395 398 401 404 407 409 412 415 418 421 424 427 429 431 434 437 440 442 445 447 450 453 456 459 462 465 468 471 474 477 480 483 486 488 491 494 496 499 502 505 508 510 513 515 518 521 523 526 529 532 535 538 540 543 546 548 550 553 555 558 561 564 567 570 573 575 577 580 583 585 588 591 594 597 600 603 606 609 612 615 618 621 624 627 630 633 636 639 642 645 648 651 654 656 659 662 665 667 670 673 676 679 682 685 688 691 694 696 699 702 705 708 711 714 717 720 723 726 729 732 735 738 741 744 746 749 752 755 758 761 764 767 770 773 776 779 782 785 788 791 794 797 800 803 806 808 811 813 816 819 822 825 828 831 834 837 840 843 846 849 852 855 858 861 863 866 869 872 874 877 880 883 886 889 892 895 897 900 903 905 908 911 914 917 920 923 926 928 931 934 936 939 942 945 948 951 953 956 959 962 965 968 971 974 976 979 982 985 988 991 994 997 1000 1003 1005 1008 1011 1014 1017 1019 1022 1025 1028 1030 1033 1035 1038 1041 1043 1046 1049 1052 1055 1058 1061 1064 1067 1070 1073 1076 1079 1082 1084 1087 1090 1093 1096 1098 1101 1104 1107 1110 1113 1116 1119 1122 1125 1128 1131 1134 1137 1140 1143 1146 1149 1152 1155 1158 1161 1164 1167 1170 1173 1176 1178 1181 1183 1186 1189 1191 1194 1197 1200 1203 1206 1209 1211 1214 1217 1220 1223 1226 1229 1231 1234 1237 1240 1242 1245 1247 1250 1253 1256 1259 1262 1265 1268 1271 1274 1277 1280 1283 1286 1289 1292 1295 1298 1301 1304 1307 1310 1313 1316 1319 1322 1324 1327 1330 1333 1336 1339 1342 1345 1348 1350 1353 1356 1359 1362 1365 1368 1371 1373 1376 1379 1382 1385 1388 1391 1394 1396 1399 1402 1405 1408 1411 1413 1416 1419 1422 1425 1427 1429 1432 1435 1437 1440 1443 1446 1449 1452 1455 1458 1461 1464 1466 1469 1472 1475 1478 1481 1484 1487 1490 1493 1496 1499 1502 1505 1508 1511 1513 1516 1518 1521 1523 1526 1528 1531 1534 1537 1540 1543 1545 1548 1551 1554 1557 1560 1563 1566 1569 1572 1575 1578 1581 1583 1586 1589 1592 1595 1598 1601 1604 1606 1608 1611 1614 1617 1620 1623 1626 1628 1631 1634 1637 1639 1641 1643 1646 1649 1652 1655 1657 1660 1662 1665 1668 1670 1673 1676 1679 1681 1684 1687 1690 1693 1696 1699 1702 1705 1708 1711 1714 1717 1720 1723 1726 1729 1732 1735 1738 1740 1742 1744 1747 1749 1752 1755 1758 1760 1763 1765 1768 1771 1774 1777 1780 1783 1786 1788 1791 1794 1797 1800 1803 1806 1809 1812 1814 1817 1820 1823 1826 1829 1832 1835 1838 1841 1844 1847 1850 1853 1856 1858 1861 1864 1867 1870 1873 1876 1879 1882 1885 1888 1891 1894 1896 1899 1902 1905 1907 1910 1913 1915 1917 1920 1923 1926 1928 1930 1933 1936 1939 1942 1945 1948 1950 1953 1956 1958 1960 1963 1966 1969 1972 1974 1977 1980 1983 1986 1989 1992 1995 1998 2001 2004 2007 2010 2013 2016 2019 2022 2024 2027 2030 2033 2036 2039 2041 2044 2047 2050 2053 2056 2059 2061 2064 2067 2070 2073 2076 2079 2082 2085 2088 2091 2094 2097 2100 2103 2106 2109 2112 2114 2117 2120 2123 2125 2128 2131 2134 2137 2140 2143 2146 2149 2152 2155 2158 2161 2164 2167 2170 2173 2176 2179 2182 2185 2188 2191 2194 2197 2200 2203 2206 2209 2212 2215 2218 2221 2224 2227 2230 2233 2236 2239 2242 2244 2247 2250 2253 2256 2259 2262 2264 2267 2270 2273 2276 2279 2282 2285 2288 2291 2294 2297 2300 2303 2306 2309 2312 2315 2318 2321 2324 2326 2329 2332 2335 2338 2341 2343 2346 2349 2352 2355 2358 2361 2364 2367 2370 2373 2376 2379 2382 2384 2387 2390 2392 2394 2397 2400 2403 2406 2409 2412 2415 2418 2421 2424 2427 2430 2433 2436 2439 2442 2445 2448 2451 2454 2457 2460 2463 2466 2469 2472 2475 2478 2481 2484 2487 2490 2493 2496 2498 2501 2504 2507 2509 2512 2515 2518 2521 2524 2527 2529 2531 2534 2536 2539 2541 2544 2547 2550 2553 2556 2559 2562 2565 2567 2570 2573 2576 2579 2582 2585 2588 2591 2594 2597 2600 2603 2606 2608 2611 2613 2616 2619 2622 2625 2628 2631 2634 2637 2640 2643 2646 2649 2652 2654 2657 2660 2663 2666 2669 2672 2675 2678 2681 2683 2686 2689 2691 2694 2697 2699 2701 2704 2707 2709 2712 2714 2717 2720 2723 2725 2727 2730 2733 2736 2739 2742 2744 2747 2750 2753 2756 2759 2761 2763 2766 2769 2772 2775 2778 2781 2784 2786 2789 2792 2794 2797 2800 2802 2804 2807 2810 2813 2816 2819 2822 2825 2828 2831 2834 2837 2840 2842 2845 2848 2851 2854 2857 2860 2863 2866 2869 2872 2875 2878 2881 2884 2887 2890 2893 2896 2899 2902 2905 2908 2911 2914 2917 2920 2923 2926 2928 2931 2934 2937 2940 2943 2946 2949 2952 2955 2958 2961 2964 2967 2970 2973 2976 2979 2982 2985 2988 2991 2994 2996 2999 3002 3004 3007 3010 3013 3015 3018 3021 3024 3027 3030 3033 3036 3039 3042 3045 3048 3050 3053 3056 3059 3062 3065 3068 3071 3074 3076 3079 3082 3085 3088 3091 3094 3097 3100 3103 3105 3107 3110 3113 3116 3119 3122 3125 3128 3131 3134 3137 3140 3143 3146 3149 3152 3155 3158 3161 3164 3167 3170 3173 3176 3179 3182 3185 3188 3191 3194 3197 3200 3203 3206 3209 3211 3214 3217 3220 3223 3226 3229 3232 3235 3238 3241 3244 3247 3250 3253 3255 3258 3260 3263 3266 3269 3272 3275 3278 3281 3284 3287 3290 3293 3296 3299 3302 3305 3308 3311 3314 3317 3320 3322 3325 3328 3331 3333 3336 3338 3340 3343 3346 3349 3352 3355 3358 3361 3364 3367 3370 3373 3376 3379 3382 3385 3388 3391 3394 3397 3400 3402 3405 3407 3410 3413 3416 3418 3421 3424 3427 3430 3433 3436 3439 3442 3445 3447 3450 3453 3455 3457 3460 3462 3465 3467 3470 3473 3476 3479 3482 3485 3487 3490 3493 3496 3498 3501 3504 3507 3510 3513 3516 3519 3521 3524 3527 3530 3533 3536 3538 3540 3543 3546 3549 3552 3555 3558 3561 3564 3567 3570 3573 3576 3579 3582 3585 3588 3591 3594 3597 3600 3603 3606 3608 3611 3614 3617 3620 3623 3625 3627 3629 3632 3635 3638 3641 3643 3646 3649 3652 3655 3658 3661 3664 3667 3670 3672 3675 3678 3681 3684 3687 3690 3693 3696 3699 3702 3705 3708 3711 3713 3716 3719 3722 3725 3728 3731 3734 3737 3740 3743 3746 3749 3752 3754 3757 3760 3763 3766 3769 3772 3775 3778 3781 3784 3787 3790 3793 3796 3799 3802 3804 3807 3810 3813 3816 3819 3822 3825 3828 3830 3833 3836 3839 3842 3845 3848 3851 3854 3856 3859 3862 3865 3867 3870 3872 3875 3878 3881 3884 3887 3890 3893 3896 3899 3902 3905 3907 3910 3912 3915 3918 3921 3924 3926 3929 3932 3935 3938 3940 3943 3946 3949 3952 3955 3958 3961 3964 3967 3970 3973 3976 3979 3982 3985 3988 3991 3994 3997 4000 4003 4006 4009 4012 4015 4018 4021 4024 4027 4030 4032 4035 4037 4040 4043 4046 4049 4052 4055 4057 4060 4063 4066 4069 4072 4075 4078 4080 4083 4086 4089 4092 4095 4098 4101 4104 4107 4110 4113 4116 4119 4121 4124 4127 4130 4133 4136 4139 4142 4145 4147 4150 4153 4156 4159 4161 4164 4167 4169 4172 4175 4178 4181 4184 4187 4190 4193 4196 4199 4202 4205 4208 4211 4214 4217 4220 4223 4226 4229 4232 4235 4238 4241 4244 4247 4250 4253 4256 4259 4262 4264 4267 4270 4273 4276 4279 4282 4285 4288 4291 4294 4297 4300 4303 4306 4309 4312 4315 4318 4321 4324 4327 4330 4332 4334 4337 4339 4342 4344 4347 4350 4353 4355 4357 4360 4363 4366 4369 4372 4375 4378 4381 4384 4387 4390 4392 4395 4398 4401 4404 4406 4409 4412 4415 4418 4421 4424 4427 4430 4433 4436 4439 4442 4445 4448 4451 4454 4457 4459 4462 4465 4468 4471 4474 4477 4480 4483 4486 4489 4491 4494 4497 4500 4503 4506 4508 4510 4513 4516 4519 4522 4525 4528 4531 4534 4537 4539 4542 4545 4548 4551 4554 4557 4560 4563 4565 4568 4571 4574 4577 4580 4583 4586 4589 4591 4594 4597 4600 4603 4606 4609 4612 4614 4617 4620 4622 4624 4627 4630 4633 4636 4639 4642 4644 4647 4650 4653 4656 4659 4662 4665 4668 4671 4674 4677 4680 4682 4685 4688 4691 4694 4696 4699 4702 4704 4707 4710 4713 4715 4718 4720 4723 4725 4728 4731 4734 4736 4739 4742 4745 4748 4751 4754 4757 4760 4763 4766 4769 4772 4775 4778 4780 4783 4786 4789 4791 4794 4796 4799 4802 4805 4808 4811 4814 4817 4819 4822 4825 4828 4830 4833 4836 4839 4842 4845 4848 4851 4854 4857 4860 4863 4866 4869 4872 4875 4878 4881 4884 4887 4890 4893 4896 4899 4902 4905 4908 4911 4913 4916 4919 4922 4924 4926 4929 4932 4935 4938 4941 4944 4947 4950 4952 4955 4958 4961 4964 4967 4970 4973 4976 4979 4982 4984 4987 4990 4993 4995 4998 5001 5004 5007 5010 5013 5016 5019 5022 5025 5028 5031 5034 5037 5040 5043 5046 5049 5052 5055 5058 5061 5064 5067 5070 5073 5076 5078 5081 5084 5087 5090 5093 5096 5099 5102 5104 5107 5110 5113 5116 5119 5122 5125 5127 5130 5133 5136 5139 5142 5145 5148 5151 5154 5157 5160 5162 5165 5167 5170 5173 5175 5178 5180 5182 5185 5188 5191 5194 5197 5200 5203 5206 5209 5211 5214 5217 5220 5222 5225 5228 5230 5233 5236 5239 5242 5245 5248 5250 5253 5256 5259 5262 5264 5267 5269 5272 5275 5277 5279 5281 5283 5286 5289 5292 5295 5298 5300 5303 5306 5309 5312 5315 5317 5320 5323 5326 5329 5331 5334 5336 5339 5342 5344 5347 5350 5353 5356 5359 5362 5365 5367 5370 5373 5376 5378 5381 5384 5387 5390 5392 5395 5398 5401 5403 5406 5409 5412 5414 5417 5420 5422 5424 5427 5430 5433 5436 5438 5441 5444 5447 5450 5453 5456 5459 5462 5465 5468 5471 5474 5477 5480 5483 5486 5489 5492 5495 5498 5501 5504 5507 5510 5512 5515 5518 5521 5524 5527 5530 5533 5536 5539 5541 5544 5547 5550 5553 5556 5559 5562 5564 5567 5570 5573 5576 5579 5582 5585 5588 5591 5594 5597 5600 5603 5606 5609 5612 5615 5617 5620 5623 5626 5629 5632 5634 5636 5639 5642 5645 5648 5651 5653 5656 5659 5662 5664 5667 5670 5673 5676 5679 5682 5684 5687 5690 5692 5694 5697 5700 5703 5706 5709 5712 5714 5717 5720 5723 5726 5729 5731 5734 5737 5739 5742 5745 5748 5751 5753 5756 5758 5761 5764 5767 5769 5772 5775 5777 5780 5783 5786 5789 5792 5795 5798 5801 5803 5806 5809 5812 5815 5818 5820 5823 5826 5829 5832 5835 5838 5841 5844 5847 5849 5852 5854 5857 5860 5863 5866 5869 5872 5875 5878 5881 5884 5887 5889 5892 5895 5898 5901 5904 5907 5910 5913 5916 5919 5922 5925 5927 5930 5933 5935 5938 5941 5943 5946 5949 5952 5954 5957 5960 5963 5966 5969 5971 5974 5977 5979 5982 5985 5988 5990 5993 5996 5999 6002 6004 6007 6010 6013 6016 6019 6022 6025 6028 6031 6034 6037 6040 6042 6045 6048 6051 6053 6056 6059 6062 6065 6068 6071 6073 6076 6079 6082 6085 6088 6091 6093 6096 6099 6102 6105 6108 6111 6114 6117 6120 6123 6126 6129 6132 6135 6138 6141 6143 6146 6149 6152 6155 6158 6161 6163 6166 6169 6172 6175 6178 6181 6184 6187 6190 6193 6196 6199 6202 6204 6207 6210 6213 6216 6219 6222 6225 6228 6230 6233 6236 6239 6242 6245 6248 6250 6253 6256 6259 6262 6265 6268 6271 6274 6277 6280 6283 6286 6289 6292 6295 6298 6301 6304 6307 6310 6313 6316 6319 6322 6325 6328 6331 6334 6337 6340 6342 6345 6348 6351 6353 6356 6359 6362 6364 6367 6370 6372 6375 6378 6381 6384 6386 6389 6392 6395 6398 6401 6404 6407 6409 6412 6415 6418 6421 6424 6427 6430 6433 6436 6439 6442 6445 6448 6451 6454 6457 6460 6463 6466 6469 6472 6475 6478 6481 6483 6486 6489 6492 6495 6498 6500 6503 6505 6508 6511 6513 6516 6519 6522 6525 6528 6531 6533 6536 6539 6542 6545 6548 6550 6553 6556 6559 6561 6564 6567 6570 6573 6576 6579 6582 6584 6587 6590 6592 6595 6598 6601 6604 6606 6609 6612 6615 6618 6621 6623 6626 6629 6631 6634 6637 6640 6643 6646 6649 6652 6655 6658 6660 6663 6666 6668 6670 6673 6676 6679 6682 6685 6688 6691 6694 6697 6700 6703 6706 6709 6712 6715 6718 6721 6724 6727 6730 6733 6736 6739 6742 6745 6748 6751 6754 6757 6759 6762 6765 6768 6771 6774 6777 6780 6783 6786 6789 6792 6795 6798 6801 6804 6807 6810 6812 6815 6818 6820 6823 6826 6829 6832 6834 6836 6839 6842 6845 6848 6851 6854 6857 6860 6863 6866 6869 6872 6875 6878 6881 6884 6887 6890 6893 6896 6899 6902 6904 6907 6910 6912 6915 6918 6921 6924 6927 6930 6933 6936 6939 6942 6945 6948 6951 6954 6957 6960 6963 6966 6968 6971 6974 6977 6979 6982 6985 6988 6991 6994 6997 7000 7003 7006 7009 7012 7015 7018 7021 7024 7027 7030 7033 7036 7039 7042 7045 7048 7051 7054 7057 7060 7063 7066 7068 7071 7073 7076 7078 7081 7084 7087 7090 7093 7095 7098 7101 7104 7106 7109 7112 7115 7118 7121 7123 7126 7129 7131 7134 7137 7140 7143 7145 7148 7151 7154 7157 7160 7163 7166 7169 7172 7175 7178 7181 7184 7187 7190 7193 7196 7199 7202 7205 7207 7210 7213 7216 7218 7221 7224 7227 7230 7233 7236 7239 7242 7245 7248 7251 7254 7257 7260 7263 7265 7268 7271 7274 7277 7280 7283 7286 7289 7292 7295 7298 7301 7304 7307 7310 7313 7316 7319 7322 7325 7328 7331 7334 7337 7340 7343 7346 7349 7352 7355 7358 7361 7364 7367 7370 7373 7376 7379 7382 7385 7388 7391 7394 7397 7400 7403 7406 7408 7411 7414 7417 7420 7423 7425 7428 7431 7434 7437 7440 7443 7446 7449 7452 7455 7458 7461 7464 7467 7470 7473 7476 7479 7482 7485 7488 7491 7494 7497 7500 7503 7506 7509 7511 7514 7517 7520 7523 7525 7528 7531 7533 7536 7539 7542 7545 7548 7551 7554 7557 7560 7562 7565 7568 7571 7573 7576 7579 7582 7585 7588 7591 7594 7596 7599 7602 7605 7608 7611 7614 7617 7619 7622 7625 7628 7631 7634 7637 7640 7642 7645 7648 7651 7654 7656 7659 7662 7664 7667 7669 7672 7675 7677 7680 7683 7686 7689 7692 7694 7697 7699 7701 7704 7707 7710 7713 7716 7719 7722 7724 7727 7730 7733 7735 7738 7741 7744 7747 7750 7752 7755 7758 7760 7763 7766 7768 7771 7773 7776 7779 7782 7785 7788 7791 7794 7797 7800 7803 7806 7809 7812 7815 7818 7821 7824 7827 7830 7833 7836 7839 7842 7844 7847 7850 7853 7856 7858 7861 7864 7867 7870 7873 7876 7878 7881 7884 7887 7890 7893 7896 7899 7902 7905 7908 7911 7914 7917 7920 7923 7926 7929 7932 7935 7938 7941 7944 7947 7950 7953 7956 7959 7962 7965 7968 7971 7974 7977 7980 7983 7986 7989 7992 7995 7998 8001 8004 8007 8010 8013 8016 8019 8022 8025 8028 8031 8034 8037 8040 8043 8046 8049 8052 8055 8058 8061 8064 8067 8070 8073 8076 8079 8081 8084 8087 8090 8093 8096 8099 8102 8105 8108 8111 8114 8117 8120 8123 8126 8129 8132 8135 8138 8141 8144 8147 8150 8153 8156 8159 8162 8165 8168 8171 8174 8177 8180 8183 8186 8189 8192 8195 8198 8201 8204 8207 8210 8213 8216 8219 8222 8225 8228 8231 8234 8237 8240 8243 8246 8249 8252 8255 8258 8261 8264 8267 8269 8272 8275 8278 8281 8284 8287 8290 8293 8296 8299 8302 8305 8308 8310 8313 8316 8319 8322 8325 8328 8331 8334 8337 8340 8343 8345 8348 8351 8354 8357 8360 8363 8366 8369 8372 8374 8376 8379 8381 8384 8386 8389 8391 8394 8397 8399 8402 8405 8408 8411 8414 8417 8420 8422 8425 8428 8431 8434 8436 8438 8441 8444 8447 8450 8453 8456 8458 8460 8463 8466 8469 8471 8474 8477 8480 8483 8486 8489 8492 8495 8498 8501 8504 8507 8510 8513 8516 8519 8522 8525 8528 8531 8534 8537 8539 8542 8545 8548 8550 8553 8556 8559 8562 8564 8567 8570 8573 8576 8579 8582 8585 8588 8591 8594 8596 8599 8602 8605 8608 8611 8614 8617 8620 8623 8626 8629 8632 8634 8637 8640 8643 8646 8649 8652 8655 8658 8661 8663 8666 8669 8672 8675 8678 8681 8683 8686 8689 8692 8695 8698 8701 8704 8707 8710 8713 8715 8717 8720 8723 8726 8728 8731 8734 8737 8740 8742 8745 8748 8751 8754 8757 8760 8763 8766 8769 8772 8775 8778 8781 8783 8786 8789 8792 8795 8798 8801 8803 8806 8809 8812 8815 8817 8820 8822 8825 8828 8831 8834 8837 8840 8843 8846 8849 8852 8855 8858 8861 8864 8867 8870 8873 8876 8879 8882 8885 8888 8891 8894 8896 8899 8902 8905 8908 8911 8914 8917 8920 8923 8925 8928 8931 8934 8937 8940 8943 8946 8949 8952 8955 8957 8960 8963 8965 8968 8971 8974 8977 8980 8982 8985 8988 8990 8992 8995 8998 9000 9003 9006 9009 9012 9015 9018 9021 9024 9027 9030 9033 9036 9039 9042 9045 9048 9050 9053 9055 9058 9061 9064 9067 9070 9072 9075 9078 9081 9084 9087 9089 9092 9095 9098 9101 9104 9107 9110 9113 9116 9118 9121 9124 9126 9129 9131 9134 9137 9140 9142 9145 9148 9150 9153 9156 9159 9162 9164 9167 9170 9173 9176 9179 9181 9184 9187 9190 9193 9196 9199 9202 9205 9208 9211 9214 9217 9220 9223 9226 9229 9232 9235 9238 9241 9244 9247 9250 9253 9256 9259 9261 9264 9267 9270 9272 9275 9278 9281 9284 9287 9290 9293 9296 9299 9302 9305 9307 9310 9313 9315 9318 9321 9324 9327 9330 9332 9335 9338 9341 9344 9347 9350 9353 9356 9359 9362 9365 9368 9371 9374 9377 9380 9383 9386 9388 9391 9394 9397 9400 9403 9406 9408 9411 9414 9417 9420 9423 9425 9428 9431 9434 9437 9440 9443 9446 9449 9452 9455 9458 9461 9464 9467 9470 9472 9475 9478 9481 9484 9487 9490 9493 9496 9499 9502 9505 9508 9510 9513 9516 9519 9522 9525 9528 9531 9534 9537 9540 9543 9546 9549 9552 9555 9558 9561 9564 9567 9570 9573 9576 9579 9581 9584 9587 9590 9593 9596 9598 9601 9604 9606 9609 9611 9614 9617 9619 9622 9625 9628 9631 9634 9637 9640 9643 9646 9649 9651 9654 9657 9660 9663 9666 9669 9672 9675 9678 9681 9684 9687 9690 9693 9696 9699 9702 9705 9708 9711 9714 9717 9720 9723 9726 9729 9732 9735 9738 9740 9743 9746 9749 9752 9755 9758 9761 9764 9767 9770 9773 9775 9778 9781 9784 9787 9790 9793 9795 9798 9801 9804 9807 9810 9813 9816 9819 9822 9825 9828 9831 9834 9836 9839 9842 9844 9847 9850 9853 9855 9858 9860 9863 9866 9869 9872 9875 9878 9880 9883 9886 9888 9891 9893 9896 9899 9902 9905 9908 9911 9913 9915 9918 9921 9923 9926 9929 9932 9935 9938 9941 9944 9947 9950 9953 9956 9959 9962 9965 9968 9971 9974 9977 9980 9983 9986 9989 9992 9994 9997 10000 10003 10006 10008 10010 10013 10016 10019 10022 10025 10028 10031 10034 10037 10039 10042 10045 10047 10049 10052 10055 10058 10060 10063 10066 10069 10072 10075 10078 10080 10083 10086 10089 10092 10095 10098 10100 10103 10106 10109 10112 10115 10118 10121 10124 10126 10129 10132 10135 10137 10140 10143 10146 10148 10151 10154 10156 10159 10161 10164 10167 10170 10173 10176 10179 10182 10185 10188 10191 10194 10197 10200 10203 10206 10209 10212 10215 10218 10221 10224 10227 10230 10233 10235 10238 10241 10244 10247 10250 10253 10255 10258 10261 10264 10266 10269 10272 10275 10278 10281 10284 10287 10290 10293 10296 10299 10302 10305 10308 10311 10314 10316 10319 10322 10325 10328 10330 10333 10336 10338 10341 10344 10347 10350 10353 10356 10358 10361 10364 10367 10370 10373 10376 10378 10381 10384 10387 10390 10393 10396 10399 10402 10405 10408 10411 10414 10417 10420 10423 10425 10428 10430 10433 10436 10438 10441 10444 10447 10450 10453 10456 10459 10462 10465 10468 10471 10474 10477 10479 10482 10485 10488 10491 10494 10497 10500 10503 10506 10509 10512 10515 10518 10521 10524 10527 10530 10533 10536 10539 10542 10545 10548 10551 10554 10557 10560 10562 10565 10568 10570 10573 10576 10579 10581 10584 10587 10589 10592 10595 10598 10601 10603 10606 10609 10612 10615 10617 10620 10623 10626 10628 10631 10633 10635 10638 10641 10644 10647 10650 10653 10656 10659 10662 10665 10668 10671 10674 10677 10679 10682 10685 10688 10690 10693 10696 10699 10702 10705 10708 10711 10713 10716 10719 10722 10725 10728 10731 10734 10737 10740 10742 10745 10748 10751 10754 10757 10760 10763 10766 10769 10771 10774 10777 10780 10783 10786 10789 10792 10795 10798 10801 10803 10806 10809 10812 10815 10818 10821 10824 10827 10830 10833 10836 10839 10842 10844 10847 10850 10852 10855 10858 10861 10864 10867 10870 10873 10876 10879 10882 10885 10888 10891 10894 10896 10899 10902 10905 10908 10910 10913 10916 10919 10921 10923 10926 10929 10932 10935 10938 10941 10944 10947 10950 10953 10956 10959 10962 10965 10968 10971 10974 10977 10980 10983 10986 10989 10991 10994 10997 11000 11003 11006 11009 11012 11015 11018 11021 11024 11027 11030 11033 11036 11039 11042 11045 11048 11051 11054 11057 11060 11063 11066 11068 11071 11074 11077 11080 11082 11084 11087 11090 11093 11096 11099 11102 11105 11107 11110 11113 11116 11119 11122 11125 11127 11130 11133 11136 11139 11142 11145 11148 11151 11153 11156 11159 11162 11165 11168 11171 11174 11177 11180 11183 11186 11189 11192 11195 11198 11201 11204 11207 11210 11212 11215 11218 11221 11224 11227 11230 11233 11235 11238 11241 11244 11246 11249 11252 11255 11258 11261 11264 11267 11270 11273 11276 11279 11281 11284 11286 11289 11291 11294 11297 11300 11302 11305 11308 11311 11314 11317 11320 11323 11326 11329 11331 11334 11337 11340 11343 11346 11349 11352 11355 11358 11361 11364 11367 11370 11373 11375 11377 11380 11383 11385 11388 11391 11394 11397 11399 11402 11404 11406 11408 11411 11413 11415 11418 11421 11424 11427 11430 11432 11435 11438 11440 11443 11446 11449 11452 11455 11458 11460 11463 11466 11469 11471 11474 11477 11480 11482 11485 11488 11491 11494 11496 11499 11501 11504 11507 11510 11512 11514 11516 11519 11521 11524 11527 11530 11533 11535 11538 11540 11543 11545 11548 11551 11553 11555 11558 11560 11562 11565 11568 11571 11574 11577 11580 11583 11585 11588 11591 11593 11596 11599 11602 11605 11607 11610 11613 11616 11619 11622 11625 11628 11630 11632 11635 11638 11641 11643 11646 11649 11652 11654 11657 11659 11662 11665 11668 11670 11673 11676 11678 11681 11684 11686 11688 11691 11694 11697 11699 11702 11705 11708 11711 11714 11716 11719 11722 11725 11728 11731 11734 11737 11740 11743 11746 11749 11752 11755 11758 11761 11764 11767 11770 11773 11776 11779 11782 11785 11788 11791 11794 11797 11800 11803 11806 11809 11812 11815 11818 11821 11824 11827 11830 11833 11835 11838 11841 11843 11846 11848 11851 11853 11856 11859 11862 11864 11866 11869 11872 11874 11876 11879 11882 11885 11888 11890 11892 11895 11898 11901 11903 11906 11909 11912 11915 11918 11921 11924 11927 11930 11933 11936 11939 11941 11944 11947 11950 11953 11956 11959 11962 11965 11968 11971 11974 11977 11980 11982 11984 11987 11990 11993 11996 11999 12002 12004 12006 12008 12011 12014 12017 12020 12023 12026 12029 12032 12035 12038 12041 12043 12045 12048 12051 12053 12056 12058 12061 12064 12067 12069 12072 12075 12078 12081 12084 12087 12090 12093 12096 12099 12101 12104 12107 12110 12113 12116 12119 12122 12125 12127 12130 12133 12136 12139 12142 12145 12148 12151 12154 12156 12159 12162 12165 12168 12171 12174 12177 12179 12182 12185 12188 12191 12194 12197 12200 12203 12206 12209 12212 12215 12218 12220 12223 12226 12229 12232 12235 12238 12240 12243 12246 12249 12252 12255 12258 12261 12263 12266 12268 12271 12273 12276 12279 12282 12284 12287 12290 12293 12296 12299 12302 12305 12307 12310 12313 12315 12318 12320 12323 12326 12329 12332 12335 12338 12340 12343 12346 12349 12352 12355 12358 12361 12364 12367 12370 12373 12375 12377 12380 12382 12385 12388 12390 12393 12396 12399 12402 12405 12407 12410 12413 12416 12419 12422 12425 12428 12431 12433 12436 12439 12441 12444 12447 12450 12453 12455 12458 12461 12464 12467 12470 12473 12475 12478 12481 12484 12486 12489 12492 12495 12498 12500 12503 12505 12507 12510 12513 12516 12519 12522 12525 12528 12531 12533 12536 12539 12542 12545 12548 12551 12554 12557 12560 12563 12566 12569 12572 12574 12577 12580 12583 12586 12589 12592 12595 12598 12601 12604 12607 12610 12613 12615 12618 12621 12624 12627 12630 12633 12635 12638 12641 12644 12647 12650 12653 12656 12659 12662 12664 12667 12670 12673 12676 12679 12682 12685 12688 12691 12694 12697 12700 12703 12705 12708 12711 12714 12717 12719 12722 12725 12728 12730 12733 12736 12739 12741 12744 12747 12749 12751 12754 12757 12760 12762 12765 12768 12771 12774 12777 12780 12783 12786 12789 12792 12795 12798 12800 12803 12805 12808 12811 12814 12817 12820 12822 12824 12827 12830 12833 12836 12838 12841 12843 12846 12848 12851 12854 12857 12860 12863 12866 12869 12872 12875 12878 12881 12884 12887 12890 12893 12896 12899 12902 12905 12908 12911 12914 12917 12920 12923 12926 12929 12932 12935 12938 12941 12944 12947 12950 12953 12956 12959 12962 12965 12968 12971 12974 12977 12980 12983 12986 12989 12991 12994 12996 12999 13002 13005 13008 13010 13013 13016 13019 13022 13025 13028 13031 13034 13037 13040 13043 13046 13049 13052 13055 13058 13061 13064 13067 13069 13072 13075 13078 13081 13084 13087 13090 13092 13095 13098 13100 13103 13106 13108 13111 13114 13117 13120 13123 13126 13129 13132 13134 13137 13140 13143 13146 13149 13152 13154 13157 13160 13163 13166 13169 13172 13175 13178 13180 13183 13186 13189 13192 13195 13197 13200 13202 13204 13207 13210 13213 13215 13218 13220 13223 13226 13229 13232 13235 13238 13241 13244 13247 13250 13253 13256 13259 13262 13265 13268 13270 13272 13275 13278 13281 13284 13287 13290 13293 13296 13299 13302 13305 13308 13310 13313 13316 13318 13321 13324 13327 13330 13332 13335 13338 13341 13344 13347 13350 13353 13356 13359 13362 13365 13368 13371 13374 13377 13380 13383 13386 13389 13392 13395 13398 13401 13404 13407 13410 13413 13416 13419 13422 13425 13428 13431 13434 13437 13440 13442 13445 13447 13450 13453 13456 13459 13462 13465 13468 13470 13473 13476 13479 13482 13484 13487 13490 13492 13495 13498 13501 13504 13507 13510 13513 13516 13519 13522 13525 13528 13531 13534 13537 13540 13543 13546 13548 13550 13553 13556 13559 13562 13565 13568 13571 13574 13577 13580 13583 13586 13589 13592 13595 13598 13601 13604 13607 13610 13613 13616 13619 13621 13624 13627 13630 13633 13636 13639 13642 13645 13648 13651 13654 13657 13660 13663 13666 13669 13671 13674 13677 13680 13682 13685 13688 13691 13693 13696 13698 13701 13704 13706 13709 13712 13714 13717 13720 13723 13726 13729 13732 13735 13738 13741 13743 13746 13749 13752 13755 13758 13761 13763 13765 13768 13771 13774 13777 13780 13783 13786 13789 13791 13794 13797 13799 13802 13805 13808 13811 13814 13817 13820 13822 13825 13828 13831 13833 13836 13839 13842 13844 13846 13849 13852 13855 13858 13861 13864 13867 13870 13873 13876 13879 13881 13884 13886 13889 13892 13894 13897 13900 13903 13905 13908 13911 13914 13917 13920 13923 13926 13928 13931 13934 13937 13939 13942 13945 13948 13950 13952 13955 13958 13961 13964 13966 13969 13972 13975 13978 13981 13984 13987 13990 13992 13994 13997 14000 14003 14006 14008 14010 14012 14015 14017 14020 14022 14024 14027 14029 14032 14035 14038 14040 14043 14046 14049 14052 14055 14058 14060 14063 14065 14068 14070 14072 14074 14076 14079 14082 14085 14088 14090 14092 14095 14098 14101 14103 14105 14108 14111 14114 14117 14119 14122 14125 14127 14130 14133 14136 14139 14141 14143 14146 14149 14152 14155 14157 14160 14162 14165 14168 14171 14174 14176 14179 14182 14185 14188 14191 14194 14197 14200 14203 14206 14209 14212 14215 14218 14221 14224 14227 14230 14233 14236 14239 14242 14244 14247 14250 14253 14256 14259 14262 14265 14268 14271 14274 14277 14280 14283 14286 14289 14292 14295 14298 14301 14304 14307 14310 14313 14316 14319 14321 14324 14327 14330 14333 14335 14338 14341 14343 14346 14349 14352 14354 14357 14359 14362 14365 14368 14371 14374 14377 14380 14383 14385 14388 14391 14394 14396 14399 14402 14405 14408 14411 14414 14417 14419 14422 14424 14427 14430 14432 14435 14437 14440 14443 14446 14449 14452 14455 14458 14461 14464 14467 14470 14473 14476 14479 14481 14483 14486 14489 14492 14495 14498 14501 14504 14507 14510 14513 14516 14519 14521 14524 14527 14530 14533 14536 14539 14542 14545 14548 14551 14554 14557 14560 14563 14565 14568 14570 14573 14576 14579 14582 14585 14588 14591 14594 14597 14599 14602 14605 14608 14611 14614 14617 14620 14622 14625 14627 14630 14633 14636 14638 14641 14643 14646 14649 14652 14655 14658 14660 14663 14666 14668 14670 14673 14676 14679 14682 14684 14687 14690 14693 14696 14699 14702 14705 14708 14711 14714 14717 14720 14723 14726 14729 14732 14735 14737 14739 14742 14745 14747 14750 14753 14756 14758 14761 14764 14767 14770 14773 14776 14779 14781 14784 14786 14789 14792 14795 14797 14800 14803 14806 14809 14812 14815 14818 14821 14824 14826 14829 14832 14835 14837 14840 14843 14846 14849 14852 14855 14857 14860 14863 14866 14869 14872 14875 14877 14880 14883 14886 14889 14892 14894 14897 14900 14902 14905 14908 14911 14913 14916 14919 14922 14925 14928 14931 14934 14936 14938 14941 14944 14947 14950 14953 14956 14959 14962 14964 14967 14970 14973 14976 14978 14981 14984 14986 14989 14992 14995 14998 15001 15004 15007 15010 15013 15016 15019 15022 15025 15028 15031 15034 15037 15040 15043 15046 15049 15052 15055 15058 15061 15064 15067 15070 15073 15076 15079 15082 15085 15088 15091 15094 15097 15100 15102 15105 15108 15111 15114 15117 15120 15123 15126 15129 15132 15135 15138 15141 15144 15147 15150 15153 15155 15158 15161 15164 15167 15170 15173 15176 15179 15182 15185 15188 15191 15194 15197 15200 15203 15206 15209 15212 15215 15218 15221 15224 15227 15230 15233 15236 15239 15242 15245 15248 15251 15254 15257 15260 15263 15266 15269 15272 15275 15278 15281 15284 15287 15290 15293 15296 15299 15302 15305 15308 15311 15314 15317 15320 15323 15326 15329 15332 15335 15338 15341 15344 15347 15350 15353 15356 15359 15362 15365 15368 15371 15374 15377 15380 15383 15386 15389 15392 15395 15398 15401 15404 15407 15410 15413 15416 15419 15422 15425 15428 15430 15433 15436 15439 15442 15445 15448 15451 15453 15456 15459 15462 15465 15468 15471 15473 15476 15479 15482 15485 15488 15491 15494 15497 15500 15503 15506 15509 15512 15515 15517 15520 15522 15525 15528 15531 15534 15537 15540 15543 15546 15549 15552 15555 15558 15561 15564 15567 15570 15572 15575 15578 15580 15583 15586 15589 15592 15595 15598 15600 15603 15606 15609 15612 15615 15617 15620 15623 15626 15629 15632 15635 15638 15640 15643 15645 15648 15651 15654 15657 15660 15662 15665 15667 15670 15672 15675 15677 15680 15683 15686 15689 15692 15695 15698 15701 15704 15707 15710 15713 15716 15719 15722 15725 15728 15731 15734 15737 15740 15743 15746 15749 15752 15755 15758 15761 15764 15766 15769 15772 15775 15778 15781 15784 15787 15790 15793 15796 15799 15802 15805 15808 15811 15814 15817 15820 15823 15826 15829 15832 15835 15838 15841 15844 15846 15849 15852 15855 15857 15860 15863 15865 15868 15871 15874 15877 15880 15883 15885 15888 15891 15893 15896 15899 15901 15904 15907 15910 15913 15916 15919 15922 15925 15928 15931 15933 15936 15939 15942 15945 15948 15951 15954 15956 15959 15962 15965 15968 15971 15974 15977 15980 15983 15985 15988 15991 15994 15997 16000 16003 16006 16009 16012 16015 16018 16021 16024 16027 16030 16033 16035 16038 16041 16044 16047 16050 16053 16056 16059 16062 16065 16068 16071 16074 16077 16080 16083 16086 16089 16092 16095 16098 16101 16104 16107 16109 16112 16115 16118 16121 16124 16127 16130 16133 16136 16139 16141 16143 16146 16149 16152 16155 16158 16161 16164 16167 16170 16173 16176 16179 16181 16184 16187 16190 16193 16195 16198 16201 16204 16207 16210 16213 16216 16219 16221 16224 16227 16230 16233 16236 16239 16242 16245 16247 16250 16253 16256 16258 16261 16264 16267 16270 16273 16276 16279 16282 16285 16287 16289 16292 16295 16298 16301 16304 16307 16310 16313 16316 16319 16322 16325 16328 16331 16334 16337 16340 16343 16346 16349 16352 16355 16358 16361 16364 16367 16370 16373 16376 16379 16382 16385 16388 16391 16394 16397 16400 16403 16406 16409 16412 16415 16418 16421 16424 16427 16430 16433 16436 16439 16442 16445 16448 16451 16454 16457 16460 16463 16466 16469 16472 16475 16478 16481 16484 16487 16490 16493 16496 16499 16502 16505 16508 16511 16514 16517 16520 16523 16526 16529 16532 16535 16538 16541 16544 16547 16550 16553 16556 16559 16562 16565 16568 16571 16574 16577 16580 16583 16586 16589 16592 16595 16598 16601 16604 16607 16610 16613 16616 16619 16622 16625 16628 16631 16634 16637 16640 16643 16646 16649 16652 16654 16657 16660 16662 16665 16667 16669 16672 16675 16678 16680 16683 16686 16688 16691 16694 16697 16700 16703 16706 16708 16711 16714 16717 16720 16723 16726 16729 16732 16735 16738 16741 16744 16747 16750 16753 16756 16759 16762 16765 16768 16771 16774 16777 16780 16783 16786 16789 16792 16795 16798 16801 16804 16807 16810 16813 16816 16819 16822 16825 16828 16831 16834 16837 16840 16843 16846 16849 16852 16855 16858 16860 16862 16865 16868 16871 16874 16877 16880 16882 16885 16888 16891 16894 16897 16899 16902 16905 16908 16911 16914 16916 16919 16922 16925 16928 16931 16934 16937 16940 16943 16946 16948 16951 16953 16956 16959 16962 16965 16968 16970 16973 16976 16979 16982 16985 16987 16990 16992 16995 16998 17001 17004 17007 17009 17012 17015 17018 17021 17024 17027 17030 17033 17036 17039 17042 17045 17048 17051 17054 17057 17060 17063 17065 17068 17071 17074 17076 17078 17081 17084 17087 17090 17093 17096 17099 17102 17104 17107 17110 17113 17116 17119 17122 17125 17128 17131 17134 17137 17140 17143 17145 17148 17151 17154 17157 17160 17163 17166 17169 17172 17175 17178 17181 17184 17187 17190 17193 17196 17199 17202 17205 17208 17211 17214 17217 17220 17223 17226 17229 17232 17235 17238 17241 17244 17247 17250 17253 17256 17259 17262 17265 17268 17271 17274 17277 17280 17283 17286 17289 17292 17295 17298 17301 17303 17306 17309 17312 17315 17318 17321 17324 17326 17329 17332 17335 17337 17340 17343 17346 17349 17352 17355 17358 17361 17364 17367 17370 17373 17376 17379 17382 17384 17387 17390 17393 17395 17398 17401 17404 17407 17410 17413 17416 17418 17421 17424 17427 17430 17433 17436 17438 17441 17444 17446 17449 17452 17455 17458 17461 17464 17467 17470 17473 17476 17478 17481 17484 17487 17489 17492 17495 17498 17501 17503 17506 17509 17512 17515 17518 17521 17524 17527 17530 17533 17535 17538 17541 17544 17547 17550 17553 17556 17558 17561 17564 17567 17570 17573 17576 17579 17582 17585 17588 17591 17594 17597 17599 17602 17604 17607 17610 17613 17616 17619 17622 17624 17627 17629 17632 17635 17638 17641 17644 17647 17650 17653 17656 17658 17661 17664 17667 17670 17673 17676 17679 17682 17685 17688 17691 17694 17697 17700 17703 17706 17709 17712 17715 17718 17721 17724 17727 17730 17733 17736 17739 17742 17745 17748 17751 17754 17757 17760 17763 17765 17768 17771 17774 17777 17780 17783 17785 17788 17791 17794 17797 17799 17802 17805 17808 17810 17813 17816 17819 17821 17824 17827 17830 17833 17836 17839 17842 17845 17848 17851 17854 17857 17860 17863 17866 17869 17872 17875 17878 17881 17884 17886 17889 17892 17895 17898 17901 17904 17907 17910 17913 17916 17918 17921 17924 17926 17929 17932 17935 17938 17941 17944 17947 17950 17953 17956 17959 17962 17965 17968 17971 17974 17977 17980 17983 17986 17989 17992 17995 17998 18000 18002 18005 18008 18010 18012 18015 18018 18021 18024 18027 18030 18033 18036 18039 18042 18045 18048 18051 18054 18056 18059 18062 18065 18068 18070 18073 18076 18079 18082 18085 18088 18091 18094 18097 18100 18103 18106 18109 18111 18114 18117 18120 18123 18126 18129 18132 18135 18138 18141 18143 18146 18149 18152 18155 18158 18160 18163 18166 18169 18172 18175 18178 18181 18184 18187 18190 18193 18196 18199 18202 18205 18207 18210 18213 18216 18218 18220 18223 18226 18229 18231 18233 18236 18239 18241 18244 18247 18250 18253 18255 18258 18261 18264 18267 18270 18273 18276 18279 18281 18284 18287 18290 18293 18295 18297 18300 18302 18305 18308 18311 18314 18316 18319 18321 18324 18327 18330 18333 18335 18338 18340 18343 18346 18349 18352 18355 18358 18361 18364 18367 18370 18373 18376 18379 18381 18384 18387 18390 18393 18396 18398 18401 18404 18407 18410 18413 18415 18418 18420 18423 18426 18429 18432 18435 18438 18441 18444 18446 18449 18452 18455 18458 18461 18464 18467 18470 18473 18476 18479 18482 18485 18487 18490 18493 18496 18499 18501 18504 18507 18510 18513 18516 18519 18522 18525 18528 18531 18534 18537 18539 18542 18545 18548 18551 18554 18557 18560 18563 18566 18569 18572 18575 18578 18581 18584 18587 18590 18593 18596 18599 18602 18605 18608 18611 18614 18617 18620 18623 18626 18629 18632 18634 18637 18640 18643 18646 18649 18652 18655 18657 18660 18663 18666 18669 18671 18674 18677 18680 18683 18686 18688 18691 18694 18697 18700 18703 18706 18709 18712 18714 18717 18720 18723 18726 18729 18732 18735 18738 18741 18744 18747 18750 18753 18756 18759 18761 18764 18767 18770 18773 18776 18779 18782 18785 18788 18791 18794 18796 18799 18802 18804 18807 18810 18813 18816 18819 18822 18825 18828 18831 18834 18837 18840 18843 18846 18849 18852 18854 18857 18860 18863 18866 18869 18872 18875 18878 18881 18884 18887 18890 18893 18895 18898 18901 18904 18907 18910 18913 18916 18919 18922 18925 18928 18931 18934 18937 18940 18943 18946 18949 18952 18954 18957 18960 18963 18966 18969 18971 18974 18977 18980 18983 18985 18988 18991 18994 18997 19000 19003 19005 19007 19010 19013 19016 19019 19022 19025 19028 19031 19034 19037 19040 19043 19046 19049 19052 19055 19058 19061 19064 19067 19070 19072 19075 19078 19081 19084 19087 19090 19093 19096 19099 19102 19105 19108 19111 19114 19117 19120 19123 19126 19129 19132 19135 19138 19141 19144 19147 19150 19153 19156 19159 19162 19165 19168 19171 19174 19177 19180 19183 19185 19188 19191 19194 19196 19199 19202 19204 19207 19210 19213 19216 19219 19222 19225 19228 19231 19234 19236 19239 19242 19245 19248 19250 19253 19256 19259 19262 19265 19268 19271 19274 19277 19280 19282 19285 19288 19291 19293 19296 19299 19301 19303 19306 19309 19312 19315 19318 19321 19324 19327 19330 19333 19336 19339 19342 19345 19348 19351 19353 19356 19359 19362 19364 19367 19369 19372 19375 19378 19381 19383 19386 19389 19392 19395 19398 19400 19403 19406 19409 19412 19414 19416 19419 19421 19424 19427 19429 19432 19434 19437 19440 19443 19446 19448 19451 19454 19457 19460 19463 19466 19468 19471 19474 19476 19478 19481 19484 19487 19490 19493 19496 19499 19502 19505 19508 19511 19514 19517 19520 19523 19526 19528 19531 19533 19536 19538 19541 19544 19547 19550 19553 19556 19559 19562 19565 19568 19571 19574 19577 19580 19583 19586 19589 19592 19595 19598 19600 19603 19606 19609 19612 19615 19618 19620 19623 19625 19628 19631 19633 19636 19639 19641 19644 19647 19650 19653 19656 19659 19662 19664 19667 19670 19673 19676 19678 19681 19684 19687 19690 19693 19696 19698 19701 19704 19707 19710 19712 19715 19718 19721 19724 19727 19730 19733 19736 19739 19741 19744 19747 19750 19753 19756 19759 19762 19765 19768 19771 19774 19777 19780 19782 19785 19788 19790 19793 19796 19799 19801 19803 19806 19808 19811 19814 19817 19819 19822 19825 19828 19831 19833 19836 19839 19841 19844 19846 19849 19852 19855 19858 19861 19863 19865 19868 19871 19874 19877 19880 19883 19886 19889 19892 19895 19898 19901 19904 19907 19910 19913 19915 19918 19921 19924 19927 19930 19933 19936 19939 19942 19945 19948 19951 19954 19957 19960 19963 19966 19969 19972 19975 19978 19981 19984 19987 19990 19993 19996 19999 20002 20005 20008 20011 20014 20017 20020 20023 20026 20029 20032 20035 20038 20041 20044 20047 20050 20053 20055 20058 20061 20064 20067 20070 20073 20075 20078 20081 20084 20087 20090 20093 20096 20099 20101 20103 20106 20109 20112 20115 20118 20121 20124 20127 20130 20133 20136 20139 20142 20145 20148 20151 20154 20157 20160 20163 20166 20169 20171 20173 20176 20179 20182 20185 20188 20191 20194 20197 20200 20203 20206 20209 20212 20215 20218 20220 20223 20226 20229 20232 20235 20238 20241 20244 20247 20250 20253 20256 20259 20262 20264 20267 20270 20273 20276 20279 20282 20285 20288 20291 20294 20297 20300 20303 20306 20309 20312 20315 20318 20321 20324 20327 20330 20333 20336 20339 20342 20345 20348 20351 20354 20357 20360 20363 20366 20369 20372 20375 20378 20381 20384 20387 20390 20393 20396 20399 20402 20405 20408 20411 20414 20417 20420 20423 20426 20429 20432 20435 20438 20441 20444 20447 20450 20453 20456 20459 20462 20465 20468 20471 20473 20476 20479 20482 20485 20488 20491 20494 20497 20500 20503 20506 20509 20512 20515 20518 20521 20523 20526 20529 20532 20535 20537 20540 20543 20546 20549 20552 20555 20557 20560 20563 20566 20569 20571 20574 20576 20579 20581 20584 20587 20590 20593 20595 20598 20601 20603 20606 20608 20611 20614 20617 20620 20623 20626 20629 20632 20635 20638 20641 20644 20647 20650 20653 20656 20659 20662 20665 20668 20671 20674 20677 20680 20683 20686 20689 20692 20694 20697 20700 20702 20705 20708 20711 20714 20717 20720 20723 20726 20729 20732 20735 20738 20740 20743 20746 20749 20752 20755 20758 20761 20764 20767 20770 20773 20776 20779 20782 20784 20787 20790 20793 20796 20799 20802 20805 20807 20810 20812 20815 20818 20820 20823 20825 20828 20830 20833 20836 20839 20842 20845 20848 20851 20854 20857 20860 20862 20865 20868 20871 20874 20877 20880 20883 20886 20889 20892 20894 20897 20900 20903 20905 20908 20910 20912 20915 20918 20920 20923 20926 20929 20932 20934 20937 20940 20943 20946 20948 20951 20954 20956 20959 20962 20965 20968 20971 20974 20977 20979 20982 20985 20988 20990 20993 20996 20999 21002 21005 21008 21011 21014 21017 21020 21023 21026 21029 21032 21034 21037 21040 21043 21045 21048 21051 21054 21057 21060 21063 21066 21069 21072 21074 21077 21080 21083 21086 21088 21091 21094 21097 21099 21102 21105 21107 21110 21113 21116 21119 21122 21125 21128 21131 21134 21137 21140 21143 21146 21149 21151 21154 21157 21160 21163 21166 21169 21172 21175 21178 21181 21184 21187 21190 21193 21196 21199 21202 21205 21208 21211 21214 21217 21220 21223 21226 21228 21231 21234 21237 21240 21243 21246 21248 21251 21254 21257 21260 21263 21266 21269 21272 21275 21278 21281 21284 21287 21290 21293 21296 21299 21302 21305 21308 21311 21314 21317 21319 21322 21325 21328 21331 21334 21337 21340 21342 21345 21348 21351 21354 21357 21360 21363 21365 21368 21371 21373 21376 21379 21382 21385 21388 21391 21394 21397 21400 21403 21406 21409 21412 21415 21418 21421 21424 21427 21430 21433 21436 21439 21442 21445 21448 21451 21454 21457 21460 21463 21466 21469 21472 21475 21478 21481 21484 21487 21490 21493 21496 21499 21502 21505 21508 21510 21513 21516 21518 21521 21524 21527 21530 21532 21534 21537 21540 21543 21546 21549 21552 21554 21557 21560 21563 21565 21568 21571 21574 21577 21579 21582 21585 21588 21591 21594 21596 21599 21602 21605 21608 21611 21614 21616 21619 21622 21625 21628 21631 21634 21637 21640 21643 21645 21648 21651 21654 21657 21660 21662 21665 21668 21670 21672 21675 21678 21681 21684 21687 21690 21693 21696 21699 21702 21705 21708 21710 21713 21716 21719 21722 21725 21728 21731 21734 21737 21740 21743 21746 21749 21752 21755 21758 21761 21764 21767 21770 21773 21776 21778 21781 21784 21787 21790 21793 21796 21799 21802 21804 21807 21810 21813 21816 21818 21821 21824 21826 21828 21831 21834 21837 21840 21843 21846 21849 21852 21855 21858 21861 21864 21867 21870 21873 21876 21879 21882 21885 21888 21891 21894 21897 21900 21903 21906 21909 21912 21915 21918 21921 21924 21927 21930 21933 21936 21939 21942 21945 21948 21951 21954 21957 21960 21962 21965 21967 21970 21973 21976 21979 21982 21985 21988 21991 21994 21997 22000 22003 22006 22009 22012 22015 22018 22021 22023 22026 22029 22032 22034 22037 22040 22043 22046 22049 22052 22055 22058 22061 22064 22067 22070 22073 22075 22078 22081 22084 22087 22090 22093 22096 22099 22102 22105 22108 22111 22114 22117 22120 22123 22125 22128 22130 22133 22136 22139 22142 22145 22148 22151 22154 22157 22160 22163 22165 22168 22171 22174 22176 22179 22182 22185 22188 22190 22193 22196 22198 22200 22203 22205 22208 22211 22214 22217 22220 22223 22226 22229 22232 22235 22238 22241 22244 22247 22250 22253 22256 22259 22262 22265 22268 22271 22274 22277 22280 22283 22285 22288 22290 22293 22296 22299 22301 22304 22307 22310 22313 22316 22319 22321 22324 22327 22330 22333 22336 22339 22342 22344 22346 22349 22352 22354 22356 22359 22361 22364 22367 22369 22371 22374 22377 22379 22382 22385 22387 22390 22393 22396 22399 22402 22404 22407 22410 22413 22416 22418 22421 22424 22427 22430 22433 22436 22439 22442 22445 22448 22451 22453 22456 22459 22462 22464 22467 22469 22471 22474 22477 22480 22483 22485 22488 22491 22494 22496 22499 22502 22505 22507 22510 22513 22516 22519 22522 22525 22527 22530 22533 22536 22539 22542 22545 22548 22551 22554 22556 22558 22561 22564 22567 22570 22573 22576 22579 22582 22585 22588 22591 22594 22597 22600 22603 22606 22609 22611 22614 22617 22620 22623 22626 22629 22632 22635 22638 22641 22644 22647 22650 22653 22655 22658 22661 22664 22666 22669 22672 22675 22678 22681 22684 22687 22690 22693 22696 22699 22702 22705 22708 22711 22714 22717 22720 22722 22725 22728 22731 22734 22737 22740 22742 22745 22748 22751 22754 22757 22760 22763 22765 22768 22771 22774 22777 22780 22783 22786 22789 22792 22795 22798 22801 22803 22806 22809 22812 22815 22818 22821 22824 22826 22829 22832 22835 22838 22841 22844 22847 22850 22853 22856 22859 22862 22865 22868 22871 22874 22877 22880 22883 22886 22889 22892 22895 22898 22901 22904 22907 22910 22913 22916 22919 22922 22925 22928 22930 22933 22936 22939 22941 22944 22947 22950 22953 22956 22959 22962 22965 22968 22971 22974 22976 22979 22982 22985 22988 22990 22993 22996 22999 23002 23005 23008 23011 23014 23017 23019 23021 23024 23026 23029 23032 23035 23038 23041 23044 23047 23050 23053 23056 23058 23061 23064 23067 23070 23073 23075 23078 23080 23083 23086 23089 23092 23095 23098 23101 23104 23107 23110 23113 23116 23119 23122 23124 23127 23130 23133 23136 23139 23142 23145 23148 23151 23153 23156 23159 23162 23165 23168 23170 23173 23176 23179 23182 23185 23187 23189 23192 23195 23197 23200 23203 23206 23208 23210 23212 23215 23218 23221 23223 23226 23228 23231 23234 23237 23240 23243 23246 23249 23252 23254 23257 23260 23263 23265 23268 23271 23273 23275 23278 23281 23284 23287 23290 23293 23296 23299 23302 23305 23308 23311 23314 23317 23320 23323 23326 23329 23332 23335 23337 23340 23343 23346 23349 23352 23355 23358 23361 23363 23366 23369 23371 23374 23377 23379 23381 23383 23386 23389 23392 23395 23398 23401 23404 23407 23410 23413 23416 23419 23422 23425 23428 23431 23433 23436 23438 23441 23443 23446 23449 23451 23454 23457 23460 23462 23465 23467 23470 23472 23475 23478 23481 23484 23487 23490 23493 23495 23498 23501 23504 23507 23510 23513 23516 23519 23522 23525 23528 23531 23534 23537 23540 23543 23546 23549 23552 23555 23558 23561 23564 23567 23570 23573 23576 23579 23582 23585 23588 23591 23594 23596 23599 23601 23604 23607 23610 23613 23616 23619 23622 23625 23628 23631 23634 23637 23640 23643 23646 23649 23652 23655 23658 23661 23664 23667 23669 23671 23674 23677 23680 23682 23684 23687 23690 23692 23695 23698 23701 23703 23706 23708 23711 23714 23717 23720 23722 23725 23727 23730 23733 23735 23737 23740 23743 23746 23749 23752 23755 23758 23761 23764 23767 23769 23772 23775 23778 23781 23784 23787 23790 23793 23796 23799 23802 23805 23808 23811 23814 23816 23819 23822 23825 23828 23831 23834 23836 23839 23842 23845 23848 23851 23854 23857 23860 23862 23865 23868 23870 23872 23874 23877 23880 23883 23886 23888 23890 23893 23896 23898 23901 23904 23907 23910 23913 23916 23919 23921 23924 23927 23930 23933 23936 23938 23940 23943 23946 23949 23951 23954 23957 23960 23962 23965 23967 23970 23973 23976 23979 23982 23985 23988 23991 23994 23997 24000 24003 24006 24009 24012 24015 24018 24021 24024 24027 24030 24033 24036 24039 24041 24044 24047 24050 24053 24056 24059 24062 24065 24067 24070 24073 24076 24079 24082 24084 24087 24089 24092 24094 24097 24100 24103 24106 24108 24111 24114 24117 24120 24123 24125 24128 24131 24133 24136 24138 24141 24144 24147 24150 24152 24154 24157 24160 24163 24166 24168 24171 24174 24177 24180 24182 24185 24188 24190 24193 24196 24198 24201 24204 24207 24209 24212 24214 24217 24220 24223 24225 24228 24231 24233 24236 24239 24242 24244 24247 24250 24253 24256 24259 24262 24265 24268 24271 24274 24277 24280 24283 24286 24289 24291 24294 24297 24300 24303 24306 24308 24311 24314 24316 24319 24322 24325 24327 24330 24333 24336 24339 24342 24345 24347 24350 24353 24356 24359 24362 24365 24368 24371 24374 24377 24380 24383 24386 24389 24392 24395 24398 24401 24404 24407 24410 24413 24416 24419 24422 24425 24428 24431 24434 24436 24439 24442 24445 24448 24450 24453 24456 24459 24462 24465 24468 24471 24474 24477 24480 24483 24486 24488 24491 24494 24496 24499 24502 24505 24507 24510 24513 24515 24518 24521 24524 24526 24529 24532 24534 24537 24540 24542 24545 24547 24550 24553 24556 24558 24560 24563 24566 24569 24572 24575 24578 24581 24583 24586 24588 24590 24593 24596 24598 24601 24603 24606 24609 24612 24615 24618 24621 24624 24626 24629 24632 24634 24636 24639 24642 24645 24648 24651 24653 24656 24659 24662 24665 24668 24671 24674 24677 24680 24683 24686 24689 24692 24695 24698 24701 24704 24706 24709 24712 24715 24718 24720 24723 24726 24729 24731 24734 24736 24738 24741 24744 24747 24750 24753 24756 24759 24762 24765 24768 24770 24773 24776 24778 24781 24784 24787 24790 24793 24796 24798 24801 24804 24807 24810 24813 24816 24819 24822 24825 24828 24831 24834 24837 24840 24843 24846 24849 24851 24854 24857 24860 24862 24865 24867 24870 24873 24876 24879 24882 24885 24888 24891 24893 24896 24899 24902 24904 24907 24909 24912 24915 24918 24920 24923 24926 24929 24932 24935 24938 24941 24944 24947 24949 24952 24955 24958 24961 24963 24966 24969 24972 24975 24978 24981 24984 24986 24989 24991 24994 24996 24999 25002 25005 25008 25011 25014 25017 25020 25023 25026 25029 25032 25035 25038 25041 25044 25047 25049 25052 25054 25057 25060 25063 25065 25068 25071 25074 25077 25080 25083 25086 25088 25090 25093 25096 25099 25101 25104 25106 25109 25111 25114 25117 25120 25122 25125 25128 25131 25133 25136 25139 25142 25144 25147 25150 25153 25156 25159 25161 25164 25167 25170 25173 25175 25178 25181 25184 25187 25189 25192 25195 25198 25201 25204 25207 25210 25213 25215 25218 25221 25224 25227 25229 25232 25235 25238 25241 25244 25247 25250 25252 25255 25258 25261 25264 25267 25270 25273 25276 25279 25282 25285 25287 25289 25292 25295 25298 25301 25304 25307 25310 25312 25315 25318 25321 25324 25327 25330 25333 25336 25338 25341 25344 25347 25350 25353 25356 25359 25362 25365 25368 25371 25373 25376 25379 25382 25385 25387 25390 25392 25394 25397 25400 25403 25405 25408 25411 25414 25417 25420 25423 25425 25428 25431 25434 25437 25440 25443 25446 25449 25452 25454 25456 25459 25461 25464 25467 25469 25472 25475 25478 25480 25483 25485 25487 25489 25492 25494 25497 25499 25502 25505 25508 25511 25513 25515 25517 25519 25522 25524 25527 25530 25533 25536 25538 25541 25544 25547 25550 25552 25555 25557 25560 25563 25566 25569 25572 25575 25578 25581 25583 25586 25589 25591 25594 25597 25600 25602 25605 25608 25611 25614 25617 25620 25623 25626 25629 25632 25635 25638 25640 25643 25646 25649 25652 25655 25657 25660 25662 25664 25667 25669 25672 25675 25678 25681 25684 25687 25690 25693 25695 25698 25701 25703 25706 25709 25712 25714 25717 25720 25723 25726 25729 25732 25735 25738 25741 25744 25747 25750 25753 25756 25759 25762 25765 25768 25771 25774 25777 25780 25783 25785 25787 25790 25793 25796 25799 25802 25804 25807 25810 25813 25816 25819 25822 25824 25827 25830 25833 25836 25839 25842 25845 25848 25851 25854 25857 25860 25863 25866 25869 25871 25874 25877 25880 25883 25885 25888 25891 25894 25897 25900 25903 25906 25909 25911 25914 25917 25920 25922 25924 25927 25930 25933 25935 25938 25941 25944 25947 25950 25953 25956 25958 25961 25964 25967 25970 25973 25976 25979 25982 25985 25988 25991 25994 25996 25999 26002 26005 26008 26011 26014 26016 26019 26022 26025 26028 26030 26033 26036 26039 26042 26045 26047 26050 26053 26056 26059 26061 26064 26067 26070 26073 26076 26079 26082 26085 26088 26091 26094 26097 26100 26103 26106 26109 26111 26114 26116 26119 26122 26125 26127 26130 26132 26135 26138 26141 26144 26147 26150 26152 26155 26158 26161 26164 26167 26170 26173 26176 26179 26182 26185 26188 26191 26194 26197 26200 26203 26206 26209 26212 26215 26218 26221 26224 26227 26230 26233 26236 26239 26242 26245 26248 26251 26254 26257 26260 26262 26265 26268 26270 26273 26276 26279 26282 26285 26288 26291 26294 26296 26299 26302 26305 26308 26311 26314 26317 26320 26323 26326 26329 26332 26335 26338 26340 26343 26345 26348 26351 26354 26357 26360 26363 26365 26368 26371 26374 26377 26380 26383 26386 26389 26392 26395 26398 26401 26404 26407 26409 26412 26415 26417 26420 26423 26426 26429 26432 26435 26437 26439 26442 26444 26447 26450 26453 26456 26459 26461 26464 26467 26470 26473 26475 26478 26481 26484 26487 26490 26492 26495 26498 26501 26504 26507 26510 26513 26515 26518 26521 26524 26527 26530 26533 26536 26539 26542 26545 26548 26551 26554 26557 26559 26562 26564 26567 26570 26573 26576 26579 26582 26584 26587 26590 26593 26596 26599 26602 26605 26608 26611 26614 26617 26619 26622 26625 26628 26631 26634 26637 26640 26642 26645 26648 26651 26654 26657 26660 26663 26665 26668 26671 26673 26676 26679 26681 26683 26686 26689 26692 26695 26698 26701 26704 26707 26710 26713 26716 26719 26722 26725 26728 26730 26733 26736 26739 26742 26745 26748 26750 26753 26755 26758 26761 26764 26767 26770 26773 26776 26779 26782 26785 26787 26790 26793 26796 26799 26802 26805 26808 26811 26814 26817 26820 26823 26826 26829 26832 26835 26838 26841 26844 26847 26850 26852 26855 26858 26861 26864 26867 26870 26872 26875 26878 26881 26884 26887 26889 26892 26895 26898 26901 26904 26906 26909 26912 26914 26917 26920 26923 26926 26929 26932 26935 26938 26940 26943 26946 26949 26951 26954 26957 26960 26963 26966 26969 26972 26975 26978 26981 26983 26986 26989 26992 26995 26998 27001 27004 27007 27010 27013 27016 27019 27022 27025 27028 27031 27034 27037 27040 27043 27046 27049 27052 27055 27057 27060 27062 27065 27068 27071 27074 27077 27080 27083 27086 27089 27091 27094 27096 27099 27102 27105 27108 27110 27113 27116 27119 27121 27124 27126 27129 27132 27134 27137 27140 27143 27146 27149 27152 27155 27158 27160 27163 27166 27169 27172 27174 27177 27180 27183 27185 27188 27191 27194 27196 27199 27202 27205 27208 27211 27214 27217 27220 27222 27225 27228 27231 27234 27237 27240 27243 27246 27249 27252 27255 27258 27261 27264 27266 27269 27272 27275 27277 27280 27283 27285 27288 27291 27294 27297 27300 27303 27305 27308 27311 27314 27317 27320 27323 27326 27329 27332 27335 27338 27341 27344 27347 27350 27353 27356 27359 27362 27365 27368 27371 27373 27376 27379 27382 27385 27388 27391 27394 27397 27400 27403 27406 27409 27412 27415 27418 27421 27424 27427 27430 27433 27436 27438 27441 27443 27446 27449 27452 27455 27458 27461 27464 27467 27470 27473 27476 27479 27482 27485 27488 27491 27494 27496 27499 27502 27505 27508 27511 27514 27517 27520 27523 27526 27529 27532 27534 27537 27540 27543 27546 27549 27552 27555 27558 27561 27564 27566 27569 27572 27575 27577 27580 27583 27586 27589 27592 27594 27597 27600 27603 27606 27609 27611 27614 27617 27620 27623 27626 27629 27631 27634 27637 27639 27642 27645 27648 27651 27654 27656 27659 27662 27665 27668 27671 27674 27677 27680 27683 27686 27689 27692 27695 27698 27701 27704 27707 27710 27713 27716 27719 27722 27725 27728 27730 27733 27736 27739 27742 27745 27748 27750 27753 27756 27758 27760 27763 27766 27769 27772 27775 27778 27781 27784 27787 27790 27793 27796 27799 27802 27805 27808 27811 27814 27817 27819 27822 27825 27827 27830 27833 27835 27838 27841 27844 27847 27850 27853 27856 27859 27861 27863 27866 27869 27872 27875 27878 27881 27883 27886 27889 27892 27895 27898 27900 27903 27906 27909 27912 27915 27918 27921 27924 27927 27930 27933 27936 27939 27942 27945 27948 27951 27954 27957 27960 27963 27966 27969 27972 27975 27978 27981 27984 27987 27990 27993 27996 27999 28002 28005 28008 28011 28014 28017 28020 28023 28026 28029 28032 28035 28038 28041 28044 28047 28050 28053 28056 28059 28062 28065 28068 28071 28074 28077 28080 28083 28086 28088 28091 28094 28097 28100 28103 28106 28109 28111 28114 28117 28120 28123 28126 28129 28132 28135 28138 28141 28143 28146 28149 28152 28155 28157 28160 28163 28166 28169 28171 28174 28177 28180 28183 28186 28189 28191 28194 28197 28200 28203 28206 28209 28212 28215 28218 28221 28223 28226 28229 28232 28235 28238 28241 28244 28246 28249 28252 28255 28258 28261 28264 28267 28270 28272 28275 28278 28280 28283 28286 28289 28292 28295 28298 28301 28304 28306 28309 28312 28315 28318 28321 28323 28326 28328 28331 28334 28337 28340 28343 28345 28348 28351 28354 28356 28359 28362 28365 28368 28371 28374 28377 28380 28383 28385 28388 28391 28394 28397 28399 28402 28405 28408 28411 28414 28417 28420 28423 28426 28429 28432 28435 28438 28440 28443 28446 28449 28452 28455 28458 28461 28464 28467 28469 28472 28475 28478 28481 28484 28487 28490 28493 28496 28499 28502 28505 28508 28511 28514 28517 28520 28523 28525 28527 28530 28533 28536 28539 28542 28545 28548 28551 28554 28557 28560 28563 28565 28568 28571 28574 28577 28580 28583 28586 28589 28592 28595 28598 28601 28604 28607 28610 28612 28615 28618 28621 28624 28627 28629 28632 28635 28637 28640 28643 28646 28649 28652 28655 28657 28660 28663 28666 28669 28672 28675 28678 28681 28684 28687 28690 28693 28696 28699 28702 28705 28708 28711 28714 28717 28720 28723 28726 28729 28732 28735 28738 28741 28744 28747 28750 28753 28756 28759 28761 28764 28767 28770 28773 28775 28778 28781 28784 28787 28790 28792 28795 28798 28801 28804 28807 28810 28813 28816 28819 28822 28825 28828 28831 28834 28837 28840 28843 28846 28849 28852 28855 28858 28861 28864 28867 28870 28873 28876 28879 28882 28885 28887 28890 28893 28895 28898 28901 28904 28907 28910 28913 28915 28918 28921 28924 28927 28929 28932 28935 28938 28941 28944 28947 28950 28953 28956 28959 28962 28965 28967 28970 28973 28976 28979 28981 28984 28987 28990 28993 28996 28999 29002 29005 29008 29011 29014 29017 29020 29023 29026 29029 29032 29035 29037 29040 29043 29046 29049 29052 29055 29058 29061 29064 29067 29070 29073 29076 29079 29082 29085 29088 29091 29094 29097 29100 29103 29106 29109 29112 29115 29118 29121 29124 29127 29130 29133 29136 29139 29142 29145 29148 29151 29154 29157 29160 29162 29165 29168 29171 29174 29177 29180 29182 29184 29186 29188 29191 29194 29197 29200 29202 29205 29208 29211 29214 29216 29219 29222 29225 29228 29231 29234 29237 29240 29243 29246 29249 29252 29255 29257 29260 29263 29266 29269 29272 29275 29278 29281 29283 29286 29289 29292 29295 29298 29301 29304 29306 29309 29312 29315 29317 29320 29322 29325 29328 29331 29333 29335 29338 29341 29344 29347 29350 29353 29356 29359 29362 29365 29368 29371 29374 29377 29380 29383 29386 29389 29392 29395 29398 29401 29404 29407 29410 29412 29415 29418 29421 29424 29427 29430 29433 29435 29438 29441 29444 29447 29450 29453 29456 29459 29462 29465 29468 29471 29474 29477 29480 29483 29486 29489 29492 29495 29498 29501 29504 29507 29509 29512 29515 29518 29521 29524 29527 29529 29532 29535 29538 29541 29544 29547 29550 29553 29556 29558 29561 29564 29567 29570 29573 29576 29579 29582 29585 29588 29591 29594 29597 29600 29603 29606 29609 29612 29615 29618 29621 29624 29627 29630 29633 29636 29639 29642 29644 29647 29650 29653 29656 29659 29662 29665 29668 29671 29674 29677 29680 29683 29686 29688 29691 29694 29697 29700 29703 29705 29708 29711 29714 29716 29719 29722 29725 29728 29730 29733 29736 29738 29741 29744 29746 29749 29752 29755 29758 29761 29764 29766 29769 29772 29774 29776 29779 29781 29784 29787 29789 29792 29795 29798 29800 29803 29806 29809 29812 29815 29818 29821 29824 29827 29830 29833 29836 29839 29841 29844 29846 29849 29852 29854 29856 29859 29861 29864 29867 29869 29872 29875 29878 29881 29884 29887 29890 29893 29896 29898 29901 29904 29906 29909 29912 29915 29918 29921 29924 29927 29930 29932 29935 29938 29941 29943 29946 29949 29952 29955 29958 29961 29964 29967 29970 29973 29976 29978 29981 29983 29986 29989 29992 29995 29997 30000 30003 30006 30009 30012 30015 30018 30021 30024 30027 30029 30032 30034 30037 30040 30043 30046 30049 30052 30054 30057 30060 30063 30065 30068 30071 30074 30077 30080 30083 30086 30089 30092 30095 30098 30101 30103 30106 30109 30112 30115 30118 30121 30124 30127 30130 30133 30136 30139 30142 30145 30148 30150 30153 30156 30159 30162 30165 30168 30170 30173 30176 30178 30181 30184 30187 30190 30192 30195 30198 30201 30204 30207 30210 30213 
</DataArray>
<DataArray type="UInt32" Name="types" format="ascii">
5 5 5 3 5 3 5 5 5 3 5 3 5 5 3 5 5 5 5 5 5 5 5 5 5 5 5 5 5 5 3 5 5 3 5 5 5 5 5 5 5 5 5 5 5 5 5 3 5 3 5 5 3 5 5 5 5 5 5 5 5 5 5 5 3 3 5 5 5 5 5 5 5 5 5 5 5 5 3 5 5 5 5 5 5 5 3 5 5 5 5 3 5 5 5 5 5 5 5 3 5 5 3 5 5 5 5 3 5 5 5 3 3 5 5 5 5 5 5 5 3 5 5 5 5 3 5 5 5 5 5 5 3 5 5 5 5 3 5 3 5 5 5 5 3 5 5 5 5 5 5 3 3 5 5 5 3 5 3 5 5 5 5 5 5 5 5 5 5 5 5 5 3 5 5 3 5 5 5 5 3 5 3 5 5 3 5 5 5 5 5 3 5 5 3 3 5 3 5 5 5 5 5 5 3 3 5 5 3 5 5 5 5 5 5 5 5 5 5 5 5 5 5 5 5 5 5 5 5 5 5 5 3 5 5 5 3 5 5 5 5 5 5 5 5 5 3 5 5 5 5 5 5 5 5 5 5 5 5 5 5 5 5 3 5 5 5 5 5 5 5 5 5 5 5 5 5 5 5 5 5 5 5 5 3 5 3 5 5 5 5 5 5 5 5 5 5 5 5 5 5 5 5 3 5 5 5 3 5 5 5 5 5 5 5 3 5 5 3 5 5 5 5 5 5 5 3 5 5 3 5 5 5 5 5 3 5 5 5 5 5 5 5 3 5 5 5 5 5 5 5 5 5 3 5 5 5 5 3 5 5 5 3 5 3 5 5 3 5 5 5 5 5 5 5 5 5 5 5 5 5 3 5 5 5 5 3 5 5 5 5 5 5 5 5 5 5 5 5 5 5 5 5 5 5 5 5 5 5 5 5 5 5 3 5 3 5 5 3 5 5 5 5 5 5 3 5 5 5 5 5 5 3 5 5 5 3 5 3 5 5 5 5 5 5 5 5 5 5 5 5 5 5 5 5 5 5 5 5 5 5 5 5 5 3 5 5 5 5 5 5 5 5 3 5 5 5 5 5 5 5 3 5 5 5 5 5 5 5 3 5 5 5 5 5 3 5 5 5 5 3 3 5 5 3 5 5 5 5 5 5 5 5 5 3 5 5 5 5 5 5 5 5 5 5 5 5 5 5 5 3 5 3 5 3 5 3 5 5 5 5 5 3 5 5 5 5 5 5 5 5 5 5 5 5 3 5 5 5 5 5 5 5 3 3 5 5 5 5 5 5 3 5 5 5 3 3 3 5 5 5 5 3 5 3 5 5 3 5 5 5 3 5 5 5 5 5 5 5 5 5 5 5 5 5 5 5 5 5 5 5 3 3 3 5 3 5 5 5 3 5 3 5 5 5 5 5 5 5 3 5 5 5 5 5 5 5 5 3 5 5 5 5 5 5 5 5 5 5 5 5 5 5 3 5 5 5 5 5 5 5 5 5 5 5 5 3 5 5 5 3 5 5 3 3 5 5 5 3 3 5 5 5 5 5 5 3 5 5 3 3 5 5 5 5 3 5 5 5 5 5 5 5 5 5 5 5 5 5 5 5 5 3 5 5 5 5 5 3 5 5 5 5 5 5 3 5 5 5 5 5 5 5 5 5 5 5 5 5 5 5 5 5 3 5 5 5 3 5 5 5 5 5 5 5 5 5 5 5 5 5 5 5 5 5 5 5 5 5 5 5 5 5 5 5 5 5 5 5 5 5 5 5 5 5 5 5 3 5 5 5 5 5 5 3 5 5 5 5 5 5 5 5 5 5 5 5 5 5 5 5 5 5 5 5 3 5 5 5 5 5 3 5 5 5 5 5 5 5 5 5 5 5 5 5 3 5 5 3 3 5 5 5 5 5 5 5 5 5 5 5 5 5 5 5 5 5 5 5 5 5 5 5 5 5 5 5 5 5 5 5 5 5 5 3 5 5 5 3 5 5 5 5 5 5 3 3 5 3 5 3 5 5 5 5 5 5 5 5 3 5 5 5 5 5 5 5 5 5 5 5 5 5 3 5 3 5 5 5 5 5 5 5 5 5 5 5 5 5 3 5 5 5 5 5 5 5 5 5 3 5 5 3 5 5 3 3 5 5 3 5 3 5 5 5 3 3 5 5 5 5 5 3 5 5 5 5 5 3 3 5 5 5 5 5 5 5 3 5 5 3 5 5 3 3 5 5 5 5 5 5 5 5 5 5 5 5 3 5 5 5 5 5 5 5 5 5 5 5 5 5 5 5 5 5 5 5 5 5 5 5 5 5 5 5 5 3 5 5 5 5 5 5 5 5 5 5 5 5 5 5 5 5 5 5 5 5 5 5 3 5 5 3 5 5 5 3 5 5 5 5 5 5 5 5 5 5 5 3 5 5 5 5 5 5 5 5 3 5 5 5 5 5 5 5 5 5 3 3 5 5 5 5 5 5 5 5 5 5 5 5 5 5 5 5 5 5 5 5 5 5 5 5 5 5 5 5 5 5 5 5 5 5 3 5 5 5 5 5 5 5 5 5 5 5 5 5 5 3 5 3 5 5 5 5 5 5 5 5 5 5 5 5 5 5 5 5 5 5 5 5 3 5 5 5 3 5 3 3 5 5 5 5 5 5 5 5 5 5 5 5 5 5 5 5 5 5 5 5 3 5 3 5 5 5 3 5 5 5 5 5 5 5 5 5 3 5 5 3 3 5 3 5 3 5 5 5 5 5 5 3 5 5 5 3 5 5 5 5 5 5 5 3 5 5 5 5 5 3 3 5 5 5 5 5 5 5 5 5 5 5 5 5 5 5 5 5 5 5 5 5 5 3 5 5 5 5 5 3 3 3 5 5 5 5 3 5 5 5 5 5 5 5 5 5 3 5 5 5 5 5 5 5 5 5 5 5 5 5 3 5 5 5 5 5 5 5 5 5 5 5 5 5 3 5 5 5 5 5 5 5 5 5 5 5 5 5 5 5 5 3 5 5 5 5 5 5 5 5 3 5 5 5 5 5 5 5 5 3 5 5 5 3 5 3 5 5 5 5 5 5 5 5 5 5 5 3 5 3 5 5 5 5 3 5 5 5 5 3 5 5 5 5 5 5 5 5 5 5 5 5 5 5 5 5 5 5 5 5 5 5 5 5 5 5 5 5 5 5 3 5 3 5 5 5 5 5 5 3 5 5 5 5 5 5 5 3 5 5 5 5 5 5 5 5 5 5 5 5 5 3 5 5 5 5 5 5 5 5 3 5 5 5 5 3 5 5 3 5 5 5 5 5 5 5 5 5 5 5 5 5 5 5 5 5 5 5 5 5 5 5 5 5 5 5 5 5 5 5 3 5 5 5 5 5 5 5 5 5 5 5 5 5 5 5 5 5 5 5 5 5 5 3 3 5 3 5 3 5 5 5 3 3 5 5 5 5 5 5 5 5 5 5 5 3 5 5 5 5 3 5 5 5 5 5 5 5 5 5 5 5 5 5 5 5 5 5 3 5 5 5 5 5 5 5 5 5 5 3 5 5 5 5 5 3 3 5 5 5 5 5 5 5 5 5 3 5 5 5 5 5 5 5 5 3 5 5 5 5 5 5 5 5 3 5 5 5 5 5 5 5 3 5 5 3 3 5 5 5 5 5 5 3 5 5 5 5 5 5 5 5 5 5 5 5 3 5 5 5 5 3 5 5 3 5 5 5 3 5 3 5 3 5 5 5 3 5 5 5 5 5 5 5 5 5 5 5 5 5 5 3 5 5 5 3 5 3 5 5 5 5 5 5 5 3 5 5 5 3 5 5 5 5 5 5 5 5 5 5 5 5 5 5 5 5 5 5 5 5 5 5 5 5 5 5 5 3 5 5 5 3 3 5 5 5 5 5 5 5 5 3 5 5 5 5 5 5 5 5 5 5 3 5 5 5 3 5 5 5 5 5 5 5 5 5 5 5 5 5 5 5 5 5 5 5 5 5 5 5 5 5 5 5 3 5 5 5 5 5 5 5 5 3 5 5 5 5 5 5 5 3 5 5 5 5 5 5 5 5 5 5 5 3 5 3 5 5 3 5 3 3 5 5 5 5 5 5 5 5 5 3 5 5 5 3 5 5 3 5 5 5 5 5 5 3 5 5 5 5 3 5 3 5 5 3 3 3 3 5 5 5 5 5 3 5 5 5 5 5 3 5 5 5 5 3 5 3 5 5 3 5 5 5 5 5 5 5 3 5 5 5 3 5 5 5 5 3 5 5 5 3 5 5 5 3 5 5 3 3 5 5 5 5 3 5 5 5 5 5 5 5 5 5 5 5 5 5 5 5 5 5 5 5 5 5 5 5 5 3 5 5 5 5 5 5 5 5 5 3 5 5 5 5 5 5 5 3 5 5 5 5 5 5 5 5 5 5 5 5 5 5 5 5 5 3 5 5 5 5 5 3 3 5 5 5 5 5 3 5 5 5 3 5 5 5 5 5 5 3 5 5 3 3 5 5 5 5 5 5 3 5 5 5 5 5 3 5 5 3 5 5 5 5 3 5 3 5 5 5 3 5 5 3 5 5 5 5 5 5 5 5 3 5 5 5 5 5 3 5 5 5 5 5 5 5 5 5 3 5 3 5 5 5 5 5 5 5 5 5 5 5 3 5 5 5 5 5 5 5 5 5 5 5 5 3 5 5 3 5 5 3 5 5 5 3 5 5 5 5 5 3 5 5 3 5 5 5 3 5 5 5 5 3 5 5 5 5 5 5 5 5 5 5 5 5 3 5 5 5 3 5 5 5 5 5 5 3 5 5 5 5 5 5 3 5 5 5 5 5 5 5 5 5 5 5 5 5 5 5 5 3 5 5 5 5 5 5 3 5 5 5 5 5 5 5 5 5 5 5 5 5 3 5 5 5 5 5 5 5 5 3 5 5 5 5 5 5 3 5 5 5 5 5 5 5 5 5 5 5 5 5 5 5 5 5 5 5 5 5 5 5 5 5 5 5 5 5 5 3 5 5 5 3 5 5 5 3 5 5 3 5 5 5 5 3 5 5 5 5 5 5 5 3 5 5 5 5 5 5 5 5 5 5 5 5 5 5 5 5 5 5 5 5 5 5 5 5 3 5 5 5 5 5 3 5 3 5 5 3 5 5 5 5 5 5 3 5 5 5 5 5 3 5 5 5 3 5 5 5 5 5 5 5 3 5 5 3 5 5 5 5 3 5 5 5 5 5 3 5 5 3 5 5 5 5 5 5 5 5 5 3 5 5 3 3 5 5 5 5 5 5 5 5 5 5 5 5 5 5 5 5 5 5 5 5 5 5 5 5 5 5 5 5 5 3 5 5 5 5 5 5 5 5 5 5 5 5 5 5 5 5 5 3 5 5 3 5 5 5 5 3 3 5 5 5 5 5 5 5 5 5 5 5 5 5 5 5 5 5 5 5 5 5 5 3 5 5 3 5 5 5 5 5 5 5 5 5 5 5 5 5 5 5 5 5 5 3 5 5 5 3 5 5 5 5 5 5 5 5 5 5 5 5 5 5 5 5 5 5 5 5 5 5 5 5 5 5 5 5 5 3 5 3 5 3 5 5 5 5 5 3 5 5 5 3 5 5 5 5 5 3 5 5 3 5 5 5 5 3 5 5 5 5 5 5 5 5 5 5 5 5 5 5 5 5 5 5 5 5 3 5 5 5 3 5 5 5 5 5 5 5 5 5 5 5 5 5 5 5 3 5 5 5 5 5 5 5 5 5 5 5 5 5 5 5 5 5 5 5 5 5 5 5 5 5 5 5 5 5 5 5 5 5 5 5 5 5 5 5 5 5 5 5 5 5 5 5 3 5 5 5 5 5 3 5 5 5 5 5 5 5 5 5 5 5 5 5 5 5 5 5 5 5 5 5 5 5 5 5 5 5 5 3 5 5 5 5 3 5 5 3 5 5 5 5 5 5 5 5 5 3 5 5 5 3 5 5 5 5 5 5 5 3 5 5 5 5 5 5 5 3 5 5 5 5 5 5 5 3 5 5 5 5 3 5 5 3 5 3 5 5 3 5 5 5 5 5 3 5 3 3 5 5 5 5 5 5 5 3 5 5 5 3 5 5 5 5 5 3 5 5 3 5 5 3 5 3 5 5 5 5 5 5 5 5 5 5 5 5 5 5 5 5 5 5 5 5 5 5 5 3 5 5 5 5 3 5 5 5 5 5 5 3 5 5 5 5 5 5 5 5 5 5 5 5 5 5 5 5 5 5 5 5 5 5 5 5 5 5 5 5 5 5 5 5 5 5 5 5 5 5 5 5 5 5 5 5 5 5 5 5 5 5 5 5 5 5 5 5 5 5 5 5 5 5 5 5 5 5 5 3 5 5 5 5 5 5 5 5 5 5 5 5 5 5 5 5 5 5 5 5 5 5 5 5 5 5 5 5 5 5 5 5 5 5 5 5 5 5 5 5 5 5 5 5 5 5 5 5 5 5 5 5 5 5 5 5 5 5 5 5 5 5 3 5 5 5 5 5 5 5 5 5 5 5 5 5 3 5 5 5 5 5 5 5 5 5 5 5 3 5 5 5 5 5 5 5 5 5 3 3 5 3 5 3 5 3 5 5 3 5 5 5 5 5 5 5 3 5 5 5 5 3 3 5 5 5 5 5 5 3 3 5 5 5 3 5 5 5 5 5 5 5 5 5 5 5 5 5 5 5 5 5 5 5 5 5 5 3 5 5 5 3 5 5 5 5 3 5 5 5 5 5 5 5 5 5 5 3 5 5 5 5 5 5 5 5 5 5 5 5 3 5 5 5 5 5 5 5 5 5 3 5 5 5 5 5 5 3 5 5 5 5 5 5 5 5 5 5 3 3 5 5 5 3 5 5 5 5 3 5 5 5 5 5 5 5 5 5 5 5 5 5 3 5 5 5 5 5 5 3 5 5 5 5 3 5 3 5 5 5 5 5 5 5 5 5 5 5 5 5 5 5 5 5 5 5 5 5 5 5 5 3 5 5 5 5 5 5 5 5 5 3 5 5 5 5 5 5 5 5 5 5 3 5 5 3 5 5 5 5 5 3 5 5 3 3 5 5 3 5 5 5 5 5 5 5 5 5 5 5 5 5 5 5 5 3 5 3 5 5 5 5 5 3 5 5 5 5 5 3 5 5 5 5 5 5 5 5 5 3 5 5 3 5 3 5 5 5 3 5 5 3 5 5 5 5 3 5 5 5 5 5 3 5 5 5 5 5 5 5 5 5 5 5 5 5 5 5 5 5 5 5 5 5 5 5 5 5 5 3 5 5 5 3 5 5 5 5 5 5 5 5 5 5 5 3 5 5 3 5 5 5 5 5 3 5 5 5 5 5 5 5 5 5 5 5 5 5 5 5 5 5 5 3 5 5 5 5 5 5 3 5 5 5 5 5 3 5 5 5 5 5 5 5 5 5 5 5 5 5 5 5 3 5 5 5 5 5 5 5 5 5 5 5 5 3 5 5 5 5 5 5 5 5 5 5 5 5 5 5 5 5 5 5 5 5 5 5 5 3 5 5 5 5 5 3 5 5 3 5 3 5 5 3 5 5 5 5 5 5 5 5 5 5 3 5 5 5 5 5 5 5 5 5 5 5 5 5 5 5 5 5 5 5 5 5 5 5 5 5 5 5 5 5 3 5 5 5 5 5 5 5 5 5 5 5 3 5 5 5 5 5 5 3 5 5 5 5 5 5 5 5 5 5 5 5 5 3 5 5 3 5 5 5 3 5 3 5 5 5 5 5 5 3 5 5 3 5 3 5 5 5 5 5 5 3 3 5 5 3 5 5 5 5 5 5 5 5 5 5 5 5 5 5 5 5 5 5 5 5 5 5 5 3 5 5 5 5 3 3 5 5 5 5 5 5 5 5 5 3 5 5 3 3 5 5 5 3 5 5 5 5 5 5 3 5 5 5 5 5 5 3 5 5 5 5 5 5 5 5 3 5 5 5 3 5 5 5 3 5 5 3 5 3 5 5 5 5 5 5 5 5 5 5 5 5 5 5 5 5 5 5 5 5 5 5 5 5 3 5 5 5 5 5 5 3 5 5 5 3 5 5 5 5 5 5 5 5 5 5 5 5 5 5 5 5 3 5 5 5 5 3 5 5 3 5 5 5 5 5 5 3 5 5 5 5 5 5 3 5 5 5 5 5 5 5 5 5 5 5 5 5 5 5 3 5 3 5 5 3 5 5 5 5 5 5 5 5 5 5 5 5 5 3 5 5 5 5 5 5 5 5 5 5 5 5 5 5 5 5 5 5 5 5 5 5 5 5 5 5 5 3 5 5 3 5 5 5 3 5 5 3 5 5 5 5 3 5 5 5 5 3 5 5 5 3 5 3 3 5 5 5 5 5 5 5 5 5 5 5 5 5 5 3 5 5 5 3 5 5 5 5 5 5 5 3 5 5 5 5 5 5 5 5 5 3 5 5 5 5 5 5 5 5 5 3 5 5 5 5 5 5 5 5 5 5 3 5 5 5 5 5 5 5 5 5 5 5 5 5 3 5 5 3 5 5 5 5 5 5 5 5 5 5 5 5 5 5 3 5 5 5 5 3 5 5 5 3 3 5 5 5 5 5 5 5 5 5 5 5 5 5 5 5 5 5 5 5 5 5 5 3 5 5 5 5 5 5 5 5 5 5 5 5 5 5 5 5 5 5 5 5 5 5 5 5 5 3 5 5 5 5 3 3 5 5 5 5 5 5 5 3 5 5 5 5 5 5 3 5 5 5 5 5 5 5 5 3 5 5 5 5 5 5 5 5 5 5 5 5 5 5 5 5 5 5 5 3 5 5 5 5 5 5 5 3 5 5 5 3 5 5 5 5 5 5 5 5 5 5 5 3 5 3 5 3 5 5 5 3 5 5 5 5 5 5 5 5 5 3 5 5 5 5 5 5 5 5 5 5 5 5 5 5 3 3 5 5 3 5 5 5 5 3 5 3 3 3 5 3 3 5 5 5 5 5 3 5 5 3 5 5 5 5 5 5 3 5 5 5 3 5 5 5 3 5 5 5 5 3 5 3 5 5 5 3 3 3 5 3 5 5 5 5 3 5 3 5 3 5 5 3 3 5 3 3 5 5 5 5 5 5 5 3 5 5 3 5 5 5 5 3 5 5 5 5 5 5 5 3 3 5 5 5 3 5 5 5 3 5 3 5 5 5 3 5 5 3 5 5 3 3 5 5 5 3 5 5 5 5 5 3 5 5 5 5 5 5 5 5 5 5 5 5 5 5 5 5 5 5 5 5 5 5 5 5 5 5 5 5 5 5 5 5 5 5 5 5 5 5 5 3 5 5 3 5 3 5 3 5 5 5 3 3 5 5 3 3 5 5 5 5 3 3 5 5 5 3 5 5 5 5 5 5 5 5 5 5 5 5 3 5 5 5 5 5 5 5 5 5 5 5 5 5 3 3 5 5 5 5 5 5 3 3 3 5 5 5 5 5 5 5 5 5 5 5 3 3 5 5 3 5 3 5 5 5 3 5 5 5 5 5 5 5 5 5 5 3 5 5 5 5 5 5 5 5 3 5 5 5 5 5 5 5 5 5 3 5 5 5 5 5 5 5 3 5 5 5 5 5 5 5 5 5 5 5 5 5 3 5 5 5 5 5 5 3 5 5 5 5 5 5 5 3 5 3 5 3 5 5 5 3 5 5 5 5 5 5 5 3 5 5 3 5 3 5 5 5 5 5 5 3 5 5 5 5 5 5 5 5 5 5 5 3 3 5 3 5 5 3 5 5 5 5 5 3 5 5 5 5 5 5 5 5 3 5 5 3 5 5 5 5 3 5 5 5 5 5 5 3 5 5 5 3 5 5 5 5 3 5 3 3 5 5 5 5 5 5 5 5 3 5 5 5 5 5 5 5 5 5 5 5 5 5 3 5 5 5 5 5 5 5 5 5 5 5 5 5 3 5 5 5 5 5 5 3 5 5 5 5 5 5 5 5 5 3 5 5 5 5 5 5 5 5 5 5 5 5 5 3 5 5 5 5 3 5 5 5 3 5 5 5 3 5 5 3 3 5 5 5 3 5 5 5 5 5 5 5 5 5 5 5 5 3 5 3 5 5 5 5 5 3 3 5 5 5 5 3 5 3 5 3 5 5 5 5 5 5 5 5 5 5 5 5 5 5 5 5 5 5 5 5 5 5 5 5 5 5 5 5 5 5 5 5 5 5 5 5 5 5 5 5 5 5 5 5 5 5 5 3 5 3 5 5 5 5 3 5 5 5 5 5 5 5 5 5 5 5 5 5 5 5 5 5 5 5 3 5 5 5 5 5 5 5 3 5 5 3 5 5 3 5 5 5 5 5 5 5 5 3 5 5 5 5 5 5 3 5 5 5 5 5 5 5 5 3 5 5 5 5 5 3 5 3 3 5 5 5 3 5 3 5 5 5 5 5 5 5 5 5 5 5 5 5 5 5 5 3 3 5 5 5 5 5 5 5 5 5 5 5 5 3 5 5 3 5 5 5 5 3 5 5 5 5 5 5 5 5 5 5 5 5 5 5 5 5 5 5 5 5 5 5 5 5 5 5 5 5 5 5 5 5 5 5 5 5 3 5 3 5 5 5 5 5 5 5 3 5 5 5 5 3 5 5 3 5 5 5 5 5 5 5 5 5 5 5 5 5 5 5 5 5 5 3 3 5 5 5 5 5 5 5 5 5 5 5 5 5 5 5 5 5 5 5 5 5 5 5 3 5 5 5 5 5 5 5 5 5 5 5 5 5 5 5 5 3 5 5 5 3 5 5 5 3 5 3 5 5 3 5 5 3 5 5 5 5 5 5 5 5 5 3 5 5 5 5 5 5 3 3 5 5 5 5 5 5 5 5 3 5 5 3 5 5 5 5 5 5 5 3 5 5 5 3 5 5 5 3 3 5 5 5 5 5 5 5 5 5 5 5 3 5 3 5 5 3 5 5 5 3 5 5 5 5 5 5 5 3 5 5 5 3 5 5 5 3 3 5 5 5 5 3 5 5 5 5 5 5 5 5 3 3 5 5 5 5 3 3 3 5 3 5 3 3 5 3 5 5 5 3 5 5 5 5 5 5 3 5 3 5 3 3 3 3 5 5 5 5 3 3 5 5 5 3 3 5 5 5 5 3 5 5 3 5 5 5 5 3 3 5 5 5 5 3 5 3 5 5 5 5 3 5 5 5 5 5 5 5 5 5 5 5 5 5 5 5 5 5 5 5 5 5 5 3 5 5 5 5 5 5 5 5 5 5 5 5 5 5 5 5 5 5 5 5 5 5 5 5 5 3 5 5 5 5 3 5 5 3 5 5 5 3 5 3 5 5 5 5 5 5 5 5 3 5 5 5 3 5 5 5 5 5 5 5 3 5 3 5 5 3 5 3 5 5 5 5 5 5 5 5 5 5 5 5 5 5 3 3 5 5 5 5 5 5 5 5 5 5 5 5 3 5 5 5 5 5 5 5 5 5 5 5 5 5 5 3 5 3 5 5 5 5 5 5 5 5 5 3 5 5 5 5 5 5 5 3 5 3 5 5 5 3 5 3 5 5 5 5 5 3 5 5 3 3 5 5 5 5 3 5 5 5 5 5 5 5 5 5 5 5 5 5 5 5 5 5 3 3 5 5 3 5 5 5 3 5 5 5 5 5 5 5 3 5 3 5 5 5 3 5 5 5 5 5 5 5 5 5 3 5 5 5 3 5 5 5 5 5 5 3 5 5 5 5 5 5 3 5 5 5 5 5 3 5 5 3 5 5 5 3 5 5 5 5 5 5 5 3 3 5 5 5 5 5 5 5 5 3 5 5 5 5 3 5 5 3 5 5 5 5 5 5 5 5 5 5 5 5 5 5 5 5 5 5 5 5 5 5 5 5 5 5 5 5 5 5 5 5 5 5 5 5 5 5 3 5 5 5 5 5 5 5 5 5 5 5 5 5 5 5 5 5 3 5 5 5 5 5 5 5 5 5 5 5 5 5 5 5 5 5 5 5 5 5 5 5 5 5 5 5 5 5 5 5 5 5 5 5 5 5 5 5 5 5 5 5 5 5 5 5 5 5 5 5 5 5 5 5 5 5 5 5 5 5 5 5 5 5 5 5 5 5 5 5 5 5 5 5 5 5 5 5 5 5 5 5 5 5 5 5 5 5 5 5 3 5 5 5 5 5 5 5 3 5 5 5 5 5 5 3 5 5 5 5 5 5 5 5 5 5 5 5 5 5 3 5 3 5 5 5 5 5 5 5 5 5 5 5 5 5 5 5 5 3 5 5 3 5 5 5 5 5 5 3 5 5 5 5 5 3 5 5 5 5 5 5 5 3 5 3 5 5 5 5 5 3 5 3 5 3 5 3 5 5 5 5 5 5 5 5 5 5 5 5 5 5 5 5 5 5 5 5 5 5 5 5 5 5 5 5 5 3 5 5 5 5 5 5 5 5 5 5 5 5 5 5 5 5 5 5 5 5 5 5 5 5 5 5 3 5 5 5 3 5 5 3 5 5 5 5 5 5 3 5 5 3 5 5 3 5 5 5 5 5 5 5 5 5 5 3 5 5 5 5 5 5 5 3 5 5 5 5 5 5 5 5 5 3 5 5 5 5 5 5 5 5 5 5 5 5 5 5 5 5 3 5 5 5 5 5 5 5 5 5 5 5 5 5 5 5 5 5 5 5 5 5 5 5 5 3 5 5 5 5 5 5 5 5 5 5 3 3 5 5 5 5 5 5 5 5 5 5 5 5 3 5 5 5 5 3 5 5 5 5 5 5 5 5 3 5 5 5 5 5 5 5 5 3 5 5 5 3 5 5 5 5 5 5 5 5 5 3 3 5 5 5 5 5 5 5 5 5 5 5 5 5 5 5 5 5 5 5 5 5 5 5 5 5 5 5 5 5 5 5 5 5 5 5 5 5 5 5 5 5 5 5 5 5 5 5 5 5 5 5 5 5 5 5 5 5 5 5 5 5 5 5 5 5 5 5 5 5 5 5 5 5 5 5 5 5 5 5 5 5 5 5 5 5 5 5 5 5 5 5 5 5 5 5 5 5 5 5 5 5 5 5 5 5 5 5 5 5 5 5 5 5 5 5 5 5 5 5 5 5 3 5 5 3 5 3 3 5 5 5 3 5 5 3 5 5 5 5 5 5 3 5 5 5 5 5 5 5 5 5 5 5 5 5 5 5 5 5 5 5 5 5 5 5 5 5 5 5 5 5 5 5 5 5 5 5 5 5 5 5 5 5 5 5 5 5 5 5 5 5 5 3 3 5 5 5 5 5 5 3 5 5 5 5 5 3 5 5 5 5 5 3 5 5 5 5 5 5 5 5 5 5 3 5 3 5 5 5 5 5 3 5 5 5 5 5 3 5 3 5 5 5 5 5 3 5 5 5 5 5 5 5 5 5 5 5 5 5 5 5 5 5 5 3 5 5 5 3 3 5 5 5 5 5 5 5 5 3 5 5 5 5 5 5 5 5 5 5 5 5 5 3 5 5 5 5 5 5 5 5 5 5 5 5 5 5 5 5 5 5 5 5 5 5 5 5 5 5 5 5 5 5 5 5 5 5 5 5 5 5 5 5 5 5 5 5 5 5 5 5 5 5 5 5 3 5 5 5 5 5 5 5 3 5 5 5 3 5 5 5 5 5 5 5 5 5 5 5 5 5 5 5 3 5 5 5 3 5 5 5 5 5 5 5 3 5 5 5 5 5 5 3 5 5 3 5 5 5 5 5 5 5 5 5 5 3 5 5 5 3 5 5 5 5 3 5 5 5 5 5 5 5 5 5 5 3 5 5 5 5 5 5 5 3 5 5 5 5 5 5 5 5 5 5 5 5 5 3 5 3 5 5 5 5 5 5 3 5 3 5 5 5 5 5 5 5 5 5 3 5 5 5 5 5 5 5 5 5 5 5 5 5 5 5 5 5 5 5 5 5 5 5 5 5 5 5 5 5 5 5 5 5 5 5 3 5 5 5 5 5 5 3 5 5 5 5 3 5 5 5 3 5 5 5 3 5 5 5 5 5 5 5 5 5 5 5 5 5 5 5 5 5 5 5 5 5 3 5 5 5 5 5 5 5 5 5 5 3 5 5 3 5 5 5 5 5 5 5 5 5 5 5 5 5 5 5 5 5 5 5 5 5 5 5 5 3 3 5 5 3 3 5 5 5 5 5 5 5 5 5 5 5 5 5 5 3 5 5 5 5 3 5 5 5 5 5 5 5 5 5 5 5 5 5 3 5 5 5 5 5 5 5 5 5 5 3 5 5 5 5 5 3 5 5 5 5 5 5 5 5 5 5 5 5 5 5 5 3 5 5 5 3 3 5 5 5 3 3 5 5 3 5 5 5 5 3 5 5 5 5 5 5 5 5 3 5 5 5 5 3 3 5 3 5 5 5 5 3 5 3 5 5 5 5 3 5 3 5 5 5 5 5 5 5 5 5 5 5 5 5 3 5 5 5 5 5 3 5 5 5 5 5 3 5 3 5 5 5 5 5 5 5 5 3 5 5 5 5 5 5 5 5 5 5 5 5 5 3 5 5 5 5 3 5 5 5 5 5 5 5 5 5 5 5 5 3 5 5 5 5 5 5 5 5 5 5 5 5 5 5 5 5 5 5 5 5 5 5 5 5 5 5 5 5 5 5 5 3 5 5 5 5 5 5 5 3 5 5 5 5 3 5 5 5 5 5 3 5 5 5 5 5 5 5 5 3 5 5 5 5 5 5 5 5 5 5 5 5 5 5 5 3 5 5 5 5 5 5 5 5 5 5 5 3 5 5 3 5 5 5 5 5 5 5 5 5 5 5 5 5 5 5 5 3 5 5 5 5 5 5 5 5 5 5 5 5 5 3 5 5 5 5 5 5 5 5 5 5 5 5 5 5 5 5 5 5 5 3 5 5 5 5 5 3 5 5 5 5 3 5 5 5 5 5 5 3 3 5 5 5 5 5 5 5 5 5 5 5 5 5 5 5 5 5 5 5 5 5 3 5 5 5 5 5 5 5 5 5 5 5 5 5 5 5 5 5 5 5 5 5 5 5 5 5 5 5 5 5 5 5 5 5 5 5 5 5 3 5 5 5 3 5 5 3 5 5 5 5 5 5 5 5 5 5 3 5 5 5 5 3 5 5 5 5 5 5 5 5 5 5 3 5 5 5 3 5 5 3 3 5 5 5 5 5 5 5 5 5 5 5 5 5 5 5 5 3 5 5 5 3 5 3 5 5 5 5 3 5 5 5 5 5 3 5 5 5 5 3 3 5 3 5 5 3 5 3 5 5 5 5 3 5 5 5 5 5 5 3 5 5 3 3 5 5 5 5 5 5 5 5 5 5 5 5 5 5 5 5 3 5 3 5 3 5 5 5 5 5 5 5 5 5 5 5 5 5 5 5 5 5 5 5 5 3 5 5 5 5 5 5 3 5 3 5 5 3 5 5 3 5 5 5 5 5 5 5 3 5 5 5 5 3 5 5 5 5 5 5 3 5 5 5 5 3 5 5 5 5 5 5 5 5 5 3 5 5 5 5 5 5 5 5 5 5 5 5 5 3 5 5 3 5 5 5 3 3 5 3 5 5 5 3 5 5 5 5 3 5 5 3 5 3 5 5 5 5 5 3 3 5 5 5 5 5 5 5 5 5 5 5 5 5 5 5 5 3 5 5 5 5 5 5 5 5 5 5 5 5 5 5 5 5 5 5 5 5 5 5 5 5 5 5 5 5 5 5 5 5 5 5 5 5 5 5 5 5 5 5 5 5 5 5 3 5 5 5 5 5 5 3 5 5 5 5 5 5 5 5 3 3 5 5 5 5 5 5 5 5 5 5 5 5 5 5 5 5 5 5 5 5 5 5 3 3 5 5 5 5 5 5 5 5 5 5 5 5 5 5 5 3 5 5 5 5 5 5 5 5 5 5 5 5 5 5 3 5 5 5 5 5 5 5 5 5 5 5 5 5 5 5 5 5 5 5 5 5 5 5 5 5 5 5 5 5 5 5 5 5 5 5 5 5 5 5 5 5 5 5 5 5 5 5 5 5 5 5 5 5 5 5 5 5 5 5 5 5 5 5 5 5 5 5 5 5 3 5 5 5 5 5 5 5 5 5 5 5 5 5 5 5 5 3 5 5 5 5 3 5 5 5 5 5 5 3 5 5 5 5 3 5 3 5 3 5 5 5 5 3 5 5 3 5 3 5 5 5 5 5 5 5 5 5 5 5 5 5 5 5 5 5 5 5 5 5 5 5 5 5 5 5 5 3 5 5 3 5 5 5 5 5 5 5 5 5 5 5 5 3 5 5 5 5 5 5 5 5 5 5 5 5 5 5 3 5 5 5 5 5 5 5 3 5 3 5 5 3 5 3 5 3 5 5 5 5 5 5 5 5 5 5 3 5 5 5 5 5 5 5 5 5 5 3 5 5 5 3 5 3 3 5 5 3 5 5 5 5 3 5 5 5 5 3 5 5 3 5 5 5 5 5 5 5 3 5 5 5 3 5 5 5 5 5 5 5 5 5 5 5 5 5 5 3 5 5 5 3 5 5 5 5 5 5 5 5 5 3 5 5 5 5 3 5 5 5 3 5 5 3 5 5 5 5 5 5 5 5 5 5 5 5 5 5 3 5 5 5 5 5 5 5 5 5 5 5 5 5 5 5 5 5 5 5 5 5 5 5 5 5 3 5 5 5 5 5 5 3 5 5 5 5 5 5 5 5 5 5 5 5 5 5 5 5 5 5 5 5 5 5 5 3 5 5 5 5 5 5 5 3 5 5 5 5 5 5 5 3 5 5 3 5 5 5 5 5 5 5 5 5 5 5 5 5 5 5 5 5 5 5 5 5 5 5 5 5 5 5 5 5 5 5 5 5 5 5 5 5 5 5 5 5 5 5 5 5 3 5 5 3 5 5 5 5 3 3 5 5 5 5 5 5 3 5 5 5 3 5 5 5 5 3 5 5 5 5 5 3 5 5 5 5 5 5 3 5 5 5 5 5 5 5 5 5 3 5 5 5 5 5 3 5 5 3 3 5 5 5 5 5 5 5 5 5 5 5 5 3 5 5 5 5 5 5 5 5 5 5 5 5 5 5 5 5 5 5 5 5 5 5 3 5 5 5 5 5 5 5 5 3 5 5 5 5 3 5 5 3 3 5 5 5 5 5 5 5 5 5 5 5 5 5 5 5 5 5 5 5 5 5 5 5 5 5 5 5 5 5 5 5 5 5 5 5 5 5 5 5 5 5 5 5 5 3 5 3 5 5 5 5 5 5 5 5 5 5 5 5 5 5 5 5 5 5 3 5 5 5 3 5 5 5 5 5 5 5 5 5 5 5 5 5 3 5 5 5 5 5 5 5 5 5 5 5 5 5 5 5 5 3 5 3 5 5 5 5 5 5 5 5 5 5 5 3 5 5 5 3 5 5 5 5 3 5 5 3 3 5 3 5 5 5 5 5 5 5 5 5 5 5 5 5 5 5 5 5 5 5 5 5 5 5 5 5 5 3 5 3 5 5 5 3 5 5 5 5 5 5 3 5 5 5 5 5 5 5 3 3 5 5 3 3 5 3 5 5 3 3 5 5 3 5 5 3 5 5 5 5 5 3 5 5 5 5 3 5 5 5 5 5 5 5 5 5 5 5 3 5 5 5 3 5 3 3 5 5 5 5 3 5 5 5 3 5 5 5 3 5 5 5 5 5 5 3 5 5 5 5 5 5 5 5 5 3 3 5 5 5 5 5 5 5 5 5 5 5 5 5 5 5 5 5 3 5 5 5 5 5 5 5 5 5 5 5 5 5 5 3 5 5 5 3 5 5 5 5 5 5 5 5 5 5 5 5 5 5 5 5 5 5 3 5 5 5 5 5 5 3 5 5 5 5 5 5 5 3 5 5 5 5 5 5 5 5 5 5 5 5 3 5 5 5 5 5 5 5 3 5 5 5 5 5 5 5 5 5 5 5 5 5 5 5 5 5 5 5 5 5 5 5 5 5 5 5 5 5 5 5 5 5 5 3 5 5 5 3 5 5 5 5 5 5 5 5 5 5 5 3 5 5 5 5 3 5 5 5 5 5 5 5 5 5 3 3 5 3 5 5 5 5 5 5 5 5 5 5 3 5 5 5 5 5 3 5 3 5 5 5 5 5 5 5 5 5 5 5 5 5 5 3 5 5 5 5 5 5 5 5 5 3 5 5 5 5 5 3 5 5 5 5 5 3 3 5 5 3 5 5 5 3 3 3 5 5 5 3 5 3 5 5 5 5 5 5 5 5 3 5 5 5 3 5 5 3 3 5 5 5 5 5 5 5 5 5 5 5 5 5 5 5 5 5 5 5 5 3 5 5 5 5 5 5 5 5 3 5 5 3 5 5 3 3 3 5 5 5 5 5 5 5 5 5 5 5 5 5 5 5 5 3 5 3 5 3 5 5 3 5 5 5 3 5 3 5 3 5 5 5 5 5 5 5 3 5 5 5 5 5 5 5 5 5 5 5 5 5 5 5 5 5 5 5 5 5 5 5 5 5 5 5 5 5 5 5 5 5 3 5 3 5 5 5 5 5 5 5 5 5 5 5 5 5 5 5 5 5 5 5 5 5 5 3 3 5 5 5 3 3 5 5 3 5 5 5 3 5 3 5 5 5 5 3 5 3 5 5 3 3 5 5 5 5 5 5 5 5 5 5 3 5 5 5 5 5 5 5 5 5 5 5 5 5 5 5 3 5 5 5 5 5 5 3 5 5 5 5 5 5 5 5 3 5 5 3 3 3 5 5 5 5 3 3 5 5 3 5 5 5 5 5 5 5 3 5 5 5 5 5 3 3 5 5 5 3 5 5 5 3 5 3 5 5 5 5 5 5 5 5 5 5 5 5 5 5 5 5 5 5 5 5 5 5 5 5 3 5 5 5 5 5 5 5 5 3 5 5 5 5 5 3 5 3 5 3 5 5 5 5 3 5 5 5 5 5 3 5 5 3 5 3 5 5 5 5 3 3 5 5 5 5 3 5 5 5 5 3 5 5 3 5 5 3 5 5 5 3 5 3 5 5 5 3 5 5 3 5 5 5 3 5 5 5 5 5 5 5 5 5 5 5 5 5 5 5 3 5 5 5 5 5 3 5 5 3 5 5 5 3 5 5 5 5 5 5 3 5 5 5 5 5 5 5 5 5 5 5 5 5 5 5 5 5 5 5 5 5 5 5 5 5 5 5 5 5 3 5 5 5 5 3 5 5 5 5 5 5 5 5 5 5 5 5 3 5 5 3 5 5 5 3 5 5 3 5 5 5 3 5 5 3 5 5 3 5 3 5 5 5 3 3 5 5 5 5 5 5 5 3 5 3 3 5 5 3 5 3 5 5 5 5 5 5 5 3 5 5 3 3 5 5 5 5 5 3 5 5 5 5 5 5 5 5 5 5 5 5 5 5 5 5 5 3 5 5 5 5 3 5 5 5 3 5 3 3 5 5 5 5 5 5 5 5 5 5 3 5 5 3 5 5 5 5 5 5 3 5 5 5 5 5 5 5 5 5 5 5 5 5 5 5 5 5 3 5 5 5 3 5 3 5 5 5 5 5 5 5 5 3 5 5 5 3 5 3 5 5 5 3 5 5 5 5 5 5 5 5 5 3 5 5 5 5 3 5 5 5 5 5 5 5 3 5 3 5 3 5 5 5 5 5 5 5 5 5 5 5 5 5 5 5 5 5 3 5 3 5 5 5 3 5 5 5 5 5 5 5 3 3 5 5 5 3 5 3 5 3 5 5 5 3 5 5 5 3 5 5 5 3 5 5 5 5 5 3 5 5 5 5 3 5 5 5 5 3 5 5 5 5 5 5 5 5 3 5 5 5 5 3 5 5 5 5 5 5 5 3 5 5 5 5 5 5 5 5 5 5 5 3 3 5 5 5 5 5 5 5 3 5 5 5 5 5 5 5 5 3 5 5 5 5 5 5 5 5 5 5 5 3 5 5 5 5 3 5 3 3 5 5 5 3 5 5 5 5 5 5 3 5 5 5 5 5 5 5 5 5 3 3 5 3 5 5 3 5 5 5 3 5 3 3 3 5 3 5 3 5 5 5 5 3 3 3 3 5 3 5 5 5 5 3 5 5 5 5 3 5 3 5 5 5 5 5 5 5 5 3 5 5 3 5 5 5 3 5 5 5 5 5 5 5 5 5 5 5 5 3 5 5 5 5 5 3 5 3 3 5 3 5 5 5 5 5 5 5 5 3 5 5 3 5 5 5 3 5 5 5 5 5 5 5 5 5 5 5 5 5 5 5 5 5 5 5 5 5 5 5 3 3 5 5 5 5 5 3 5 5 5 5 5 5 3 5 5 5 5 5 5 5 5 5 5 5 5 5 5 5 3 5 5 5 5 3 5 5 5 5 5 5 5 5 3 5 5 5 3 3 5 5 5 3 5 5 5 5 5 5 5 3 5 5 5 5 5 5 5 5 5 5 5 5 3 5 5 5 5 5 5 3 5 5 5 5 3 5 5 5 5 5 3 5 5 5 5 3 5 5 5 5 5 5 5 5 5 5 5 5 5 5 5 5 3 5 3 5 5 5 3 5 3 5 5 5 5 5 5 3 5 5 5 5 5 5 5 5 5 5 5 5 5 5 5 5 5 5 5 5 5 5 5 5 5 5 5 5 5 5 5 5 5 5 5 5 3 5 5 3 5 5 5 5 5 5 5 5 3 5 5 5 5 5 5 5 5 5 5 5 5 5 5 3 5 3 5 5 5 5 5 5 3 5 5 5 5 5 5 5 5 5 5 5 5 5 5 3 5 5 3 5 5 5 5 5 5 3 3 5 3 5 5 5 5 5 3 5 5 5 5 3 5 5 5 5 5 3 5 5 5 5 5 5 5 3 5 5 5 5 5 5 5 5 5 5 5 5 5 5 3 5 3 5 5 5 5 5 5 3 5 5 5 5 5 5 5 5 5 5 5 3 5 5 5 5 5 5 5 3 5 5 5 5 5 5 5 3 5 5 3 5 5 3 3 5 5 5 5 5 5 5 5 5 5 5 5 5 5 5 3 5 5 5 5 5 5 3 5 3 5 5 5 5 5 5 5 5 5 5 3 5 5 5 5 5 5 5 5 5 5 5 5 5 5 5 5 5 5 5 5 5 3 5 5 5 5 5 5 3 5 5 5 5 5 3 5 5 5 5 5 3 5 5 3 5 5 5 5 5 5 5 5 3 5 5 5 3 5 5 5 5 5 5 5 5 5 5 3 5 5 5 5 5 5 5 5 5 5 5 5 5 5 5 5 5 5 5 5 5 5 5 5 3 5 3 5 5 5 5 5 5 5 5 5 3 5 3 5 5 5 5 3 5 5 5 3 5 3 5 5 3 5 5 5 5 5 5 5 5 3 5 5 5 5 3 5 5 5 3 5 5 5 3 5 5 5 5 5 5 5 5 3 5 5 5 5 5 5 5 5 5 5 5 5 5 5 3 5 5 5 3 5 5 3 5 5 5 5 5 5 3 5 5 5 5 5 5 5 5 5 5 5 5 5 5 5 5 5 5 5 5 5 5 3 5 5 5 5 5 5 5 5 5 5 5 5 5 5 5 5 5 5 5 5 5 3 5 3 5 5 5 5 5 5 5 5 5 5 5 5 5 5 5 5 5 3 5 5 5 5 5 5 5 5 5 5 5 5 3 5 5 5 5 5 5 5 5 5 5 3 5 5 5 3 5 5 5 5 5 3 5 5 5 5 5 3 5 5 5 5 5 5 3 5 5 3 5 5 5 5 5 3 5 5 5 5 5 5 5 5 5 5 5 5 5 5 5 5 5 5 5 5 5 5 5 5 3 5 5 5 5 5 5 3 5 5 3 3 5 5 5 5 5 5 5 5 5 5 5 5 5 5 5 5 5 5 5 3 5 5 3 5 5 3 5 5 5 5 5 5 5 5 3 3 5 5 5 5 5 5 3 5 5 5 5 5 3 5 5 5 5 5 5 5 5 5 5 5 5 5 5 5 5 5 5 5 5 5 5 5 5 5 5 5 5 5 5 5 5 5 5 5 5 5 5 5 5 5 5 5 5 5 5 5 5 5 5 5 5 5 5 5 5 5 5 5 5 5 5 3 5 5 5 5 5 5 5 3 5 5 5 5 5 5 5 5 5 5 3 5 5 5 5 3 5 5 5 5 3 5 5 5 5 5 5 3 5 5 5 5 5 5 5 5 5 5 3 5 5 5 5 5 5 5 3 5 5 5 5 5 5 5 5 3 5 5 3 5 5 5 5 5 5 5 5 3 5 5 5 5 5 3 5 3 5 5 5 5 5 3 5 5 5 3 5 5 5 5 5 5 5 5 5 3 5 5 5 5 3 5 5 5 5 5 5 5 5 5 5 5 5 5 3 5 5 5 5 5 5 5 5 5 3 5 5 5 5 5 5 5 5 5 5 5 5 5 5 5 5 5 5 3 3 5 5 5 5 5 5 5 5 5 5 5 5 3 5 5 5 5 5 5 5 5 5 5 5 5 5 5 5 3 5 5 5 5 5 3 5 5 3 5 5 5 5 5 5 3 5 5 5 5 5 5 5 5 5 5 5 5 5 5 5 5 5 5 5 5 5 5 5 5 5 5 5 5 5 5 5 5 5 5 3 5 5 5 5 3 5 5 5 5 5 3 5 5 5 5 5 5 5 5 5 5 5 5 5 5 5 5 5 5 5 5 5 5 5 5 5 5 5 5 5 5 5 3 5 5 3 5 5 5 5 5 5 3 5 5 5 5 3 5 5 5 5 5 5 5 5 5 5 5 5 3 5 5 5 5 3 5 5 5 5 5 5 5 5 5 5 5 5 5 5 5 5 5 5 3 5 5 5 5 5 5 5 5 5 5 5 5 5 5 5 5 5 5 5 5 5 5 5 5 5 5 5 5 5 5 5 5 5 5 5 5 5 5 5 5 5 3 5 5 5 5 5 5 3 3 3 3 5 5 5 5 3 5 5 5 5 3 5 5 5 5 5 5 5 5 5 5 5 5 5 3 5 5 5 5 5 5 5 5 3 5 5 5 5 5 5 5 3 5 5 5 3 5 3 5 5 5 3 3 5 5 5 5 5 5 5 5 5 5 5 5 5 5 5 5 5 5 5 5 5 5 5 5 5 3 5 5 5 5 5 5 5 3 5 5 5 5 5 5 5 5 5 5 5 5 5 5 5 5 5 5 5 5 5 5 5 5 3 5 5 5 5 5 5 3 5 5 5 5 5 5 5 5 5 3 5 5 5 5 5 5 5 5 5 5 5 5 5 5 5 5 5 5 5 5 5 5 5 5 5 5 5 5 3 5 5 5 5 5 5 5 5 5 5 5 5 5 5 3 5 5 5 5 5 3 5 5 5 3 5 5 5 5 3 5 5 3 5 5 3 5 5 5 5 5 5 3 5 5 3 3 5 3 5 5 3 5 5 5 3 5 5 5 5 5 5 5 5 5 5 5 5 5 3 5 3 5 5 3 3 5 3 5 5 3 5 5 5 5 5 5 5 5 5 3 5 5 3 5 5 5 5 5 5 5 5 3 5 5 5 3 5 5 5 5 5 5 5 5 5 5 5 3 5 3 5 5 5 5 3 5 5 5 5 5 5 5 5 5 5 3 5 3 5 5 5 5 5 5 3 5 5 5 3 5 5 5 5 5 5 5 5 5 5 5 5 3 5 5 5 5 5 5 5 5 5 5 5 5 5 5 5 3 5 5 5 5 5 5 3 5 5 3 5 5 5 5 3 5 5 5 5 5 5 5 
</DataArray>
</Cells>
<PointData Scalars="" Vectors="displacement," Tensors="">
<DataArray type="Float64" Name="displacement" NumberOfComponents="3" format="ascii">
-0.054997735104337586 -0.054996173688300093 0 -0.054757331200412283 -0.050833183757770697 0 -0.054995333842981449 -0.049454880581630292 0 -0.054997735104337586 -0.054996173688300093 0 -0.05432835484099046 -0.054021895046685024 0 -0.054757331200412283 -0.050833183757770697 0 -0.054997735104337586 -0.054996173688300093 0 -0.05432835484099046 -0.054021895046685024 0 -0.050991744981306986 -0.05499946786268535 0 -0.05302106345182122 -0.053504224334969416 0 -0.050986274653555291 -0.054999251984524176 0 -0.051590695209143826 -0.053275260041922602 0 -0.052032694696767495 -0.052845602270987634 0 -0.050411801168913896 -0.054503855084201393 0 -0.05302106345182122 -0.053504224334969416 0 -0.054408089941183763 -0.05136411508884 0 -0.052032694696767495 -0.052845602270987634 0 -0.052699582457875739 -0.053465293482902229 0 -0.051038828156051035 -0.053895445799133579 0 -0.051590695209143826 -0.053275260041922602 0 -0.054757331200412283 -0.050833183757770697 0 -0.052032694696767495 -0.052845602270987634 0 -0.054757331200412283 -0.050833183757770697 0 -0.052032694696767495 -0.052845602270987634 0 -0.052699582457875739 -0.053465293482902229 0 -0.055089727069556567 -0.05082284151717506 0 -0.051941286568914058 -0.051809526687695957 0 -0.054757331200412283 -0.050833183757770697 0 -0.052699582457875739 -0.053465293482902229 0 -0.054995333842981449 -0.049454880581630292 0 -0.055089727069556567 -0.05082284151717506 0 -0.054998710911474 -0.04944245432320047 0 -0.056748210813257309 -0.048675180114499852 0 -0.054999833089398466 -0.049440367627038927 0 -0.055000021237285819 -0.04792529180152072 0 -0.051211052085819532 -0.054362782972174679 0 -0.051038828156051035 -0.053895445799133579 0 -0.050050633580870613 -0.054633441201796397 0 -0.051941286568914058 -0.051809526687695957 0 -0.048655196557392685 -0.056908420655175804 0 -0.04892687885183479 -0.058947007010308229 0 -0.047779405519934058 -0.057395419551205223 0 -0.047536174845098284 -0.059383155093098314 0 -0.052699582457875739 -0.053465293482902229 0 -0.051211052085819532 -0.054362782972174679 0 -0.051038828156051035 -0.053895445799133579 0 -0.052032694696767495 -0.052845602270987634 0 -0.051038828156051035 -0.053895445799133579 0 -0.050411801168913896 -0.054503855084201393 0 -0.051038828156051035 -0.053895445799133579 0 -0.050050633580870613 -0.054633441201796397 0 -0.050411801168913896 -0.054503855084201393 0 -0.050050633580870613 -0.054633441201796397 0 -0.049018527857269692 -0.054971889996296659 0 -0.050411801168913896 -0.054503855084201393 0 -0.051590695209143826 -0.053275260041922602 0 -0.050411801168913896 -0.054503855084201393 0 -0.050982771856659816 -0.054997428182074565 0 -0.049018527857269692 -0.054971889996296659 0 -0.050411801168913896 -0.054503855084201393 0 -0.048580211530871713 -0.054999174675615728 0 -0.050411801168913896 -0.054503855084201393 0 -0.050982771856659816 -0.054997428182074565 0 -0.048580211530871713 -0.054999174675615728 0 -0.048580211530871713 -0.054999174675615728 0 -0.046988636687755762 -0.055596452167438221 0 -0.046169768023320762 -0.054999278850321159 0 -0.049018527857269692 -0.054971889996296659 0 -0.048580211530871713 -0.054999174675615728 0 -0.046988636687755762 -0.055596452167438221 0 -0.046988636687755762 -0.055596452167438221 0 -0.046169768023320762 -0.054999278850321159 0 -0.045458400248451533 -0.055524790979850185 0 -0.046169768023320762 -0.054999278850321159 0 -0.045458400248451533 -0.055524790979850185 0 -0.043765175776027024 -0.054999676360540407 0 -0.046988636687755762 -0.055596452167438221 0 -0.045458400248451533 -0.055524790979850185 0 -0.044751323123225474 -0.056301491103088838 0 -0.046988636687755762 -0.055596452167438221 0 -0.044751323123225474 -0.056301491103088838 0 -0.046185217528545382 -0.057158229466866488 0 -0.050050633580870613 -0.054633441201796397 0 -0.049018527857269692 -0.054971889996296659 0 -0.046988636687755762 -0.055596452167438221 0 -0.048655196557392685 -0.056908420655175804 0 -0.047079965957745003 -0.055036932154479183 0 -0.047779405519934058 -0.057395419551205223 0 -0.046988636687755762 -0.055596452167438221 0 -0.046185217528545382 -0.057158229466866488 0 -0.041267281168991421 -0.05667306269374147 0 -0.043762394641452401 -0.055000001911460372 0 -0.040996206978613337 -0.054999982529754077 0 -0.04227621875535402 -0.056412743697782639 0 -0.043761966162068143 -0.055000227813061367 0 -0.045458400248451533 -0.055524790979850185 0 -0.043765175776027024 -0.054999676360540407 0 -0.044751323123225474 -0.056301491103088838 0 -0.042884087932147784 -0.055953413348137519 0 -0.043765175776027024 -0.054999676360540407 0 -0.044751323123225474 -0.056301491103088838 0 -0.042884087932147784 -0.055953413348137519 0 -0.044751323123225474 -0.056301491103088838 0 -0.043167958464822742 -0.057287926843423882 0 -0.043167958464822742 -0.057287926843423882 0 -0.044729362376421257 -0.057667570852337757 0 -0.043391838825071131 -0.05851203592584605 0 -0.044751323123225474 -0.056301491103088838 0 -0.043167958464822742 -0.057287926843423882 0 -0.044729362376421257 -0.057667570852337757 0 -0.044729362376421257 -0.057667570852337757 0 -0.04486141124594431 -0.058962275314225022 0 -0.043391838825071131 -0.05851203592584605 0 -0.04486141124594431 -0.058962275314225022 0 -0.043391838825071131 -0.05851203592584605 0 -0.043897480333370813 -0.059352558923356065 0 -0.047779405519934058 -0.057395419551205223 0 -0.046185217528545382 -0.057158229466866488 0 -0.046298012111372966 -0.058412321508377892 0 -0.044751323123225474 -0.056301491103088838 0 -0.044729362376421257 -0.057667570852337757 0 -0.046185217528545382 -0.057158229466866488 0 -0.044729362376421257 -0.057667570852337757 0 -0.046185217528545382 -0.057158229466866488 0 -0.046298012111372966 -0.058412321508377892 0 -0.044729362376421257 -0.057667570852337757 0 -0.04486141124594431 -0.058962275314225022 0 -0.046298012111372966 -0.058412321508377892 0 -0.047779405519934058 -0.057395419551205223 0 -0.046298012111372966 -0.058412321508377892 0 -0.047536174845098284 -0.059383155093098314 0 -0.05032485628638176 -0.045310391828602539 0 -0.050399469671075128 -0.045462285019736801 0 -0.050822250215812687 -0.045268439757911387 0 -0.047946677051382253 -0.052877928599697345 0 -0.048889019150217906 -0.052368682390892624 0 -0.046298012111372966 -0.058412321508377892 0 -0.046066826218376919 -0.05979620698926099 0 -0.047536174845098284 -0.059383155093098314 0 -0.047946677051382253 -0.052877928599697345 0 -0.047978183559731255 -0.048730836382117289 0 -0.04486141124594431 -0.058962275314225022 0 -0.046298012111372966 -0.058412321508377892 0 -0.046066826218376919 -0.05979620698926099 0 -0.05032485628638176 -0.045310391828602539 0 -0.050399469671075128 -0.045462285019736801 0 -0.049605452638063041 -0.045586796768699908 0 -0.050894544211160929 -0.044849409662584439 0 -0.047978183559731255 -0.048730836382117289 0 -0.050399469671075128 -0.045462285019736801 0 -0.050010467668293687 -0.045637172588875813 0 -0.049486384557071064 -0.04485559309782923 0 -0.050399469671075128 -0.045462285019736801 0 -0.050010467668293687 -0.045637172588875813 0 -0.050398968292608391 -0.045900792060305867 0 -0.050399469671075128 -0.045462285019736801 0 -0.050782067795995714 -0.045678129317362155 0 -0.050822250215812687 -0.045268439757911387 0 -0.050399469671075128 -0.045462285019736801 0 -0.050782067795995714 -0.045678129317362155 0 -0.050398968292608391 -0.045900792060305867 0 -0.043897480333370813 -0.059352558923356065 0 -0.043311380123806059 -0.060050627312524751 0 -0.042695636172239954 -0.059210255156745092 0 -0.043391838825071131 -0.05851203592584605 0 -0.043897480333370813 -0.059352558923356065 0 -0.042695636172239954 -0.059210255156745092 0 -0.043897480333370813 -0.059352558923356065 0 -0.044590417618815818 -0.060135496332075954 0 -0.043311380123806059 -0.060050627312524751 0 -0.04486141124594431 -0.058962275314225022 0 -0.043897480333370813 -0.059352558923356065 0 -0.044590417618815818 -0.060135496332075954 0 -0.04486141124594431 -0.058962275314225022 0 -0.046066826218376919 -0.05979620698926099 0 -0.044590417618815818 -0.060135496332075954 0 -0.050010467668293687 -0.045637172588875813 0 -0.049229791396890675 -0.045676095480712386 0 -0.049486384557071064 -0.04485559309782923 0 -0.049229791396890675 -0.045676095480712386 0 -0.049486384557071064 -0.04485559309782923 0 -0.048684808747816791 -0.044670069228121771 0 -0.047978183559731255 -0.048730836382117289 0 -0.049559228964432989 -0.046039626550667755 0 -0.047978183559731255 -0.048730836382117289 0 -0.045524101579121103 -0.052212407843293528 0 -0.049835099495482663 -0.044508675517447673 0 -0.048684808747816791 -0.044670069228121771 0 -0.047604109084821759 -0.044102544828441038 0 -0.049229791396890675 -0.045676095480712386 0 -0.048684808747816791 -0.044670069228121771 0 -0.047925954176602219 -0.04503363686504902 0 -0.049229791396890675 -0.045676095480712386 0 -0.047925954176602219 -0.04503363686504902 0 -0.047509737478919324 -0.045917376441021202 0 -0.047925954176602219 -0.04503363686504902 0 -0.047509737478919324 -0.045917376441021202 0 -0.046458114352115248 -0.044705761642938116 0 -0.047925954176602219 -0.04503363686504902 0 -0.047604109084821759 -0.044102544828441038 0 -0.046458114352115248 -0.044705761642938116 0 -0.048684808747816791 -0.044670069228121771 0 -0.047925954176602219 -0.04503363686504902 0 -0.047604109084821759 -0.044102544828441038 0 -0.049229791396890675 -0.045676095480712386 0 -0.047509737478919324 -0.045917376441021202 0 -0.049518685827932812 -0.047324461965038131 0 -0.047509737478919324 -0.045917376441021202 0 -0.049518685827932812 -0.047324461965038131 0 -0.0452365858579254 -0.04788514689217082 0 -0.050010467668293687 -0.045637172588875813 0 -0.049229791396890675 -0.045676095480712386 0 -0.050042292826524261 -0.046345956517727896 0 -0.049229791396890675 -0.045676095480712386 0 -0.049518685827932812 -0.047324461965038131 0 -0.050042292826524261 -0.046345956517727896 0 -0.049518685827932812 -0.047324461965038131 0 -0.050042292826524261 -0.046345956517727896 0 -0.050069637017879746 -0.046662799714341674 0 -0.049518685827932812 -0.047324461965038131 0 -0.0452365858579254 -0.04788514689217082 0 -0.046964021734150242 -0.05180045094367413 0 -0.049528545318901357 -0.047275446545783813 0 -0.049103435932577398 -0.050045670665254199 0 -0.050658681402580584 -0.046148090124495292 0 -0.050398968292608391 -0.045900792060305867 0 -0.050330811555395691 -0.04637559056399345 0 -0.050782067795995714 -0.045678129317362155 0 -0.050658681402580584 -0.046148090124495292 0 -0.050398968292608391 -0.045900792060305867 0 -0.050398968292608391 -0.045900792060305867 0 -0.050042292826524261 -0.046345956517727896 0 -0.050330811555395691 -0.04637559056399345 0 -0.050010467668293687 -0.045637172588875813 0 -0.050398968292608391 -0.045900792060305867 0 -0.050042292826524261 -0.046345956517727896 0 -0.050330811555395691 -0.04637559056399345 0 -0.050069637017879746 -0.046662799714341674 0 -0.050562770179519441 -0.046572472395065824 0 -0.050042292826524261 -0.046345956517727896 0 -0.050330811555395691 -0.04637559056399345 0 -0.050069637017879746 -0.046662799714341674 0 -0.050658681402580584 -0.046148090124495292 0 -0.050330811555395691 -0.04637559056399345 0 -0.050562770179519441 -0.046572472395065824 0 -0.054005779071295404 -0.044171472169507231 0 -0.054088317355903304 -0.043245254907071234 0 -0.057378027810356724 -0.042061736863598369 0 -0.056961325273405944 -0.040509325166775863 0 -0.057780013218676804 -0.040072681427032852 0 -0.050658681402580584 -0.046148090124495292 0 -0.05124843091820485 -0.046169584880724222 0 -0.050562770179519441 -0.046572472395065824 0 -0.050782067795995714 -0.045678129317362155 0 -0.050658681402580584 -0.046148090124495292 0 -0.05124843091820485 -0.046169584880724222 0 -0.057378027810356724 -0.042061736863598369 0 -0.056634006565677145 -0.042774256065893981 0 -0.056547148221985546 -0.043542567402543281 0 -0.054005779071295404 -0.044171472169507231 0 -0.055692769644587796 -0.044784282525227301 0 -0.057378027810356724 -0.042061736863598369 0 -0.056393208339091387 -0.042085517191017281 0 -0.056961325273405944 -0.040509325166775863 0 -0.056393208339091387 -0.042085517191017281 0 -0.054999980880112376 -0.04233507060969055 0 -0.056134939463296056 -0.043251861513965213 0 -0.056393208339091387 -0.042085517191017281 0 -0.054999980880112376 -0.04233507060969055 0 -0.05589467854986311 -0.041031928291823248 0 -0.054999980880112376 -0.04233507060969055 0 -0.056134939463296056 -0.043251861513965213 0 -0.054999515881136905 -0.04512937819006016 0 -0.057378027810356724 -0.042061736863598369 0 -0.056393208339091387 -0.042085517191017281 0 -0.056634006565677145 -0.042774256065893981 0 -0.056393208339091387 -0.042085517191017281 0 -0.056134939463296056 -0.043251861513965213 0 -0.056634006565677145 -0.042774256065893981 0 -0.056134939463296056 -0.043251861513965213 0 -0.056634006565677145 -0.042774256065893981 0 -0.056547148221985546 -0.043542567402543281 0 -0.056413581442418863 -0.043482510029755769 0 -0.055692769644587796 -0.044784282525227301 0 -0.056134939463296056 -0.043251861513965213 0 -0.057750846878233106 -0.045354428158277546 0 -0.056206750674643716 -0.044993626023585816 0 -0.057750846878233106 -0.045354428158277546 0 -0.056206750674643716 -0.044993626023585816 0 -0.056242461956438845 -0.046663402305907431 0 -0.055692769644587796 -0.044784282525227301 0 -0.05617347780483465 -0.04679926943257675 0 -0.056134939463296056 -0.043251861513965213 0 -0.054999515881136905 -0.04512937819006016 0 -0.056206750674643716 -0.044993626023585816 0 -0.054999515881136905 -0.04512937819006016 0 -0.056206750674643716 -0.044993626023585816 0 -0.056242461956438845 -0.046663402305907431 0 -0.056748210813257309 -0.048675180114499852 0 -0.056011098426322466 -0.047093257235998005 0 -0.055000021237285819 -0.04792529180152072 0 -0.054999515881136905 -0.04512937819006016 0 -0.056242461956438845 -0.046663402305907431 0 -0.055000165894561553 -0.047924495413349408 0 -0.05617347780483465 -0.04679926943257675 0 -0.05500026069289355 -0.047924040694646994 0 -0.056748210813257309 -0.048675180114499852 0 -0.056973260800510031 -0.046212648047154303 0 -0.056011098426322466 -0.047093257235998005 0 -0.056748210813257309 -0.048675180114499852 0 -0.058315603500356888 -0.048205724783250206 0 -0.056973260800510031 -0.046212648047154303 0 -0.051341364005128357 -0.045153827047977872 0 -0.051799176886339941 -0.045703843894010478 0 -0.051227027048330279 -0.045635351410804624 0 -0.051941286568914058 -0.051809526687695957 0 -0.055692769644587796 -0.044784282525227301 0 -0.051941286568914058 -0.051809526687695957 0 -0.048889019150217906 -0.052368682390892624 0 -0.051341364005128357 -0.045153827047977872 0 -0.050822250215812687 -0.045268439757911387 0 -0.051227027048330279 -0.045635351410804624 0 -0.050782067795995714 -0.045678129317362155 0 -0.05124843091820485 -0.046169584880724222 0 -0.051227027048330279 -0.045635351410804624 0 -0.050782067795995714 -0.045678129317362155 0 -0.050822250215812687 -0.045268439757911387 0 -0.051227027048330279 -0.045635351410804624 0 -0.05124843091820485 -0.046169584880724222 0 -0.051799176886339941 -0.045703843894010478 0 -0.051227027048330279 -0.045635351410804624 0 -0.026406212540591001 -0.056681924487575523 0 -0.026273311953515833 -0.056809729029361621 0 -0.025640993690521724 -0.056464337540890891 0 -0.028188927362802756 -0.056682845256547307 0 -0.026406212540591001 -0.056681924487575523 0 -0.026273311953515833 -0.056809729029361621 0 -0.026047136334943793 -0.052634076825516227 0 -0.026284920408174525 -0.053741184801647163 0 -0.025035491686850816 -0.054097302935870992 0 -0.026911372855465222 -0.054346506974615211 0 -0.02573847257075005 -0.055365628246093743 0 -0.026406212540591001 -0.056681924487575523 0 -0.027642955363436188 -0.056204747883316086 0 -0.025902142611281594 -0.056348112786747069 0 -0.028188927362802756 -0.056682845256547307 0 -0.026406212540591001 -0.056681924487575523 0 -0.027642955363436188 -0.056204747883316086 0 -0.030164673421351092 -0.0549996355918883 0 -0.028926243720757919 -0.055701951423200155 0 -0.027081826159504066 -0.054999387188064408 0 -0.027642955363436188 -0.056204747883316086 0 -0.028926243720757919 -0.055701951423200155 0 -0.027081826159504066 -0.054999387188064408 0 -0.030169483515320526 -0.05500012769309455 0 -0.030488661022633864 -0.055925127167568874 0 -0.030164673421351092 -0.0549996355918883 0 -0.028926243720757919 -0.055701951423200155 0 -0.029262049079394805 -0.055557901308227492 0 -0.028188927362802756 -0.056682845256547307 0 -0.027642955363436188 -0.056204747883316086 0 -0.028748497375291681 -0.055980585390695857 0 -0.027642955363436188 -0.056204747883316086 0 -0.028926243720757919 -0.055701951423200155 0 -0.028748497375291681 -0.055980585390695857 0 -0.028926243720757919 -0.055701951423200155 0 -0.028748497375291681 -0.055980585390695857 0 -0.029262049079394805 -0.055557901308227492 0 -0.028748497375291681 -0.055980585390695857 0 -0.02947389402635359 -0.055959759364643896 0 -0.029262049079394805 -0.055557901308227492 0 -0.028188927362802756 -0.056682845256547307 0 -0.028748497375291681 -0.055980585390695857 0 -0.02947389402635359 -0.055959759364643896 0 -0.030435721862788978 -0.055655538235389594 0 -0.030488661022633864 -0.055925127167568874 0 -0.030169814377109649 -0.054999995971516849 0 -0.031388107119557244 -0.05622672145603793 0 -0.03233448484803892 -0.054999987820169072 0 -0.032589912236641712 -0.057449780736832053 0 -0.031388107119557244 -0.05622672145603793 0 -0.03233448484803892 -0.054999987820169072 0 -0.032589912236641712 -0.057449780736832053 0 -0.03233448484803892 -0.054999987820169072 0 -0.034499154779638837 -0.054999995454175436 0 -0.032818687218332858 -0.057265358938465266 0 -0.034656227541813966 -0.056923558347642254 0 -0.034499437398496785 -0.05499995823062271 0 -0.030435721862788978 -0.055655538235389594 0 -0.034500236382362458 -0.055001387378839778 0 -0.032818687218332858 -0.057265358938465266 0 -0.034208205776912554 -0.058650648999408118 0 -0.034656227541813966 -0.056923558347642254 0 -0.030435721862788978 -0.055655538235389594 0 -0.031175538270770468 -0.055616914791884992 0 -0.028137878437411838 -0.052173546805891868 0 -0.027405063108617674 -0.05296971264907617 0 -0.029146978783233721 -0.053118413572686644 0 -0.028137878437411838 -0.052173546805891868 0 -0.027193302023456534 -0.052254044344151269 0 -0.027405063108617674 -0.05296971264907617 0 -0.027182896568704366 -0.051238042417940353 0 -0.028137878437411838 -0.052173546805891868 0 -0.027193302023456534 -0.052254044344151269 0 -0.026047136334943793 -0.052634076825516227 0 -0.027182896568704366 -0.051238042417940353 0 -0.027193302023456534 -0.052254044344151269 0 -0.026911372855465222 -0.054346506974615211 0 -0.030435721862788978 -0.055655538235389594 0 -0.026047136334943793 -0.052634076825516227 0 -0.027193302023456534 -0.052254044344151269 0 -0.027405063108617674 -0.05296971264907617 0 -0.026284920408174525 -0.053741184801647163 0 -0.027405063108617674 -0.05296971264907617 0 -0.027632175552457509 -0.054074077727642861 0 -0.026047136334943793 -0.052634076825516227 0 -0.026284920408174525 -0.053741184801647163 0 -0.027405063108617674 -0.05296971264907617 0 -0.027405063108617674 -0.05296971264907617 0 -0.029146978783233721 -0.053118413572686644 0 -0.027632175552457509 -0.054074077727642861 0 -0.033384045430201521 -0.040743381549226132 0 -0.033021339193224697 -0.042534866258853075 0 -0.031085754566357034 -0.042161612387767236 0 -0.033384045430201521 -0.040743381549226132 0 -0.035038401847889943 -0.042312072703796041 0 -0.033021339193224697 -0.042534866258853075 0 -0.034179054722808022 -0.051846847516870895 0 -0.029078340671185081 -0.047584386368258 0 -0.034179054722808022 -0.051846847516870895 0 -0.03632192077458777 -0.046749982789211907 0 -0.039039036927734111 -0.052947177369375258 0 -0.038080320358758066 -0.053645891857015328 0 -0.038097928618881019 -0.051936998660817572 0 -0.035607917758336403 -0.060022621627811835 0 -0.037096455599393216 -0.059073069301762454 0 -0.035789984545640453 -0.058352861190883093 0 -0.037096455599393216 -0.059073069301762454 0 -0.035789984545640453 -0.058352861190883093 0 -0.037402654597208512 -0.057509727707717562 0 -0.034179054722808022 -0.051846847516870895 0 -0.037500131522379819 -0.05642716155850723 0 -0.034208205776912554 -0.058650648999408118 0 -0.035607917758336403 -0.060022621627811835 0 -0.035789984545640453 -0.058352861190883093 0 -0.031175538270770468 -0.055616914791884992 0 -0.034179054722808022 -0.051846847516870895 0 -0.034208205776912554 -0.058650648999408118 0 -0.035789984545640453 -0.058352861190883093 0 -0.034656227541813966 -0.056923558347642254 0 -0.035789984545640453 -0.058352861190883093 0 -0.034656227541813966 -0.056923558347642254 0 -0.036169445443694014 -0.057046848713463959 0 -0.034656227541813966 -0.056923558347642254 0 -0.035696117339458447 -0.056045701086388261 0 -0.036169445443694014 -0.057046848713463959 0 -0.034656227541813966 -0.056923558347642254 0 -0.034499437398496785 -0.05499995823062271 0 -0.035696117339458447 -0.056045701086388261 0 -0.034499437398496785 -0.05499995823062271 0 -0.035696117339458447 -0.056045701086388261 0 -0.036364569999211678 -0.054999936133913525 0 -0.036364569999211678 -0.054999936133913525 0 -0.037033770306023672 -0.056205786517667153 0 -0.038229799078092513 -0.05499997671533146 0 -0.035696117339458447 -0.056045701086388261 0 -0.036364569999211678 -0.054999936133913525 0 -0.037033770306023672 -0.056205786517667153 0 -0.035696117339458447 -0.056045701086388261 0 -0.037033770306023672 -0.056205786517667153 0 -0.036169445443694014 -0.057046848713463959 0 -0.037033770306023672 -0.056205786517667153 0 -0.037402654597208512 -0.057509727707717562 0 -0.038366871945106913 -0.056567332451435352 0 -0.037033770306023672 -0.056205786517667153 0 -0.036169445443694014 -0.057046848713463959 0 -0.037402654597208512 -0.057509727707717562 0 -0.035789984545640453 -0.058352861190883093 0 -0.036169445443694014 -0.057046848713463959 0 -0.037402654597208512 -0.057509727707717562 0 -0.038797016167629698 -0.058318976830032822 0 -0.038524085426753611 -0.056666778485974317 0 -0.039723822513815822 -0.05618990667559326 0 -0.037402654597208512 -0.057509727707717562 0 -0.038582286829075239 -0.058101428291642249 0 -0.038366871945106913 -0.056567332451435352 0 -0.038832848306107483 -0.056516409354048738 0 -0.038504438571391408 -0.056846499565799985 0 -0.037033770306023672 -0.056205786517667153 0 -0.038366871945106913 -0.056567332451435352 0 -0.038229799078092513 -0.05499997671533146 0 -0.038524085426753611 -0.056666778485974317 0 -0.038230093694090209 -0.054999993544461591 0 -0.039723822513815822 -0.05618990667559326 0 -0.038504438571391408 -0.056846499565799985 0 -0.038230065670294577 -0.055000319305887883 0 -0.038230093694090209 -0.054999993544461591 0 -0.040996206978613337 -0.054999982529754077 0 -0.039723822513815822 -0.05618990667559326 0 -0.041267281168991421 -0.05667306269374147 0 -0.040996206978613337 -0.054999982529754077 0 -0.039723822513815822 -0.05618990667559326 0 -0.041267281168991421 -0.05667306269374147 0 -0.038797016167629698 -0.058318976830032822 0 -0.039723822513815822 -0.05618990667559326 0 -0.042884087932147784 -0.055953413348137519 0 -0.043167958464822742 -0.057287926843423882 0 -0.041515466530335055 -0.056913517763185109 0 -0.04227621875535402 -0.056412743697782639 0 -0.038832848306107483 -0.056516409354048738 0 -0.043167958464822742 -0.057287926843423882 0 -0.041515466530335055 -0.056913517763185109 0 -0.041802423943380698 -0.058444039035304471 0 -0.038832848306107483 -0.056516409354048738 0 -0.039106487334850164 -0.056440683489445254 0 -0.038080320358758066 -0.053645891857015328 0 -0.037094032622508301 -0.054352938688593498 0 -0.036829466346989921 -0.052635869689152265 0 -0.037096455599393216 -0.059073069301762454 0 -0.037402654597208512 -0.057509727707717562 0 -0.038582286829075239 -0.058101428291642249 0 -0.037500131522379819 -0.05642716155850723 0 -0.038832848306107483 -0.056516409354048738 0 -0.038080320358758066 -0.053645891857015328 0 -0.036829466346989921 -0.052635869689152265 0 -0.038097928618881019 -0.051936998660817572 0 -0.043167958464822742 -0.057287926843423882 0 -0.043391838825071131 -0.05851203592584605 0 -0.041802423943380698 -0.058444039035304471 0 -0.043391838825071131 -0.05851203592584605 0 -0.041802423943380698 -0.058444039035304471 0 -0.042695636172239954 -0.059210255156745092 0 -0.041802423943380698 -0.058444039035304471 0 -0.042695636172239954 -0.059210255156745092 0 -0.042091193740161459 -0.05996269266375865 0 -0.043311380123806059 -0.060050627312524751 0 -0.042695636172239954 -0.059210255156745092 0 -0.042091193740161459 -0.05996269266375865 0 -0.039106487334850164 -0.056440683489445254 0 -0.042589993343233747 -0.049896505850485849 0 -0.036829466346989921 -0.052635869689152265 0 -0.037157155678837844 -0.05091832877409027 0 -0.036593903964670674 -0.050910231514177791 0 -0.036829466346989921 -0.052635869689152265 0 -0.037157155678837844 -0.05091832877409027 0 -0.038097928618881019 -0.051936998660817572 0 -0.039348197437593546 -0.045431928725456358 0 -0.03632192077458777 -0.046749982789211907 0 -0.039348197437593546 -0.045431928725456358 0 -0.042589993343233747 -0.049896505850485849 0 -0.042146947768881324 -0.041962451882289753 0 -0.042702526219025115 -0.042510520731489136 0 -0.043727795449974391 -0.041990843690996787 0 -0.039348197437593546 -0.045431928725456358 0 -0.039837522877837539 -0.044947240872874883 0 -0.042104567784922914 -0.04190699285980734 0 -0.042702526219025115 -0.042510520731489136 0 -0.041291678030849467 -0.04329552631317992 0 -0.041976876588300578 -0.044521348727904787 0 -0.041291678030849467 -0.04329552631317992 0 -0.03964378721620479 -0.044682610595735882 0 -0.042702526219025115 -0.042510520731489136 0 -0.041976876588300578 -0.044521348727904787 0 -0.041291678030849467 -0.04329552631317992 0 -0.042702526219025115 -0.042510520731489136 0 -0.041976876588300578 -0.044521348727904787 0 -0.044352271738281539 -0.044971390277986988 0 -0.045371482936841678 -0.043924929929188034 0 -0.046458114352115248 -0.044705761642938116 0 -0.045504828178295161 -0.045716155179023055 0 -0.042702526219025115 -0.042510520731489136 0 -0.043727795449974391 -0.041990843690996787 0 -0.044352271738281539 -0.044971390277986988 0 -0.045524101579121103 -0.052212407843293528 0 -0.042589993343233747 -0.049896505850485849 0 -0.042589993343233747 -0.049896505850485849 0 -0.044692699815716296 -0.044406474410946049 0 -0.047604109084821759 -0.044102544828441038 0 -0.045371482936841678 -0.043924929929188034 0 -0.046458114352115248 -0.044705761642938116 0 -0.047509737478919324 -0.045917376441021202 0 -0.046458114352115248 -0.044705761642938116 0 -0.045504828178295161 -0.045716155179023055 0 -0.044692699815716296 -0.044406474410946049 0 -0.045284294900205371 -0.047965466309546227 0 -0.044352271738281539 -0.044971390277986988 0 -0.0452365858579254 -0.04788514689217082 0 -0.042732125133888035 -0.048199592707707899 0 -0.047509737478919324 -0.045917376441021202 0 -0.045504828178295161 -0.045716155179023055 0 -0.0452365858579254 -0.04788514689217082 0 -0.0452365858579254 -0.04788514689217082 0 -0.042987756731362028 -0.051226405319492074 0 -0.046964021734150242 -0.05180045094367413 0 -0.040209994743893196 -0.049108556763172252 0 -0.038970690957208315 -0.051257283779039424 0 -0.042987756731362028 -0.051226405319492074 0 -0.0452365858579254 -0.04788514689217082 0 -0.042732125133888035 -0.048199592707707899 0 -0.042987756731362028 -0.051226405319492074 0 -0.042732125133888035 -0.048199592707707899 0 -0.040209994743893196 -0.049108556763172252 0 -0.042987756731362028 -0.051226405319492074 0 -0.042732125133888035 -0.048199592707707899 0 -0.041191434872784587 -0.046530876365521043 0 -0.040209994743893196 -0.049108556763172252 0 -0.041976876588300578 -0.044521348727904787 0 -0.044352271738281539 -0.044971390277986988 0 -0.041191434872784587 -0.046530876365521043 0 -0.044352271738281539 -0.044971390277986988 0 -0.042732125133888035 -0.048199592707707899 0 -0.041191434872784587 -0.046530876365521043 0 -0.041976876588300578 -0.044521348727904787 0 -0.041191434872784587 -0.046530876365521043 0 -0.03964378721620479 -0.044682610595735882 0 -0.03841809157595024 -0.046864004403729211 0 -0.03639154037827725 -0.044667627376639298 0 -0.03964378721620479 -0.044682610595735882 0 -0.041191434872784587 -0.046530876365521043 0 -0.03841809157595024 -0.046864004403729211 0 -0.03964378721620479 -0.044682610595735882 0 -0.041191434872784587 -0.046530876365521043 0 -0.03841809157595024 -0.046864004403729211 0 -0.040209994743893196 -0.049108556763172252 0 -0.03841809157595024 -0.046864004403729211 0 -0.040209994743893196 -0.049108556763172252 0 -0.037095444267221472 -0.049319647791361575 0 -0.040209994743893196 -0.049108556763172252 0 -0.037095444267221472 -0.049319647791361575 0 -0.038970690957208315 -0.051257283779039424 0 -0.037095444267221472 -0.049319647791361575 0 -0.035533028378213462 -0.052200893734951376 0 -0.038970690957208315 -0.051257283779039424 0 -0.037095444267221472 -0.049319647791361575 0 -0.034142363445641366 -0.049234307454442863 0 -0.035533028378213462 -0.052200893734951376 0 -0.037095444267221472 -0.049319647791361575 0 -0.034142363445641366 -0.049234307454442863 0 -0.035720806082810391 -0.047036751628325768 0 -0.034142363445641366 -0.049234307454442863 0 -0.035720806082810391 -0.047036751628325768 0 -0.033409706321104571 -0.047002982572696549 0 -0.03841809157595024 -0.046864004403729211 0 -0.037095444267221472 -0.049319647791361575 0 -0.035720806082810391 -0.047036751628325768 0 -0.03841809157595024 -0.046864004403729211 0 -0.035720806082810391 -0.047036751628325768 0 -0.03639154037827725 -0.044667627376639298 0 -0.035720806082810391 -0.047036751628325768 0 -0.03639154037827725 -0.044667627376639298 0 -0.033815074791408335 -0.045111200917103751 0 -0.035720806082810391 -0.047036751628325768 0 -0.033815074791408335 -0.045111200917103751 0 -0.033409706321104571 -0.047002982572696549 0 -0.0359462242834616 -0.042801901723604791 0 -0.032434281042097217 -0.04311544015204629 0 -0.03639154037827725 -0.044667627376639298 0 -0.033172204446579943 -0.042417445343202492 0 -0.033815074791408335 -0.045111200917103751 0 -0.03639154037827725 -0.044667627376639298 0 -0.037638766947802063 -0.042007125197824645 0 -0.033172204446579943 -0.042417445343202492 0 -0.03639154037827725 -0.044667627376639298 0 -0.037638766947802063 -0.042007125197824645 0 -0.03964378721620479 -0.044682610595735882 0 -0.039348197437593546 -0.045431928725456358 0 -0.0359462242834616 -0.042801901723604791 0 -0.041291678030849467 -0.04329552631317992 0 -0.037638766947802063 -0.042007125197824645 0 -0.03964378721620479 -0.044682610595735882 0 -0.042104567784922914 -0.04190699285980734 0 -0.041291678030849467 -0.04329552631317992 0 -0.037638766947802063 -0.042007125197824645 0 -0.036752339089124911 -0.04401209872287748 0 -0.034168512258647969 -0.043915138795019779 0 -0.035038401847889943 -0.042312072703796041 0 -0.034168512258647969 -0.043915138795019779 0 -0.035038401847889943 -0.042312072703796041 0 -0.033021339193224697 -0.042534866258853075 0 -0.034168512258647969 -0.043915138795019779 0 -0.033021339193224697 -0.042534866258853075 0 -0.031667682032767465 -0.043736273253533665 0 -0.033021339193224697 -0.042534866258853075 0 -0.031085754566357034 -0.042161612387767236 0 -0.031667682032767465 -0.043736273253533665 0 -0.031085754566357034 -0.042161612387767236 0 -0.029200180673896511 -0.043371440606500687 0 -0.031667682032767465 -0.043736273253533665 0 -0.027632175552457509 -0.054074077727642861 0 -0.026413209517123001 -0.054278943533008432 0 -0.026044406403568324 -0.054904390423097568 0 -0.031085754566357034 -0.042161612387767236 0 -0.029200180673896511 -0.043371440606500687 0 -0.028747404158839876 -0.043334542386322956 0 -0.029078340671185081 -0.047584386368258 0 -0.027453571750933492 -0.049211294584342785 0 -0.026284920408174525 -0.053741184801647163 0 -0.027632175552457509 -0.054074077727642861 0 -0.026413209517123001 -0.054278943533008432 0 -0.026284920408174525 -0.053741184801647163 0 -0.026413209517123001 -0.054278943533008432 0 -0.025742454254377527 -0.054394323947336079 0 -0.026413209517123001 -0.054278943533008432 0 -0.026044406403568324 -0.054904390423097568 0 -0.025742454254377527 -0.054394323947336079 0 -0.029200180673896511 -0.043371440606500687 0 -0.029969341354747856 -0.043932246842343446 0 -0.033172204446579943 -0.042417445343202492 0 -0.029969341354747856 -0.043932246842343446 0 -0.029562798773806583 -0.04476021052051788 0 -0.030840070644055112 -0.044398753090765332 0 -0.029969341354747856 -0.043932246842343446 0 -0.028549693314135535 -0.04461522432666893 0 -0.029562798773806583 -0.04476021052051788 0 -0.029969341354747856 -0.043932246842343446 0 -0.029118056744676244 -0.043799016729905473 0 -0.028549693314135535 -0.04461522432666893 0 -0.028747404158839876 -0.043334542386322956 0 -0.029118056744676244 -0.043799016729905473 0 -0.028549693314135535 -0.04461522432666893 0 -0.029200180673896511 -0.043371440606500687 0 -0.029969341354747856 -0.043932246842343446 0 -0.029118056744676244 -0.043799016729905473 0 -0.029200180673896511 -0.043371440606500687 0 -0.028747404158839876 -0.043334542386322956 0 -0.029118056744676244 -0.043799016729905473 0 -0.029562798773806583 -0.04476021052051788 0 -0.028429939612399171 -0.0457142170473872 0 -0.030001478863903606 -0.045445704382361063 0 -0.028549693314135535 -0.04461522432666893 0 -0.029562798773806583 -0.04476021052051788 0 -0.028429939612399171 -0.0457142170473872 0 -0.029562798773806583 -0.04476021052051788 0 -0.030840070644055112 -0.044398753090765332 0 -0.030001478863903606 -0.045445704382361063 0 -0.030001478863903606 -0.045445704382361063 0 -0.031061603825852116 -0.045124970389495346 0 -0.031081105644444551 -0.045899506508507541 0 -0.030840070644055112 -0.044398753090765332 0 -0.030001478863903606 -0.045445704382361063 0 -0.031061603825852116 -0.045124970389495346 0 -0.029969341354747856 -0.043932246842343446 0 -0.030840070644055112 -0.044398753090765332 0 -0.033172204446579943 -0.042417445343202492 0 -0.029540129638971908 -0.043286978006358792 0 -0.032434281042097217 -0.04311544015204629 0 -0.031061603825852116 -0.045124970389495346 0 -0.032180738326083355 -0.044522895260018069 0 -0.032188005676199859 -0.045716074199808499 0 -0.030840070644055112 -0.044398753090765332 0 -0.031061603825852116 -0.045124970389495346 0 -0.032180738326083355 -0.044522895260018069 0 -0.030840070644055112 -0.044398753090765332 0 -0.032180738326083355 -0.044522895260018069 0 -0.033172204446579943 -0.042417445343202492 0 -0.032180738326083355 -0.044522895260018069 0 -0.033815074791408335 -0.045111200917103751 0 -0.032188005676199859 -0.045716074199808499 0 -0.032180738326083355 -0.044522895260018069 0 -0.033172204446579943 -0.042417445343202492 0 -0.033815074791408335 -0.045111200917103751 0 -0.033815074791408335 -0.045111200917103751 0 -0.032188005676199859 -0.045716074199808499 0 -0.033409706321104571 -0.047002982572696549 0 -0.032188005676199859 -0.045716074199808499 0 -0.031891493322064229 -0.046777295789224932 0 -0.033409706321104571 -0.047002982572696549 0 -0.031061603825852116 -0.045124970389495346 0 -0.031081105644444551 -0.045899506508507541 0 -0.032188005676199859 -0.045716074199808499 0 -0.031081105644444551 -0.045899506508507541 0 -0.032188005676199859 -0.045716074199808499 0 -0.031891493322064229 -0.046777295789224932 0 -0.031081105644444551 -0.045899506508507541 0 -0.031891493322064229 -0.046777295789224932 0 -0.030953258550128551 -0.046792774695274951 0 -0.031891493322064229 -0.046777295789224932 0 -0.030888055126072244 -0.047609604742020938 0 -0.030953258550128551 -0.046792774695274951 0 -0.031891493322064229 -0.046777295789224932 0 -0.032254986779840955 -0.048112160852610469 0 -0.030888055126072244 -0.047609604742020938 0 -0.031891493322064229 -0.046777295789224932 0 -0.033409706321104571 -0.047002982572696549 0 -0.032254986779840955 -0.048112160852610469 0 -0.034142363445641366 -0.049234307454442863 0 -0.033409706321104571 -0.047002982572696549 0 -0.032254986779840955 -0.048112160852610469 0 -0.034142363445641366 -0.049234307454442863 0 -0.031408284496613169 -0.050494901214270443 0 -0.035533028378213462 -0.052200893734951376 0 -0.034142363445641366 -0.049234307454442863 0 -0.032254986779840955 -0.048112160852610469 0 -0.031824167487702955 -0.049534158817554845 0 -0.032254986779840955 -0.048112160852610469 0 -0.031177222447967057 -0.048808374540288073 0 -0.030888055126072244 -0.047609604742020938 0 -0.032254986779840955 -0.048112160852610469 0 -0.031177222447967057 -0.048808374540288073 0 -0.031824167487702955 -0.049534158817554845 0 -0.034142363445641366 -0.049234307454442863 0 -0.031824167487702955 -0.049534158817554845 0 -0.031408284496613169 -0.050494901214270443 0 -0.031177222447967057 -0.048808374540288073 0 -0.031824167487702955 -0.049534158817554845 0 -0.031387108176118235 -0.050527049977284286 0 -0.030083696801930106 -0.048161334522640681 0 -0.030161310464489943 -0.046151262631484148 0 -0.026112736574687531 -0.047952318243829013 0 -0.027022285238589308 -0.048237533288428593 0 -0.026407937342736585 -0.047904493472348084 0 -0.030161310464489943 -0.046151262631484148 0 -0.026812298872660147 -0.048981679727806697 0 -0.031387108176118235 -0.050527049977284286 0 -0.029747721306057212 -0.048366877955837058 0 -0.027022285238589308 -0.048237533288428593 0 -0.031177222447967057 -0.048808374540288073 0 -0.031387108176118235 -0.050527049977284286 0 -0.029747721306057212 -0.048366877955837058 0 -0.031177222447967057 -0.048808374540288073 0 -0.029747721306057212 -0.048366877955837058 0 -0.030888055126072244 -0.047609604742020938 0 -0.029747721306057212 -0.048366877955837058 0 -0.02935061689960148 -0.046891819157544465 0 -0.027022285238589308 -0.048237533288428593 0 -0.029747721306057212 -0.048366877955837058 0 -0.02935061689960148 -0.046891819157544465 0 -0.030888055126072244 -0.047609604742020938 0 -0.02935061689960148 -0.046891819157544465 0 -0.030888055126072244 -0.047609604742020938 0 -0.030953258550128551 -0.046792774695274951 0 -0.030001478863903606 -0.045445704382361063 0 -0.031081105644444551 -0.045899506508507541 0 -0.02935061689960148 -0.046891819157544465 0 -0.031081105644444551 -0.045899506508507541 0 -0.02935061689960148 -0.046891819157544465 0 -0.030953258550128551 -0.046792774695274951 0 -0.028429939612399171 -0.0457142170473872 0 -0.030001478863903606 -0.045445704382361063 0 -0.02935061689960148 -0.046891819157544465 0 -0.027190548391703446 -0.047069169806857478 0 -0.027022285238589308 -0.048237533288428593 0 -0.026350155386647391 -0.048142499516416415 0 -0.028429939612399171 -0.0457142170473872 0 -0.027190548391703446 -0.047069169806857478 0 -0.026219574253213071 -0.046279005136463956 0 -0.028429939612399171 -0.0457142170473872 0 -0.02935061689960148 -0.046891819157544465 0 -0.027190548391703446 -0.047069169806857478 0 -0.02935061689960148 -0.046891819157544465 0 -0.027190548391703446 -0.047069169806857478 0 -0.027022285238589308 -0.048237533288428593 0 -0.027022285238589308 -0.048237533288428593 0 -0.026350155386647391 -0.048142499516416415 0 -0.026328085975259898 -0.048266220339025459 0 -0.026350155386647391 -0.048142499516416415 0 -0.026328085975259898 -0.048266220339025459 0 -0.026201710314551853 -0.048889961538609909 0 -0.027190548391703446 -0.047069169806857478 0 -0.026350155386647391 -0.048142499516416415 0 -0.026219574253213071 -0.046279005136463956 0 -0.025607176451738569 -0.050516817221844743 0 -0.025390163163080865 -0.0507223510114167 0 -0.026350155386647391 -0.048142499516416415 0 -0.026219574253213071 -0.046279005136463956 0 -0.025912046345963689 -0.048259583638869855 0 -0.024842676153604915 -0.055232025626043867 0 -0.024726245056564577 -0.055008986417462699 0 -0.024483572242649125 -0.053413874030640636 0 -0.024842676153604915 -0.055232025626043867 0 -0.024726245056564577 -0.055008986417462699 0 -0.025173800844761406 -0.054786134089867267 0 -0.027453571750933492 -0.049211294584342785 0 -0.025607176451738569 -0.050516817221844743 0 -0.026044406403568324 -0.054904390423097568 0 -0.024726245056564577 -0.055008986417462699 0 -0.025173800844761406 -0.054786134089867267 0 -0.028747404158839876 -0.043334542386322956 0 -0.028549693314135535 -0.04461522432666893 0 -0.026219574253213071 -0.046279005136463956 0 -0.028549693314135535 -0.04461522432666893 0 -0.028429939612399171 -0.0457142170473872 0 -0.026219574253213071 -0.046279005136463956 0 -0.026284920408174525 -0.053741184801647163 0 -0.025742454254377527 -0.054394323947336079 0 -0.025035491686850816 -0.054097302935870992 0 -0.026044406403568324 -0.054904390423097568 0 -0.025173800844761406 -0.054786134089867267 0 -0.025742454254377527 -0.054394323947336079 0 -0.025173800844761406 -0.054786134089867267 0 -0.025742454254377527 -0.054394323947336079 0 -0.025035491686850816 -0.054097302935870992 0 -0.024842676153604915 -0.055232025626043867 0 -0.025173800844761406 -0.054786134089867267 0 -0.025035491686850816 -0.054097302935870992 0 -0.025048049085965831 -0.055199910594048794 0 -0.02573847257075005 -0.055365628246093743 0 -0.024842676153604915 -0.055232025626043867 0 -0.026273311953515833 -0.056809729029361621 0 -0.025640993690521724 -0.056464337540890891 0 -0.02677761528796304 -0.045642757603296294 0 -0.025613405309165563 -0.046169517640339622 0 -0.026955694476137552 -0.043579730511455216 0 -0.026938042490766079 -0.043373414734807068 0 -0.02691205108924569 -0.043495904272997259 0 -0.025613405309165563 -0.046169517640339622 0 -0.026470914557363973 -0.046968792394009022 0 -0.026198828276319766 -0.04760028950240959 0 -0.02677761528796304 -0.045642757603296294 0 -0.025613405309165563 -0.046169517640339622 0 -0.026470914557363973 -0.046968792394009022 0 -0.026470914557363973 -0.046968792394009022 0 -0.026328085975259898 -0.048266220339025459 0 -0.026198828276319766 -0.04760028950240959 0 -0.027022285238589308 -0.048237533288428593 0 -0.026328085975259898 -0.048266220339025459 0 -0.026407937342736585 -0.047904493472348084 0 -0.026328085975259898 -0.048266220339025459 0 -0.026198828276319766 -0.04760028950240959 0 -0.026407937342736585 -0.047904493472348084 0 -0.025613405309165563 -0.046169517640339622 0 -0.026198828276319766 -0.04760028950240959 0 -0.025919003309109769 -0.047391698382540523 0 -0.026198828276319766 -0.04760028950240959 0 -0.025919003309109769 -0.047391698382540523 0 -0.026407937342736585 -0.047904493472348084 0 -0.030161310464489943 -0.046151262631484148 0 -0.027356104076941268 -0.042440689945281017 0 -0.026112736574687531 -0.047952318243829013 0 -0.025919003309109769 -0.047391698382540523 0 -0.026407937342736585 -0.047904493472348084 0 -0.029940274408402998 -0.037900886374443624 0 -0.030239680600263677 -0.038447536560264735 0 -0.030951460391421309 -0.038143755747524419 0 -0.030161310464489943 -0.046151262631484148 0 -0.033271848464036961 -0.044985675799676612 0 -0.029940274408402998 -0.037900886374443624 0 -0.02924858745117451 -0.038754870174887157 0 -0.030239680600263677 -0.038447536560264735 0 -0.030239680600263677 -0.038447536560264735 0 -0.030482201451043738 -0.03894808981822518 0 -0.031087638582068054 -0.038722746058803333 0 -0.02924858745117451 -0.038754870174887157 0 -0.030239680600263677 -0.038447536560264735 0 -0.030482201451043738 -0.03894808981822518 0 -0.030482201451043738 -0.03894808981822518 0 -0.030218868727362177 -0.039769267782461516 0 -0.031252633773320534 -0.039146386432439277 0 -0.02924858745117451 -0.038754870174887157 0 -0.030482201451043738 -0.03894808981822518 0 -0.030218868727362177 -0.039769267782461516 0 -0.026938042490766079 -0.043373414734807068 0 -0.027356104076941268 -0.042440689945281017 0 -0.028094452112593093 -0.040273755336718696 0 -0.02924858745117451 -0.038754870174887157 0 -0.030218868727362177 -0.039769267782461516 0 -0.028094452112593093 -0.040273755336718696 0 -0.030218868727362177 -0.039769267782461516 0 -0.029719281174030512 -0.041368394877278739 0 -0.028094452112593093 -0.040273755336718696 0 -0.029719281174030512 -0.041368394877278739 0 -0.028506205754756309 -0.042206601379159991 0 -0.030218868727362177 -0.039769267782461516 0 -0.030638796319068212 -0.041099144888899465 0 -0.029719281174030512 -0.041368394877278739 0 -0.030218868727362177 -0.039769267782461516 0 -0.031669031090207279 -0.039363891740671286 0 -0.030638796319068212 -0.041099144888899465 0 -0.031669031090207279 -0.039363891740671286 0 -0.031747917440387748 -0.038516360295032255 0 -0.031430757670234774 -0.039263407986981191 0 -0.031747917440387748 -0.038516360295032255 0 -0.031714717596913959 -0.039125001339479305 0 -0.031772833261591076 -0.039168068204259963 0 -0.031712196444890817 -0.038428810851326538 0 -0.032418471938509004 -0.035853283336286276 0 -0.031669031090207279 -0.039363891740671286 0 -0.031747917440387748 -0.038516360295032255 0 -0.031714717596913959 -0.039125001339479305 0 -0.031714717596913959 -0.039125001339479305 0 -0.031542419701644668 -0.03900208332214266 0 -0.031772833261591076 -0.039168068204259963 0 -0.031714717596913959 -0.039125001339479305 0 -0.031542419701644668 -0.03900208332214266 0 -0.031252633773320534 -0.039146386432439277 0 -0.030218868727362177 -0.039769267782461516 0 -0.031669031090207279 -0.039363891740671286 0 -0.031252633773320534 -0.039146386432439277 0 -0.031669031090207279 -0.039363891740671286 0 -0.031714717596913959 -0.039125001339479305 0 -0.031252633773320534 -0.039146386432439277 0 -0.030482201451043738 -0.03894808981822518 0 -0.031252633773320534 -0.039146386432439277 0 -0.031087638582068054 -0.038722746058803333 0 -0.031542419701644668 -0.03900208332214266 0 -0.031252633773320534 -0.039146386432439277 0 -0.031087638582068054 -0.038722746058803333 0 -0.030239680600263677 -0.038447536560264735 0 -0.031087638582068054 -0.038722746058803333 0 -0.030951460391421309 -0.038143755747524419 0 -0.031087638582068054 -0.038722746058803333 0 -0.030951460391421309 -0.038143755747524419 0 -0.031744867111100854 -0.038589780197370895 0 -0.033271848464036961 -0.044985675799676612 0 -0.035506858206988214 -0.046590823354571168 0 -0.035533028378213462 -0.052200893734951376 0 -0.039798471069385756 -0.053920246150726187 0 -0.038970690957208315 -0.051257283779039424 0 -0.031542419701644668 -0.03900208332214266 0 -0.031744867111100854 -0.038589780197370895 0 -0.031772833261591076 -0.039168068204259963 0 -0.031542419701644668 -0.03900208332214266 0 -0.031087638582068054 -0.038722746058803333 0 -0.031744867111100854 -0.038589780197370895 0 -0.031744867111100854 -0.038589780197370895 0 -0.032193348552065654 -0.038816423419482403 0 -0.031772833261591076 -0.039168068204259963 0 -0.035506858206988214 -0.046590823354571168 0 -0.04058669022383074 -0.042900757318709667 0 -0.039798471069385756 -0.053920246150726187 0 -0.038970690957208315 -0.051257283779039424 0 -0.042987756731362028 -0.051226405319492074 0 -0.039798471069385756 -0.053920246150726187 0 -0.042987756731362028 -0.051226405319492074 0 -0.044108123348124549 -0.055666432683228129 0 -0.042987756731362028 -0.051226405319492074 0 -0.046964021734150242 -0.05180045094367413 0 -0.044108123348124549 -0.055666432683228129 0 -0.049103435932577398 -0.050045670665254199 0 -0.04058669022383074 -0.042900757318709667 0 -0.05054272980905701 -0.046576488727041704 0 -0.050881920589090295 -0.046018958278376661 0 -0.050565699630518247 -0.045818199797267527 0 -0.04058669022383074 -0.042900757318709667 0 -0.045075707482516832 -0.038663890610602311 0 -0.036779973880863626 -0.034100580500251464 0 -0.039714952013031622 -0.031556705593644922 0 -0.040170613180511773 -0.035985013951979165 0 -0.03590805767130921 -0.03007928987521781 0 -0.036779973880863626 -0.034100580500251464 0 -0.039714952013031622 -0.031556705593644922 0 -0.04058669022383074 -0.042900757318709667 0 -0.032418471938509004 -0.035853283336286276 0 -0.036779973880863626 -0.034100580500251464 0 -0.03307961031660818 -0.034226278853924257 0 -0.034236102579911949 -0.036917063906168994 0 -0.03590805767130921 -0.03007928987521781 0 -0.036779973880863626 -0.034100580500251464 0 -0.03307961031660818 -0.034226278853924257 0 -0.031747917440387748 -0.038516360295032255 0 -0.034236102579911949 -0.036917063906168994 0 -0.033270243182553255 -0.038322217594622864 0 -0.031747917440387748 -0.038516360295032255 0 -0.03307961031660818 -0.034226278853924257 0 -0.034236102579911949 -0.036917063906168994 0 -0.034236102579911949 -0.036917063906168994 0 -0.034454298003762672 -0.037717556887111481 0 -0.033270243182553255 -0.038322217594622864 0 -0.034236102579911949 -0.036917063906168994 0 -0.034454298003762672 -0.037717556887111481 0 -0.035326972145528587 -0.037793686622026833 0 -0.034454298003762672 -0.037717556887111481 0 -0.035326972145528587 -0.037793686622026833 0 -0.034787962547314318 -0.037523556567603096 0 -0.034236102579911949 -0.036917063906168994 0 -0.035326972145528587 -0.037793686622026833 0 -0.03717511455785133 -0.036273259709753855 0 -0.03917040226831274 -0.03849528320248858 0 -0.03717511455785133 -0.036273259709753855 0 -0.040170613180511773 -0.035985013951979165 0 -0.035326972145528587 -0.037793686622026833 0 -0.03917040226831274 -0.03849528320248858 0 -0.03717511455785133 -0.036273259709753855 0 -0.036779973880863626 -0.034100580500251464 0 -0.03717511455785133 -0.036273259709753855 0 -0.040170613180511773 -0.035985013951979165 0 -0.036779973880863626 -0.034100580500251464 0 -0.034236102579911949 -0.036917063906168994 0 -0.03717511455785133 -0.036273259709753855 0 -0.035326972145528587 -0.037793686622026833 0 -0.034787962547314318 -0.037523556567603096 0 -0.032979845327720664 -0.036279252265710188 0 -0.035265127178862994 -0.037660559571919792 0 -0.03705602307740067 -0.04042963947106757 0 -0.035326972145528587 -0.037793686622026833 0 -0.03917040226831274 -0.03849528320248858 0 -0.040962959194373129 -0.043508904330634111 0 -0.034787962547314318 -0.037523556567603096 0 -0.033999599719959077 -0.036107085831756258 0 -0.032979845327720664 -0.036279252265710188 0 -0.034787962547314318 -0.037523556567603096 0 -0.034565122042697932 -0.035791748022041089 0 -0.033999599719959077 -0.036107085831756258 0 -0.034454298003762672 -0.037717556887111481 0 -0.034787962547314318 -0.037523556567603096 0 -0.033270243182553255 -0.038322217594622864 0 -0.034524820372076263 -0.037596969475532788 0 -0.033809922739905761 -0.037397732349732378 0 -0.034787962547314318 -0.037523556567603096 0 -0.033270243182553255 -0.038322217594622864 0 -0.032313195752722616 -0.039851596124218819 0 -0.034787962547314318 -0.037523556567603096 0 -0.034565122042697932 -0.035791748022041089 0 -0.034997501648412449 -0.035186785084991332 0 -0.034565122042697932 -0.035791748022041089 0 -0.03453367497852064 -0.034838057416153111 0 -0.034997501648412449 -0.035186785084991332 0 -0.034565122042697932 -0.035791748022041089 0 -0.03453367497852064 -0.034838057416153111 0 -0.034087264845467861 -0.035219304168955301 0 -0.03453367497852064 -0.034838057416153111 0 -0.034087264845467861 -0.035219304168955301 0 -0.033852152892489218 -0.034452688974847205 0 -0.034087264845467861 -0.035219304168955301 0 -0.033342042587277264 -0.035009049140602072 0 -0.033852152892489218 -0.034452688974847205 0 -0.034565122042697932 -0.035791748022041089 0 -0.034087264845467861 -0.035219304168955301 0 -0.033999599719959077 -0.036107085831756258 0 -0.033999599719959077 -0.036107085831756258 0 -0.033342042587277264 -0.035009049140602072 0 -0.032979845327720664 -0.036279252265710188 0 -0.034087264845467861 -0.035219304168955301 0 -0.033999599719959077 -0.036107085831756258 0 -0.033342042587277264 -0.035009049140602072 0 -0.033342042587277264 -0.035009049140602072 0 -0.033852152892489218 -0.034452688974847205 0 -0.033241691371948136 -0.034258954613982234 0 -0.033852152892489218 -0.034452688974847205 0 -0.033364742766463812 -0.033736695252484322 0 -0.033907139412866889 -0.033731052141378455 0 -0.033852152892489218 -0.034452688974847205 0 -0.033364742766463812 -0.033736695252484322 0 -0.033241691371948136 -0.034258954613982234 0 -0.033364742766463812 -0.033736695252484322 0 -0.032879431423160438 -0.033124803586958698 0 -0.033593556061108906 -0.032996337504994165 0 -0.033364742766463812 -0.033736695252484322 0 -0.033907139412866889 -0.033731052141378455 0 -0.033593556061108906 -0.032996337504994165 0 -0.034264066995131882 -0.033425628096434068 0 -0.033907139412866889 -0.033731052141378455 0 -0.033593556061108906 -0.032996337504994165 0 -0.034264066995131882 -0.033425628096434068 0 -0.033907139412866889 -0.033731052141378455 0 -0.034296960405287652 -0.034112500929878616 0 -0.034264066995131882 -0.033425628096434068 0 -0.034296960405287652 -0.034112500929878616 0 -0.034780557048382024 -0.034166843841840419 0 -0.033852152892489218 -0.034452688974847205 0 -0.033907139412866889 -0.033731052141378455 0 -0.034296960405287652 -0.034112500929878616 0 -0.03453367497852064 -0.034838057416153111 0 -0.033852152892489218 -0.034452688974847205 0 -0.034296960405287652 -0.034112500929878616 0 -0.03453367497852064 -0.034838057416153111 0 -0.034296960405287652 -0.034112500929878616 0 -0.034780557048382024 -0.034166843841840419 0 -0.034780557048382024 -0.034166843841840419 0 -0.035226719759695227 -0.034078479800205667 0 -0.034997501648412449 -0.035186785084991332 0 -0.034264066995131882 -0.033425628096434068 0 -0.034823511085559727 -0.033600731668254051 0 -0.034629216912568865 -0.033000886633796168 0 -0.034264066995131882 -0.033425628096434068 0 -0.034780557048382024 -0.034166843841840419 0 -0.034823511085559727 -0.033600731668254051 0 -0.034823511085559727 -0.033600731668254051 0 -0.035011061573204674 -0.033389814118787026 0 -0.034629216912568865 -0.033000886633796168 0 -0.034823511085559727 -0.033600731668254051 0 -0.035226719759695227 -0.034078479800205667 0 -0.035011061573204674 -0.033389814118787026 0 -0.035011061573204674 -0.033389814118787026 0 -0.034629216912568865 -0.033000886633796168 0 -0.034472607573328359 -0.032859027746198172 0 -0.032598345141304622 -0.03804632285438269 0 -0.034719477178274144 -0.032205909603080229 0 -0.034780557048382024 -0.034166843841840419 0 -0.034823511085559727 -0.033600731668254051 0 -0.035226719759695227 -0.034078479800205667 0 -0.032598345141304622 -0.03804632285438269 0 -0.033809922739905761 -0.037397732349732378 0 -0.031216087049840052 -0.040466562981158333 0 -0.032313195752722616 -0.039851596124218819 0 -0.031430757670234774 -0.039263407986981191 0 -0.03058432718136922 -0.043941700689880431 0 -0.031320139828889093 -0.042332766703990575 0 -0.030237116415699393 -0.042999991679252232 0 -0.032598345141304622 -0.03804632285438269 0 -0.031079766409894665 -0.041736061980628292 0 -0.03453367497852064 -0.034838057416153111 0 -0.034780557048382024 -0.034166843841840419 0 -0.034997501648412449 -0.035186785084991332 0 -0.033270243182553255 -0.038322217594622864 0 -0.032313195752722616 -0.039851596124218819 0 -0.032188990621988871 -0.038954671659180831 0 -0.031747917440387748 -0.038516360295032255 0 -0.032188990621988871 -0.038954671659180831 0 -0.031430757670234774 -0.039263407986981191 0 -0.032313195752722616 -0.039851596124218819 0 -0.032188990621988871 -0.038954671659180831 0 -0.031430757670234774 -0.039263407986981191 0 -0.031747917440387748 -0.038516360295032255 0 -0.033270243182553255 -0.038322217594622864 0 -0.032188990621988871 -0.038954671659180831 0 -0.031669031090207279 -0.039363891740671286 0 -0.031320139828889093 -0.042332766703990575 0 -0.030638796319068212 -0.041099144888899465 0 -0.031744183793329432 -0.039082703094095589 0 -0.031079766409894665 -0.041736061980628292 0 -0.031320139828889093 -0.042332766703990575 0 -0.030638796319068212 -0.041099144888899465 0 -0.030237116415699393 -0.042999991679252232 0 -0.030638796319068212 -0.041099144888899465 0 -0.029719281174030512 -0.041368394877278739 0 -0.030237116415699393 -0.042999991679252232 0 -0.029719281174030512 -0.041368394877278739 0 -0.029018224540092782 -0.043296909295376065 0 -0.030237116415699393 -0.042999991679252232 0 -0.029719281174030512 -0.041368394877278739 0 -0.028506205754756309 -0.042206601379159991 0 -0.029018224540092782 -0.043296909295376065 0 -0.029018224540092782 -0.043296909295376065 0 -0.030237116415699393 -0.042999991679252232 0 -0.029602442297058721 -0.043785924023126754 0 -0.03058432718136922 -0.043941700689880431 0 -0.030237116415699393 -0.042999991679252232 0 -0.029602442297058721 -0.043785924023126754 0 -0.032598345141304622 -0.03804632285438269 0 -0.031536688830481698 -0.038331857632035109 0 -0.03058432718136922 -0.043941700689880431 0 -0.029602442297058721 -0.043785924023126754 0 -0.029574396420048686 -0.044243363661321214 0 -0.034185000003017288 -0.032599431854236638 0 -0.033499790187905762 -0.032582194981057772 0 -0.034472607573328359 -0.032859027746198172 0 -0.034253830388676368 -0.032111050742572138 0 -0.034185000003017288 -0.032599431854236638 0 -0.033499790187905762 -0.032582194981057772 0 -0.034719477178274144 -0.032205909603080229 0 -0.034457579023877083 -0.033220034064967756 0 -0.029574396420048686 -0.044243363661321214 0 -0.028502765556921345 -0.044254146834195679 0 -0.028728035635270054 -0.044493956752466569 0 -0.031536688830481698 -0.038331857632035109 0 -0.030800769257580803 -0.039375363054813914 0 -0.029574396420048686 -0.044243363661321214 0 -0.028449281344631216 -0.043970213627226869 0 -0.028502765556921345 -0.044254146834195679 0 -0.029602442297058721 -0.043785924023126754 0 -0.029574396420048686 -0.044243363661321214 0 -0.028449281344631216 -0.043970213627226869 0 -0.029018224540092782 -0.043296909295376065 0 -0.029602442297058721 -0.043785924023126754 0 -0.028449281344631216 -0.043970213627226869 0 -0.028449281344631216 -0.043970213627226869 0 -0.027881353699007554 -0.044229120204062521 0 -0.027466249708679193 -0.043942963212026016 0 -0.028449281344631216 -0.043970213627226869 0 -0.028502765556921345 -0.044254146834195679 0 -0.027881353699007554 -0.044229120204062521 0 -0.028502765556921345 -0.044254146834195679 0 -0.028160043283840544 -0.044404884878281439 0 -0.028728035635270054 -0.044493956752466569 0 -0.028502765556921345 -0.044254146834195679 0 -0.028160043283840544 -0.044404884878281439 0 -0.027881353699007554 -0.044229120204062521 0 -0.027881353699007554 -0.044229120204062521 0 -0.0274302910902685 -0.044155636382261519 0 -0.027556687103888266 -0.044348181690831164 0 -0.027881353699007554 -0.044229120204062521 0 -0.027793799141489672 -0.044461701377449273 0 -0.027556687103888266 -0.044348181690831164 0 -0.028160043283840544 -0.044404884878281439 0 -0.027881353699007554 -0.044229120204062521 0 -0.027793799141489672 -0.044461701377449273 0 -0.027881353699007554 -0.044229120204062521 0 -0.027466249708679193 -0.043942963212026016 0 -0.0274302910902685 -0.044155636382261519 0 -0.027466249708679193 -0.043942963212026016 0 -0.026955694476137552 -0.043579730511455216 0 -0.027286864321034877 -0.044141767931505878 0 -0.028449281344631216 -0.043970213627226869 0 -0.027466249708679193 -0.043942963212026016 0 -0.026955694476137552 -0.043579730511455216 0 -0.029018224540092782 -0.043296909295376065 0 -0.028449281344631216 -0.043970213627226869 0 -0.026955694476137552 -0.043579730511455216 0 -0.028094452112593093 -0.040273755336718696 0 -0.028506205754756309 -0.042206601379159991 0 -0.026955694476137552 -0.043579730511455216 0 -0.028506205754756309 -0.042206601379159991 0 -0.029018224540092782 -0.043296909295376065 0 -0.026955694476137552 -0.043579730511455216 0 -0.02677761528796304 -0.045642757603296294 0 -0.026955694476137552 -0.043579730511455216 0 -0.027215904472432856 -0.045009059161128712 0 -0.056924360495873183 -0.037742926811843408 0 -0.057284020240470745 -0.03805146208305845 0 -0.05744772333389981 -0.03723597704021446 0 -0.056924360495873183 -0.037742926811843408 0 -0.057284020240470745 -0.03805146208305845 0 -0.056661580222934473 -0.038763888855354062 0 -0.057284020240470745 -0.03805146208305845 0 -0.057545201437144804 -0.037250258007957317 0 -0.057196652368476569 -0.038272207042801869 0 -0.057284020240470745 -0.03805146208305845 0 -0.057545201437144804 -0.037250258007957317 0 -0.05744772333389981 -0.03723597704021446 0 -0.057545201437144804 -0.037250258007957317 0 -0.057795459319747819 -0.036863955167843174 0 -0.058202954412249035 -0.037349606156221113 0 -0.057545201437144804 -0.037250258007957317 0 -0.057795459319747819 -0.036863955167843174 0 -0.05744772333389981 -0.03723597704021446 0 -0.056924360495873183 -0.037742926811843408 0 -0.05744772333389981 -0.03723597704021446 0 -0.05703748966858313 -0.0364362253016733 0 -0.057795459319747819 -0.036863955167843174 0 -0.05744772333389981 -0.03723597704021446 0 -0.05703748966858313 -0.0364362253016733 0 -0.056314852678478529 -0.03746860957099292 0 -0.056232560438228593 -0.035362408539563919 0 -0.055836783283850687 -0.035702264643351328 0 -0.056832455335012258 -0.036945133511726402 0 -0.056219254092064373 -0.035160762336507848 0 -0.05703748966858313 -0.0364362253016733 0 -0.055812433476877463 -0.037996884784839036 0 -0.056219254092064373 -0.035160762336507848 0 -0.055836783283850687 -0.035702264643351328 0 -0.054999885333267697 -0.036747190970739765 0 -0.054999637444339028 -0.033954156193875776 0 -0.055836783283850687 -0.035702264643351328 0 -0.054999637444339028 -0.033954156193875776 0 -0.056219254092064373 -0.035160762336507848 0 -0.054999885333267697 -0.036747190970739765 0 -0.056832455335012258 -0.036945133511726402 0 -0.055878559721291951 -0.038235078913861235 0 -0.055836783283850687 -0.035702264643351328 0 -0.054999885333267697 -0.036747190970739765 0 -0.056832455335012258 -0.036945133511726402 0 -0.056924360495873183 -0.037742926811843408 0 -0.05703748966858313 -0.0364362253016733 0 -0.055812433476877463 -0.037996884784839036 0 -0.056924360495873183 -0.037742926811843408 0 -0.055812433476877463 -0.037996884784839036 0 -0.056661580222934473 -0.038763888855354062 0 -0.056314852678478529 -0.03746860957099292 0 -0.056356525194244569 -0.03982152757976077 0 -0.055812433476877463 -0.037996884784839036 0 -0.055786269311849983 -0.039735787681078327 0 -0.056661580222934473 -0.038763888855354062 0 -0.056832455335012258 -0.036945133511726402 0 -0.055878559721291951 -0.038235078913861235 0 -0.056925069738612763 -0.039898157046676673 0 -0.055878559721291951 -0.038235078913861235 0 -0.054999645841882279 -0.039541760398011432 0 -0.056925069738612763 -0.039898157046676673 0 -0.054999885333267697 -0.036747190970739765 0 -0.055878559721291951 -0.038235078913861235 0 -0.054999645841882279 -0.039541760398011432 0 -0.05589467854986311 -0.041031928291823248 0 -0.054999645841882279 -0.039541760398011432 0 -0.056925069738612763 -0.039898157046676673 0 -0.054999980880112376 -0.04233507060969055 0 -0.05589467854986311 -0.041031928291823248 0 -0.054999645841882279 -0.039541760398011432 0 -0.055786269311849983 -0.039735787681078327 0 -0.056961325273405944 -0.040509325166775863 0 -0.056661580222934473 -0.038763888855354062 0 -0.056393374109833402 -0.041879559710774242 0 -0.056356525194244569 -0.03982152757976077 0 -0.056393208339091387 -0.042085517191017281 0 -0.055786269311849983 -0.039735787681078327 0 -0.056961325273405944 -0.040509325166775863 0 -0.056393208339091387 -0.042085517191017281 0 -0.05589467854986311 -0.041031928291823248 0 -0.056925069738612763 -0.039898157046676673 0 -0.056961325273405944 -0.040509325166775863 0 -0.056661580222934473 -0.038763888855354062 0 -0.057305549704702412 -0.039201933680491352 0 -0.057305549704702412 -0.039201933680491352 0 -0.057780013218676804 -0.040072681427032852 0 -0.057196652368476569 -0.038272207042801869 0 -0.057284020240470745 -0.03805146208305845 0 -0.056661580222934473 -0.038763888855354062 0 -0.057305549704702412 -0.039201933680491352 0 -0.057284020240470745 -0.03805146208305845 0 -0.057305549704702412 -0.039201933680491352 0 -0.057196652368476569 -0.038272207042801869 0 -0.056961325273405944 -0.040509325166775863 0 -0.057305549704702412 -0.039201933680491352 0 -0.057780013218676804 -0.040072681427032852 0 -0.054088317355903304 -0.043245254907071234 0 -0.054486905255396845 -0.043217529388428072 0 -0.057780013218676804 -0.040072681427032852 0 -0.057421703853404393 -0.038885357654019279 0 -0.057196652368476569 -0.038272207042801869 0 -0.050069637017879746 -0.046662799714341674 0 -0.050562770179519441 -0.046572472395065824 0 -0.050193475296915382 -0.046221319063813986 0 -0.049518685827932812 -0.047324461965038131 0 -0.05054272980905701 -0.046576488727041704 0 -0.050209310596241279 -0.046271441320700837 0 -0.049518685827932812 -0.047324461965038131 0 -0.050069637017879746 -0.046662799714341674 0 -0.050209310596241279 -0.046271441320700837 0 -0.050069637017879746 -0.046662799714341674 0 -0.050193475296915382 -0.046221319063813986 0 -0.050209310596241279 -0.046271441320700837 0 -0.054486905255396845 -0.043217529388428072 0 -0.048875525531041221 -0.037205817423384982 0 -0.050193475296915382 -0.046221319063813986 0 -0.050209310596241279 -0.046271441320700837 0 -0.050418193969972332 -0.045554212383039853 0 -0.05054272980905701 -0.046576488727041704 0 -0.050209310596241279 -0.046271441320700837 0 -0.050565699630518247 -0.045818199797267527 0 -0.050209310596241279 -0.046271441320700837 0 -0.050565699630518247 -0.045818199797267527 0 -0.050418193969972332 -0.045554212383039853 0 -0.039714952013031622 -0.031556705593644922 0 -0.043269587787040889 -0.033069306197403246 0 -0.040170613180511773 -0.035985013951979165 0 -0.045075707482516832 -0.038663890610602311 0 -0.048875525531041221 -0.037205817423384982 0 -0.048875525531041221 -0.037205817423384982 0 -0.040149637327698433 -0.035100231506050711 0 -0.045603617630055687 -0.030977155635334101 0 -0.047317447853379491 -0.035183800719717592 0 -0.051150970641233862 -0.033727386384768514 0 -0.057421703853404393 -0.038885357654019279 0 -0.057122368320120916 -0.038501564995057816 0 -0.057246079399345666 -0.038068774577394812 0 -0.048875525531041221 -0.037205817423384982 0 -0.054337460866727028 -0.03598104635213932 0 -0.047317447853379491 -0.035183800719717592 0 -0.052339997150800337 -0.038808785551279056 0 -0.048594417836244221 -0.039731914432144112 0 -0.045427894632171617 -0.038455600158248913 0 -0.047317447853379491 -0.035183800719717592 0 -0.048594417836244221 -0.039731914432144112 0 -0.045603617630055687 -0.030977155635334101 0 -0.047317447853379491 -0.035183800719717592 0 -0.040170613180511773 -0.035985013951979165 0 -0.045427894632171617 -0.038455600158248913 0 -0.047317447853379491 -0.035183800719717592 0 -0.040170613180511773 -0.035985013951979165 0 -0.045427894632171617 -0.038455600158248913 0 -0.040170613180511773 -0.035985013951979165 0 -0.042061177038820473 -0.0396050076252078 0 -0.03917040226831274 -0.03849528320248858 0 -0.040170613180511773 -0.035985013951979165 0 -0.042061177038820473 -0.0396050076252078 0 -0.057196652368476569 -0.038272207042801869 0 -0.057246079399345666 -0.038068774577394812 0 -0.056390364071911586 -0.037087447414128852 0 -0.057545201437144804 -0.037250258007957317 0 -0.057196652368476569 -0.038272207042801869 0 -0.056390364071911586 -0.037087447414128852 0 -0.057421703853404393 -0.038885357654019279 0 -0.057196652368476569 -0.038272207042801869 0 -0.057246079399345666 -0.038068774577394812 0 -0.054337460866727028 -0.03598104635213932 0 -0.055995129113959208 -0.036841248042843784 0 -0.047317447853379491 -0.035183800719717592 0 -0.051150970641233862 -0.033727386384768514 0 -0.052339997150800337 -0.038808785551279056 0 -0.051150970641233862 -0.033727386384768514 0 -0.056390364071911586 -0.037087447414128852 0 -0.052339997150800337 -0.038808785551279056 0 -0.056390364071911586 -0.037087447414128852 0 -0.055002619347324727 -0.039324582499100064 0 -0.052339997150800337 -0.038808785551279056 0 -0.056390364071911586 -0.037087447414128852 0 -0.056593370568508237 -0.038854433493078357 0 -0.055002619347324727 -0.039324582499100064 0 -0.057545201437144804 -0.037250258007957317 0 -0.056390364071911586 -0.037087447414128852 0 -0.056593370568508237 -0.038854433493078357 0 -0.056593370568508237 -0.038854433493078357 0 -0.055186168180234273 -0.040588170924766458 0 -0.056560431357006967 -0.041451731792489829 0 -0.056593370568508237 -0.038854433493078357 0 -0.056560431357006967 -0.041451731792489829 0 -0.057523472125265249 -0.038629119398671759 0 -0.055186168180234273 -0.040588170924766458 0 -0.055002619347324727 -0.039324582499100064 0 -0.053659316119610639 -0.040715226410540581 0 -0.056593370568508237 -0.038854433493078357 0 -0.055186168180234273 -0.040588170924766458 0 -0.055002619347324727 -0.039324582499100064 0 -0.052339997150800337 -0.038808785551279056 0 -0.051682901774281004 -0.041120414494933713 0 -0.053659316119610639 -0.040715226410540581 0 -0.055002619347324727 -0.039324582499100064 0 -0.052339997150800337 -0.038808785551279056 0 -0.053659316119610639 -0.040715226410540581 0 -0.052339997150800337 -0.038808785551279056 0 -0.051682901774281004 -0.041120414494933713 0 -0.048594417836244221 -0.039731914432144112 0 -0.051682901774281004 -0.041120414494933713 0 -0.053795101267824844 -0.042386322072520619 0 -0.049042217136268704 -0.043185627182774071 0 -0.051682901774281004 -0.041120414494933713 0 -0.053659316119610639 -0.040715226410540581 0 -0.053795101267824844 -0.042386322072520619 0 -0.055186168180234273 -0.040588170924766458 0 -0.053659316119610639 -0.040715226410540581 0 -0.053795101267824844 -0.042386322072520619 0 -0.050882892246458512 -0.039425642093387302 0 -0.040111115356841059 -0.038287623995159378 0 -0.053744200002999232 -0.043891438106929671 0 -0.052826517135423655 -0.04435972649454295 0 -0.053558086887350899 -0.046108339745756163 0 -0.052714326542281628 -0.044246733926642842 0 -0.050882892246458512 -0.039425642093387302 0 -0.053744200002999232 -0.043891438106929671 0 -0.052826517135423655 -0.04435972649454295 0 -0.049042217136268704 -0.043185627182774071 0 -0.053676948389126705 -0.042983783295744406 0 -0.04959362117162612 -0.042968029184691621 0 -0.052826517135423655 -0.04435972649454295 0 -0.053617867474493298 -0.046465437734096927 0 -0.049042217136268704 -0.043185627182774071 0 -0.050882892246458512 -0.039425642093387302 0 -0.056321614388908078 -0.039417400352353034 0 -0.054020646391586297 -0.034864792263399474 0 -0.054043773365494839 -0.034892567255410872 0 -0.054116401121620063 -0.034818383851665143 0 -0.053744200002999232 -0.043891438106929671 0 -0.053558086887350899 -0.046108339745756163 0 -0.057767659921946664 -0.044426793944623483 0 -0.053952452399695434 -0.034860655043437314 0 -0.054020646391586297 -0.034864792263399474 0 -0.05405245869408936 -0.034817112122224957 0 -0.054020646391586297 -0.034864792263399474 0 -0.05405245869408936 -0.034817112122224957 0 -0.054116401121620063 -0.034818383851665143 0 -0.055186168180234273 -0.040588170924766458 0 -0.053795101267824844 -0.042386322072520619 0 -0.056560431357006967 -0.041451731792489829 0 -0.053676948389126705 -0.042983783295744406 0 -0.056321614388908078 -0.039417400352353034 0 -0.03917040226831274 -0.03849528320248858 0 -0.040962959194373129 -0.043508904330634111 0 -0.042061177038820473 -0.0396050076252078 0 -0.045427894632171617 -0.038455600158248913 0 -0.042061177038820473 -0.0396050076252078 0 -0.045401306496714255 -0.04175447633491651 0 -0.040962959194373129 -0.043508904330634111 0 -0.045401306496714255 -0.04175447633491651 0 -0.045577558370758553 -0.044787205293135977 0 -0.040962959194373129 -0.043508904330634111 0 -0.042061177038820473 -0.0396050076252078 0 -0.045401306496714255 -0.04175447633491651 0 -0.045401306496714255 -0.04175447633491651 0 -0.049042217136268704 -0.043185627182774071 0 -0.045577558370758553 -0.044787205293135977 0 -0.045427894632171617 -0.038455600158248913 0 -0.045401306496714255 -0.04175447633491651 0 -0.048594417836244221 -0.039731914432144112 0 -0.045401306496714255 -0.04175447633491651 0 -0.048594417836244221 -0.039731914432144112 0 -0.049042217136268704 -0.043185627182774071 0 -0.051682901774281004 -0.041120414494933713 0 -0.048594417836244221 -0.039731914432144112 0 -0.049042217136268704 -0.043185627182774071 0 -0.049042217136268704 -0.043185627182774071 0 -0.045577558370758553 -0.044787205293135977 0 -0.046395959205571484 -0.049365191872995179 0 -0.053617867474493298 -0.046465437734096927 0 -0.049042217136268704 -0.043185627182774071 0 -0.046395959205571484 -0.049365191872995179 0 -0.033342042587277264 -0.035009049140602072 0 -0.032979845327720664 -0.036279252265710188 0 -0.032704523650382344 -0.034343377282116061 0 -0.032979845327720664 -0.036279252265710188 0 -0.032704523650382344 -0.034343377282116061 0 -0.032091296368971622 -0.034603735874772001 0 -0.03705602307740067 -0.04042963947106757 0 -0.040111115356841059 -0.038287623995159378 0 -0.040962959194373129 -0.043508904330634111 0 -0.045577558370758553 -0.044787205293135977 0 -0.046395959205571484 -0.049365191872995179 0 -0.032958371361422191 -0.03386758276965756 0 -0.033241691371948136 -0.034258954613982234 0 -0.032704523650382344 -0.034343377282116061 0 -0.033364742766463812 -0.033736695252484322 0 -0.032958371361422191 -0.03386758276965756 0 -0.033241691371948136 -0.034258954613982234 0 -0.033342042587277264 -0.035009049140602072 0 -0.033241691371948136 -0.034258954613982234 0 -0.032704523650382344 -0.034343377282116061 0 -0.032958371361422191 -0.03386758276965756 0 -0.032704523650382344 -0.034343377282116061 0 -0.032714975189186854 -0.03392342713664892 0 -0.032714975189186854 -0.03392342713664892 0 -0.032529666069082065 -0.034498746815041691 0 -0.031886466902418489 -0.033700571446824173 0 -0.032704523650382344 -0.034343377282116061 0 -0.032714975189186854 -0.03392342713664892 0 -0.032529666069082065 -0.034498746815041691 0 -0.033664846616813113 -0.037349809440430641 0 -0.040111115356841059 -0.038287623995159378 0 -0.040111115356841059 -0.038287623995159378 0 -0.037761744928166946 -0.033928618071372485 0 -0.032714975189186854 -0.03392342713664892 0 -0.031886466902418489 -0.033700571446824173 0 -0.032373758578581553 -0.033276624369051738 0 -0.031886466902418489 -0.033700571446824173 0 -0.032373758578581553 -0.033276624369051738 0 -0.032031266714043563 -0.032687567113910056 0 -0.032373758578581553 -0.033276624369051738 0 -0.032031266714043563 -0.032687567113910056 0 -0.032812870958181681 -0.032497605995114039 0 -0.032714975189186854 -0.03392342713664892 0 -0.032373758578581553 -0.033276624369051738 0 -0.032812870958181681 -0.032497605995114039 0 -0.033364742766463812 -0.033736695252484322 0 -0.032958371361422191 -0.03386758276965756 0 -0.032879431423160438 -0.033124803586958698 0 -0.032958371361422191 -0.03386758276965756 0 -0.032714975189186854 -0.03392342713664892 0 -0.032879431423160438 -0.033124803586958698 0 -0.032809274998308359 -0.033794181644211461 0 -0.033566567894707862 -0.032591532969209643 0 -0.032714975189186854 -0.03392342713664892 0 -0.032812870958181681 -0.032497605995114039 0 -0.034288485350459891 -0.032071049989921038 0 -0.053952452399695434 -0.034860655043437314 0 -0.054020646391586297 -0.034864792263399474 0 -0.053984794650199924 -0.034920592202801144 0 -0.054020646391586297 -0.034864792263399474 0 -0.054043773365494839 -0.034892567255410872 0 -0.053984794650199924 -0.034920592202801144 0 -0.050882892246458512 -0.039425642093387302 0 -0.049690263385861771 -0.032501882117554309 0 -0.056691674874637096 -0.031023749871383885 0 -0.049690263385861771 -0.032501882117554309 0 -0.056691674874637096 -0.031023749871383885 0 -0.057968035386129463 -0.030174905352318798 0 -0.044343271996310357 -0.035402223270052033 0 -0.044412414323063996 -0.035344566998926172 0 -0.044366350958557177 -0.035249242464894297 0 -0.044343271996310357 -0.035402223270052033 0 -0.044366350958557177 -0.035249242464894297 0 -0.044318925024957559 -0.035228378811574118 0 -0.044343271996310357 -0.035402223270052033 0 -0.044318925024957559 -0.035228378811574118 0 -0.044267242112313629 -0.03521534364439622 0 -0.044318925024957559 -0.035228378811574118 0 -0.044307830983382084 -0.035140282886451997 0 -0.044267242112313629 -0.03521534364439622 0 -0.040876597731899715 -0.03178033608267504 0 -0.049690263385861771 -0.032501882117554309 0 -0.031886466902418489 -0.033700571446824173 0 -0.032031266714043563 -0.032687567113910056 0 -0.031037867351532161 -0.032537055529212981 0 -0.037761744928166946 -0.033928618071372485 0 -0.040876597731899715 -0.03178033608267504 0 -0.044366350958557177 -0.035249242464894297 0 -0.044318925024957559 -0.035228378811574118 0 -0.044307830983382084 -0.035140282886451997 0 -0.060681279833591756 -0.029739106586318721 0 -0.061181190486013122 -0.028294551134005884 0 -0.06027976520839641 -0.028757946121539424 0 -0.056691674874637096 -0.031023749871383885 0 -0.052771821582180641 -0.029259286950380554 0 -0.053867707386021493 -0.030697148445119372 0 -0.053590902951137706 -0.031346140377900136 0 -0.053477231863132593 -0.031028237602775576 0 -0.046266321797906039 -0.030379349427965514 0 -0.046399247485690312 -0.030363575024182951 0 -0.046344124100977283 -0.03045070156174012 0 -0.046266321797906039 -0.030379349427965514 0 -0.046399247485690312 -0.030363575024182951 0 -0.046379537510067653 -0.030305429890211531 0 -0.052771821582180641 -0.029259286950380554 0 -0.049690263385861771 -0.032501882117554309 0 -0.061181190486013122 -0.028294551134005884 0 -0.06027976520839641 -0.028757946121539424 0 -0.060040290078318626 -0.027739361868335199 0 -0.059257854523678648 -0.02836687922740181 0 -0.06027976520839641 -0.028757946121539424 0 -0.060040290078318626 -0.027739361868335199 0 -0.059257854523678648 -0.02836687922740181 0 -0.06027976520839641 -0.028757946121539424 0 -0.059473401532129586 -0.029385164312523738 0 -0.059257854523678648 -0.02836687922740181 0 -0.058455865393043122 -0.029242044676005139 0 -0.059473401532129586 -0.029385164312523738 0 -0.059257854523678648 -0.02836687922740181 0 -0.058167473306327863 -0.027920559762564877 0 -0.058455865393043122 -0.029242044676005139 0 -0.058167473306327863 -0.027920559762564877 0 -0.058455865393043122 -0.029242044676005139 0 -0.057288075654427353 -0.02900971046863229 0 -0.058976243059198734 -0.030400709450918374 0 -0.057643294282206055 -0.031195710669386697 0 -0.057767033560745119 -0.029971723183108236 0 -0.058455865393043122 -0.029242044676005139 0 -0.058976243059198734 -0.030400709450918374 0 -0.057767033560745119 -0.029971723183108236 0 -0.058455865393043122 -0.029242044676005139 0 -0.058976243059198734 -0.030400709450918374 0 -0.059473401532129586 -0.029385164312523738 0 -0.06067304899968913 -0.029753873309341605 0 -0.060435230956302745 -0.029976765966064956 0 -0.060041183734180555 -0.03149268153319941 0 -0.06027976520839641 -0.028757946121539424 0 -0.060131060306282597 -0.029527953021254019 0 -0.059473401532129586 -0.029385164312523738 0 -0.060681279833591756 -0.029739106586318721 0 -0.06027976520839641 -0.028757946121539424 0 -0.060131060306282597 -0.029527953021254019 0 -0.060131060306282597 -0.029527953021254019 0 -0.059825876990650215 -0.029988618856494797 0 -0.060435230956302745 -0.029976765966064956 0 -0.060681279833591756 -0.029739106586318721 0 -0.060131060306282597 -0.029527953021254019 0 -0.060435230956302745 -0.029976765966064956 0 -0.060131060306282597 -0.029527953021254019 0 -0.059473401532129586 -0.029385164312523738 0 -0.059825876990650215 -0.029988618856494797 0 -0.058976243059198734 -0.030400709450918374 0 -0.059473401532129586 -0.029385164312523738 0 -0.059825876990650215 -0.029988618856494797 0 -0.058976243059198734 -0.030400709450918374 0 -0.059825876990650215 -0.029988618856494797 0 -0.059822637627329131 -0.030623091223415153 0 -0.059825876990650215 -0.029988618856494797 0 -0.060435230956302745 -0.029976765966064956 0 -0.059822637627329131 -0.030623091223415153 0 -0.060435230956302745 -0.029976765966064956 0 -0.060041183734180555 -0.03149268153319941 0 -0.059822637627329131 -0.030623091223415153 0 -0.056691674874637096 -0.031023749871383885 0 -0.058407210177411698 -0.034480240504447222 0 -0.056321614388908078 -0.039417400352353034 0 -0.058346402995698834 -0.036872909677490094 0 -0.056321614388908078 -0.039417400352353034 0 -0.058407210177411698 -0.034480240504447222 0 -0.056718952485304258 -0.037565445192287571 0 -0.058396804073174109 -0.037803623730576316 0 -0.05878280774521822 -0.036775302264622424 0 -0.058407210177411698 -0.034480240504447222 0 -0.058346402995698834 -0.036872909677490094 0 -0.058976243059198734 -0.030400709450918374 0 -0.060041183734180555 -0.03149268153319941 0 -0.059822637627329131 -0.030623091223415153 0 -0.057663978857558751 -0.035623527382942735 0 -0.059883388035770715 -0.034720053844773814 0 -0.05689244051054905 -0.033151365119160218 0 -0.060137994769520038 -0.034030478190061803 0 -0.059883388035770715 -0.034720053844773814 0 -0.05689244051054905 -0.033151365119160218 0 -0.058407210177411698 -0.034480240504447222 0 -0.05754937946391122 -0.031911113184079395 0 -0.058976243059198734 -0.030400709450918374 0 -0.060041183734180555 -0.03149268153319941 0 -0.057643294282206055 -0.031195710669386697 0 -0.058148326059766997 -0.035599364175046555 0 -0.058346402995698834 -0.036872909677490094 0 -0.05703748966858313 -0.0364362253016733 0 -0.057663978857558751 -0.035623527382942735 0 -0.056726144697005994 -0.034599237767223498 0 -0.057795459319747819 -0.036863955167843174 0 -0.05703748966858313 -0.0364362253016733 0 -0.057663978857558751 -0.035623527382942735 0 -0.057795459319747819 -0.036863955167843174 0 -0.057663978857558751 -0.035623527382942735 0 -0.058202954412249035 -0.037349606156221113 0 -0.057663978857558751 -0.035623527382942735 0 -0.058202954412249035 -0.037349606156221113 0 -0.058506638130097571 -0.036539028880691368 0 -0.057545201437144804 -0.037250258007957317 0 -0.058202954412249035 -0.037349606156221113 0 -0.057523472125265249 -0.038629119398671759 0 -0.057545201437144804 -0.037250258007957317 0 -0.056593370568508237 -0.038854433493078357 0 -0.057523472125265249 -0.038629119398671759 0 -0.056560431357006967 -0.041451731792489829 0 -0.057523472125265249 -0.038629119398671759 0 -0.058263914483826063 -0.040075424834491974 0 -0.058116980877696435 -0.037891392248951716 0 -0.058346402995698834 -0.036872909677490094 0 -0.058202954412249035 -0.037349606156221113 0 -0.057523472125265249 -0.038629119398671759 0 -0.058263914483826063 -0.040075424834491974 0 -0.054999637444339028 -0.033954156193875776 0 -0.055962042601921107 -0.033586526215949097 0 -0.056219254092064373 -0.035160762336507848 0 -0.057663978857558751 -0.035623527382942735 0 -0.056726144697005994 -0.034599237767223498 0 -0.05689244051054905 -0.033151365119160218 0 -0.05703748966858313 -0.0364362253016733 0 -0.056219254092064373 -0.035160762336507848 0 -0.056726144697005994 -0.034599237767223498 0 -0.055962042601921107 -0.033586526215949097 0 -0.056219254092064373 -0.035160762336507848 0 -0.056726144697005994 -0.034599237767223498 0 -0.055962042601921107 -0.033586526215949097 0 -0.056726144697005994 -0.034599237767223498 0 -0.05689244051054905 -0.033151365119160218 0 -0.054999637444339028 -0.033954156193875776 0 -0.055962042601921107 -0.033586526215949097 0 -0.054999484122535545 -0.031160902622245856 0 -0.057643294282206055 -0.031195710669386697 0 -0.054999883530621657 -0.031157986524771503 0 -0.056417747668924476 -0.029984160137676422 0 -0.05754937946391122 -0.031911113184079395 0 -0.054999431479886035 -0.031159139507077778 0 -0.055962042601921107 -0.033586526215949097 0 -0.05689244051054905 -0.033151365119160218 0 -0.054999484122535545 -0.031160902622245856 0 -0.054999883530621657 -0.031157986524771503 0 -0.056417747668924476 -0.029984160137676422 0 -0.054999946092069069 -0.028318632410024417 0 -0.057643294282206055 -0.031195710669386697 0 -0.056417747668924476 -0.029984160137676422 0 -0.057767033560745119 -0.029971723183108236 0 -0.056417747668924476 -0.029984160137676422 0 -0.057767033560745119 -0.029971723183108236 0 -0.057288075654427353 -0.02900971046863229 0 -0.058455865393043122 -0.029242044676005139 0 -0.057767033560745119 -0.029971723183108236 0 -0.057288075654427353 -0.02900971046863229 0 -0.057288075654427353 -0.02900971046863229 0 -0.057044715778874842 -0.027794042355857286 0 -0.056239995665726746 -0.0285636327694202 0 -0.056417747668924476 -0.029984160137676422 0 -0.057288075654427353 -0.02900971046863229 0 -0.056239995665726746 -0.0285636327694202 0 -0.058167473306327863 -0.027920559762564877 0 -0.057288075654427353 -0.02900971046863229 0 -0.057044715778874842 -0.027794042355857286 0 -0.056417747668924476 -0.029984160137676422 0 -0.056239995665726746 -0.0285636327694202 0 -0.054999946092069069 -0.028318632410024417 0 -0.057044715778874842 -0.027794042355857286 0 -0.056239995665726746 -0.0285636327694202 0 -0.055445647741570014 -0.027478984766334404 0 -0.056239995665726746 -0.0285636327694202 0 -0.054999946092069069 -0.028318632410024417 0 -0.055445647741570014 -0.027478984766334404 0 -0.055445647741570014 -0.027478984766334404 0 -0.054999425633204896 -0.025476913533928232 0 -0.056255008231902409 -0.025100317525606698 0 -0.054999946092069069 -0.028318632410024417 0 -0.055445647741570014 -0.027478984766334404 0 -0.054999425633204896 -0.025476913533928232 0 -0.058167473306327863 -0.027920559762564877 0 -0.057044715778874842 -0.027794042355857286 0 -0.057732817959826599 -0.02646251566840592 0 -0.055184825724429724 -0.02750116175666387 0 -0.0586562929087108 -0.025999855973894981 0 -0.057044715778874842 -0.027794042355857286 0 -0.055445647741570014 -0.027478984766334404 0 -0.057732817959826599 -0.02646251566840592 0 -0.055445647741570014 -0.027478984766334404 0 -0.05794216492692493 -0.025593233701700219 0 -0.056255008231902409 -0.025100317525606698 0 -0.05794216492692493 -0.025593233701700219 0 -0.056255008231902409 -0.025100317525606698 0 -0.056961852942718008 -0.02214493304277591 0 -0.056255008231902409 -0.025100317525606698 0 -0.055821024039003214 -0.023720979073464377 0 -0.056961852942718008 -0.02214493304277591 0 -0.054999425633204896 -0.025476913533928232 0 -0.056255008231902409 -0.025100317525606698 0 -0.055821024039003214 -0.023720979073464377 0 -0.059196818378303477 -0.026778109774309181 0 -0.060189229910917484 -0.025677741846318242 0 -0.060687725958913107 -0.026970018889217389 0 -0.059257854523678648 -0.02836687922740181 0 -0.059196818378303477 -0.026778109774309181 0 -0.060040290078318626 -0.027739361868335199 0 -0.059196818378303477 -0.026778109774309181 0 -0.060040290078318626 -0.027739361868335199 0 -0.060687725958913107 -0.026970018889217389 0 -0.059257854523678648 -0.02836687922740181 0 -0.058167473306327863 -0.027920559762564877 0 -0.059196818378303477 -0.026778109774309181 0 -0.058167473306327863 -0.027920559762564877 0 -0.057732817959826599 -0.02646251566840592 0 -0.059196818378303477 -0.026778109774309181 0 -0.05794216492692493 -0.025593233701700219 0 -0.059264869506008455 -0.023573410516068607 0 -0.061247595540748941 -0.023498629961526508 0 -0.05794216492692493 -0.025593233701700219 0 -0.059264869506008455 -0.023573410516068607 0 -0.056961852942718008 -0.02214493304277591 0 -0.0586562929087108 -0.025999855973894981 0 -0.056438898480356971 -0.023595195883510355 0 -0.057732817959826599 -0.02646251566840592 0 -0.059196818378303477 -0.026778109774309181 0 -0.059813525335683008 -0.025238313014060532 0 -0.059196818378303477 -0.026778109774309181 0 -0.059813525335683008 -0.025238313014060532 0 -0.060189229910917484 -0.025677741846318242 0 -0.059264869506008455 -0.023573410516068607 0 -0.061247595540748941 -0.023498629961526508 0 -0.060867595186776056 -0.023024025726075006 0 -0.056438898480356971 -0.023595195883510355 0 -0.05195635444711031 -0.025453955464036129 0 -0.05210261050417906 -0.024237081633125698 0 -0.052980820503629004 -0.025278631951037189 0 -0.05242016334432003 -0.023741914227455363 0 -0.041851263759247026 -0.02726076849739081 0 -0.041944681574242047 -0.027471108168755698 0 -0.041877608536603703 -0.027462326191727175 0 -0.05195635444711031 -0.025453955464036129 0 -0.052658820624961883 -0.023742089970737679 0 -0.05195635444711031 -0.025453955464036129 0 -0.055824511250420275 -0.02762374585396472 0 -0.0535688284443177 -0.019938253713921644 0 -0.054313313855122183 -0.020616284095285535 0 -0.053347281611978506 -0.020849824331240215 0 -0.0535688284443177 -0.019938253713921644 0 -0.054320934992426989 -0.019952753605637551 0 -0.054313313855122183 -0.020616284095285535 0 -0.0535688284443177 -0.019938253713921644 0 -0.053859202326428442 -0.019327578601635739 0 -0.053857217108418447 -0.019647930166115254 0 -0.056438898480356971 -0.023595195883510355 0 -0.052658820624961883 -0.023742089970737679 0 -0.052658820624961883 -0.023742089970737679 0 -0.049952795113640723 -0.022360473745624228 0 -0.054046775716610575 -0.019354094632027762 0 -0.053859202326428442 -0.019327578601635739 0 -0.053857217108418447 -0.019647930166115254 0 -0.054046775716610575 -0.019354094632027762 0 -0.053857217108418447 -0.019647930166115254 0 -0.054286693889820742 -0.019626363763759862 0 -0.053857217108418447 -0.019647930166115254 0 -0.054320934992426989 -0.019952753605637551 0 -0.054286693889820742 -0.019626363763759862 0 -0.0535688284443177 -0.019938253713921644 0 -0.053857217108418447 -0.019647930166115254 0 -0.054320934992426989 -0.019952753605637551 0 -0.054320934992426989 -0.019952753605637551 0 -0.054604699846933606 -0.019443059386853562 0 -0.055369481966457919 -0.020764642235592112 0 -0.054320934992426989 -0.019952753605637551 0 -0.054286693889820742 -0.019626363763759862 0 -0.054604699846933606 -0.019443059386853562 0 -0.052658820624961883 -0.023742089970737679 0 -0.056144135651168457 -0.022457907067013061 0 -0.054046775716610575 -0.019354094632027762 0 -0.054286693889820742 -0.019626363763759862 0 -0.054604699846933606 -0.019443059386853562 0 -0.056057451650962681 -0.023001821229065664 0 -0.056376730076035664 -0.022501741753132826 0 -0.055459628096414915 -0.022294441411956415 0 -0.056438898480356971 -0.023595195883510355 0 -0.056144135651168457 -0.022457907067013061 0 -0.056144135651168457 -0.022457907067013061 0 -0.054835254428705592 -0.020356997757780382 0 -0.054313313855122183 -0.020616284095285535 0 -0.055369481966457919 -0.020764642235592112 0 -0.054632748944411516 -0.021466949308497442 0 -0.054320934992426989 -0.019952753605637551 0 -0.054313313855122183 -0.020616284095285535 0 -0.055369481966457919 -0.020764642235592112 0 -0.054875494277859517 -0.019805829246621741 0 -0.055369481966457919 -0.020764642235592112 0 -0.056961852942718008 -0.02214493304277591 0 -0.059264869506008455 -0.023573410516068607 0 -0.060867595186776056 -0.023024025726075006 0 -0.056961852942718008 -0.02214493304277591 0 -0.056144135651168457 -0.022457907067013061 0 -0.057605845150313549 -0.021766921316815183 0 -0.055369481966457919 -0.020764642235592112 0 -0.056207243191329311 -0.021601456371277274 0 -0.056961852942718008 -0.02214493304277591 0 -0.056207243191329311 -0.021601456371277274 0 -0.055670203702464137 -0.022068435723942955 0 -0.054632748944411516 -0.021466949308497442 0 -0.055369481966457919 -0.020764642235592112 0 -0.056207243191329311 -0.021601456371277274 0 -0.054632748944411516 -0.021466949308497442 0 -0.054632748944411516 -0.021466949308497442 0 -0.053855972415334907 -0.022685931950880804 0 -0.052954581871824918 -0.021810753096144577 0 -0.055670203702464137 -0.022068435723942955 0 -0.054632748944411516 -0.021466949308497442 0 -0.053855972415334907 -0.022685931950880804 0 -0.054632748944411516 -0.021466949308497442 0 -0.053347281611978506 -0.020849824331240215 0 -0.052954581871824918 -0.021810753096144577 0 -0.054313313855122183 -0.020616284095285535 0 -0.054632748944411516 -0.021466949308497442 0 -0.053347281611978506 -0.020849824331240215 0 -0.0550002363918458 -0.022636472590315128 0 -0.055821024039003214 -0.023720979073464377 0 -0.056961852942718008 -0.02214493304277591 0 -0.054999425633204896 -0.025476913533928232 0 -0.0550002363918458 -0.022636472590315128 0 -0.055821024039003214 -0.023720979073464377 0 -0.056207243191329311 -0.021601456371277274 0 -0.055670203702464137 -0.022068435723942955 0 -0.056712543652464149 -0.021398643744140359 0 -0.056207243191329311 -0.021601456371277274 0 -0.056961852942718008 -0.02214493304277591 0 -0.056712543652464149 -0.021398643744140359 0 -0.0550002363918458 -0.022636472590315128 0 -0.056712543652464149 -0.021398643744140359 0 -0.054999515034760416 -0.019796762367411257 0 -0.0550002363918458 -0.022636472590315128 0 -0.056961852942718008 -0.02214493304277591 0 -0.056712543652464149 -0.021398643744140359 0 -0.056712543652464149 -0.021398643744140359 0 -0.054999515034760416 -0.019796762367411257 0 -0.057439169651253306 -0.018167868284908937 0 -0.054999515034760416 -0.019796762367411257 0 -0.057439169651253306 -0.018167868284908937 0 -0.054999772080640455 -0.016955197831184331 0 -0.055670203702464137 -0.022068435723942955 0 -0.056712543652464149 -0.021398643744140359 0 -0.056344343572807931 -0.023637448111727102 0 -0.056680098441142149 -0.021507491119074757 0 -0.056901656926637213 -0.020729323026183431 0 -0.055670203702464137 -0.022068435723942955 0 -0.056344343572807931 -0.023637448111727102 0 -0.055107319000149098 -0.023150990829063717 0 -0.055670203702464137 -0.022068435723942955 0 -0.055107319000149098 -0.023150990829063717 0 -0.053855972415334907 -0.022685931950880804 0 -0.053855972415334907 -0.022685931950880804 0 -0.054359435074124003 -0.02430568935633717 0 -0.052508269521206144 -0.024068057138822083 0 -0.055107319000149098 -0.023150990829063717 0 -0.053855972415334907 -0.022685931950880804 0 -0.054359435074124003 -0.02430568935633717 0 -0.056344343572807931 -0.023637448111727102 0 -0.055107319000149098 -0.023150990829063717 0 -0.054359435074124003 -0.02430568935633717 0 -0.056901656926637213 -0.020729323026183431 0 -0.056090380406387239 -0.022054507925737408 0 -0.056344343572807931 -0.023637448111727102 0 -0.054359435074124003 -0.02430568935633717 0 -0.055586410948789591 -0.025643470052247611 0 -0.054359435074124003 -0.02430568935633717 0 -0.053834629420250371 -0.025682086813973905 0 -0.052513048825840548 -0.025238308775814396 0 -0.054359435074124003 -0.02430568935633717 0 -0.055586410948789591 -0.025643470052247611 0 -0.053834629420250371 -0.025682086813973905 0 -0.055586410948789591 -0.025643470052247611 0 -0.053834629420250371 -0.025682086813973905 0 -0.053965527711602138 -0.026768263071672401 0 -0.055586410948789591 -0.025643470052247611 0 -0.053965527711602138 -0.026768263071672401 0 -0.054844264289468779 -0.027464301820188265 0 -0.057115537105006581 -0.016399226690567658 0 -0.056839805150065488 -0.016055335554190767 0 -0.05656833636672777 -0.016448651333511529 0 -0.056090380406387239 -0.022054507925737408 0 -0.056476693887092956 -0.017479017062483705 0 -0.056839805150065488 -0.016055335554190767 0 -0.056468256326605203 -0.01598671619483381 0 -0.056531548519490743 -0.015357670748003082 0 -0.057115537105006581 -0.016399226690567658 0 -0.056839805150065488 -0.016055335554190767 0 -0.056468256326605203 -0.01598671619483381 0 -0.056468256326605203 -0.01598671619483381 0 -0.055000308888358912 -0.014118554968569943 0 -0.056531548519490743 -0.015357670748003082 0 -0.056468256326605203 -0.01598671619483381 0 -0.055000308888358912 -0.014118554968569943 0 -0.054999772080640455 -0.016955197831184331 0 -0.057439169651253306 -0.018167868284908937 0 -0.056468256326605203 -0.01598671619483381 0 -0.054999772080640455 -0.016955197831184331 0 -0.057439169651253306 -0.018167868284908937 0 -0.057115537105006581 -0.016399226690567658 0 -0.056468256326605203 -0.01598671619483381 0 -0.048687526843260019 -0.026962152833761618 0 -0.047470639328572116 -0.025776367394088322 0 -0.046031631881815867 -0.027863320223772282 0 -0.048687526843260019 -0.026962152833761618 0 -0.04971404762338906 -0.027356548193191901 0 -0.050060063979841661 -0.02674702665937876 0 -0.048687526843260019 -0.026962152833761618 0 -0.049411936099020781 -0.026062827658102309 0 -0.050060063979841661 -0.02674702665937876 0 -0.048687526843260019 -0.026962152833761618 0 -0.049411936099020781 -0.026062827658102309 0 -0.047470639328572116 -0.025776367394088322 0 -0.049411936099020781 -0.026062827658102309 0 -0.047470639328572116 -0.025776367394088322 0 -0.049231058714291093 -0.024890063597742838 0 -0.049411936099020781 -0.026062827658102309 0 -0.050252948892813835 -0.025418592025541455 0 -0.049231058714291093 -0.024890063597742838 0 -0.047470639328572116 -0.025776367394088322 0 -0.046031631881815867 -0.027863320223772282 0 -0.043533708055590828 -0.024857023139956934 0 -0.03832784014150864 -0.02844914925088798 0 -0.038682386256343244 -0.026348929750980046 0 -0.036560878046978391 -0.026076429439006843 0 -0.03832784014150864 -0.02844914925088798 0 -0.038682386256343244 -0.026348929750980046 0 -0.04036729060378929 -0.027218155479757537 0 -0.048687526843260019 -0.026962152833761618 0 -0.046031631881815867 -0.027863320223772282 0 -0.049411863255052452 -0.027963644034422145 0 -0.03832784014150864 -0.02844914925088798 0 -0.034641716134185464 -0.02760831883066334 0 -0.036560878046978391 -0.026076429439006843 0 -0.040695373909647295 -0.028008416661147555 0 -0.050933551436587433 -0.02105277074691787 0 -0.048687526843260019 -0.026962152833761618 0 -0.049411863255052452 -0.027963644034422145 0 -0.04971404762338906 -0.027356548193191901 0 -0.049411863255052452 -0.027963644034422145 0 -0.050920863777400641 -0.027177676928326979 0 -0.052495098526779749 -0.027758521567654227 0 -0.063774359207653564 -0.014250526629644452 0 -0.061506247980928228 -0.01328147257403323 0 -0.06280310862725802 -0.012875064330512989 0 -0.050933551436587433 -0.02105277074691787 0 -0.058201379015199485 -0.021002543203074209 0 -0.050920863777400641 -0.027177676928326979 0 -0.05233607984384829 -0.02644075063665496 0 -0.050968254725179914 -0.026470300656349213 0 -0.049411863255052452 -0.027963644034422145 0 -0.04971404762338906 -0.027356548193191901 0 -0.050920863777400641 -0.027177676928326979 0 -0.04971404762338906 -0.027356548193191901 0 -0.050920863777400641 -0.027177676928326979 0 -0.050060063979841661 -0.02674702665937876 0 -0.053965527711602138 -0.026768263071672401 0 -0.05233607984384829 -0.02644075063665496 0 -0.052495098526779749 -0.027758521567654227 0 -0.050920863777400641 -0.027177676928326979 0 -0.05233607984384829 -0.02644075063665496 0 -0.052495098526779749 -0.027758521567654227 0 -0.053834629420250371 -0.025682086813973905 0 -0.053965527711602138 -0.026768263071672401 0 -0.05233607984384829 -0.02644075063665496 0 -0.053834629420250371 -0.025682086813973905 0 -0.05233607984384829 -0.02644075063665496 0 -0.052513048825840548 -0.025238308775814396 0 -0.05233607984384829 -0.02644075063665496 0 -0.052513048825840548 -0.025238308775814396 0 -0.051245901563869989 -0.025704120844047204 0 -0.049411936099020781 -0.026062827658102309 0 -0.050385106418255041 -0.026100674974335922 0 -0.050060063979841661 -0.02674702665937876 0 -0.050385106418255041 -0.026100674974335922 0 -0.050060063979841661 -0.02674702665937876 0 -0.050968254725179914 -0.026470300656349213 0 -0.050920863777400641 -0.027177676928326979 0 -0.050060063979841661 -0.02674702665937876 0 -0.050968254725179914 -0.026470300656349213 0 -0.05233607984384829 -0.02644075063665496 0 -0.050968254725179914 -0.026470300656349213 0 -0.051245901563869989 -0.025704120844047204 0 -0.050385106418255041 -0.026100674974335922 0 -0.050968254725179914 -0.026470300656349213 0 -0.051245901563869989 -0.025704120844047204 0 -0.052513048825840548 -0.025238308775814396 0 -0.051245901563869989 -0.025704120844047204 0 -0.050942838878628445 -0.024448002953264221 0 -0.051245901563869989 -0.025704120844047204 0 -0.050252948892813835 -0.025418592025541455 0 -0.050942838878628445 -0.024448002953264221 0 -0.050385106418255041 -0.026100674974335922 0 -0.051245901563869989 -0.025704120844047204 0 -0.050252948892813835 -0.025418592025541455 0 -0.049411936099020781 -0.026062827658102309 0 -0.050385106418255041 -0.026100674974335922 0 -0.050252948892813835 -0.025418592025541455 0 -0.050942838878628445 -0.024448002953264221 0 -0.049815278575027939 -0.023724451274505162 0 -0.049231058714291093 -0.024890063597742838 0 -0.050252948892813835 -0.025418592025541455 0 -0.050942838878628445 -0.024448002953264221 0 -0.049231058714291093 -0.024890063597742838 0 -0.050942838878628445 -0.024448002953264221 0 -0.052508269521206144 -0.024068057138822083 0 -0.051078618118560841 -0.023113112516120846 0 -0.050942838878628445 -0.024448002953264221 0 -0.049815278575027939 -0.023724451274505162 0 -0.051078618118560841 -0.023113112516120846 0 -0.054359435074124003 -0.02430568935633717 0 -0.052513048825840548 -0.025238308775814396 0 -0.052508269521206144 -0.024068057138822083 0 -0.052513048825840548 -0.025238308775814396 0 -0.050942838878628445 -0.024448002953264221 0 -0.052508269521206144 -0.024068057138822083 0 -0.053855972415334907 -0.022685931950880804 0 -0.052508269521206144 -0.024068057138822083 0 -0.052469414867204668 -0.022827749624865799 0 -0.052508269521206144 -0.024068057138822083 0 -0.052469414867204668 -0.022827749624865799 0 -0.051078618118560841 -0.023113112516120846 0 -0.052469414867204668 -0.022827749624865799 0 -0.05176432611895998 -0.022084265663367172 0 -0.051078618118560841 -0.023113112516120846 0 -0.052469414867204668 -0.022827749624865799 0 -0.05176432611895998 -0.022084265663367172 0 -0.052954581871824918 -0.021810753096144577 0 -0.053855972415334907 -0.022685931950880804 0 -0.052469414867204668 -0.022827749624865799 0 -0.052954581871824918 -0.021810753096144577 0 -0.049815278575027939 -0.023724451274505162 0 -0.051078618118560841 -0.023113112516120846 0 -0.049167711470617777 -0.022576064186246487 0 -0.051078618118560841 -0.023113112516120846 0 -0.050374873575613523 -0.02182525185474362 0 -0.049167711470617777 -0.022576064186246487 0 -0.05176432611895998 -0.022084265663367172 0 -0.051078618118560841 -0.023113112516120846 0 -0.050374873575613523 -0.02182525185474362 0 -0.049167711470617777 -0.022576064186246487 0 -0.047477689320773571 -0.023834879205501674 0 -0.046744544394170459 -0.021777943708320351 0 -0.049167711470617777 -0.022576064186246487 0 -0.046744544394170459 -0.021777943708320351 0 -0.048910439303841285 -0.021315514972555769 0 -0.050374873575613523 -0.02182525185474362 0 -0.049167711470617777 -0.022576064186246487 0 -0.048910439303841285 -0.021315514972555769 0 -0.049815278575027939 -0.023724451274505162 0 -0.049167711470617777 -0.022576064186246487 0 -0.047477689320773571 -0.023834879205501674 0 -0.049815278575027939 -0.023724451274505162 0 -0.047477689320773571 -0.023834879205501674 0 -0.049231058714291093 -0.024890063597742838 0 -0.047470639328572116 -0.025776367394088322 0 -0.047477689320773571 -0.023834879205501674 0 -0.049231058714291093 -0.024890063597742838 0 -0.047477689320773571 -0.023834879205501674 0 -0.046744544394170459 -0.021777943708320351 0 -0.043533708055590828 -0.024857023139956934 0 -0.047470639328572116 -0.025776367394088322 0 -0.047477689320773571 -0.023834879205501674 0 -0.043533708055590828 -0.024857023139956934 0 -0.044432696054042209 -0.023425649411576578 0 -0.043086670544383462 -0.025092881885330424 0 -0.042295748120527291 -0.024797828416654708 0 -0.042067941485869918 -0.025207914857072293 0 -0.042378459693086755 -0.025067699430240498 0 -0.042295748120527291 -0.024797828416654708 0 -0.042067941485869918 -0.025207914857072293 0 -0.041488473725489507 -0.025370119971374543 0 -0.042067941485869918 -0.025207914857072293 0 -0.042153914524481931 -0.025393770164433963 0 -0.042378459693086755 -0.025067699430240498 0 -0.042153914524481931 -0.025393770164433963 0 -0.042378459693086755 -0.025067699430240498 0 -0.042395428150032957 -0.025342045370959281 0 -0.042067941485869918 -0.025207914857072293 0 -0.041845090466089155 -0.02544647050527658 0 -0.042153914524481931 -0.025393770164433963 0 -0.046744544394170459 -0.021777943708320351 0 -0.048910439303841285 -0.021315514972555769 0 -0.048968885489651844 -0.0200859878266814 0 -0.044432696054042209 -0.023425649411576578 0 -0.04537850938768944 -0.022543750961007979 0 -0.050374873575613523 -0.02182525185474362 0 -0.048910439303841285 -0.021315514972555769 0 -0.049397511175915572 -0.020631567435372668 0 -0.049397511175915572 -0.020631567435372668 0 -0.048968885489651844 -0.0200859878266814 0 -0.049376227875847736 -0.020210065008570758 0 -0.048910439303841285 -0.021315514972555769 0 -0.049397511175915572 -0.020631567435372668 0 -0.048968885489651844 -0.0200859878266814 0 -0.042067941485869918 -0.025207914857072293 0 -0.041845090466089155 -0.02544647050527658 0 -0.041488473725489507 -0.025370119971374543 0 -0.041488473725489507 -0.025370119971374543 0 -0.041330081264414606 -0.026058605178817851 0 -0.040739936163428289 -0.026363049652717928 0 -0.041845090466089155 -0.02544647050527658 0 -0.04160768390326984 -0.025734863050959331 0 -0.041488473725489507 -0.025370119971374543 0 -0.041845090466089155 -0.02544647050527658 0 -0.04160768390326984 -0.025734863050959331 0 -0.041828264024611643 -0.025737020330977321 0 -0.04160768390326984 -0.025734863050959331 0 -0.041488473725489507 -0.025370119971374543 0 -0.041330081264414606 -0.026058605178817851 0 -0.04160768390326984 -0.025734863050959331 0 -0.041828264024611643 -0.025737020330977321 0 -0.04173911092298746 -0.026128216255364028 0 -0.04160768390326984 -0.025734863050959331 0 -0.041330081264414606 -0.026058605178817851 0 -0.04173911092298746 -0.026128216255364028 0 -0.041828264024611643 -0.025737020330977321 0 -0.042196082314804519 -0.025703181627814882 0 -0.04173911092298746 -0.026128216255364028 0 -0.042196082314804519 -0.025703181627814882 0 -0.0422037691151326 -0.026240935382416702 0 -0.04173911092298746 -0.026128216255364028 0 -0.042196082314804519 -0.025703181627814882 0 -0.0422037691151326 -0.026240935382416702 0 -0.042616498671293981 -0.025415806720934329 0 -0.042153914524481931 -0.025393770164433963 0 -0.042196082314804519 -0.025703181627814882 0 -0.042395428150032957 -0.025342045370959281 0 -0.041845090466089155 -0.02544647050527658 0 -0.041828264024611643 -0.025737020330977321 0 -0.042153914524481931 -0.025393770164433963 0 -0.041828264024611643 -0.025737020330977321 0 -0.042153914524481931 -0.025393770164433963 0 -0.042196082314804519 -0.025703181627814882 0 -0.053347281611978506 -0.020849824331240215 0 -0.052954581871824918 -0.021810753096144577 0 -0.051681326191664108 -0.021190811574846247 0 -0.05176432611895998 -0.022084265663367172 0 -0.052954581871824918 -0.021810753096144577 0 -0.051681326191664108 -0.021190811574846247 0 -0.053347281611978506 -0.020849824331240215 0 -0.051681326191664108 -0.021190811574846247 0 -0.051860156112100673 -0.019955079928672712 0 -0.050374873575613523 -0.02182525185474362 0 -0.049397511175915572 -0.020631567435372668 0 -0.051681326191664108 -0.021190811574846247 0 -0.049271831871965314 -0.020774432467788345 0 -0.051315715834084397 -0.019634491438792361 0 -0.049397511175915572 -0.020631567435372668 0 -0.049376227875847736 -0.020210065008570758 0 -0.049848379806247713 -0.020047843755019105 0 -0.049397511175915572 -0.020631567435372668 0 -0.051681326191664108 -0.021190811574846247 0 -0.051860156112100673 -0.019955079928672712 0 -0.05176432611895998 -0.022084265663367172 0 -0.050374873575613523 -0.02182525185474362 0 -0.051681326191664108 -0.021190811574846247 0 -0.049376227875847736 -0.020210065008570758 0 -0.049530240217898404 -0.020014737099209142 0 -0.049848379806247713 -0.020047843755019105 0 -0.048968885489651844 -0.0200859878266814 0 -0.04948279171426441 -0.019821648977021909 0 -0.049581283413202448 -0.019635898683539675 0 -0.04537850938768944 -0.022543750961007979 0 -0.044068565762843508 -0.023949073042591716 0 -0.048968885489651844 -0.0200859878266814 0 -0.049376227875847736 -0.020210065008570758 0 -0.049530240217898404 -0.020014737099209142 0 -0.048968885489651844 -0.0200859878266814 0 -0.049530240217898404 -0.020014737099209142 0 -0.049509886919816774 -0.019892942918664658 0 -0.048968885489651844 -0.0200859878266814 0 -0.04948279171426441 -0.019821648977021909 0 -0.049509886919816774 -0.019892942918664658 0 -0.04948279171426441 -0.019821648977021909 0 -0.049509886919816774 -0.019892942918664658 0 -0.049663864302542583 -0.019797436511774621 0 -0.049530240217898404 -0.020014737099209142 0 -0.049509886919816774 -0.019892942918664658 0 -0.049718117405969153 -0.019884342827043582 0 -0.049663864302542583 -0.019797436511774621 0 -0.049877910110554251 -0.019828167379651335 0 -0.04964887911869946 -0.019743750866528801 0 -0.049663864302542583 -0.019797436511774621 0 -0.049718117405969153 -0.019884342827043582 0 -0.049877910110554251 -0.019828167379651335 0 -0.04948279171426441 -0.019821648977021909 0 -0.049663864302542583 -0.019797436511774621 0 -0.04964887911869946 -0.019743750866528801 0 -0.049509886919816774 -0.019892942918664658 0 -0.049663864302542583 -0.019797436511774621 0 -0.049718117405969153 -0.019884342827043582 0 -0.049530240217898404 -0.020014737099209142 0 -0.049718117405969153 -0.019884342827043582 0 -0.049848379806247713 -0.020047843755019105 0 -0.0535688284443177 -0.019938253713921644 0 -0.053347281611978506 -0.020849824331240215 0 -0.051860156112100673 -0.019955079928672712 0 -0.050234257480006338 -0.019834763651462691 0 -0.049848379806247713 -0.020047843755019105 0 -0.049877910110554251 -0.019828167379651335 0 -0.0535688284443177 -0.019938253713921644 0 -0.053859202326428442 -0.019327578601635739 0 -0.051860156112100673 -0.019955079928672712 0 -0.049952795113640723 -0.022360473745624228 0 -0.051315715834084397 -0.019634491438792361 0 -0.049718117405969153 -0.019884342827043582 0 -0.049848379806247713 -0.020047843755019105 0 -0.049877910110554251 -0.019828167379651335 0 -0.041877608536603703 -0.027462326191727175 0 -0.041408618917422549 -0.027220806907513273 0 -0.041203165186076279 -0.027164330874943583 0 -0.049952795113640723 -0.022360473745624228 0 -0.044068565762843508 -0.023949073042591716 0 -0.05195635444711031 -0.025453955464036129 0 -0.044591707981287663 -0.028202622763716479 0 -0.041877608536603703 -0.027462326191727175 0 -0.041552931476830465 -0.027248212007265675 0 -0.041408618917422549 -0.027220806907513273 0 -0.041851263759247026 -0.02726076849739081 0 -0.041348721400988941 -0.027167346819417564 0 -0.04129878704879443 -0.027116717125116305 0 -0.041851263759247026 -0.02726076849739081 0 -0.041552931476830465 -0.027248212007265675 0 -0.041348721400988941 -0.027167346819417564 0 -0.050234257480006338 -0.019834763651462691 0 -0.049877910110554251 -0.019828167379651335 0 -0.049581283413202448 -0.019635898683539675 0 -0.041851263759247026 -0.02726076849739081 0 -0.041877608536603703 -0.027462326191727175 0 -0.041552931476830465 -0.027248212007265675 0 -0.041552931476830465 -0.027248212007265675 0 -0.041408618917422549 -0.027220806907513273 0 -0.041386044942849094 -0.027195408794646256 0 -0.041552931476830465 -0.027248212007265675 0 -0.041386044942849094 -0.027195408794646256 0 -0.041348721400988941 -0.027167346819417564 0 -0.041348721400988941 -0.027167346819417564 0 -0.041268074678635094 -0.02714723583037507 0 -0.04129878704879443 -0.027116717125116305 0 -0.041268074678635094 -0.02714723583037507 0 -0.041277384937493063 -0.0271474087012872 0 -0.041264953827501845 -0.027132685389345674 0 -0.041348721400988941 -0.027167346819417564 0 -0.041268074678635094 -0.02714723583037507 0 -0.041277384937493063 -0.0271474087012872 0 -0.041277384937493063 -0.0271474087012872 0 -0.041268931846751622 -0.027151178625151092 0 -0.041264953827501845 -0.027132685389345674 0 -0.041268931846751622 -0.027151178625151092 0 -0.041239867681091051 -0.027143467241242229 0 -0.041264953827501845 -0.027132685389345674 0 -0.041277384937493063 -0.0271474087012872 0 -0.041268931846751622 -0.027151178625151092 0 -0.041309415161460181 -0.027164963570207937 0 -0.041348721400988941 -0.027167346819417564 0 -0.041277384937493063 -0.0271474087012872 0 -0.041309415161460181 -0.027164963570207937 0 -0.041386044942849094 -0.027195408794646256 0 -0.041348721400988941 -0.027167346819417564 0 -0.041309415161460181 -0.027164963570207937 0 -0.041408618917422549 -0.027220806907513273 0 -0.041309415161460181 -0.027164963570207937 0 -0.0412852035651868 -0.027176507885271737 0 -0.049877910110554251 -0.019828167379651335 0 -0.04964887911869946 -0.019743750866528801 0 -0.049581283413202448 -0.019635898683539675 0 -0.041408618917422549 -0.027220806907513273 0 -0.041386044942849094 -0.027195408794646256 0 -0.041309415161460181 -0.027164963570207937 0 -0.041408618917422549 -0.027220806907513273 0 -0.0412852035651868 -0.027176507885271737 0 -0.041203165186076279 -0.027164330874943583 0 -0.041268931846751622 -0.027151178625151092 0 -0.041309415161460181 -0.027164963570207937 0 -0.0412852035651868 -0.027176507885271737 0 -0.0412852035651868 -0.027176507885271737 0 -0.041239867681091051 -0.027143467241242229 0 -0.041203165186076279 -0.027164330874943583 0 -0.041268931846751622 -0.027151178625151092 0 -0.0412852035651868 -0.027176507885271737 0 -0.041239867681091051 -0.027143467241242229 0 -0.041239867681091051 -0.027143467241242229 0 -0.041251539075974258 -0.027128422948203949 0 -0.041203165186076279 -0.027164330874943583 0 -0.041251539075974258 -0.027128422948203949 0 -0.041203165186076279 -0.027164330874943583 0 -0.041297315376137254 -0.027091969118856248 0 -0.04948279171426441 -0.019821648977021909 0 -0.04964887911869946 -0.019743750866528801 0 -0.049581283413202448 -0.019635898683539675 0 -0.041251539075974258 -0.027128422948203949 0 -0.041264953827501845 -0.027132685389345674 0 -0.041275099799224661 -0.02711978676872227 0 -0.041251539075974258 -0.027128422948203949 0 -0.041297315376137254 -0.027091969118856248 0 -0.041275099799224661 -0.02711978676872227 0 -0.041297315376137254 -0.027091969118856248 0 -0.041275099799224661 -0.02711978676872227 0 -0.041296089179943991 -0.027133415378473833 0 -0.041239867681091051 -0.027143467241242229 0 -0.041251539075974258 -0.027128422948203949 0 -0.041264953827501845 -0.027132685389345674 0 -0.041264953827501845 -0.027132685389345674 0 -0.041275099799224661 -0.02711978676872227 0 -0.041296089179943991 -0.027133415378473833 0 -0.041268074678635094 -0.02714723583037507 0 -0.041264953827501845 -0.027132685389345674 0 -0.041296089179943991 -0.027133415378473833 0 -0.041297315376137254 -0.027091969118856248 0 -0.041296089179943991 -0.027133415378473833 0 -0.041385642697979605 -0.027108142469459435 0 -0.041184152656291766 -0.027540282265447458 0 -0.041312148164362399 -0.027235885343798515 0 -0.041470302065671601 -0.027266200060688174 0 -0.032031266714043563 -0.032687567113910056 0 -0.031037867351532161 -0.032537055529212981 0 -0.032515827246735296 -0.03102026017113424 0 -0.040876597731899715 -0.03178033608267504 0 -0.036369861806127987 -0.029148381337222716 0 -0.041296089179943991 -0.027133415378473833 0 -0.041312148164362399 -0.027235885343798515 0 -0.041385642697979605 -0.027108142469459435 0 -0.041268074678635094 -0.02714723583037507 0 -0.041296089179943991 -0.027133415378473833 0 -0.041312148164362399 -0.027235885343798515 0 -0.041184152656291766 -0.027540282265447458 0 -0.041247738942958675 -0.027249565604925863 0 -0.041147008535623079 -0.027289050951876306 0 -0.040876597731899715 -0.03178033608267504 0 -0.044591707981287663 -0.028202622763716479 0 -0.041184152656291766 -0.027540282265447458 0 -0.041312148164362399 -0.027235885343798515 0 -0.041247738942958675 -0.027249565604925863 0 -0.041247738942958675 -0.027249565604925863 0 -0.04129878704879443 -0.027116717125116305 0 -0.041147008535623079 -0.027289050951876306 0 -0.041268074678635094 -0.02714723583037507 0 -0.041312148164362399 -0.027235885343798515 0 -0.041247738942958675 -0.027249565604925863 0 -0.041268074678635094 -0.02714723583037507 0 -0.041247738942958675 -0.027249565604925863 0 -0.04129878704879443 -0.027116717125116305 0 -0.050741505383756942 -0.026582042750367827 0 -0.051639956938180985 -0.027702651126363345 0 -0.051057806446679781 -0.027504445556282543 0 -0.041851263759247026 -0.02726076849739081 0 -0.04129878704879443 -0.027116717125116305 0 -0.041376825048091571 -0.026947483967343415 0 -0.043176824701210051 -0.027826244861703806 0 -0.044591707981287663 -0.028202622763716479 0 -0.052771821582180641 -0.029259286950380554 0 -0.044591707981287663 -0.028202622763716479 0 -0.061181190486013122 -0.028294551134005884 0 -0.060040290078318626 -0.027739361868335199 0 -0.060687725958913107 -0.026970018889217389 0 -0.052771821582180641 -0.029259286950380554 0 -0.055824511250420275 -0.02762374585396472 0 -0.051385705839682334 -0.028420616228878374 0 -0.051639956938180985 -0.027702651126363345 0 -0.051057806446679781 -0.027504445556282543 0 -0.038264533020056841 -0.027834377417820456 0 -0.036369861806127987 -0.029148381337222716 0 -0.034252084516113585 -0.029389333225988672 0 -0.032515827246735296 -0.03102026017113424 0 -0.033908755231576437 -0.030806181901320697 0 -0.034252084516113585 -0.029389333225988672 0 -0.033908755231576437 -0.030806181901320697 0 -0.035559349810584402 -0.030124783168042738 0 -0.0422037691151326 -0.026240935382416702 0 -0.04173911092298746 -0.026128216255364028 0 -0.041712559091450288 -0.026709145618319281 0 -0.041203165186076279 -0.027164330874943583 0 -0.041297315376137254 -0.027091969118856248 0 -0.041712559091450288 -0.026709145618319281 0 -0.040739936163428289 -0.026363049652717928 0 -0.041310977544453634 -0.02635385696961336 0 -0.041712559091450288 -0.026709145618319281 0 -0.0422037691151326 -0.026240935382416702 0 -0.041712559091450288 -0.026709145618319281 0 -0.041470302065671601 -0.027266200060688174 0 -0.041297315376137254 -0.027091969118856248 0 -0.041385642697979605 -0.027108142469459435 0 -0.041712559091450288 -0.026709145618319281 0 -0.041465859806981066 -0.026300680332346442 0 -0.041310977544453634 -0.02635385696961336 0 -0.041712559091450288 -0.026709145618319281 0 -0.044068565762843508 -0.023949073042591716 0 -0.040709596933743056 -0.02696370076104046 0 -0.04173911092298746 -0.026128216255364028 0 -0.041465859806981066 -0.026300680332346442 0 -0.041712559091450288 -0.026709145618319281 0 -0.041330081264414606 -0.026058605178817851 0 -0.04173911092298746 -0.026128216255364028 0 -0.041465859806981066 -0.026300680332346442 0 -0.041330081264414606 -0.026058605178817851 0 -0.040739936163428289 -0.026363049652717928 0 -0.041310977544453634 -0.02635385696961336 0 -0.041330081264414606 -0.026058605178817851 0 -0.041465859806981066 -0.026300680332346442 0 -0.041310977544453634 -0.02635385696961336 0 -0.041385642697979605 -0.027108142469459435 0 -0.041712559091450288 -0.026709145618319281 0 -0.041470302065671601 -0.027266200060688174 0 -0.032515827246735296 -0.03102026017113424 0 -0.033374581308263096 -0.031593579569827487 0 -0.033908755231576437 -0.030806181901320697 0 -0.032031266714043563 -0.032687567113910056 0 -0.032812870958181681 -0.032497605995114039 0 -0.032515827246735296 -0.03102026017113424 0 -0.041312148164362399 -0.027235885343798515 0 -0.041385642697979605 -0.027108142469459435 0 -0.041470302065671601 -0.027266200060688174 0 -0.032812870958181681 -0.032497605995114039 0 -0.032515827246735296 -0.03102026017113424 0 -0.033374581308263096 -0.031593579569827487 0 -0.032812870958181681 -0.032497605995114039 0 -0.033374581308263096 -0.031593579569827487 0 -0.034288485350459891 -0.032071049989921038 0 -0.033908755231576437 -0.030806181901320697 0 -0.034288485350459891 -0.032071049989921038 0 -0.035559349810584402 -0.030124783168042738 0 -0.033374581308263096 -0.031593579569827487 0 -0.033908755231576437 -0.030806181901320697 0 -0.034288485350459891 -0.032071049989921038 0 -0.032879431423160438 -0.033124803586958698 0 -0.033593556061108906 -0.032996337504994165 0 -0.033174041714310543 -0.032138572425797152 0 -0.033566567894707862 -0.032591532969209643 0 -0.034403113174413073 -0.031083623828090653 0 -0.033593556061108906 -0.032996337504994165 0 -0.033174041714310543 -0.032138572425797152 0 -0.03369389545069338 -0.032373873517953108 0 -0.034403113174413073 -0.031083623828090653 0 -0.035072085335572059 -0.02981100394555105 0 -0.034252084516113585 -0.029389333225988672 0 -0.035559349810584402 -0.030124783168042738 0 -0.036057480071116248 -0.027771533261130736 0 -0.033174041714310543 -0.032138572425797152 0 -0.033680076839017581 -0.031832862553014596 0 -0.033569744554464244 -0.031151979877114974 0 -0.033174041714310543 -0.032138572425797152 0 -0.033680076839017581 -0.031832862553014596 0 -0.03369389545069338 -0.032373873517953108 0 -0.033680076839017581 -0.031832862553014596 0 -0.034066523728790779 -0.032031922478619385 0 -0.033981071815896109 -0.031413267840817403 0 -0.033680076839017581 -0.031832862553014596 0 -0.03369389545069338 -0.032373873517953108 0 -0.034066523728790779 -0.032031922478619385 0 -0.03369389545069338 -0.032373873517953108 0 -0.034224455915280387 -0.032766342507234029 0 -0.034066523728790779 -0.032031922478619385 0 -0.034264066995131882 -0.033425628096434068 0 -0.033593556061108906 -0.032996337504994165 0 -0.034224455915280387 -0.032766342507234029 0 -0.033593556061108906 -0.032996337504994165 0 -0.03369389545069338 -0.032373873517953108 0 -0.034224455915280387 -0.032766342507234029 0 -0.034224455915280387 -0.032766342507234029 0 -0.034597196954705325 -0.032501148697077403 0 -0.034066523728790779 -0.032031922478619385 0 -0.034264066995131882 -0.033425628096434068 0 -0.034629216912568865 -0.033000886633796168 0 -0.034224455915280387 -0.032766342507234029 0 -0.034629216912568865 -0.033000886633796168 0 -0.034224455915280387 -0.032766342507234029 0 -0.034597196954705325 -0.032501148697077403 0 -0.034629216912568865 -0.033000886633796168 0 -0.034597196954705325 -0.032501148697077403 0 -0.034472607573328359 -0.032859027746198172 0 -0.034597196954705325 -0.032501148697077403 0 -0.034445991976035553 -0.031291749244088514 0 -0.03439281674112725 -0.033050851607277068 0 -0.034255488737328817 -0.031184376604187922 0 -0.033627424772714423 -0.030915454623271797 0 -0.034445991976035553 -0.031291749244088514 0 -0.034066523728790779 -0.032031922478619385 0 -0.033981071815896109 -0.031413267840817403 0 -0.034597196954705325 -0.032501148697077403 0 -0.034445991976035553 -0.031291749244088514 0 -0.034066523728790779 -0.032031922478619385 0 -0.034445991976035553 -0.031291749244088514 0 -0.034257495531714997 -0.030943215595715182 0 -0.033981071815896109 -0.031413267840817403 0 -0.034257495531714997 -0.030943215595715182 0 -0.033981071815896109 -0.031413267840817403 0 -0.033963850932145052 -0.031081846288869931 0 -0.034257495531714997 -0.030943215595715182 0 -0.034051242098510744 -0.030846751375650495 0 -0.033963850932145052 -0.031081846288869931 0 -0.034257495531714997 -0.030943215595715182 0 -0.034154502099311999 -0.030375256488358565 0 -0.034338949241665792 -0.030758061317081 0 -0.034445991976035553 -0.031291749244088514 0 -0.034154502099311999 -0.030375256488358565 0 -0.033513184455263426 -0.028775113577092379 0 -0.034445991976035553 -0.031291749244088514 0 -0.034257495531714997 -0.030943215595715182 0 -0.034154502099311999 -0.030375256488358565 0 -0.034154502099311999 -0.030375256488358565 0 -0.034338949241665792 -0.030758061317081 0 -0.033389738458681213 -0.030387334474676876 0 -0.034211153954870108 -0.030063119909747124 0 -0.033458011911549804 -0.029564911889733519 0 -0.034744872626984322 -0.029171640243323638 0 -0.035684703242310913 -0.029696473133501374 0 -0.035538933104547581 -0.029830528342984265 0 -0.034744872626984322 -0.029171640243323638 0 -0.035852055297302628 -0.029427792881836431 0 -0.035684703242310913 -0.029696473133501374 0 -0.034211153954870108 -0.030063119909747124 0 -0.036795756548412495 -0.027833363477308776 0 -0.034338949241665792 -0.030758061317081 0 -0.034051242098510744 -0.030846751375650495 0 -0.034017129957651313 -0.030573318430835661 0 -0.034257495531714997 -0.030943215595715182 0 -0.034338949241665792 -0.030758061317081 0 -0.034051242098510744 -0.030846751375650495 0 -0.036795756548412495 -0.027833363477308776 0 -0.037942376029043011 -0.027452638451249886 0 -0.036795756548412495 -0.027833363477308776 0 -0.035072085335572059 -0.02981100394555105 0 -0.037816042264473139 -0.026189230336284279 0 -0.036057480071116248 -0.027771533261130736 0 -0.036801539487024068 -0.028161589535287676 0 -0.042976182006152067 -0.02490918192500878 0 -0.042561263681891351 -0.02509575131809642 0 -0.042513851255382262 -0.024775684479975333 0 -0.039576881888241912 -0.026753883504520799 0 -0.039513180975499523 -0.026400843994152105 0 -0.03727562872760002 -0.02768161957053044 0 -0.037538478632703515 -0.027741228366112244 0 -0.037966022824661237 -0.02704069680138408 0 -0.039576881888241912 -0.026753883504520799 0 -0.037942376029043011 -0.027452638451249886 0 -0.034051242098510744 -0.030846751375650495 0 -0.034017129957651313 -0.030573318430835661 0 -0.033569744554464244 -0.031151979877114974 0 -0.037816042264473139 -0.026189230336284279 0 -0.038010781002098266 -0.026234574834195234 0 -0.036801539487024068 -0.028161589535287676 0 -0.042976182006152067 -0.02490918192500878 0 -0.042561263681891351 -0.02509575131809642 0 -0.042616498671293981 -0.025415806720934329 0 -0.039576881888241912 -0.026753883504520799 0 -0.036795756548412495 -0.027833363477308776 0 -0.039576881888241912 -0.026753883504520799 0 -0.043118802322569164 -0.025045420153020814 0 -0.042378459693086755 -0.025067699430240498 0 -0.042561263681891351 -0.02509575131809642 0 -0.042513851255382262 -0.024775684479975333 0 -0.042295748120527291 -0.024797828416654708 0 -0.042378459693086755 -0.025067699430240498 0 -0.042513851255382262 -0.024775684479975333 0 -0.042378459693086755 -0.025067699430240498 0 -0.042395428150032957 -0.025342045370959281 0 -0.042561263681891351 -0.02509575131809642 0 -0.042395428150032957 -0.025342045370959281 0 -0.042561263681891351 -0.02509575131809642 0 -0.042616498671293981 -0.025415806720934329 0 -0.035559349810584402 -0.030124783168042738 0 -0.036057480071116248 -0.027771533261130736 0 -0.036801539487024068 -0.028161589535287676 0 -0.038264533020056841 -0.027834377417820456 0 -0.039513180975499523 -0.026400843994152105 0 -0.042196082314804519 -0.025703181627814882 0 -0.042395428150032957 -0.025342045370959281 0 -0.042616498671293981 -0.025415806720934329 0 -0.033680076839017581 -0.031832862553014596 0 -0.033981071815896109 -0.031413267840817403 0 -0.033569744554464244 -0.031151979877114974 0 -0.033981071815896109 -0.031413267840817403 0 -0.033963850932145052 -0.031081846288869931 0 -0.033569744554464244 -0.031151979877114974 0 -0.034051242098510744 -0.030846751375650495 0 -0.033963850932145052 -0.031081846288869931 0 -0.033569744554464244 -0.031151979877114974 0 -0.029976713006074625 -0.027187341665770474 0 -0.029595608240735375 -0.026629817960884185 0 -0.029470435575998186 -0.027715299994245657 0 -0.02751290694984233 -0.033750159566947692 0 -0.025206734500016294 -0.028409068007585997 0 -0.02751290694984233 -0.033750159566947692 0 -0.023800026616968388 -0.031032359965781266 0 -0.027731221848211363 -0.044929303462895906 0 -0.027949863891548479 -0.044656180639381426 0 -0.028728035635270054 -0.044493956752466569 0 -0.027802724012055056 -0.044766038153094177 0 -0.027777580187540066 -0.044603910105795334 0 -0.027589089266720372 -0.04455689535375796 0 -0.027777580187540066 -0.044603910105795334 0 -0.027793799141489672 -0.044461701377449273 0 -0.027949863891548479 -0.044656180639381426 0 -0.027793799141489672 -0.044461701377449273 0 -0.027589089266720372 -0.04455689535375796 0 -0.027556687103888266 -0.044348181690831164 0 -0.027777580187540066 -0.044603910105795334 0 -0.027793799141489672 -0.044461701377449273 0 -0.027589089266720372 -0.04455689535375796 0 -0.028160043283840544 -0.044404884878281439 0 -0.027793799141489672 -0.044461701377449273 0 -0.027949863891548479 -0.044656180639381426 0 -0.027802724012055056 -0.044766038153094177 0 -0.027777580187540066 -0.044603910105795334 0 -0.027949863891548479 -0.044656180639381426 0 -0.02751290694984233 -0.033750159566947692 0 -0.02549164621317351 -0.043806717772119717 0 -0.031934673206594599 -0.033485598836813055 0 -0.032655496282370113 -0.033015889454447528 0 -0.032973297060925229 -0.033581455591948313 0 -0.028160043283840544 -0.044404884878281439 0 -0.027949863891548479 -0.044656180639381426 0 -0.028728035635270054 -0.044493956752466569 0 -0.02751290694984233 -0.033750159566947692 0 -0.030800769257580803 -0.039375363054813914 0 -0.029976713006074625 -0.027187341665770474 0 -0.031514434684619647 -0.02734564136161409 0 -0.030450319814348592 -0.02795740673222023 0 -0.029976713006074625 -0.027187341665770474 0 -0.029595608240735375 -0.026629817960884185 0 -0.031514434684619647 -0.02734564136161409 0 -0.02751290694984233 -0.033750159566947692 0 -0.032829866448239514 -0.03013747813048966 0 -0.032829866448239514 -0.03013747813048966 0 -0.033627424772714423 -0.030915454623271797 0 -0.032973297060925229 -0.033581455591948313 0 -0.033617021735908581 -0.033006338766263695 0 -0.03439281674112725 -0.033050851607277068 0 -0.031514434684619647 -0.02734564136161409 0 -0.033513184455263426 -0.028775113577092379 0 -0.032457026470589845 -0.028761584659403934 0 -0.033499790187905762 -0.032582194981057772 0 -0.032655496282370113 -0.033015889454447528 0 -0.033617021735908581 -0.033006338766263695 0 -0.032655496282370113 -0.033015889454447528 0 -0.032973297060925229 -0.033581455591948313 0 -0.033617021735908581 -0.033006338766263695 0 -0.033499790187905762 -0.032582194981057772 0 -0.033617021735908581 -0.033006338766263695 0 -0.034472607573328359 -0.032859027746198172 0 -0.033617021735908581 -0.033006338766263695 0 -0.034472607573328359 -0.032859027746198172 0 -0.03439281674112725 -0.033050851607277068 0 -0.034597196954705325 -0.032501148697077403 0 -0.034472607573328359 -0.032859027746198172 0 -0.03439281674112725 -0.033050851607277068 0 -0.033513184455263426 -0.028775113577092379 0 -0.033389738458681213 -0.030387334474676876 0 -0.032457026470589845 -0.028761584659403934 0 -0.034154502099311999 -0.030375256488358565 0 -0.033513184455263426 -0.028775113577092379 0 -0.033389738458681213 -0.030387334474676876 0 -0.034744872626984322 -0.029171640243323638 0 -0.033406025982132527 -0.028824462280629154 0 -0.033805506383639015 -0.02968466701296844 0 -0.033406025982132527 -0.028824462280629154 0 -0.032302273103101999 -0.029660693831966345 0 -0.033805506383639015 -0.02968466701296844 0 -0.033406025982132527 -0.028824462280629154 0 -0.031589125209109691 -0.028803019108780217 0 -0.032302273103101999 -0.029660693831966345 0 -0.033458011911549804 -0.029564911889733519 0 -0.031802668130456783 -0.028952444369394884 0 -0.033389738458681213 -0.030387334474676876 0 -0.032457026470589845 -0.028761584659403934 0 -0.031589125209109691 -0.028803019108780217 0 -0.031514434684619647 -0.02734564136161409 0 -0.032457026470589845 -0.028761584659403934 0 -0.031589125209109691 -0.028803019108780217 0 -0.031514434684619647 -0.02734564136161409 0 -0.031589125209109691 -0.028803019108780217 0 -0.030450319814348592 -0.02795740673222023 0 -0.031589125209109691 -0.028803019108780217 0 -0.030450319814348592 -0.02795740673222023 0 -0.029851197322913109 -0.028750093150649324 0 -0.031589125209109691 -0.028803019108780217 0 -0.029851197322913109 -0.028750093150649324 0 -0.032302273103101999 -0.029660693831966345 0 -0.029851197322913109 -0.028750093150649324 0 -0.028545357239069633 -0.029564296187681551 0 -0.028284436955641271 -0.027928418737205168 0 -0.029851197322913109 -0.028750093150649324 0 -0.029470435575998186 -0.027715299994245657 0 -0.028284436955641271 -0.027928418737205168 0 -0.029595608240735375 -0.026629817960884185 0 -0.029470435575998186 -0.027715299994245657 0 -0.028284436955641271 -0.027928418737205168 0 -0.030450319814348592 -0.02795740673222023 0 -0.029851197322913109 -0.028750093150649324 0 -0.029470435575998186 -0.027715299994245657 0 -0.029976713006074625 -0.027187341665770474 0 -0.030450319814348592 -0.02795740673222023 0 -0.029470435575998186 -0.027715299994245657 0 -0.030275833174300833 -0.030376661574427734 0 -0.030383710856069526 -0.032213594214485823 0 -0.027689315729838553 -0.03105940166088449 0 -0.030383710856069526 -0.032213594214485823 0 -0.027049970268124501 -0.033772618843451709 0 -0.027689315729838553 -0.03105940166088449 0 -0.028545357239069633 -0.029564296187681551 0 -0.030275833174300833 -0.030376661574427734 0 -0.027689315729838553 -0.03105940166088449 0 -0.029851197322913109 -0.028750093150649324 0 -0.028545357239069633 -0.029564296187681551 0 -0.030275833174300833 -0.030376661574427734 0 -0.030275833174300833 -0.030376661574427734 0 -0.032336050981543324 -0.030767523459252561 0 -0.032302273103101999 -0.029660693831966345 0 -0.029851197322913109 -0.028750093150649324 0 -0.030275833174300833 -0.030376661574427734 0 -0.032302273103101999 -0.029660693831966345 0 -0.032336050981543324 -0.030767523459252561 0 -0.033977892811342017 -0.031594238886399714 0 -0.030383710856069526 -0.032213594214485823 0 -0.030275833174300833 -0.030376661574427734 0 -0.032336050981543324 -0.030767523459252561 0 -0.030383710856069526 -0.032213594214485823 0 -0.032336050981543324 -0.030767523459252561 0 -0.033692683804275772 -0.0305184718883263 0 -0.033977892811342017 -0.031594238886399714 0 -0.032336050981543324 -0.030767523459252561 0 -0.032302273103101999 -0.029660693831966345 0 -0.033692683804275772 -0.0305184718883263 0 -0.033805506383639015 -0.02968466701296844 0 -0.033692683804275772 -0.0305184718883263 0 -0.034545958611701781 -0.030144400745640641 0 -0.032302273103101999 -0.029660693831966345 0 -0.033805506383639015 -0.02968466701296844 0 -0.033692683804275772 -0.0305184718883263 0 -0.033692683804275772 -0.0305184718883263 0 -0.034545958611701781 -0.030144400745640641 0 -0.034285833023319084 -0.03083503302914874 0 -0.033692683804275772 -0.0305184718883263 0 -0.033977892811342017 -0.031594238886399714 0 -0.034285833023319084 -0.03083503302914874 0 -0.033977892811342017 -0.031594238886399714 0 -0.034285833023319084 -0.03083503302914874 0 -0.0344171646160326 -0.031018338792281708 0 -0.035378127179179937 -0.029726634049128377 0 -0.033977892811342017 -0.031594238886399714 0 -0.0344171646160326 -0.031018338792281708 0 -0.034473296812343783 -0.030503076849969914 0 -0.033977892811342017 -0.031594238886399714 0 -0.034336699883643559 -0.030671188392203032 0 -0.035378127179179937 -0.029726634049128377 0 -0.034473296812343783 -0.030503076849969914 0 -0.033977892811342017 -0.031594238886399714 0 -0.033797124026599026 -0.0317219472084369 0 -0.033200038506851583 -0.033432998750782116 0 -0.033977892811342017 -0.031594238886399714 0 -0.030383710856069526 -0.032213594214485823 0 -0.031368063124946659 -0.035587377180175302 0 -0.031368063124946659 -0.035587377180175302 0 -0.027049970268124501 -0.033772618843451709 0 -0.026454105283468622 -0.036519258024617703 0 -0.031368063124946659 -0.035587377180175302 0 -0.02848621275202266 -0.038817563383788903 0 -0.026454105283468622 -0.036519258024617703 0 -0.030383710856069526 -0.032213594214485823 0 -0.031368063124946659 -0.035587377180175302 0 -0.027049970268124501 -0.033772618843451709 0 -0.042062185599306808 -0.024925180816246135 0 -0.042281510346761135 -0.025272043882194884 0 -0.042497319921241422 -0.02488969302699208 0 -0.042062185599306808 -0.024925180816246135 0 -0.041678349763057419 -0.025119930908697293 0 -0.042281510346761135 -0.025272043882194884 0 -0.042062185599306808 -0.024925180816246135 0 -0.041678349763057419 -0.025119930908697293 0 -0.0415412940870531 -0.024743816988105998 0 -0.041678349763057419 -0.025119930908697293 0 -0.042281510346761135 -0.025272043882194884 0 -0.041997061207679993 -0.025712989742951796 0 -0.042281510346761135 -0.025272043882194884 0 -0.042734543008055445 -0.025144165922106238 0 -0.042348277723046161 -0.025829602651555553 0 -0.042281510346761135 -0.025272043882194884 0 -0.042734543008055445 -0.025144165922106238 0 -0.042497319921241422 -0.02488969302699208 0 -0.042295748120527291 -0.024797828416654708 0 -0.042734543008055445 -0.025144165922106238 0 -0.042497319921241422 -0.02488969302699208 0 -0.042295748120527291 -0.024797828416654708 0 -0.042497319921241422 -0.02488969302699208 0 -0.042513851255382262 -0.024775684479975333 0 -0.042497319921241422 -0.02488969302699208 0 -0.042513851255382262 -0.024775684479975333 0 -0.042183777426722843 -0.024748090203261054 0 -0.042513851255382262 -0.024775684479975333 0 -0.042183777426722843 -0.024748090203261054 0 -0.04200513543490586 -0.024570076786325983 0 -0.041893336778002513 -0.024319047073672946 0 -0.042513851255382262 -0.024775684479975333 0 -0.04200513543490586 -0.024570076786325983 0 -0.042062185599306808 -0.024925180816246135 0 -0.042497319921241422 -0.02488969302699208 0 -0.042183777426722843 -0.024748090203261054 0 -0.042062185599306808 -0.024925180816246135 0 -0.042183777426722843 -0.024748090203261054 0 -0.041894317164871818 -0.024678838682743544 0 -0.042062185599306808 -0.024925180816246135 0 -0.041894317164871818 -0.024678838682743544 0 -0.0415412940870531 -0.024743816988105998 0 -0.041894317164871818 -0.024678838682743544 0 -0.04200513543490586 -0.024570076786325983 0 -0.041699558460120752 -0.024455569167140326 0 -0.041893336778002513 -0.024319047073672946 0 -0.04200513543490586 -0.024570076786325983 0 -0.041699558460120752 -0.024455569167140326 0 -0.042183777426722843 -0.024748090203261054 0 -0.041894317164871818 -0.024678838682743544 0 -0.04200513543490586 -0.024570076786325983 0 -0.035538933104547581 -0.029830528342984265 0 -0.034545958611701781 -0.030144400745640641 0 -0.034968984627150868 -0.030663496110531905 0 -0.037942376029043011 -0.027452638451249886 0 -0.037946339684824047 -0.027610718771674689 0 -0.035703029379354073 -0.029704503513725968 0 -0.035538933104547581 -0.029830528342984265 0 -0.034968984627150868 -0.030663496110531905 0 -0.041699558460120752 -0.024455569167140326 0 -0.0415412940870531 -0.024743816988105998 0 -0.040841822705898638 -0.024754767408945041 0 -0.037942376029043011 -0.027452638451249886 0 -0.036980474933036162 -0.028355286625041595 0 -0.041894317164871818 -0.024678838682743544 0 -0.041699558460120752 -0.024455569167140326 0 -0.0415412940870531 -0.024743816988105998 0 -0.034744872626984322 -0.029171640243323638 0 -0.035538933104547581 -0.029830528342984265 0 -0.034545958611701781 -0.030144400745640641 0 -0.034744872626984322 -0.029171640243323638 0 -0.033805506383639015 -0.02968466701296844 0 -0.034545958611701781 -0.030144400745640641 0 -0.037946339684824047 -0.027610718771674689 0 -0.036599335638676955 -0.028476625398440692 0 -0.034285833023319084 -0.03083503302914874 0 -0.034968984627150868 -0.030663496110531905 0 -0.0344171646160326 -0.031018338792281708 0 -0.034545958611701781 -0.030144400745640641 0 -0.034285833023319084 -0.03083503302914874 0 -0.034968984627150868 -0.030663496110531905 0 -0.040841822705898638 -0.024754767408945041 0 -0.041144041776061888 -0.025461115480577303 0 -0.038852741646314602 -0.025651446921647128 0 -0.041678349763057419 -0.025119930908697293 0 -0.0415412940870531 -0.024743816988105998 0 -0.040841822705898638 -0.024754767408945041 0 -0.041678349763057419 -0.025119930908697293 0 -0.041144041776061888 -0.025461115480577303 0 -0.041997061207679993 -0.025712989742951796 0 -0.041678349763057419 -0.025119930908697293 0 -0.040841822705898638 -0.024754767408945041 0 -0.041144041776061888 -0.025461115480577303 0 -0.041144041776061888 -0.025461115480577303 0 -0.041490689086386805 -0.026439935869670101 0 -0.038852741646314602 -0.025651446921647128 0 -0.041144041776061888 -0.025461115480577303 0 -0.041490689086386805 -0.026439935869670101 0 -0.041997061207679993 -0.025712989742951796 0 -0.035378127179179937 -0.029726634049128377 0 -0.038852741646314602 -0.025651446921647128 0 -0.039819411225959715 -0.02796413559839854 0 -0.035378127179179937 -0.029726634049128377 0 -0.039819411225959715 -0.02796413559839854 0 -0.037860500712278047 -0.030475657511855186 0 -0.041490689086386805 -0.026439935869670101 0 -0.038852741646314602 -0.025651446921647128 0 -0.039819411225959715 -0.02796413559839854 0 -0.035497690744323393 -0.029669715575381214 0 -0.036599335638676955 -0.028476625398440692 0 -0.041490689086386805 -0.026439935869670101 0 -0.041830134600202976 -0.027383216951007681 0 -0.042455753973479109 -0.027083329350543753 0 -0.041490689086386805 -0.026439935869670101 0 -0.039819411225959715 -0.02796413559839854 0 -0.041830134600202976 -0.027383216951007681 0 -0.039819411225959715 -0.02796413559839854 0 -0.041830134600202976 -0.027383216951007681 0 -0.040360193611943575 -0.029262714791832265 0 -0.041830134600202976 -0.027383216951007681 0 -0.042544327756755838 -0.02756970365375893 0 -0.042796476726012056 -0.028164275540569605 0 -0.041830134600202976 -0.027383216951007681 0 -0.042544327756755838 -0.02756970365375893 0 -0.042455753973479109 -0.027083329350543753 0 -0.042455753973479109 -0.027083329350543753 0 -0.042541756744288749 -0.026643584106781058 0 -0.042664560016495219 -0.027317402742408035 0 -0.041219661388258728 -0.027114694530457492 0 -0.040675688527311876 -0.028046090108274736 0 -0.042664560016495219 -0.027317402742408035 0 -0.042544327756755838 -0.02756970365375893 0 -0.042455753973479109 -0.027083329350543753 0 -0.042664560016495219 -0.027317402742408035 0 -0.041748157400895339 -0.027312722747143681 0 -0.042496496561520228 -0.027232902538635841 0 -0.041490689086386805 -0.026439935869670101 0 -0.042455753973479109 -0.027083329350543753 0 -0.04214814228470104 -0.026407609354367999 0 -0.042455753973479109 -0.027083329350543753 0 -0.04214814228470104 -0.026407609354367999 0 -0.042541756744288749 -0.026643584106781058 0 -0.041490689086386805 -0.026439935869670101 0 -0.04214814228470104 -0.026407609354367999 0 -0.041997061207679993 -0.025712989742951796 0 -0.04214814228470104 -0.026407609354367999 0 -0.042541756744288749 -0.026643584106781058 0 -0.042348277723046161 -0.025829602651555553 0 -0.042281510346761135 -0.025272043882194884 0 -0.042348277723046161 -0.025829602651555553 0 -0.041997061207679993 -0.025712989742951796 0 -0.04214814228470104 -0.026407609354367999 0 -0.042348277723046161 -0.025829602651555553 0 -0.041997061207679993 -0.025712989742951796 0 -0.042734543008055445 -0.025144165922106238 0 -0.042541756744288749 -0.026643584106781058 0 -0.042348277723046161 -0.025829602651555553 0 -0.046031631881815867 -0.027863320223772282 0 -0.043533708055590828 -0.024857023139956934 0 -0.041887639361374761 -0.026969375527864409 0 -0.03832784014150864 -0.02844914925088798 0 -0.041887639361374761 -0.026969375527864409 0 -0.04092936233223643 -0.027555788647731096 0 -0.043086670544383462 -0.025092881885330424 0 -0.041748157400895339 -0.027312722747143681 0 -0.040695373909647295 -0.028008416661147555 0 -0.042127569436077761 -0.027283708956339529 0 -0.043533708055590828 -0.024857023139956934 0 -0.040675688527311876 -0.028046090108274736 0 -0.041887639361374761 -0.026969375527864409 0 -0.040675688527311876 -0.028046090108274736 0 -0.041887639361374761 -0.026969375527864409 0 -0.04092936233223643 -0.027555788647731096 0 -0.03832784014150864 -0.02844914925088798 0 -0.04092936233223643 -0.027555788647731096 0 -0.04036729060378929 -0.027218155479757537 0 -0.040675688527311876 -0.028046090108274736 0 -0.04092936233223643 -0.027555788647731096 0 -0.04036729060378929 -0.027218155479757537 0 -0.041219661388258728 -0.027114694530457492 0 -0.040675688527311876 -0.028046090108274736 0 -0.04036729060378929 -0.027218155479757537 0 -0.041219661388258728 -0.027114694530457492 0 -0.04036729060378929 -0.027218155479757537 0 -0.039985649218832818 -0.025669203386000865 0 -0.038682386256343244 -0.026348929750980046 0 -0.04036729060378929 -0.027218155479757537 0 -0.039985649218832818 -0.025669203386000865 0 -0.039985649218832818 -0.025669203386000865 0 -0.039193557279915699 -0.023093818902954737 0 -0.037473187404839001 -0.024262220146346096 0 -0.041219661388258728 -0.027114694530457492 0 -0.039985649218832818 -0.025669203386000865 0 -0.04098982226799238 -0.025872467423890926 0 -0.039985649218832818 -0.025669203386000865 0 -0.040610287913631429 -0.024706400332198033 0 -0.04098982226799238 -0.025872467423890926 0 -0.039985649218832818 -0.025669203386000865 0 -0.040610287913631429 -0.024706400332198033 0 -0.039193557279915699 -0.023093818902954737 0 -0.040610287913631429 -0.024706400332198033 0 -0.039193557279915699 -0.023093818902954737 0 -0.04135122392520843 -0.02333701756867268 0 -0.039193557279915699 -0.023093818902954737 0 -0.04135122392520843 -0.02333701756867268 0 -0.040774334558149217 -0.021108850451900647 0 -0.039193557279915699 -0.023093818902954737 0 -0.038881248416721088 -0.021213197465768299 0 -0.040774334558149217 -0.021108850451900647 0 -0.043898387472668256 -0.0215910407674334 0 -0.042611970322725526 -0.021314081658865131 0 -0.042972118530079498 -0.023271423206458024 0 -0.042611970322725526 -0.021314081658865131 0 -0.04135122392520843 -0.02333701756867268 0 -0.042972118530079498 -0.023271423206458024 0 -0.042611970322725526 -0.021314081658865131 0 -0.04135122392520843 -0.02333701756867268 0 -0.040774334558149217 -0.021108850451900647 0 -0.04135122392520843 -0.02333701756867268 0 -0.042188314548870454 -0.02447043037920393 0 -0.042972118530079498 -0.023271423206458024 0 -0.04135122392520843 -0.02333701756867268 0 -0.042188314548870454 -0.02447043037920393 0 -0.041525010246120292 -0.025352685826487933 0 -0.042188314548870454 -0.02447043037920393 0 -0.042972118530079498 -0.023271423206458024 0 -0.042925661476831321 -0.025145660621045854 0 -0.042972118530079498 -0.023271423206458024 0 -0.042925661476831321 -0.025145660621045854 0 -0.043941347100099358 -0.024152129539518865 0 -0.042188314548870454 -0.02447043037920393 0 -0.042925661476831321 -0.025145660621045854 0 -0.042300337391806803 -0.026009850786511142 0 -0.042188314548870454 -0.02447043037920393 0 -0.042300337391806803 -0.026009850786511142 0 -0.041525010246120292 -0.025352685826487933 0 -0.042300337391806803 -0.026009850786511142 0 -0.042664560016495219 -0.027317402742408035 0 -0.043000671450801831 -0.026101859125720848 0 -0.042925661476831321 -0.025145660621045854 0 -0.042300337391806803 -0.026009850786511142 0 -0.043000671450801831 -0.026101859125720848 0 -0.040610287913631429 -0.024706400332198033 0 -0.04135122392520843 -0.02333701756867268 0 -0.041525010246120292 -0.025352685826487933 0 -0.041525010246120292 -0.025352685826487933 0 -0.04098982226799238 -0.025872467423890926 0 -0.041741006793674124 -0.02646430169864996 0 -0.042300337391806803 -0.026009850786511142 0 -0.041525010246120292 -0.025352685826487933 0 -0.041741006793674124 -0.02646430169864996 0 -0.040610287913631429 -0.024706400332198033 0 -0.041525010246120292 -0.025352685826487933 0 -0.04098982226799238 -0.025872467423890926 0 -0.041219661388258728 -0.027114694530457492 0 -0.04098982226799238 -0.025872467423890926 0 -0.041741006793674124 -0.02646430169864996 0 -0.042300337391806803 -0.026009850786511142 0 -0.041741006793674124 -0.02646430169864996 0 -0.042664560016495219 -0.027317402742408035 0 -0.041219661388258728 -0.027114694530457492 0 -0.041741006793674124 -0.02646430169864996 0 -0.042664560016495219 -0.027317402742408035 0 -0.042796476726012056 -0.028164275540569605 0 -0.040360193611943575 -0.029262714791832265 0 -0.039069876952577944 -0.033683790275547687 0 -0.042796476726012056 -0.028164275540569605 0 -0.044389977168859944 -0.025261091400178196 0 -0.048545613434311713 -0.022541612680083613 0 -0.042844870557210556 -0.029227824631552768 0 -0.043380278335728661 -0.02507026792820528 0 -0.042544327756755838 -0.02756970365375893 0 -0.042796476726012056 -0.028164275540569605 0 -0.042664560016495219 -0.027317402742408035 0 -0.042664560016495219 -0.027317402742408035 0 -0.043199799526793009 -0.026782213924317979 0 -0.043000671450801831 -0.026101859125720848 0 -0.042796476726012056 -0.028164275540569605 0 -0.042664560016495219 -0.027317402742408035 0 -0.043199799526793009 -0.026782213924317979 0 -0.041830134600202976 -0.027383216951007681 0 -0.042796476726012056 -0.028164275540569605 0 -0.040360193611943575 -0.029262714791832265 0 -0.044389977168859944 -0.025261091400178196 0 -0.043502631868926056 -0.025369883927218933 0 -0.043514087324950886 -0.025970148881167266 0 -0.042796476726012056 -0.028164275540569605 0 -0.043199799526793009 -0.026782213924317979 0 -0.044389977168859944 -0.025261091400178196 0 -0.044389977168859944 -0.025261091400178196 0 -0.043502631868926056 -0.025369883927218933 0 -0.043941347100099358 -0.024152129539518865 0 -0.042925661476831321 -0.025145660621045854 0 -0.043502631868926056 -0.025369883927218933 0 -0.043941347100099358 -0.024152129539518865 0 -0.042925661476831321 -0.025145660621045854 0 -0.043502631868926056 -0.025369883927218933 0 -0.043000671450801831 -0.026101859125720848 0 -0.043502631868926056 -0.025369883927218933 0 -0.043514087324950886 -0.025970148881167266 0 -0.043000671450801831 -0.026101859125720848 0 -0.043199799526793009 -0.026782213924317979 0 -0.043514087324950886 -0.025970148881167266 0 -0.043000671450801831 -0.026101859125720848 0 -0.043199799526793009 -0.026782213924317979 0 -0.044389977168859944 -0.025261091400178196 0 -0.043514087324950886 -0.025970148881167266 0 -0.040360193611943575 -0.029262714791832265 0 -0.037860500712278047 -0.030475657511855186 0 -0.039069876952577944 -0.033683790275547687 0 -0.039819411225959715 -0.02796413559839854 0 -0.040360193611943575 -0.029262714791832265 0 -0.037860500712278047 -0.030475657511855186 0 -0.043380278335728661 -0.02507026792820528 0 -0.03536000235319009 -0.027345962293213073 0 -0.037860500712278047 -0.030475657511855186 0 -0.039069876952577944 -0.033683790275547687 0 -0.035216301779370809 -0.032029399511020039 0 -0.043380278335728661 -0.02507026792820528 0 -0.046060704691442855 -0.024320600981693485 0 -0.042972118530079498 -0.023271423206458024 0 -0.043941347100099358 -0.024152129539518865 0 -0.044538544086623416 -0.022737245434115413 0 -0.043941347100099358 -0.024152129539518865 0 -0.045407432377124912 -0.023335119239611984 0 -0.044538544086623416 -0.022737245434115413 0 -0.044389977168859944 -0.025261091400178196 0 -0.043941347100099358 -0.024152129539518865 0 -0.045407432377124912 -0.023335119239611984 0 -0.044389977168859944 -0.025261091400178196 0 -0.048545613434311713 -0.022541612680083613 0 -0.045407432377124912 -0.023335119239611984 0 -0.047641886047215892 -0.022335524096255215 0 -0.046435020070090711 -0.022089974241881534 0 -0.046862957212458534 -0.020395632193252765 0 -0.046435020070090711 -0.022089974241881534 0 -0.045227821299116691 -0.021001689842445909 0 -0.046862957212458534 -0.020395632193252765 0 -0.045407432377124912 -0.023335119239611984 0 -0.046435020070090711 -0.022089974241881534 0 -0.044538544086623416 -0.022737245434115413 0 -0.048545613434311713 -0.022541612680083613 0 -0.045407432377124912 -0.023335119239611984 0 -0.046435020070090711 -0.022089974241881534 0 -0.043898387472668256 -0.0215910407674334 0 -0.044538544086623416 -0.022737245434115413 0 -0.045227821299116691 -0.021001689842445909 0 -0.043898387472668256 -0.0215910407674334 0 -0.042972118530079498 -0.023271423206458024 0 -0.044538544086623416 -0.022737245434115413 0 -0.046435020070090711 -0.022089974241881534 0 -0.044538544086623416 -0.022737245434115413 0 -0.045227821299116691 -0.021001689842445909 0 -0.043898387472668256 -0.0215910407674334 0 -0.045227821299116691 -0.021001689842445909 0 -0.044183449588588178 -0.01970322975697085 0 -0.045227821299116691 -0.021001689842445909 0 -0.045816373402368382 -0.019593227697149669 0 -0.044183449588588178 -0.01970322975697085 0 -0.045227821299116691 -0.021001689842445909 0 -0.046862957212458534 -0.020395632193252765 0 -0.045816373402368382 -0.019593227697149669 0 -0.045816373402368382 -0.019593227697149669 0 -0.045638925860339304 -0.018072284441969483 0 -0.047093513075233726 -0.018859058325148885 0 -0.046862957212458534 -0.020395632193252765 0 -0.045816373402368382 -0.019593227697149669 0 -0.047093513075233726 -0.018859058325148885 0 -0.045816373402368382 -0.019593227697149669 0 -0.045638925860339304 -0.018072284441969483 0 -0.044183449588588178 -0.01970322975697085 0 -0.045638925860339304 -0.018072284441969483 0 -0.043330687958249597 -0.017884441045444437 0 -0.044183449588588178 -0.01970322975697085 0 -0.047641886047215892 -0.022335524096255215 0 -0.048142691375510159 -0.019287263011611093 0 -0.050460836879105797 -0.018088413362861433 0 -0.047641886047215892 -0.022335524096255215 0 -0.046862957212458534 -0.020395632193252765 0 -0.048142691375510159 -0.019287263011611093 0 -0.043380278335728661 -0.02507026792820528 0 -0.04178866983309254 -0.022060820310191964 0 -0.046862957212458534 -0.020395632193252765 0 -0.048142691375510159 -0.019287263011611093 0 -0.047093513075233726 -0.018859058325148885 0 -0.048142691375510159 -0.019287263011611093 0 -0.047093513075233726 -0.018859058325148885 0 -0.048637751596371862 -0.016885392702277079 0 -0.045638925860339304 -0.018072284441969483 0 -0.047093513075233726 -0.018859058325148885 0 -0.048637751596371862 -0.016885392702277079 0 -0.046232967503982661 -0.015451342012328466 0 -0.04178866983309254 -0.022060820310191964 0 -0.048142691375510159 -0.019287263011611093 0 -0.048637751596371862 -0.016885392702277079 0 -0.050460836879105797 -0.018088413362861433 0 -0.046232967503982661 -0.015451342012328466 0 -0.043774696606856678 -0.0092860007056699435 0 -0.046232967503982661 -0.015451342012328466 0 -0.045895169453377307 -0.016347252865804553 0 -0.050457539049430886 -0.016241958193464467 0 -0.044264172281926209 -0.015974551236542733 0 -0.046018474075546385 -0.013493947054438056 0 -0.045638925860339304 -0.018072284441969483 0 -0.048637751596371862 -0.016885392702277079 0 -0.044264172281926209 -0.015974551236542733 0 -0.045638925860339304 -0.018072284441969483 0 -0.044264172281926209 -0.015974551236542733 0 -0.043330687958249597 -0.017884441045444437 0 -0.044264172281926209 -0.015974551236542733 0 -0.043330687958249597 -0.017884441045444437 0 -0.041699824949575262 -0.015473136840270064 0 -0.043330687958249597 -0.017884441045444437 0 -0.041699824949575262 -0.015473136840270064 0 -0.041233262489182132 -0.018459701158146595 0 -0.044264172281926209 -0.015974551236542733 0 -0.041699824949575262 -0.015473136840270064 0 -0.042930018335581126 -0.013362983938132043 0 -0.041699824949575262 -0.015473136840270064 0 -0.039236238779471952 -0.015001516535803068 0 -0.040440987102567633 -0.012960534361962638 0 -0.041699824949575262 -0.015473136840270064 0 -0.039236238779471952 -0.015001516535803068 0 -0.039769955624671005 -0.01714625160188836 0 -0.039236238779471952 -0.015001516535803068 0 -0.039769955624671005 -0.01714625160188836 0 -0.037383021535930851 -0.016764520449735209 0 -0.041699824949575262 -0.015473136840270064 0 -0.039769955624671005 -0.01714625160188836 0 -0.041233262489182132 -0.018459701158146595 0 -0.039769955624671005 -0.01714625160188836 0 -0.041233262489182132 -0.018459701158146595 0 -0.038767219396722494 -0.019183265411399253 0 -0.038881248416721088 -0.021213197465768299 0 -0.038767219396722494 -0.019183265411399253 0 -0.040774334558149217 -0.021108850451900647 0 -0.041233262489182132 -0.018459701158146595 0 -0.038767219396722494 -0.019183265411399253 0 -0.040774334558149217 -0.021108850451900647 0 -0.041233262489182132 -0.018459701158146595 0 -0.040774334558149217 -0.021108850451900647 0 -0.042410973252129336 -0.0197061750924084 0 -0.042611970322725526 -0.021314081658865131 0 -0.040774334558149217 -0.021108850451900647 0 -0.042410973252129336 -0.0197061750924084 0 -0.042611970322725526 -0.021314081658865131 0 -0.042410973252129336 -0.0197061750924084 0 -0.044183449588588178 -0.01970322975697085 0 -0.043898387472668256 -0.0215910407674334 0 -0.042611970322725526 -0.021314081658865131 0 -0.044183449588588178 -0.01970322975697085 0 -0.043330687958249597 -0.017884441045444437 0 -0.042410973252129336 -0.0197061750924084 0 -0.044183449588588178 -0.01970322975697085 0 -0.043330687958249597 -0.017884441045444437 0 -0.041233262489182132 -0.018459701158146595 0 -0.042410973252129336 -0.0197061750924084 0 -0.026949616739963368 -0.024842931955828772 0 -0.025199999739922457 -0.020231755251457227 0 -0.021242280748173335 -0.024374371040659114 0 -0.033200038506851583 -0.033432998750782116 0 -0.027531659507536447 -0.031841268663049059 0 -0.034336699883643559 -0.030671188392203032 0 -0.033717467660120369 -0.031061319564765915 0 -0.034157729698174717 -0.031165006343067087 0 -0.027531659507536447 -0.031841268663049059 0 -0.032783930501700372 -0.025600798076436903 0 -0.034473296812343783 -0.030503076849969914 0 -0.034336699883643559 -0.030671188392203032 0 -0.034157729698174717 -0.031165006343067087 0 -0.026949616739963368 -0.024842931955828772 0 -0.03070026988386922 -0.021047922562815943 0 -0.032739091976278709 -0.025520757304409326 0 -0.026949616739963368 -0.024842931955828772 0 -0.025199999739922457 -0.020231755251457227 0 -0.03070026988386922 -0.021047922562815943 0 -0.032783930501700372 -0.025600798076436903 0 -0.03536000235319009 -0.027345962293213073 0 -0.03070026988386922 -0.021047922562815943 0 -0.036335949102672502 -0.022012600763153325 0 -0.032739091976278709 -0.025520757304409326 0 -0.034473296812343783 -0.030503076849969914 0 -0.034157729698174717 -0.031165006343067087 0 -0.035216301779370809 -0.032029399511020039 0 -0.035378127179179937 -0.029726634049128377 0 -0.034473296812343783 -0.030503076849969914 0 -0.035216301779370809 -0.032029399511020039 0 -0.035378127179179937 -0.029726634049128377 0 -0.037860500712278047 -0.030475657511855186 0 -0.035216301779370809 -0.032029399511020039 0 -0.036335949102672502 -0.022012600763153325 0 -0.036579033727938907 -0.026035344128224676 0 -0.032739091976278709 -0.025520757304409326 0 -0.042052432189466776 -0.023123972237059458 0 -0.036335949102672502 -0.022012600763153325 0 -0.036579033727938907 -0.026035344128224676 0 -0.042052432189466776 -0.023123972237059458 0 -0.036579033727938907 -0.026035344128224676 0 -0.03787993789961866 -0.028945532420361828 0 -0.036579033727938907 -0.026035344128224676 0 -0.036799513290085052 -0.028332306187418478 0 -0.034296368964689489 -0.028171557228756184 0 -0.036579033727938907 -0.026035344128224676 0 -0.036799513290085052 -0.028332306187418478 0 -0.03787993789961866 -0.028945532420361828 0 -0.039783038015238074 -0.016481429993127489 0 -0.040662487033854375 -0.0047445623560743114 0 -0.036799513290085052 -0.028332306187418478 0 -0.037867700047505191 -0.028941120018381047 0 -0.036827943037151499 -0.030389158172682139 0 -0.044490179781668936 -0.020340732739784026 0 -0.040311237988136038 -0.017837052186832254 0 -0.038728033422922428 -0.020068703586728978 0 -0.040599482975589622 -0.023347157933812774 0 -0.04178866983309254 -0.022060820310191964 0 -0.04178866983309254 -0.022060820310191964 0 -0.039783038015238074 -0.016481429993127489 0 -0.043035919439161394 -0.0069004928992389882 0 -0.0439777109150635 -0.0069553320769858021 0 -0.043506290533310329 -0.0062261386213504659 0 -0.046232967503982661 -0.015451342012328466 0 -0.039783038015238074 -0.016481429993127489 0 -0.036799513290085052 -0.028332306187418478 0 -0.036827943037151499 -0.030389158172682139 0 -0.034296368964689489 -0.028171557228756184 0 -0.039783038015238074 -0.016481429993127489 0 -0.032853640390783638 -0.020848898278201793 0 -0.039127552267144115 -0.011323927814567399 0 -0.034943084164416556 -0.011073086495680923 0 -0.037053773186282966 -0.014217307040418313 0 -0.036827943037151499 -0.030389158172682139 0 -0.031353388700474716 -0.030131126335817632 0 -0.034296368964689489 -0.028171557228756184 0 -0.031353388700474716 -0.030131126335817632 0 -0.034296368964689489 -0.028171557228756184 0 -0.032739091976278709 -0.025520757304409326 0 -0.036579033727938907 -0.026035344128224676 0 -0.034296368964689489 -0.028171557228756184 0 -0.032739091976278709 -0.025520757304409326 0 -0.026949616739963368 -0.024842931955828772 0 -0.031353388700474716 -0.030131126335817632 0 -0.032739091976278709 -0.025520757304409326 0 -0.026949616739963368 -0.024842931955828772 0 -0.031353388700474716 -0.030131126335817632 0 -0.026075454907622378 -0.029819404190581784 0 -0.032853640390783638 -0.020848898278201793 0 -0.028190702804357096 -0.021161626453378986 0 -0.034943084164416556 -0.011073086495680923 0 -0.031763924465158126 -0.012424232893140343 0 -0.030681334975816293 -0.010803727235103006 0 -0.034943084164416556 -0.011073086495680923 0 -0.031763924465158126 -0.012424232893140343 0 -0.037053773186282966 -0.014217307040418313 0 -0.031763924465158126 -0.012424232893140343 0 -0.030681334975816293 -0.010803727235103006 0 -0.026349935891196753 -0.010546158774286956 0 -0.03358036149888869 -0.0044878828068566296 0 -0.025454556051135092 -0.0080413603572081407 0 -0.026949616739963368 -0.024842931955828772 0 -0.023780689827395719 -0.027065657201860615 0 -0.021242280748173335 -0.024374371040659114 0 -0.026949616739963368 -0.024842931955828772 0 -0.026075454907622378 -0.029819404190581784 0 -0.023780689827395719 -0.027065657201860615 0 -0.035316579089383904 -0.0014750485733455426 0 -0.032274689291366676 -0.0044517789638494577 0 -0.031052737352035242 -0.0019343563566202658 0 -0.035316579089383904 -0.0014750485733455426 0 -0.032274689291366676 -0.0044517789638494577 0 -0.035744551063802678 -0.0048689610366428318 0 -0.035163757677009279 0.0027022684300683966 0 -0.035316579089383904 -0.0014750485733455426 0 -0.031052737352035242 -0.0019343563566202658 0 -0.035163757677009279 0.0027022684300683966 0 -0.02935405708575424 0.00090347689789870554 0 -0.031052737352035242 -0.0019343563566202658 0 -0.035163757677009279 0.0027022684300683966 0 -0.035316579089383904 -0.0014750485733455426 0 -0.041898328977950594 0.00065212884411128226 0 -0.03358036149888869 -0.0044878828068566296 0 -0.040662487033854375 -0.0047445623560743114 0 -0.035316579089383904 -0.0014750485733455426 0 -0.039320376539318282 -0.0030996859394341824 0 -0.035744551063802678 -0.0048689610366428318 0 -0.035316579089383904 -0.0014750485733455426 0 -0.039320376539318282 -0.0030996859394341824 0 -0.041898328977950594 0.00065212884411128226 0 -0.039320376539318282 -0.0030996859394341824 0 -0.037947307534706619 -0.0054922065643460659 0 -0.035744551063802678 -0.0048689610366428318 0 -0.039320376539318282 -0.0030996859394341824 0 -0.041637351296179195 -0.0032911981931192636 0 -0.041934943681065935 -0.0044714108665802801 0 -0.039320376539318282 -0.0030996859394341824 0 -0.041637351296179195 -0.0032911981931192636 0 -0.041232553878721226 -0.00210562390292807 0 -0.040225747895743555 -0.0017779041751536874 0 -0.040662487033854375 -0.0047445623560743114 0 -0.040662487033854375 -0.0047445623560743114 0 -0.043146577796328453 -0.0044339588369981071 0 -0.04466951591438445 -0.0059236512991445124 0 -0.043506290533310329 -0.0062261386213504659 0 -0.043184867569723159 -0.0053193019400289568 0 -0.0439777109150635 -0.0069553320769858021 0 -0.04466951591438445 -0.0059236512991445124 0 -0.043506290533310329 -0.0062261386213504659 0 -0.041637351296179195 -0.0032911981931192636 0 -0.041232553878721226 -0.00210562390292807 0 -0.042410339504635838 -0.0036052477226197546 0 -0.041637351296179195 -0.0032911981931192636 0 -0.042194271819287532 -0.0037792967140964904 0 -0.042410339504635838 -0.0036052477226197546 0 -0.041637351296179195 -0.0032911981931192636 0 -0.042194271819287532 -0.0037792967140964904 0 -0.041934943681065935 -0.0044714108665802801 0 -0.042194271819287532 -0.0037792967140964904 0 -0.042262662048225826 -0.003570734288845977 0 -0.041934943681065935 -0.0044714108665802801 0 -0.042290039656627337 -0.0034482899366777508 0 -0.042262662048225826 -0.003570734288845977 0 -0.041934943681065935 -0.0044714108665802801 0 -0.042262662048225826 -0.003570734288845977 0 -0.042457838918976906 -0.0027212805593860483 0 -0.042359371382493641 -0.002772585510733437 0 -0.042457838918976906 -0.0027212805593860483 0 -0.04246752785113201 -0.0021461919989618963 0 -0.042605444292180383 -0.0020643492070868967 0 -0.042457838918976906 -0.0027212805593860483 0 -0.042359371382493641 -0.002772585510733437 0 -0.04246752785113201 -0.0021461919989618963 0 -0.042457838918976906 -0.0027212805593860483 0 -0.042897899400779788 -0.0023162496587966195 0 -0.042605444292180383 -0.0020643492070868967 0 -0.042290039656627337 -0.0034482899366777508 0 -0.042262662048225826 -0.003570734288845977 0 -0.042457838918976906 -0.0027212805593860483 0 -0.042290039656627337 -0.0034482899366777508 0 -0.042457838918976906 -0.0027212805593860483 0 -0.042627336496699239 -0.0030331338476576727 0 -0.042457838918976906 -0.0027212805593860483 0 -0.042627336496699239 -0.0030331338476576727 0 -0.042897899400779788 -0.0023162496587966195 0 -0.042627336496699239 -0.0030331338476576727 0 -0.042897899400779788 -0.0023162496587966195 0 -0.04305498070896565 -0.0027145339911953548 0 -0.042897899400779788 -0.0023162496587966195 0 -0.043362593280683148 -0.0024864806084849088 0 -0.043541251696846139 -0.0021889505772500371 0 -0.042897899400779788 -0.0023162496587966195 0 -0.04305498070896565 -0.0027145339911953548 0 -0.043362593280683148 -0.0024864806084849088 0 -0.042627336496699239 -0.0030331338476576727 0 -0.04305498070896565 -0.0027145339911953548 0 -0.043508468572196993 -0.0033536968749844653 0 -0.04305498070896565 -0.0027145339911953548 0 -0.043508468572196993 -0.0033536968749844653 0 -0.043362593280683148 -0.0024864806084849088 0 -0.041934943681065935 -0.0044714108665802801 0 -0.037947307534706619 -0.0054922065643460659 0 -0.038790608554394097 -0.0077197447398721624 0 -0.039320376539318282 -0.0030996859394341824 0 -0.041934943681065935 -0.0044714108665802801 0 -0.037947307534706619 -0.0054922065643460659 0 -0.042627336496699239 -0.0030331338476576727 0 -0.041934943681065935 -0.0044714108665802801 0 -0.043508468572196993 -0.0033536968749844653 0 -0.04168495104689747 -0.0048158173274862725 0 -0.041386290770677743 -0.0049377229054502888 0 -0.042290039656627337 -0.0034482899366777508 0 -0.042627336496699239 -0.0030331338476576727 0 -0.041934943681065935 -0.0044714108665802801 0 -0.037947307534706619 -0.0054922065643460659 0 -0.035744551063802678 -0.0048689610366428318 0 -0.036064899816985845 -0.0075041778842196158 0 -0.037947307534706619 -0.0054922065643460659 0 -0.036064899816985845 -0.0075041778842196158 0 -0.038790608554394097 -0.0077197447398721624 0 -0.043508468572196993 -0.0033536968749844653 0 -0.043362593280683148 -0.0024864806084849088 0 -0.044125427386517584 -0.0026258637114320925 0 -0.043362593280683148 -0.0024864806084849088 0 -0.044125427386517584 -0.0026258637114320925 0 -0.0435316081686394 -0.00216061978041392 0 -0.037502968883575814 0.0027062454113198006 0 -0.036079746832920978 0.0076838584301901899 0 -0.024743695888943967 0.0089390472192174397 0 -0.036079746832920978 0.0076838584301901899 0 -0.041386290770677743 -0.0049377229054502888 0 -0.024743695888943967 0.0089390472192174397 0 -0.036064899816985845 -0.0075041778842196158 0 -0.038790608554394097 -0.0077197447398721624 0 -0.035467382751693526 -0.01004693318512381 0 -0.036064899816985845 -0.0075041778842196158 0 -0.035467382751693526 -0.01004693318512381 0 -0.034119474920763504 -0.0068121982771703251 0 -0.0087680482430874482 0.019804848547845588 0 -0.010485849004813976 0.019659664738597139 0 -0.011502482090825472 0.022065299040604325 0 -0.0087680482430874482 0.019804848547845588 0 -0.010485849004813976 0.019659664738597139 0 -0.011153053435103052 0.017850168988317219 0 -0.024743695888943967 0.0089390472192174397 0 -0.020652767102565903 0.005130346560834673 0 -0.035467382751693526 -0.01004693318512381 0 -0.034119474920763504 -0.0068121982771703251 0 -0.030934483419390781 -0.00692339663803035 0 -0.035744551063802678 -0.0048689610366428318 0 -0.036064899816985845 -0.0075041778842196158 0 -0.034119474920763504 -0.0068121982771703251 0 -0.032274689291366676 -0.0044517789638494577 0 -0.035744551063802678 -0.0048689610366428318 0 -0.034119474920763504 -0.0068121982771703251 0 -0.032274689291366676 -0.0044517789638494577 0 -0.034119474920763504 -0.0068121982771703251 0 -0.030934483419390781 -0.00692339663803035 0 -0.040647381296322067 -0.0052068626751828728 0 -0.041197322400584373 -0.0051171749271283753 0 -0.040909077922510688 -0.0047876177874838334 0 -0.041197322400584373 -0.0051171749271283753 0 -0.040909077922510688 -0.0047876177874838334 0 -0.041613788942057403 -0.004620546300561865 0 -0.040909077922510688 -0.0047876177874838334 0 -0.041613788942057403 -0.004620546300561865 0 -0.041051685789306604 -0.0042320843111143796 0 -0.040909077922510688 -0.0047876177874838334 0 -0.040500760991587233 -0.0050675299672193596 0 -0.040566956666260492 -0.0046269264845263253 0 -0.040647381296322067 -0.0052068626751828728 0 -0.040909077922510688 -0.0047876177874838334 0 -0.040500760991587233 -0.0050675299672193596 0 -0.041379801880561368 -0.0077013848367815411 0 -0.039667022841990703 -0.0057740127938480457 0 -0.040647381296322067 -0.0052068626751828728 0 -0.040500760991587233 -0.0050675299672193596 0 -0.039872578550868461 -0.0056229725325165399 0 -0.04212984225034206 -0.010350586214643036 0 -0.04115646850565087 -0.0089743254821436184 0 -0.039872578550868461 -0.0056229725325165399 0 -0.040500760991587233 -0.0050675299672193596 0 -0.040566956666260492 -0.0046269264845263253 0 -0.039872578550868461 -0.0056229725325165399 0 -0.04212984225034206 -0.010350586214643036 0 -0.04115646850565087 -0.0089743254821436184 0 -0.041241102433052193 -0.010997224786839335 0 -0.04115646850565087 -0.0089743254821436184 0 -0.041241102433052193 -0.010997224786839335 0 -0.039964517558156283 -0.011472264398943008 0 -0.04212984225034206 -0.010350586214643036 0 -0.041241102433052193 -0.010997224786839335 0 -0.041771504030390511 -0.012470059333232423 0 -0.041241102433052193 -0.010997224786839335 0 -0.041771504030390511 -0.012470059333232423 0 -0.040440987102567633 -0.012960534361962638 0 -0.041241102433052193 -0.010997224786839335 0 -0.039964517558156283 -0.011472264398943008 0 -0.040440987102567633 -0.012960534361962638 0 -0.04115646850565087 -0.0089743254821436184 0 -0.039964517558156283 -0.011472264398943008 0 -0.038217185432439349 -0.011270342191734398 0 -0.039964517558156283 -0.011472264398943008 0 -0.038910931281237973 -0.012885841669400749 0 -0.038217185432439349 -0.011270342191734398 0 -0.039964517558156283 -0.011472264398943008 0 -0.038910931281237973 -0.012885841669400749 0 -0.040440987102567633 -0.012960534361962638 0 -0.039236238779471952 -0.015001516535803068 0 -0.038910931281237973 -0.012885841669400749 0 -0.040440987102567633 -0.012960534361962638 0 -0.041699824949575262 -0.015473136840270064 0 -0.041771504030390511 -0.012470059333232423 0 -0.040440987102567633 -0.012960534361962638 0 -0.041379801880561368 -0.0077013848367815411 0 -0.043774696606856678 -0.0092860007056699435 0 -0.041699824949575262 -0.015473136840270064 0 -0.041771504030390511 -0.012470059333232423 0 -0.042930018335581126 -0.013362983938132043 0 -0.040647381296322067 -0.0052068626751828728 0 -0.041197322400584373 -0.0051171749271283753 0 -0.041714596690182043 -0.0060048279444339121 0 -0.04212984225034206 -0.010350586214643036 0 -0.042930018335581126 -0.013362983938132043 0 -0.046018474075546385 -0.013493947054438056 0 -0.04212984225034206 -0.010350586214643036 0 -0.041771504030390511 -0.012470059333232423 0 -0.042930018335581126 -0.013362983938132043 0 -0.044264172281926209 -0.015974551236542733 0 -0.042930018335581126 -0.013362983938132043 0 -0.046018474075546385 -0.013493947054438056 0 -0.041714596690182043 -0.0060048279444339121 0 -0.042630499061246815 -0.0060331182972911297 0 -0.041613788942057403 -0.004620546300561865 0 -0.042630499061246815 -0.0060331182972911297 0 -0.043184867569723159 -0.0053193019400289568 0 -0.041613788942057403 -0.004620546300561865 0 -0.043035919439161394 -0.0069004928992389882 0 -0.041714596690182043 -0.0060048279444339121 0 -0.042630499061246815 -0.0060331182972911297 0 -0.043035919439161394 -0.0069004928992389882 0 -0.043506290533310329 -0.0062261386213504659 0 -0.042630499061246815 -0.0060331182972911297 0 -0.043506290533310329 -0.0062261386213504659 0 -0.042630499061246815 -0.0060331182972911297 0 -0.043184867569723159 -0.0053193019400289568 0 -0.042194271819287532 -0.0037792967140964904 0 -0.042410339504635838 -0.0036052477226197546 0 -0.042192584880879298 -0.0038462528400485386 0 -0.042410339504635838 -0.0036052477226197546 0 -0.041613788942057403 -0.004620546300561865 0 -0.042192584880879298 -0.0038462528400485386 0 -0.041197322400584373 -0.0051171749271283753 0 -0.041714596690182043 -0.0060048279444339121 0 -0.041613788942057403 -0.004620546300561865 0 -0.043146577796328453 -0.0044339588369981071 0 -0.041476901722060623 -0.0044968451167846177 0 -0.041613788942057403 -0.004620546300561865 0 -0.041660999729006422 -0.0038418297428528055 0 -0.042192584880879298 -0.0038462528400485386 0 -0.041613788942057403 -0.004620546300561865 0 -0.041660999729006422 -0.0038418297428528055 0 -0.041051685789306604 -0.0042320843111143796 0 -0.041660999729006422 -0.0038418297428528055 0 -0.04103287010065744 -0.0036212803871614671 0 -0.041051685789306604 -0.0042320843111143796 0 -0.042194271819287532 -0.0037792967140964904 0 -0.042262662048225826 -0.003570734288845977 0 -0.042192584880879298 -0.0038462528400485386 0 -0.041660999729006422 -0.0038418297428528055 0 -0.042192584880879298 -0.0038462528400485386 0 -0.042168775486287641 -0.0032802101065745985 0 -0.042262662048225826 -0.003570734288845977 0 -0.042192584880879298 -0.0038462528400485386 0 -0.042168775486287641 -0.0032802101065745985 0 -0.042262662048225826 -0.003570734288845977 0 -0.042168775486287641 -0.0032802101065745985 0 -0.042359371382493641 -0.002772585510733437 0 -0.042168775486287641 -0.0032802101065745985 0 -0.042359371382493641 -0.002772585510733437 0 -0.042350718865343397 -0.0023944854550969736 0 -0.042168775486287641 -0.0032802101065745985 0 -0.042350718865343397 -0.0023944854550969736 0 -0.041894553251563958 -0.0028039536375157807 0 -0.042350718865343397 -0.0023944854550969736 0 -0.041894553251563958 -0.0028039536375157807 0 -0.042210582343750788 -0.0020327557295566436 0 -0.042359371382493641 -0.002772585510733437 0 -0.042350718865343397 -0.0023944854550969736 0 -0.04246752785113201 -0.0021461919989618963 0 -0.041660999729006422 -0.0038418297428528055 0 -0.041894553251563958 -0.0028039536375157807 0 -0.04103287010065744 -0.0036212803871614671 0 -0.041894553251563958 -0.0028039536375157807 0 -0.041569340183049412 -0.0023444864344694164 0 -0.04103287010065744 -0.0036212803871614671 0 -0.041660999729006422 -0.0038418297428528055 0 -0.042168775486287641 -0.0032802101065745985 0 -0.041894553251563958 -0.0028039536375157807 0 -0.041894553251563958 -0.0028039536375157807 0 -0.042210582343750788 -0.0020327557295566436 0 -0.041569340183049412 -0.0023444864344694164 0 -0.041569340183049412 -0.0023444864344694164 0 -0.040260851230429759 -0.0022409980849264336 0 -0.04103287010065744 -0.0036212803871614671 0 -0.042586221641059754 -0.0022295089020054758 0 -0.041226528739935715 -0.0033297656301232142 0 -0.040970383682119547 -0.0033541671929348542 0 -0.04103287010065744 -0.0036212803871614671 0 -0.040771945455583235 -0.0039553181700308368 0 -0.04103287010065744 -0.0036212803871614671 0 -0.040771945455583235 -0.0039553181700308368 0 -0.041051685789306604 -0.0042320843111143796 0 -0.040771945455583235 -0.0039553181700308368 0 -0.041051685789306604 -0.0042320843111143796 0 -0.040566956666260492 -0.0046269264845263253 0 -0.040909077922510688 -0.0047876177874838334 0 -0.041051685789306604 -0.0042320843111143796 0 -0.040566956666260492 -0.0046269264845263253 0 -0.040771945455583235 -0.0039553181700308368 0 -0.040566956666260492 -0.0046269264845263253 0 -0.040118071387350081 -0.0040963320218560121 0 -0.040566956666260492 -0.0046269264845263253 0 -0.040118071387350081 -0.0040963320218560121 0 -0.039872578550868461 -0.0056229725325165399 0 -0.040970383682119547 -0.0033541671929348542 0 -0.040771945455583235 -0.0039553181700308368 0 -0.040118071387350081 -0.0040963320218560121 0 -0.047016135335154897 -0.0030630510078291542 0 -0.047001898054061221 -0.002780442014548671 0 -0.047094633299084761 -0.0030942995228844931 0 -0.042586221641059754 -0.0022295089020054758 0 -0.043960678215532664 -0.0034549821869563728 0 -0.047001898054061221 -0.002780442014548671 0 -0.047183991693776003 -0.0031084802879011511 0 -0.047094633299084761 -0.0030942995228844931 0 -0.047001898054061221 -0.002780442014548671 0 -0.047488645169581657 -0.0028259962432181291 0 -0.047647637424073075 -0.0019058435795259146 0 -0.047001898054061221 -0.002780442014548671 0 -0.047488645169581657 -0.0028259962432181291 0 -0.047183991693776003 -0.0031084802879011511 0 -0.047488645169581657 -0.0028259962432181291 0 -0.048306766895174005 -0.0026479618862431803 0 -0.047647637424073075 -0.0019058435795259146 0 -0.048306766895174005 -0.0026479618862431803 0 -0.049026293466203061 -0.0033420509987270581 0 -0.048021611198932654 -0.0031934731919036966 0 -0.047488645169581657 -0.0028259962432181291 0 -0.048306766895174005 -0.0026479618862431803 0 -0.048021611198932654 -0.0031934731919036966 0 -0.047488645169581657 -0.0028259962432181291 0 -0.048021611198932654 -0.0031934731919036966 0 -0.047453516816897981 -0.0031819851810753834 0 -0.048306766895174005 -0.0026479618862431803 0 -0.047647637424073075 -0.0019058435795259146 0 -0.049042364537223604 -0.0019780406352956506 0 -0.043960678215532664 -0.0034549821869563728 0 -0.04284058809530842 -0.0036387023089963695 0 -0.040118071387350081 -0.0040963320218560121 0 -0.039160807135685198 -0.0052604679725112898 0 -0.039872578550868461 -0.0056229725325165399 0 -0.039160807135685198 -0.0052604679725112898 0 -0.039872578550868461 -0.0056229725325165399 0 -0.039006382699129025 -0.0058585723968230712 0 -0.04115646850565087 -0.0089743254821436184 0 -0.035323750310434401 -0.010467031664671779 0 -0.038217185432439349 -0.011270342191734398 0 -0.042214856855138809 -0.0087235133480272169 0 -0.034872455491188087 -0.0084244844231401803 0 -0.04115646850565087 -0.0089743254821436184 0 -0.039872578550868461 -0.0056229725325165399 0 -0.039006382699129025 -0.0058585723968230712 0 -0.034872455491188087 -0.0084244844231401803 0 -0.046048303701114061 -0.0068646950462590058 0 -0.039160807135685198 -0.0052604679725112898 0 -0.039321427439551845 -0.0055004092671964381 0 -0.039006382699129025 -0.0058585723968230712 0 -0.039321427439551845 -0.0055004092671964381 0 -0.039006382699129025 -0.0058585723968230712 0 -0.039613565676352512 -0.005245735503098075 0 -0.035323750310434401 -0.010467031664671779 0 -0.033752932969098801 -0.013220239972134437 0 -0.036755932108219903 -0.013639285615673688 0 -0.035323750310434401 -0.010467031664671779 0 -0.033752932969098801 -0.013220239972134437 0 -0.030645633119676621 -0.010818755540743678 0 -0.033752932969098801 -0.013220239972134437 0 -0.036755932108219903 -0.013639285615673688 0 -0.034737472713075576 -0.015654679846097527 0 -0.039236238779471952 -0.015001516535803068 0 -0.038910931281237973 -0.012885841669400749 0 -0.036755932108219903 -0.013639285615673688 0 -0.038910931281237973 -0.012885841669400749 0 -0.036755932108219903 -0.013639285615673688 0 -0.038217185432439349 -0.011270342191734398 0 -0.035323750310434401 -0.010467031664671779 0 -0.036755932108219903 -0.013639285615673688 0 -0.038217185432439349 -0.011270342191734398 0 -0.061428734141237222 -0.005926893652769564 0 -0.062697838160585467 -0.0040827988442213043 0 -0.060358832417645794 -0.0039621785819183419 0 -0.061428734141237222 -0.005926893652769564 0 -0.060358832417645794 -0.0039621785819183419 0 -0.060025215046993735 -0.0055401816122287832 0 -0.061428734141237222 -0.005926893652769564 0 -0.062697838160585467 -0.0040827988442213043 0 -0.063101065068171813 -0.0067913941809592347 0 -0.046048303701114061 -0.0068646950462590058 0 -0.047262773391658422 -0.011130147223828258 0 -0.033752932969098801 -0.013220239972134437 0 -0.030645633119676621 -0.010818755540743678 0 -0.031280668556613982 -0.015222857023536179 0 -0.046048303701114061 -0.0068646950462590058 0 -0.047691545537860196 -0.0032782348896511749 0 -0.052314161738436511 -0.0008045068655530411 0 -0.052873890841788444 -0.0015173117551270912 0 -0.052575500766390837 -0.0021758001371889688 0 -0.039160807135685198 -0.0052604679725112898 0 -0.039321427439551845 -0.0055004092671964381 0 -0.039703298018580815 -0.0055067157108985914 0 -0.039321427439551845 -0.0055004092671964381 0 -0.039613565676352512 -0.005245735503098075 0 -0.039703298018580815 -0.0055067157108985914 0 -0.052873890841788444 -0.0015173117551270912 0 -0.052575500766390837 -0.0021758001371889688 0 -0.052984716599220841 -0.0019703465842116717 0 -0.047691545537860196 -0.0032782348896511749 0 -0.049041767069943294 -0.0027255486026586621 0 -0.053133410168711842 -0.0020398633232085422 0 -0.053042074120079469 -0.0020823490982567658 0 -0.052926710022665309 -0.0022606822498759688 0 -0.053133410168711842 -0.0020398633232085422 0 -0.053042074120079469 -0.0020823490982567658 0 -0.052984716599220841 -0.0019703465842116717 0 -0.052314161738436511 -0.0008045068655530411 0 -0.053555901585458129 -0.0015197967394231897 0 -0.055484231368477292 -0.0012408795910749349 0 -0.053180176222920754 -0.0020254194801433418 0 -0.053042074120079469 -0.0020823490982567658 0 -0.052926710022665309 -0.0022606822498759688 0 -0.046048303701114061 -0.0068646950462590058 0 -0.060165560739753182 -0.0023706701353992513 0 -0.053180176222920754 -0.0020254194801433418 0 -0.053428147238343257 -0.0021062967285621322 0 -0.052926710022665309 -0.0022606822498759688 0 -0.053180176222920754 -0.0020254194801433418 0 -0.053042074120079469 -0.0020823490982567658 0 -0.052984716599220841 -0.0019703465842116717 0 -0.053180176222920754 -0.0020254194801433418 0 -0.053428147238343257 -0.0021062967285621322 0 -0.053555901585458129 -0.0015197967394231897 0 -0.053428147238343257 -0.0021062967285621322 0 -0.053555901585458129 -0.0015197967394231897 0 -0.054379715318002252 -0.0019222501841353835 0 -0.053180176222920754 -0.0020254194801433418 0 -0.052984716599220841 -0.0019703465842116717 0 -0.053555901585458129 -0.0015197967394231897 0 -0.052873890841788444 -0.0015173117551270912 0 -0.052984716599220841 -0.0019703465842116717 0 -0.053555901585458129 -0.0015197967394231897 0 -0.052314161738436511 -0.0008045068655530411 0 -0.052873890841788444 -0.0015173117551270912 0 -0.053555901585458129 -0.0015197967394231897 0 -0.053555901585458129 -0.0015197967394231897 0 -0.054379715318002252 -0.0019222501841353835 0 -0.055484231368477292 -0.0012408795910749349 0 -0.054379715318002252 -0.0019222501841353835 0 -0.054155030727782938 -0.0023293730974948477 0 -0.056113425235905401 -0.0022408978613136705 0 -0.054379715318002252 -0.0019222501841353835 0 -0.054155030727782938 -0.0023293730974948477 0 -0.053694926848768754 -0.0022430624145914502 0 -0.053428147238343257 -0.0021062967285621322 0 -0.054379715318002252 -0.0019222501841353835 0 -0.053694926848768754 -0.0022430624145914502 0 -0.053133410168711842 -0.0020398633232085422 0 -0.052492565697225289 -0.0025820602981831277 0 -0.050883301027415395 -0.0032209718133710537 0 -0.053532941782215217 -0.0026459468354240547 0 -0.052569290931053995 -0.0032205784871072373 0 -0.056113425235905401 -0.0022408978613136705 0 -0.054155030727782938 -0.0023293730974948477 0 -0.053532941782215217 -0.0026459468354240547 0 -0.056113425235905401 -0.0022408978613136705 0 -0.054155030727782938 -0.0023293730974948477 0 -0.053532941782215217 -0.0026459468354240547 0 -0.053375821833463101 -0.0024550489959067217 0 -0.053532941782215217 -0.0026459468354240547 0 -0.053375821833463101 -0.0024550489959067217 0 -0.052905404200468679 -0.002642621232094979 0 -0.054155030727782938 -0.0023293730974948477 0 -0.053375821833463101 -0.0024550489959067217 0 -0.053694926848768754 -0.0022430624145914502 0 -0.053211425995382387 -0.0023187667791641775 0 -0.052926710022665309 -0.0022606822498759688 0 -0.052858289402366046 -0.0024879107050625017 0 -0.053133410168711842 -0.0020398633232085422 0 -0.052926710022665309 -0.0022606822498759688 0 -0.052492565697225289 -0.0025820602981831277 0 -0.053428147238343257 -0.0021062967285621322 0 -0.053694926848768754 -0.0022430624145914502 0 -0.053211425995382387 -0.0023187667791641775 0 -0.053428147238343257 -0.0021062967285621322 0 -0.053211425995382387 -0.0023187667791641775 0 -0.052926710022665309 -0.0022606822498759688 0 -0.053375821833463101 -0.0024550489959067217 0 -0.053694926848768754 -0.0022430624145914502 0 -0.053211425995382387 -0.0023187667791641775 0 -0.052926710022665309 -0.0022606822498759688 0 -0.052858289402366046 -0.0024879107050625017 0 -0.052492565697225289 -0.0025820602981831277 0 -0.053375821833463101 -0.0024550489959067217 0 -0.053211425995382387 -0.0023187667791641775 0 -0.052858289402366046 -0.0024879107050625017 0 -0.052858289402366046 -0.0024879107050625017 0 -0.052905404200468679 -0.002642621232094979 0 -0.052492565697225289 -0.0025820602981831277 0 -0.053375821833463101 -0.0024550489959067217 0 -0.052858289402366046 -0.0024879107050625017 0 -0.052905404200468679 -0.002642621232094979 0 -0.052905404200468679 -0.002642621232094979 0 -0.052492565697225289 -0.0025820602981831277 0 -0.052430146402163008 -0.0029092675290975437 0 -0.052492565697225289 -0.0025820602981831277 0 -0.052430146402163008 -0.0029092675290975437 0 -0.050883301027415395 -0.0032209718133710537 0 -0.053532941782215217 -0.0026459468354240547 0 -0.052430146402163008 -0.0029092675290975437 0 -0.052569290931053995 -0.0032205784871072373 0 -0.053532941782215217 -0.0026459468354240547 0 -0.052905404200468679 -0.002642621232094979 0 -0.052430146402163008 -0.0029092675290975437 0 -0.047691545537860196 -0.0032782348896511749 0 -0.051883413723561297 -0.002604720944076792 0 -0.047647637424073075 -0.0019058435795259146 0 -0.049435221212035425 -0.00059512024855847359 0 -0.049042364537223604 -0.0019780406352956506 0 -0.04284058809530842 -0.0036387023089963695 0 -0.047691545537860196 -0.0032782348896511749 0 -0.049435221212035425 -0.00059512024855847359 0 -0.049042364537223604 -0.0019780406352956506 0 -0.050883301027415395 -0.0032209718133710537 0 -0.048306766895174005 -0.0026479618862431803 0 -0.049042364537223604 -0.0019780406352956506 0 -0.049235687971146726 -0.002812572616948947 0 -0.049042364537223604 -0.0019780406352956506 0 -0.049235687971146726 -0.002812572616948947 0 -0.050883301027415395 -0.0032209718133710537 0 -0.049026293466203061 -0.0033420509987270581 0 -0.050883301027415395 -0.0032209718133710537 0 -0.049794729501290692 -0.0038250535039856914 0 -0.049235687971146726 -0.002812572616948947 0 -0.049026293466203061 -0.0033420509987270581 0 -0.050883301027415395 -0.0032209718133710537 0 -0.048306766895174005 -0.0026479618862431803 0 -0.049235687971146726 -0.002812572616948947 0 -0.049026293466203061 -0.0033420509987270581 0 -0.054878657594515941 -0.0021360381512965749 0 -0.055070827553427709 -0.001313963748703335 0 -0.057271138567750839 -0.00065165301050563714 0 -0.057347513115630813 -0.0010471553133045747 0 -0.057710921419044145 0.00027992894299883682 0 -0.052569290931053995 -0.0032205784871072373 0 -0.050883301027415395 -0.0032209718133710537 0 -0.049794729501290692 -0.0038250535039856914 0 -0.057347513115630813 -0.0010471553133045747 0 -0.056993433867907298 -0.00085008059088233505 0 -0.05674748780020325 -0.0013673339732950176 0 -0.057271138567750839 -0.00065165301050563714 0 -0.057347513115630813 -0.0010471553133045747 0 -0.056993433867907298 -0.00085008059088233505 0 -0.057271138567750839 -0.00065165301050563714 0 -0.056995415010182147 -0.00048008963824056706 0 -0.056993433867907298 -0.00085008059088233505 0 -0.052430146402163008 -0.0029092675290975437 0 -0.052569290931053995 -0.0032205784871072373 0 -0.050883301027415395 -0.0032209718133710537 0 -0.057271138567750839 -0.00065165301050563714 0 -0.057095187103335318 -0.00012045497345845921 0 -0.057258202602702986 0.00013890082728538802 0 -0.057743363776289469 0.0001795470159784048 0 -0.055070827553427709 -0.001313963748703335 0 -0.057271138567750839 -0.00065165301050563714 0 -0.056995415010182147 -0.00048008963824056706 0 -0.057095187103335318 -0.00012045497345845921 0 -0.056995415010182147 -0.00048008963824056706 0 -0.057095187103335318 -0.00012045497345845921 0 -0.056871005839321996 -5.2201853416678198e-05 0 -0.056995415010182147 -0.00048008963824056706 0 -0.056742147296784493 -0.00079170239450822918 0 -0.056871005839321996 -5.2201853416678198e-05 0 -0.056742147296784493 -0.00079170239450822918 0 -0.056466455399419746 -0.0010645889130902796 0 -0.056556657760817412 5.443856905706179e-05 0 -0.056995415010182147 -0.00048008963824056706 0 -0.056993433867907298 -0.00085008059088233505 0 -0.056742147296784493 -0.00079170239450822918 0 -0.056993433867907298 -0.00085008059088233505 0 -0.056742147296784493 -0.00079170239450822918 0 -0.05674748780020325 -0.0013673339732950176 0 -0.056742147296784493 -0.00079170239450822918 0 -0.056466455399419746 -0.0010645889130902796 0 -0.056527308319035248 -0.0017199778762287568 0 -0.056742147296784493 -0.00079170239450822918 0 -0.056871005839321996 -5.2201853416678198e-05 0 -0.056556657760817412 5.443856905706179e-05 0 -0.056179661108404409 -0.00040288006787625533 0 -0.056466455399419746 -0.0010645889130902796 0 -0.056556657760817412 5.443856905706179e-05 0 -0.056179661108404409 -0.00040288006787625533 0 -0.056466455399419746 -0.0010645889130902796 0 -0.05595970855142525 -0.0013013495399842648 0 -0.056466455399419746 -0.0010645889130902796 0 -0.056673999419300243 -0.0021388339888862118 0 -0.056527308319035248 -0.0017199778762287568 0 -0.056466455399419746 -0.0010645889130902796 0 -0.056673999419300243 -0.0021388339888862118 0 -0.05595970855142525 -0.0013013495399842648 0 -0.057347513115630813 -0.0010471553133045747 0 -0.05674748780020325 -0.0013673339732950176 0 -0.056113425235905401 -0.0022408978613136705 0 -0.054878657594515941 -0.0021360381512965749 0 -0.056008839494970354 -0.0019173827101120011 0 -0.056673999419300243 -0.0021388339888862118 0 -0.056527308319035248 -0.0017199778762287568 0 -0.056113425235905401 -0.0022408978613136705 0 -0.05674748780020325 -0.0013673339732950176 0 -0.056527308319035248 -0.0017199778762287568 0 -0.056113425235905401 -0.0022408978613136705 0 -0.056742147296784493 -0.00079170239450822918 0 -0.05674748780020325 -0.0013673339732950176 0 -0.056527308319035248 -0.0017199778762287568 0 -0.056596064775359771 -0.00071151935787799165 0 -0.054999903611367265 -0.0023317227836974616 0 -0.054999329748859349 0.00061558114949143206 0 -0.056179661108404409 -0.00040288006787625533 0 -0.055148313235817197 -0.00053426434457717507 0 -0.05595970855142525 -0.0013013495399842648 0 -0.056179661108404409 -0.00040288006787625533 0 -0.055148313235817197 -0.00053426434457717507 0 -0.056353550573776098 0.00076888227991959122 0 -0.055148313235817197 -0.00053426434457717507 0 -0.05595970855142525 -0.0013013495399842648 0 -0.055219175066584088 -0.0025451246765476644 0 -0.056673999419300243 -0.0021388339888862118 0 -0.05595970855142525 -0.0013013495399842648 0 -0.055219175066584088 -0.0025451246765476644 0 -0.055877844645969406 -0.00062170256985398867 0 -0.055917511517155224 -0.0031470500366906403 0 -0.056596064775359771 -0.00071151935787799165 0 -0.054999903611367265 -0.0023317227836974616 0 -0.056615829262166142 -0.0037140770866792511 0 -0.056615829262166142 -0.0037140770866792511 0 -0.055967997096336299 -0.0061044868912839886 0 -0.054999655692550817 -0.0052772156145763655 0 -0.054999903611367265 -0.0023317227836974616 0 -0.056615829262166142 -0.0037140770866792511 0 -0.054999655692550817 -0.0052772156145763655 0 -0.055219175066584088 -0.0025451246765476644 0 -0.055967997096336299 -0.0061044868912839886 0 -0.057357970145214661 -0.0035002568213971332 0 -0.055917511517155224 -0.0031470500366906403 0 -0.055961667221161956 -0.005847163110856814 0 -0.055967997096336299 -0.0061044868912839886 0 -0.057357970145214661 -0.0035002568213971332 0 -0.057348560320483501 -0.0065829741259340003 0 -0.055967997096336299 -0.0061044868912839886 0 -0.054999655692550817 -0.0052772156145763655 0 -0.054999217348577378 -0.0082226000131449244 0 -0.060165560739753182 -0.0023706701353992513 0 -0.056295346165612686 -0.0033372948245472523 0 -0.055484231368477292 -0.0012408795910749349 0 -0.056113425235905401 -0.0022408978613136705 0 -0.057357970145214661 -0.0035002568213971332 0 -0.054379715318002252 -0.0019222501841353835 0 -0.055484231368477292 -0.0012408795910749349 0 -0.056113425235905401 -0.0022408978613136705 0 -0.056673999419300243 -0.0021388339888862118 0 -0.055219175066584088 -0.0025451246765476644 0 -0.057357970145214661 -0.0035002568213971332 0 -0.056673999419300243 -0.0021388339888862118 0 -0.056113425235905401 -0.0022408978613136705 0 -0.057357970145214661 -0.0035002568213971332 0 -0.057357970145214661 -0.0035002568213971332 0 -0.058834623375336847 -0.0063775242685365626 0 -0.057348560320483501 -0.0065829741259340003 0 -0.057357970145214661 -0.0035002568213971332 0 -0.060025215046993735 -0.0055401816122287832 0 -0.058834623375336847 -0.0063775242685365626 0 -0.060358832417645794 -0.0039621785819183419 0 -0.057357970145214661 -0.0035002568213971332 0 -0.060025215046993735 -0.0055401816122287832 0 -0.060025215046993735 -0.0055401816122287832 0 -0.060215440339464639 -0.007561371570744573 0 -0.058834623375336847 -0.0063775242685365626 0 -0.060215440339464639 -0.007561371570744573 0 -0.058834623375336847 -0.0063775242685365626 0 -0.058820847746275357 -0.0079587103849000414 0 -0.057348560320483501 -0.0065829741259340003 0 -0.058820847746275357 -0.0079587103849000414 0 -0.057655524724676499 -0.0085761936530123171 0 -0.058834623375336847 -0.0063775242685365626 0 -0.057348560320483501 -0.0065829741259340003 0 -0.058820847746275357 -0.0079587103849000414 0 -0.058820847746275357 -0.0079587103849000414 0 -0.057655524724676499 -0.0085761936530123171 0 -0.058423026089192594 -0.0096765979472895041 0 -0.057655524724676499 -0.0085761936530123171 0 -0.057579875979230005 -0.0098823403055650263 0 -0.058423026089192594 -0.0096765979472895041 0 -0.058423026089192594 -0.0096765979472895041 0 -0.059651566147984059 -0.0091965879256088144 0 -0.059261545557513576 -0.010447560439460093 0 -0.059651566147984059 -0.0091965879256088144 0 -0.060145996547201673 -0.010322084952459154 0 -0.060681587260510095 -0.00927220678517943 0 -0.060215440339464639 -0.007561371570744573 0 -0.059651566147984059 -0.0091965879256088144 0 -0.060681587260510095 -0.00927220678517943 0 -0.060215440339464639 -0.007561371570744573 0 -0.058820847746275357 -0.0079587103849000414 0 -0.059651566147984059 -0.0091965879256088144 0 -0.058820847746275357 -0.0079587103849000414 0 -0.058423026089192594 -0.0096765979472895041 0 -0.059651566147984059 -0.0091965879256088144 0 -0.055967997096336299 -0.0061044868912839886 0 -0.054999217348577378 -0.0082226000131449244 0 -0.056399202700658714 -0.0087173483815739649 0 -0.057348560320483501 -0.0065829741259340003 0 -0.057655524724676499 -0.0085761936530123171 0 -0.056399202700658714 -0.0087173483815739649 0 -0.055967997096336299 -0.0061044868912839886 0 -0.057348560320483501 -0.0065829741259340003 0 -0.056399202700658714 -0.0087173483815739649 0 -0.057579875979230005 -0.0098823403055650263 0 -0.056399202700658714 -0.0087173483815739649 0 -0.056820395479026148 -0.010564490834004884 0 -0.057655524724676499 -0.0085761936530123171 0 -0.057579875979230005 -0.0098823403055650263 0 -0.056399202700658714 -0.0087173483815739649 0 -0.056399202700658714 -0.0087173483815739649 0 -0.054999698295426565 -0.011168990296881504 0 -0.056820395479026148 -0.010564490834004884 0 -0.054999217348577378 -0.0082226000131449244 0 -0.056399202700658714 -0.0087173483815739649 0 -0.054999698295426565 -0.011168990296881504 0 -0.054999698295426565 -0.011168990296881504 0 -0.056820395479026148 -0.010564490834004884 0 -0.056135744065946722 -0.011848017162100512 0 -0.056820395479026148 -0.010564490834004884 0 -0.057119672684812439 -0.011583214144028476 0 -0.056135744065946722 -0.011848017162100512 0 -0.057579875979230005 -0.0098823403055650263 0 -0.056820395479026148 -0.010564490834004884 0 -0.05769605470474691 -0.010955314839550905 0 -0.056820395479026148 -0.010564490834004884 0 -0.057119672684812439 -0.011583214144028476 0 -0.05769605470474691 -0.010955314839550905 0 -0.057119672684812439 -0.011583214144028476 0 -0.056828606800426722 -0.012893675656775681 0 -0.058172363364012644 -0.01181832662134868 0 -0.057119672684812439 -0.011583214144028476 0 -0.056828606800426722 -0.012893675656775681 0 -0.056135744065946722 -0.011848017162100512 0 -0.055000116413745581 -0.014115373672253215 0 -0.056505538895617415 -0.014189111136956924 0 -0.05499981733043096 -0.014114387376997762 0 -0.054999698295426565 -0.011168990296881504 0 -0.056135744065946722 -0.011848017162100512 0 -0.05499981733043096 -0.014114387376997762 0 -0.056828606800426722 -0.012893675656775681 0 -0.056135744065946722 -0.011848017162100512 0 -0.059549974052271179 -0.011212601113430016 0 -0.059008545396787807 -0.011137945396154954 0 -0.059261545557513576 -0.010447560439460093 0 -0.059549974052271179 -0.011212601113430016 0 -0.059008545396787807 -0.011137945396154954 0 -0.059101992063917176 -0.011760412163304279 0 -0.059549974052271179 -0.011212601113430016 0 -0.060493310540220467 -0.011106090892945938 0 -0.060145996547201673 -0.010322084952459154 0 -0.059549974052271179 -0.011212601113430016 0 -0.060493310540220467 -0.011106090892945938 0 -0.060313550380937643 -0.011967073322090674 0 -0.059651566147984059 -0.0091965879256088144 0 -0.060145996547201673 -0.010322084952459154 0 -0.059261545557513576 -0.010447560439460093 0 -0.059549974052271179 -0.011212601113430016 0 -0.060145996547201673 -0.010322084952459154 0 -0.059261545557513576 -0.010447560439460093 0 -0.059008545396787807 -0.011137945396154954 0 -0.059261545557513576 -0.010447560439460093 0 -0.058528175090689312 -0.010756704010677409 0 -0.058423026089192594 -0.0096765979472895041 0 -0.059261545557513576 -0.010447560439460093 0 -0.058528175090689312 -0.010756704010677409 0 -0.057579875979230005 -0.0098823403055650263 0 -0.058423026089192594 -0.0096765979472895041 0 -0.058528175090689312 -0.010756704010677409 0 -0.057579875979230005 -0.0098823403055650263 0 -0.058528175090689312 -0.010756704010677409 0 -0.05769605470474691 -0.010955314839550905 0 -0.058528175090689312 -0.010756704010677409 0 -0.05769605470474691 -0.010955314839550905 0 -0.05825109586994788 -0.011252525856344266 0 -0.057119672684812439 -0.011583214144028476 0 -0.05769605470474691 -0.010955314839550905 0 -0.058172363364012644 -0.01181832662134868 0 -0.05769605470474691 -0.010955314839550905 0 -0.05825109586994788 -0.011252525856344266 0 -0.058172363364012644 -0.01181832662134868 0 -0.059008545396787807 -0.011137945396154954 0 -0.058528175090689312 -0.010756704010677409 0 -0.058609829769079073 -0.011472463556223845 0 -0.058528175090689312 -0.010756704010677409 0 -0.05825109586994788 -0.011252525856344266 0 -0.058609829769079073 -0.011472463556223845 0 -0.05825109586994788 -0.011252525856344266 0 -0.058609829769079073 -0.011472463556223845 0 -0.058172363364012644 -0.01181832662134868 0 -0.059008545396787807 -0.011137945396154954 0 -0.058609829769079073 -0.011472463556223845 0 -0.059101992063917176 -0.011760412163304279 0 -0.056828606800426722 -0.012893675656775681 0 -0.058588114348799826 -0.011949089574306963 0 -0.058172363364012644 -0.01181832662134868 0 -0.056839805150065488 -0.016055335554190767 0 -0.056531548519490743 -0.015357670748003082 0 -0.056753333731786759 -0.016323907856722789 0 -0.058609829769079073 -0.011472463556223845 0 -0.05857894874085047 -0.011949905245241005 0 -0.059101992063917176 -0.011760412163304279 0 -0.056505538895617415 -0.014189111136956924 0 -0.057685370439343096 -0.013764354767948059 0 -0.057685370439343096 -0.013764354767948059 0 -0.058859994721265282 -0.012867053144108537 0 -0.058495752737208265 -0.011984683961999159 0 -0.059159518345537031 -0.012221825494224721 0 -0.059101992063917176 -0.011760412163304279 0 -0.057685370439343096 -0.013764354767948059 0 -0.05779540453335371 -0.013314981974977921 0 -0.058609829769079073 -0.011472463556223845 0 -0.05857894874085047 -0.011949905245241005 0 -0.058172363364012644 -0.01181832662134868 0 -0.057685370439343096 -0.013764354767948059 0 -0.056476693887092956 -0.017479017062483705 0 -0.056839805150065488 -0.016055335554190767 0 -0.056753333731786759 -0.016323907856722789 0 -0.05656833636672777 -0.016448651333511529 0 -0.053965527711602138 -0.026768263071672401 0 -0.054844264289468779 -0.027464301820188265 0 -0.052495098526779749 -0.027758521567654227 0 -0.059086883978255997 -0.012326446375074174 0 -0.060313550380937643 -0.011967073322090674 0 -0.061506247980928228 -0.01328147257403323 0 -0.056476693887092956 -0.017479017062483705 0 -0.058201379015199485 -0.021002543203074209 0 -0.059628195845267157 -0.010593036254479984 0 -0.056476693887092956 -0.017479017062483705 0 -0.059549974052271179 -0.011212601113430016 0 -0.059159518345537031 -0.012221825494224721 0 -0.059101992063917176 -0.011760412163304279 0 -0.059549974052271179 -0.011212601113430016 0 -0.059086883978255997 -0.012326446375074174 0 -0.060313550380937643 -0.011967073322090674 0 -0.061506247980928228 -0.01328147257403323 0 -0.061096685790968303 -0.01169730133245819 0 -0.06226547527232229 -0.011472979464877704 0 -0.060313550380937643 -0.011967073322090674 0 -0.061506247980928228 -0.01328147257403323 0 -0.061096685790968303 -0.01169730133245819 0 -0.060493310540220467 -0.011106090892945938 0 -0.060313550380937643 -0.011967073322090674 0 -0.061096685790968303 -0.01169730133245819 0 -0.060493310540220467 -0.011106090892945938 0 -0.061096685790968303 -0.01169730133245819 0 -0.061373118291991234 -0.010324685688550155 0 -0.061096685790968303 -0.01169730133245819 0 -0.061373118291991234 -0.010324685688550155 0 -0.06226547527232229 -0.011472979464877704 0 -0.060493310540220467 -0.011106090892945938 0 -0.060145996547201673 -0.010322084952459154 0 -0.061373118291991234 -0.010324685688550155 0 -0.060145996547201673 -0.010322084952459154 0 -0.061373118291991234 -0.010324685688550155 0 -0.060681587260510095 -0.00927220678517943 0 -0.061373118291991234 -0.010324685688550155 0 -0.06226547527232229 -0.011472979464877704 0 -0.063350950769931524 -0.0094631251874807264 0 -0.06226547527232229 -0.011472979464877704 0 -0.063550472192901608 -0.011929510366398225 0 -0.063350950769931524 -0.0094631251874807264 0 -0.048384846421996357 -0.017840982784232639 0 -0.047835235407051487 -0.014573068649581571 0 -0.061506247980928228 -0.01328147257403323 0 -0.06226547527232229 -0.011472979464877704 0 -0.06280310862725802 -0.012875064330512989 0 -0.063774359207653564 -0.014250526629644452 0 -0.063550472192901608 -0.011929510366398225 0 -0.06280310862725802 -0.012875064330512989 0 -0.06226547527232229 -0.011472979464877704 0 -0.063550472192901608 -0.011929510366398225 0 -0.06280310862725802 -0.012875064330512989 0 -0.03353165228717802 -0.023973748952983088 0 -0.036560878046978391 -0.026076429439006843 0 -0.037473187404839001 -0.024262220146346096 0 -0.050933551436587433 -0.02105277074691787 0 -0.048384846421996357 -0.017840982784232639 0 -0.034641716134185464 -0.02760831883066334 0 -0.03353165228717802 -0.023973748952983088 0 -0.036560878046978391 -0.026076429439006843 0 -0.038682386256343244 -0.026348929750980046 0 -0.039985649218832818 -0.025669203386000865 0 -0.037473187404839001 -0.024262220146346096 0 -0.038682386256343244 -0.026348929750980046 0 -0.036560878046978391 -0.026076429439006843 0 -0.037473187404839001 -0.024262220146346096 0 -0.039193557279915699 -0.023093818902954737 0 -0.037473187404839001 -0.024262220146346096 0 -0.036755355018646539 -0.021466583112934815 0 -0.039193557279915699 -0.023093818902954737 0 -0.038881248416721088 -0.021213197465768299 0 -0.036755355018646539 -0.021466583112934815 0 -0.03353165228717802 -0.023973748952983088 0 -0.037473187404839001 -0.024262220146346096 0 -0.036755355018646539 -0.021466583112934815 0 -0.03353165228717802 -0.023973748952983088 0 -0.034894638116224584 -0.019253959434450765 0 -0.032293733136658724 -0.019800942379329504 0 -0.03353165228717802 -0.023973748952983088 0 -0.036755355018646539 -0.021466583112934815 0 -0.034894638116224584 -0.019253959434450765 0 -0.038767219396722494 -0.019183265411399253 0 -0.034894638116224584 -0.019253959434450765 0 -0.037383021535930851 -0.016764520449735209 0 -0.038767219396722494 -0.019183265411399253 0 -0.036755355018646539 -0.021466583112934815 0 -0.034894638116224584 -0.019253959434450765 0 -0.038881248416721088 -0.021213197465768299 0 -0.038767219396722494 -0.019183265411399253 0 -0.036755355018646539 -0.021466583112934815 0 -0.039769955624671005 -0.01714625160188836 0 -0.038767219396722494 -0.019183265411399253 0 -0.037383021535930851 -0.016764520449735209 0 -0.036755932108219903 -0.013639285615673688 0 -0.037383021535930851 -0.016764520449735209 0 -0.034737472713075576 -0.015654679846097527 0 -0.039236238779471952 -0.015001516535803068 0 -0.036755932108219903 -0.013639285615673688 0 -0.037383021535930851 -0.016764520449735209 0 -0.034894638116224584 -0.019253959434450765 0 -0.037383021535930851 -0.016764520449735209 0 -0.034737472713075576 -0.015654679846097527 0 -0.034894638116224584 -0.019253959434450765 0 -0.034737472713075576 -0.015654679846097527 0 -0.031280668556613982 -0.015222857023536179 0 -0.033752932969098801 -0.013220239972134437 0 -0.034737472713075576 -0.015654679846097527 0 -0.031280668556613982 -0.015222857023536179 0 -0.047262773391658422 -0.011130147223828258 0 -0.047835235407051487 -0.014573068649581571 0 -0.061428734141237222 -0.005926893652769564 0 -0.063101065068171813 -0.0067913941809592347 0 -0.061688128982091299 -0.0082981671092250252 0 -0.061428734141237222 -0.005926893652769564 0 -0.060215440339464639 -0.007561371570744573 0 -0.061688128982091299 -0.0082981671092250252 0 -0.061428734141237222 -0.005926893652769564 0 -0.060025215046993735 -0.0055401816122287832 0 -0.060215440339464639 -0.007561371570744573 0 -0.061373118291991234 -0.010324685688550155 0 -0.061688128982091299 -0.0082981671092250252 0 -0.063350950769931524 -0.0094631251874807264 0 -0.061373118291991234 -0.010324685688550155 0 -0.061688128982091299 -0.0082981671092250252 0 -0.060681587260510095 -0.00927220678517943 0 -0.060215440339464639 -0.007561371570744573 0 -0.061688128982091299 -0.0082981671092250252 0 -0.060681587260510095 -0.00927220678517943 0 -0.034894638116224584 -0.019253959434450765 0 -0.031280668556613982 -0.015222857023536179 0 -0.032293733136658724 -0.019800942379329504 0 -0.063101065068171813 -0.0067913941809592347 0 -0.061688128982091299 -0.0082981671092250252 0 -0.063350950769931524 -0.0094631251874807264 0 -0.015347184347557864 -0.0045981133674841716 0 -0.014579514191068942 -0.00025622615817874714 0 -0.012737167118093581 -0.0038781882744218913 0 -0.015347184347557864 -0.0045981133674841716 0 -0.016763785164044052 -0.0013734213222715114 0 -0.018729989471309202 -0.002531053003823731 0 -0.01634965273208841 -0.0048740337271814737 0 -0.0058920511043950409 -0.0048969691540613541 0 -0.013068030775679741 -0.0064320432216641603 0 -0.015007139003376279 -0.0072376596766992986 0 -0.01469139246624933 -0.005557050190113942 0 -0.016763785164044052 -0.0013734213222715114 0 -0.014579514191068942 -0.00025622615817874714 0 -0.018138913482637881 0.0011557291381843406 0 -0.016763785164044052 -0.0013734213222715114 0 -0.018729989471309202 -0.002531053003823731 0 -0.018138913482637881 0.0011557291381843406 0 -0.015347184347557864 -0.0045981133674841716 0 -0.016763785164044052 -0.0013734213222715114 0 -0.014579514191068942 -0.00025622615817874714 0 -0.018595573029337099 0.0055339092475941553 0 -0.017736875664732289 0.006254668218385208 0 -0.019849804178189556 0.0089775754416722541 0 -0.014810597674013092 0.0033016618633747614 0 -0.020610596531637441 0.0098545096675289132 0 -0.020360889647799817 0.0037440563284594813 0 -0.014810597674013092 0.0033016618633747614 0 -0.014579514191068942 -0.00025622615817874714 0 -0.010701670496384331 -0.0015705966761005931 0 -0.011373825840824844 -0.0031006460055353993 0 -0.022027578840922522 0.0075087754972632051 0 -0.018291888047308531 0.006106885006624518 0 -0.019849804178189556 0.0089775754416722541 0 -0.017736875664732289 0.006254668218385208 0 -0.016289785067434889 0.0077541331752339114 0 -0.016105414917451009 0.0053896413693815641 0 -0.017736875664732289 0.006254668218385208 0 -0.016289785067434889 0.0077541331752339114 0 -0.017847341889316644 0.0084334508133746804 0 -0.018595573029337099 0.0055339092475941553 0 -0.017736875664732289 0.006254668218385208 0 -0.017859997514341683 0.0039816313133841296 0 -0.017736875664732289 0.006254668218385208 0 -0.017859997514341683 0.0039816313133841296 0 -0.016105414917451009 0.0053896413693815641 0 -0.017859997514341683 0.0039816313133841296 0 -0.015099268479178744 0.0028324612001411464 0 -0.016105414917451009 0.0053896413693815641 0 -0.0098895616917878421 -0.0031282265374197077 0 -0.010263270070347462 -0.0054354023361373859 0 -0.0094085350891390043 -0.0063952540187409345 0 -0.010701670496384331 -0.0015705966761005931 0 -0.0098895616917878421 -0.0031282265374197077 0 -0.011373825840824844 -0.0031006460055353993 0 -0.014810597674013092 0.0033016618633747614 0 -0.013467609021216277 0.0028191213401977267 0 -0.0098895616917878421 -0.0031282265374197077 0 -0.011138694126508298 -0.00450933539638366 0 -0.010263270070347462 -0.0054354023361373859 0 -0.014579514191068942 -0.00025622615817874714 0 -0.011373825840824844 -0.0031006460055353993 0 -0.012737167118093581 -0.0038781882744218913 0 -0.0098895616917878421 -0.0031282265374197077 0 -0.011373825840824844 -0.0031006460055353993 0 -0.011138694126508298 -0.00450933539638366 0 -0.011373825840824844 -0.0031006460055353993 0 -0.011138694126508298 -0.00450933539638366 0 -0.012737167118093581 -0.0038781882744218913 0 -0.011138694126508298 -0.00450933539638366 0 -0.012737167118093581 -0.0038781882744218913 0 -0.011399681706775916 -0.0070088981315886362 0 -0.011138694126508298 -0.00450933539638366 0 -0.011399681706775916 -0.0070088981315886362 0 -0.010263270070347462 -0.0054354023361373859 0 -0.0098895616917878421 -0.0031282265374197077 0 -0.0094085350891390043 -0.0063952540187409345 0 -0.0080475181373037222 -0.0076356589353597107 0 -0.011399681706775916 -0.0070088981315886362 0 -0.0094085350891390043 -0.0063952540187409345 0 -0.0084856139866526081 -0.0078864139624971151 0 -0.013467609021216277 0.0028191213401977267 0 -0.016458609585865123 -0.013580582691806602 0 -0.017859997514341683 0.0039816313133841296 0 -0.015099268479178744 0.0028324612001411464 0 -0.015705541903234213 -0.0004056846512661543 0 -0.011399681706775916 -0.0070088981315886362 0 -0.010263270070347462 -0.0054354023361373859 0 -0.0094085350891390043 -0.0063952540187409345 0 -0.0094085350891390043 -0.0063952540187409345 0 -0.0080475181373037222 -0.0076356589353597107 0 -0.0084856139866526081 -0.0078864139624971151 0 -0.011399681706775916 -0.0070088981315886362 0 -0.0084856139866526081 -0.0078864139624971151 0 -0.010697831231965854 -0.010059033394468616 0 -0.0084856139866526081 -0.0078864139624971151 0 -0.0071209926868630062 -0.0097987188781284047 0 -0.010697831231965854 -0.010059033394468616 0 -0.011399681706775916 -0.0070088981315886362 0 -0.012240655636067306 -0.0087399284045258981 0 -0.010697831231965854 -0.010059033394468616 0 -0.012240655636067306 -0.0087399284045258981 0 -0.013598449847884275 -0.0082657582142534984 0 -0.013309395166176146 -0.01015254634741557 0 -0.015347184347557864 -0.0045981133674841716 0 -0.012737167118093581 -0.0038781882744218913 0 -0.011399681706775916 -0.0070088981315886362 0 -0.01634965273208841 -0.0048740337271814737 0 -0.010684173833126377 -0.0073011856935098996 0 -0.013068030775679741 -0.0064320432216641603 0 -0.011399681706775916 -0.0070088981315886362 0 -0.012240655636067306 -0.0087399284045258981 0 -0.013068030775679741 -0.0064320432216641603 0 -0.012240655636067306 -0.0087399284045258981 0 -0.013598449847884275 -0.0082657582142534984 0 -0.013068030775679741 -0.0064320432216641603 0 -0.013598449847884275 -0.0082657582142534984 0 -0.015007139003376279 -0.0072376596766992986 0 -0.013598449847884275 -0.0082657582142534984 0 -0.014624238291902661 -0.0086138514063345602 0 -0.015007139003376279 -0.0072376596766992986 0 -0.013598449847884275 -0.0082657582142534984 0 -0.014150159249800148 -0.0092522154351841676 0 -0.013309395166176146 -0.01015254634741557 0 -0.013598449847884275 -0.0082657582142534984 0 -0.014150159249800148 -0.0092522154351841676 0 -0.014624238291902661 -0.0086138514063345602 0 -0.014150159249800148 -0.0092522154351841676 0 -0.014624238291902661 -0.0086138514063345602 0 -0.015110016687321547 -0.0091951529961781971 0 0.0027588018986367878 -0.014053177472920174 0 -0.0034127043033344209 -0.0069461041989782764 0 -0.014624238291902661 -0.0086138514063345602 0 -0.015110016687321547 -0.0091951529961781971 0 -0.015262662139998398 -0.0091194080701071083 0 -0.014624238291902661 -0.0086138514063345602 0 -0.015262662139998398 -0.0091194080701071083 0 -0.015007139003376279 -0.0072376596766992986 0 0.00042966086281290825 -0.01316732752882846 0 0.0027588018986367878 -0.014053177472920174 0 0.0027588018986367878 -0.014053177472920174 0 0.010292155098389958 -0.016577145611069283 0 0.0082065519507052032 -0.010024574271000408 0 0.0084718661392868544 -0.0078967534288564949 0 0.0059117982801635193 -0.0089870374392296577 0 0.013183762426993212 -0.023784973832300792 0 0.011012888291342943 -0.022775871240671493 0 0.01131548754204127 -0.024526881954355203 0 0.0084718661392868544 -0.0078967534288564949 0 0.0059117982801635193 -0.0089870374392296577 0 0.0063414519683675369 -0.0068144725658931156 0 0.0086434571600598649 -0.024231119513687272 0 0.011012888291342943 -0.022775871240671493 0 0.0086865672353284226 -0.02149738218344394 0 0.0086434571600598649 -0.024231119513687272 0 0.0086865672353284226 -0.02149738218344394 0 0.0074785995989800885 -0.022343086477178236 0 0.0086434571600598649 -0.024231119513687272 0 0.011012888291342943 -0.022775871240671493 0 0.01131548754204127 -0.024526881954355203 0 0.010292155098389958 -0.016577145611069283 0 0.0052886083700760585 -0.014418137342672064 0 0.0059117982801635193 -0.0089870374392296577 0 0.0050623222809187043 -0.0074080040734161657 0 0.0036333239036460963 -0.0079170535249005834 0 0.0059117982801635193 -0.0089870374392296577 0 0.0050623222809187043 -0.0074080040734161657 0 0.0063414519683675369 -0.0068144725658931156 0 0.0036333239036460963 -0.0079170535249005834 0 0.0043664937824431952 -0.0059113157926491437 0 0.0028656387884439145 -0.0062244901240585127 0 0.0043664937824431952 -0.0059113157926491437 0 0.0028656387884439145 -0.0062244901240585127 0 0.0032081013473766969 -0.0049485360419769444 0 0.0050623222809187043 -0.0074080040734161657 0 0.0036333239036460963 -0.0079170535249005834 0 0.0043664937824431952 -0.0059113157926491437 0 0.0050623222809187043 -0.0074080040734161657 0 0.0043664937824431952 -0.0059113157926491437 0 0.0063414519683675369 -0.0068144725658931156 0 0.0043664937824431952 -0.0059113157926491437 0 0.0052159141532738644 -0.0049205834350028897 0 0.0063414519683675369 -0.0068144725658931156 0 0.0052159141532738644 -0.0049205834350028897 0 0.0067639311102955218 -0.0046240105836039182 0 0.0042841620405847172 -0.0034981424911478798 0 0.0052159141532738644 -0.0049205834350028897 0 0.0042248472533654539 -0.0045192421010939862 0 0.0042841620405847172 -0.0034981424911478798 0 0.0043664937824431952 -0.0059113157926491437 0 0.0052159141532738644 -0.0049205834350028897 0 0.0042248472533654539 -0.0045192421010939862 0 0.0043664937824431952 -0.0059113157926491437 0 0.0042248472533654539 -0.0045192421010939862 0 0.0032081013473766969 -0.0049485360419769444 0 0.0042248472533654539 -0.0045192421010939862 0 0.0040470303372025299 -0.0036624534818686166 0 0.0032081013473766969 -0.0049485360419769444 0 -0.0034127043033344209 -0.0069461041989782764 0 -0.0058920511043950409 -0.0048969691540613541 0 0.0084718661392868544 -0.0078967534288564949 0 0.0087370937687101195 -0.0057934472861189941 0 0.0073941531217726394 -0.005910254095382904 0 0.0063414519683675369 -0.0068144725658931156 0 0.0073941531217726394 -0.005910254095382904 0 0.0067639311102955218 -0.0046240105836039182 0 0.0084718661392868544 -0.0078967534288564949 0 0.0063414519683675369 -0.0068144725658931156 0 0.0073941531217726394 -0.005910254095382904 0 0.0052159141532738644 -0.0049205834350028897 0 0.0063414519683675369 -0.0068144725658931156 0 0.0067639311102955218 -0.0046240105836039182 0 -0.0058920511043950409 -0.0048969691540613541 0 -0.01052125298782239 0.0066145397487713141 0 0.0021172763287112301 -0.0014542731263283916 0 0.0027574825559754362 -0.0026602149630101592 0 0.0018559663784443361 -0.0031804265323424684 0 0.0021172763287112301 -0.0014542731263283916 0 0.0038315044819682807 -0.0024752029061743358 0 0.0027574825559754362 -0.0026602149630101592 0 -0.0058920511043950409 -0.0048969691540613541 0 0.007322948885199237 -0.0040264495092083357 0 0.0087370937687101195 -0.0057934472861189941 0 0.0073941531217726394 -0.005910254095382904 0 0.0067639311102955218 -0.0046240105836039182 0 -0.000182438125484722 0.017660123008115914 0 1.6022485699033323e-06 0.018448084351826537 0 0.0004006142855661155 0.017109669916948525 0 -0.000182438125484722 0.017660123008115914 0 -0.00064794119785508428 0.017579002355883527 0 0.0004006142855661155 0.017109669916948525 0 0.0016122704107770958 0.011849914482126083 0 -0.01052125298782239 0.0066145397487713141 0 -0.000182438125484722 0.017660123008115914 0 -0.00059030303129311136 0.017645528760061532 0 -0.00047364844662163802 0.018308237301522028 0 0.00054743328112795387 0.013586028104918348 0 0.0016122704107770958 0.011849914482126083 0 0.0027574825559754362 -0.0026602149630101592 0 0.0030175729327446828 -0.0035522671011220968 0 0.0018559663784443361 -0.0031804265323424684 0 0.0016122704107770958 0.011849914482126083 0 0.0015480970119046724 0.0065358341332319991 0 0.0038315044819682807 -0.0024752029061743358 0 0.0027574825559754362 -0.0026602149630101592 0 0.0030175729327446828 -0.0035522671011220968 0 0.0038315044819682807 -0.0024752029061743358 0 0.0030175729327446828 -0.0035522671011220968 0 0.0043626490552926382 -0.0032886935667136778 0 0.00040483746786718967 0.017193784460683065 0 -0.00099914747607549536 0.017821682179776838 0 -0.0015935786790365004 0.017018776780154274 0 0.0016122704107770958 0.011849914482126083 0 -0.001886776582563286 0.018035175032991086 0 -0.00059030303129311136 0.017645528760061532 0 -0.00108752742346374 0.018581992187710037 0 -0.00047364844662163802 0.018308237301522028 0 -0.00059030303129311136 0.017645528760061532 0 -0.0015442739360986538 0.018123303074932685 0 -0.00108752742346374 0.018581992187710037 0 -0.0015442739360986538 0.018123303074932685 0 -0.00108752742346374 0.018581992187710037 0 -0.0018675667320499426 0.018665475791928374 0 -0.00108752742346374 0.018581992187710037 0 -0.0018675667320499426 0.018665475791928374 0 -0.0018311018134258108 0.019413266053932829 0 -0.00108752742346374 0.018581992187710037 0 -0.00055391550874317073 0.01904016703565203 0 -0.00093343799321391309 0.019646439460959862 0 -0.00108752742346374 0.018581992187710037 0 -0.00055391550874317073 0.01904016703565203 0 -0.00047364844662163802 0.018308237301522028 0 1.6022485699033323e-06 0.018448084351826537 0 0.00077279467343855464 0.019259443641566738 0 0.0004006142855661155 0.017109669916948525 0 -0.00055391550874317073 0.01904016703565203 0 1.6022485699033323e-06 0.018448084351826537 0 -9.8724010713169554e-06 0.019301937133094766 0 -0.00055391550874317073 0.01904016703565203 0 1.6022485699033323e-06 0.018448084351826537 0 -0.00047364844662163802 0.018308237301522028 0 1.6022485699033323e-06 0.018448084351826537 0 -9.8724010713169554e-06 0.019301937133094766 0 0.00077279467343855464 0.019259443641566738 0 -0.000182438125484722 0.017660123008115914 0 1.6022485699033323e-06 0.018448084351826537 0 -0.00047364844662163802 0.018308237301522028 0 -0.0031165799387732644 0.016861916628864711 0 -0.0032699218886165391 0.016951835626146498 0 -0.0029929387300463889 0.017732848310140801 0 0.0042248472533654539 -0.0045192421010939862 0 0.0040470303372025299 -0.0036624534818686166 0 0.0042841620405847172 -0.0034981424911478798 0 -0.0031165799387732644 0.016861916628864711 0 -0.0022709960382541229 0.017539754447005489 0 -0.0029929387300463889 0.017732848310140801 0 -0.00082523100693381458 0.0066140264787031711 0 0.0015480970119046724 0.0065358341332319991 0 0.0038315044819682807 -0.0024752029061743358 0 0.0042841620405847172 -0.0034981424911478798 0 0.0043626490552926382 -0.0032886935667136778 0 0.0040470303372025299 -0.0036624534818686166 0 0.0042841620405847172 -0.0034981424911478798 0 0.0043626490552926382 -0.0032886935667136778 0 -0.0031165799387732644 0.016861916628864711 0 -0.0022709960382541229 0.017539754447005489 0 -0.0015935786790365004 0.017018776780154274 0 0.007322948885199237 -0.0040264495092083357 0 0.0035870365369752139 -0.0031239247595274606 0 -0.00099914747607549536 0.017821682179776838 0 -0.0022709960382541229 0.017539754447005489 0 -0.0015935786790365004 0.017018776780154274 0 -0.001886776582563286 0.018035175032991086 0 -0.0020742490702313821 0.018264929735275316 0 -0.0015442739360986538 0.018123303074932685 0 -0.0018675667320499426 0.018665475791928374 0 -0.0023771371289064984 0.018388574961075516 0 -0.00099914747607549536 0.017821682179776838 0 -0.0022709960382541229 0.017539754447005489 0 -0.0023771371289064984 0.018388574961075516 0 -0.0018675667320499426 0.018665475791928374 0 -0.0023771371289064984 0.018388574961075516 0 -0.0026297683910760641 0.019163610380335226 0 -0.0023771371289064984 0.018388574961075516 0 -0.0029227834467248619 0.01860705466195171 0 -0.0026297683910760641 0.019163610380335226 0 -0.0022709960382541229 0.017539754447005489 0 -0.0023771371289064984 0.018388574961075516 0 -0.0029929387300463889 0.017732848310140801 0 -0.0029929387300463889 0.017732848310140801 0 -0.0029227834467248619 0.01860705466195171 0 -0.003731219171553841 0.019146683054705571 0 -0.0032699218886165391 0.016951835626146498 0 -0.0029929387300463889 0.017732848310140801 0 -0.003731219171553841 0.019146683054705571 0 -0.0032643707379185578 0.017111341403241768 0 -0.0031735728630578799 0.018673466195226779 0 -0.0023771371289064984 0.018388574961075516 0 -0.0029929387300463889 0.017732848310140801 0 -0.0029227834467248619 0.01860705466195171 0 -0.0029227834467248619 0.01860705466195171 0 -0.003731219171553841 0.019146683054705571 0 -0.0026297683910760641 0.019163610380335226 0 -0.003731219171553841 0.019146683054705571 0 -0.0031970681663686367 0.020055207734354884 0 -0.0037860735133478218 0.021276023886042484 0 -0.0031735728630578799 0.018673466195226779 0 -0.0029150823787229465 0.020844287967982437 0 -0.003731219171553841 0.019146683054705571 0 -0.0031970681663686367 0.020055207734354884 0 -0.0026297683910760641 0.019163610380335226 0 -0.0031970681663686367 0.020055207734354884 0 -0.002570183373051536 0.02016121406969705 0 -0.0026297683910760641 0.019163610380335226 0 -0.002570183373051536 0.02016121406969705 0 -0.0026297683910760641 0.019163610380335226 0 -0.0018311018134258108 0.019413266053932829 0 -0.0018675667320499426 0.018665475791928374 0 -0.0026297683910760641 0.019163610380335226 0 -0.0018311018134258108 0.019413266053932829 0 -0.002570183373051536 0.02016121406969705 0 -0.0018311018134258108 0.019413266053932829 0 -0.0017299312485344609 0.020211256652757574 0 -0.002570183373051536 0.02016121406969705 0 -0.00284346060019517 0.021459110792047324 0 -0.0031593225419810928 0.020768159299464021 0 -0.002570183373051536 0.02016121406969705 0 -0.0019832130400843319 0.021213426769089952 0 -0.00284346060019517 0.021459110792047324 0 -0.002570183373051536 0.02016121406969705 0 -0.0019832130400843319 0.021213426769089952 0 -0.0017299312485344609 0.020211256652757574 0 -0.0026416445643861275 0.018153666384701221 0 -0.0020865260604897369 0.020275877364761424 0 -0.0030117557973426048 0.020089213534202361 0 -0.0031970681663686367 0.020055207734354884 0 -0.002570183373051536 0.02016121406969705 0 -0.0031593225419810928 0.020768159299464021 0 -0.0031970681663686367 0.020055207734354884 0 -0.0031593225419810928 0.020768159299464021 0 -0.0037860735133478218 0.021276023886042484 0 -0.00284346060019517 0.021459110792047324 0 -0.0031593225419810928 0.020768159299464021 0 -0.0032833607292372612 0.021454212975110739 0 -0.0031593225419810928 0.020768159299464021 0 -0.0032833607292372612 0.021454212975110739 0 -0.0037860735133478218 0.021276023886042484 0 -9.8724010713169554e-06 0.019301937133094766 0 -0.00093343799321391309 0.019646439460959862 0 -7.1120312458017207e-05 0.020363183506851373 0 -9.8724010713169554e-06 0.019301937133094766 0 -7.1120312458017207e-05 0.020363183506851373 0 0.00077279467343855464 0.019259443641566738 0 -0.00055391550874317073 0.01904016703565203 0 -9.8724010713169554e-06 0.019301937133094766 0 -0.00093343799321391309 0.019646439460959862 0 -0.00093343799321391309 0.019646439460959862 0 -0.001199664134230538 0.020773328425085273 0 -7.1120312458017207e-05 0.020363183506851373 0 -0.00108752742346374 0.018581992187710037 0 -0.0018311018134258108 0.019413266053932829 0 -0.00093343799321391309 0.019646439460959862 0 -0.0018311018134258108 0.019413266053932829 0 -0.00093343799321391309 0.019646439460959862 0 -0.0017299312485344609 0.020211256652757574 0 -0.00093343799321391309 0.019646439460959862 0 -0.0017299312485344609 0.020211256652757574 0 -0.001199664134230538 0.020773328425085273 0 -0.001199664134230538 0.020773328425085273 0 -0.00030262573560732516 0.021525168823455731 0 -0.001241198504898397 0.022203633127344788 0 -0.0019832130400843319 0.021213426769089952 0 -0.001199664134230538 0.020773328425085273 0 -0.001241198504898397 0.022203633127344788 0 -0.0019832130400843319 0.021213426769089952 0 -0.0017299312485344609 0.020211256652757574 0 -0.001199664134230538 0.020773328425085273 0 -0.00030262573560732516 0.021525168823455731 0 -7.1120312458017207e-05 0.020363183506851373 0 0.0010638048527804186 0.021465225788148183 0 -0.001199664134230538 0.020773328425085273 0 -0.00030262573560732516 0.021525168823455731 0 -7.1120312458017207e-05 0.020363183506851373 0 -0.023903841773050976 0.020620969817947515 0 -0.021877753738664865 0.018195766063242944 0 -0.02544619328891155 0.014510916287766686 0 -0.023903841773050976 0.020620969817947515 0 -0.021877753738664865 0.018195766063242944 0 -0.019912439260246929 0.022408043142798283 0 -0.022616499631856517 0.014293189854645437 0 -0.018769950698077156 0.016448984970958411 0 -0.021877753738664865 0.018195766063242944 0 -0.022697432098055605 0.014187351145077822 0 -0.018218744063758591 0.018188051524870106 0 -0.021877753738664865 0.018195766063242944 0 -0.022697432098055605 0.014187351145077822 0 -0.02544619328891155 0.014510916287766686 0 -7.1120312458017207e-05 0.020363183506851373 0 0.0010638048527804186 0.021465225788148183 0 0.00077279467343855464 0.019259443641566738 0 -0.011416273494790958 0.020671011502127162 0 -0.012508061567392837 0.018296819864909435 0 -0.012508061567392837 0.018296819864909435 0 -0.01052125298782239 0.0066145397487713141 0 -0.02544619328891155 0.014510916287766686 0 -0.024182739015794749 0.012041652621264743 0 -0.026026824777725388 0.0089921640325031481 0 -0.022697432098055605 0.014187351145077822 0 -0.02544619328891155 0.014510916287766686 0 -0.024182739015794749 0.012041652621264743 0 -0.022697432098055605 0.014187351145077822 0 -0.022495384125769881 0.010600491455414118 0 -0.020235511766182244 0.012017616655827318 0 -0.022697432098055605 0.014187351145077822 0 -0.024182739015794749 0.012041652621264743 0 -0.022495384125769881 0.010600491455414118 0 -0.022495384125769881 0.010600491455414118 0 -0.019849804178189556 0.0089775754416722541 0 -0.020235511766182244 0.012017616655827318 0 -0.022027578840922522 0.0075087754972632051 0 -0.022495384125769881 0.010600491455414118 0 -0.019849804178189556 0.0089775754416722541 0 -0.024182739015794749 0.012041652621264743 0 -0.022495384125769881 0.010600491455414118 0 -0.026026824777725388 0.0089921640325031481 0 -0.022027578840922522 0.0075087754972632051 0 -0.022495384125769881 0.010600491455414118 0 -0.026026824777725388 0.0089921640325031481 0 -0.020360889647799817 0.0037440563284594813 0 -0.01052125298782239 0.0066145397487713141 0 -0.017847341889316644 0.0084334508133746804 0 -0.019849804178189556 0.0089775754416722541 0 -0.017511694332956095 0.01067403306256906 0 -0.016289785067434889 0.0077541331752339114 0 -0.017847341889316644 0.0084334508133746804 0 -0.017511694332956095 0.01067403306256906 0 -0.019849804178189556 0.0089775754416722541 0 -0.020235511766182244 0.012017616655827318 0 -0.017511694332956095 0.01067403306256906 0 -0.017736875664732289 0.006254668218385208 0 -0.017847341889316644 0.0084334508133746804 0 -0.019849804178189556 0.0089775754416722541 0 -0.020235511766182244 0.012017616655827318 0 -0.017511694332956095 0.01067403306256906 0 -0.019005337445759423 0.014829452079812214 0 -0.019005337445759423 0.014829452079812214 0 -0.015438021340863355 0.016213479586697187 0 -0.014862726310836879 0.012956001079772583 0 -0.017511694332956095 0.01067403306256906 0 -0.019005337445759423 0.014829452079812214 0 -0.014862726310836879 0.012956001079772583 0 -0.022697432098055605 0.014187351145077822 0 -0.020235511766182244 0.012017616655827318 0 -0.019005337445759423 0.014829452079812214 0 -0.018218744063758591 0.018188051524870106 0 -0.017024603065361393 0.022914532573715379 0 -0.019912439260246929 0.022408043142798283 0 -0.021877753738664865 0.018195766063242944 0 -0.018218744063758591 0.018188051524870106 0 -0.019912439260246929 0.022408043142798283 0 -0.018769950698077156 0.016448984970958411 0 -0.01567477223814288 0.01865697017625171 0 -0.018218744063758591 0.018188051524870106 0 -0.015637161308785202 0.021150969241705796 0 -0.017024603065361393 0.022914532573715379 0 -0.015438021340863355 0.016213479586697187 0 -0.014862726310836879 0.012956001079772583 0 -0.011805874555677829 0.014969791888083152 0 -0.014862726310836879 0.012956001079772583 0 -0.011805874555677829 0.014969791888083152 0 -0.012378210933374526 0.012136537514725564 0 -0.01567477223814288 0.01865697017625171 0 -0.012872227584287549 0.020581222796048248 0 -0.015438021340863355 0.016213479586697187 0 -0.011805874555677829 0.014969791888083152 0 -0.011893219123054837 0.017850149029381351 0 -0.011805874555677829 0.014969791888083152 0 -0.0088989128713642517 0.015768550481127987 0 -0.0098651510900127238 0.017607757196493906 0 -0.011805874555677829 0.014969791888083152 0 -0.0098651510900127238 0.017607757196493906 0 -0.011893219123054837 0.017850149029381351 0 -0.0079302281484511464 0.017273977281230157 0 -0.0072910965654917623 0.015627109701137142 0 -0.006780569248322741 0.016773127566403888 0 -0.0079302281484511464 0.017273977281230157 0 -0.0088989128713642517 0.015768550481127987 0 -0.0072910965654917623 0.015627109701137142 0 -0.0079302281484511464 0.017273977281230157 0 -0.0088989128713642517 0.015768550481127987 0 -0.0098651510900127238 0.017607757196493906 0 -0.0088989128713642517 0.015768550481127987 0 -0.0072910965654917623 0.015627109701137142 0 -0.0076832209192271772 0.013559030382889362 0 -0.0088989128713642517 0.015768550481127987 0 -0.0076832209192271772 0.013559030382889362 0 -0.0097778223563415919 0.012223420032486417 0 -0.011805874555677829 0.014969791888083152 0 -0.0088989128713642517 0.015768550481127987 0 -0.0097778223563415919 0.012223420032486417 0 -0.011805874555677829 0.014969791888083152 0 -0.0097778223563415919 0.012223420032486417 0 -0.012378210933374526 0.012136537514725564 0 -0.0097778223563415919 0.012223420032486417 0 -0.01140453857926838 0.010108917128867139 0 -0.0093500808860341716 0.0089375187719071651 0 -0.0097778223563415919 0.012223420032486417 0 -0.01140453857926838 0.010108917128867139 0 -0.012378210933374526 0.012136537514725564 0 -0.0076832209192271772 0.013559030382889362 0 -0.0097778223563415919 0.012223420032486417 0 -0.0077391794114328753 0.010749075197507443 0 -0.0076832209192271772 0.013559030382889362 0 -0.0077391794114328753 0.010749075197507443 0 -0.0057648971121457369 0.011461545740716153 0 -0.0097778223563415919 0.012223420032486417 0 -0.0077391794114328753 0.010749075197507443 0 -0.0093500808860341716 0.0089375187719071651 0 -0.007428067930369881 0.008447563437524494 0 -0.0093500808860341716 0.0089375187719071651 0 -0.0088260363855399322 0.0055434119288297855 0 -0.0077391794114328753 0.010749075197507443 0 -0.007428067930369881 0.008447563437524494 0 -0.0064540800030751296 0.0097768199570310802 0 -0.0077391794114328753 0.010749075197507443 0 -0.007428067930369881 0.008447563437524494 0 -0.0093500808860341716 0.0089375187719071651 0 -0.01140453857926838 0.010108917128867139 0 -0.0093500808860341716 0.0089375187719071651 0 -0.011482851258294253 0.0071706798207749247 0 -0.01140453857926838 0.010108917128867139 0 -0.014024579655282971 0.0096785123498162387 0 -0.011482851258294253 0.0071706798207749247 0 -0.014024579655282971 0.0096785123498162387 0 -0.014075283555809269 0.0060409217306007321 0 -0.011482851258294253 0.0071706798207749247 0 -0.016289785067434889 0.0077541331752339114 0 -0.017511694332956095 0.01067403306256906 0 -0.014024579655282971 0.0096785123498162387 0 -0.016289785067434889 0.0077541331752339114 0 -0.014024579655282971 0.0096785123498162387 0 -0.014075283555809269 0.0060409217306007321 0 -0.017511694332956095 0.01067403306256906 0 -0.014862726310836879 0.012956001079772583 0 -0.014024579655282971 0.0096785123498162387 0 -0.01140453857926838 0.010108917128867139 0 -0.014024579655282971 0.0096785123498162387 0 -0.012378210933374526 0.012136537514725564 0 -0.014862726310836879 0.012956001079772583 0 -0.014024579655282971 0.0096785123498162387 0 -0.012378210933374526 0.012136537514725564 0 -0.01199185775220288 0.018562412642962357 0 -0.011153053435103052 0.017850168988317219 0 -0.013855685816802684 0.015580801032290224 0 -0.020652767102565903 0.005130346560834673 0 -0.021058363319948249 0.0055763764576696869 0 -0.032274689291366676 -0.0044517789638494577 0 -0.030934483419390781 -0.00692339663803035 0 -0.026422405847416092 -0.0038967156428120608 0 -0.01199185775220288 0.018562412642962357 0 -0.011153053435103052 0.017850168988317219 0 -0.011326911181775826 0.018900775557148992 0 -0.010485849004813976 0.019659664738597139 0 -0.011326911181775826 0.018900775557148992 0 -0.011595185059015608 0.019443311194501531 0 -0.010485849004813976 0.019659664738597139 0 -0.011153053435103052 0.017850168988317219 0 -0.011326911181775826 0.018900775557148992 0 -0.010485849004813976 0.019659664738597139 0 -0.012152483999918456 0.020352862522906742 0 -0.011502482090825472 0.022065299040604325 0 -0.01199185775220288 0.018562412642962357 0 -0.011326911181775826 0.018900775557148992 0 -0.011595185059015608 0.019443311194501531 0 -0.010485849004813976 0.019659664738597139 0 -0.011595185059015608 0.019443311194501531 0 -0.012152483999918456 0.020352862522906742 0 -0.01199185775220288 0.018562412642962357 0 -0.011595185059015608 0.019443311194501531 0 -0.012152483999918456 0.020352862522906742 0 -0.011775889481723844 0.0184871506797811 0 -0.015587450113784086 0.020772003007310115 0 -0.01199185775220288 0.018562412642962357 0 -0.012152483999918456 0.020352862522906742 0 -0.014555841881234094 0.020739229990334593 0 -0.01199185775220288 0.018562412642962357 0 -0.014661311981135643 0.01796804273182228 0 -0.01526098471662086 0.019999279489367205 0 -0.012152483999918456 0.020352862522906742 0 -0.014555841881234094 0.020739229990334593 0 -0.012509687171090373 0.021551945939076101 0 -0.01199185775220288 0.018562412642962357 0 -0.014661311981135643 0.01796804273182228 0 -0.013855685816802684 0.015580801032290224 0 -0.014661311981135643 0.01796804273182228 0 -0.017457498459474495 0.017699146706785674 0 -0.013855685816802684 0.015580801032290224 0 -0.014661311981135643 0.01796804273182228 0 -0.01526098471662086 0.019999279489367205 0 -0.017457498459474495 0.017699146706785674 0 -0.01526098471662086 0.019999279489367205 0 -0.017457498459474495 0.017699146706785674 0 -0.018317914794903141 0.021579765025031689 0 -0.01047285244656403 0.016897625657062643 0 -0.014210551919336126 0.019884117884633897 0 -0.006780569248322741 0.016773127566403888 0 -0.0050490074266086316 0.014108700635162657 0 -0.006382075406489488 0.018640453823455101 0 -0.0072910965654917623 0.015627109701137142 0 -0.006780569248322741 0.016773127566403888 0 -0.0050490074266086316 0.014108700635162657 0 -0.0072910965654917623 0.015627109701137142 0 -0.0076832209192271772 0.013559030382889362 0 -0.0050490074266086316 0.014108700635162657 0 -0.0076832209192271772 0.013559030382889362 0 -0.0050490074266086316 0.014108700635162657 0 -0.0057648971121457369 0.011461545740716153 0 -0.0050490074266086316 0.014108700635162657 0 -0.0057648971121457369 0.011461545740716153 0 -0.0039090154170366787 0.0094709254568398175 0 -0.0057648971121457369 0.011461545740716153 0 -0.0054674606237119427 0.0095359662865854289 0 -0.0039090154170366787 0.0094709254568398175 0 -0.0077391794114328753 0.010749075197507443 0 -0.0057648971121457369 0.011461545740716153 0 -0.0064540800030751296 0.0097768199570310802 0 -0.0057648971121457369 0.011461545740716153 0 -0.0064540800030751296 0.0097768199570310802 0 -0.0054674606237119427 0.0095359662865854289 0 -0.007428067930369881 0.008447563437524494 0 -0.0064540800030751296 0.0097768199570310802 0 -0.0058650787582217277 0.0086981137491316234 0 -0.0064540800030751296 0.0097768199570310802 0 -0.0058650787582217277 0.0086981137491316234 0 -0.0054674606237119427 0.0095359662865854289 0 -0.007428067930369881 0.008447563437524494 0 -0.0058650787582217277 0.0086981137491316234 0 -0.0054764714500512351 0.0082734478176724278 0 -0.012732467497323966 -0.003058788603710191 0 -0.012480642834217338 -0.0061331275881208857 0 -0.0054731634222360071 0.0082661655892591543 0 -0.0054674606237119427 0.0095359662865854289 0 -0.0039090154170366787 0.0094709254568398175 0 -0.012480642834217338 -0.0061331275881208857 0 -0.014289912237593226 0.0065185389785633544 0 -0.0058650787582217277 0.0086981137491316234 0 -0.0054731634222360071 0.0082661655892591543 0 -0.0054674606237119427 0.0095359662865854289 0 -0.017066012976507013 -0.0043197496260429175 0 -0.012592440308324385 -0.00088442089224075515 0 -0.010017243069849089 -0.011520470510125076 0 -0.014289912237593226 0.0065185389785633544 0 -0.022495233517558982 -0.016041201331613589 0 -0.022326816468859822 -0.00094967669874918177 0 -0.024977070440759017 0.0012072260348799145 0 -0.023367654271092612 0.003429622725770244 0 -0.01047285244656403 0.016897625657062643 0 -0.014289912237593226 0.0065185389785633544 0 -0.014289912237593226 0.0065185389785633544 0 -0.021058363319948249 0.0055763764576696869 0 -0.017457498459474495 0.017699146706785674 0 -0.016515038217755483 0.013477233630087347 0 -0.013855685816802684 0.015580801032290224 0 -0.022326816468859822 -0.00094967669874918177 0 -0.026422405847416092 -0.0038967156428120608 0 -0.026938422093283291 -0.00082604774127793303 0 -0.022326816468859822 -0.00094967669874918177 0 -0.024977070440759017 0.0012072260348799145 0 -0.026938422093283291 -0.00082604774127793303 0 -0.026938422093283291 -0.00082604774127793303 0 -0.02935405708575424 0.00090347689789870554 0 -0.027251510905138967 0.0020943129845418219 0 -0.024977070440759017 0.0012072260348799145 0 -0.026938422093283291 -0.00082604774127793303 0 -0.027251510905138967 0.0020943129845418219 0 -0.026938422093283291 -0.00082604774127793303 0 -0.02935405708575424 0.00090347689789870554 0 -0.031052737352035242 -0.0019343563566202658 0 -0.026422405847416092 -0.0038967156428120608 0 -0.026938422093283291 -0.00082604774127793303 0 -0.031052737352035242 -0.0019343563566202658 0 -0.032274689291366676 -0.0044517789638494577 0 -0.026422405847416092 -0.0038967156428120608 0 -0.031052737352035242 -0.0019343563566202658 0 -0.023780689827395719 -0.027065657201860615 0 -0.021145763318701511 -0.029358703035812183 0 -0.021242280748173335 -0.024374371040659114 0 -0.028190702804357096 -0.021161626453378986 0 -0.025454556051135092 -0.0080413603572081407 0 -0.035163757677009279 0.0027022684300683966 0 -0.02935405708575424 0.00090347689789870554 0 -0.02849645948985843 0.0042351826596244493 0 -0.026075454907622378 -0.029819404190581784 0 -0.023780689827395719 -0.027065657201860615 0 -0.021145763318701511 -0.029358703035812183 0 -0.02935405708575424 0.00090347689789870554 0 -0.02849645948985843 0.0042351826596244493 0 -0.027251510905138967 0.0020943129845418219 0 -0.025454556051135092 -0.0080413603572081407 0 -0.026794250392748391 -0.0021756659878709146 0 -0.028307004500328258 0.0040691908905501938 0 -0.026478768982073051 0.0039659715811471725 0 -0.024614290507693554 0.0046932699471960689 0 -0.02849645948985843 0.0042351826596244493 0 -0.026478768982073051 0.0039659715811471725 0 -0.027251510905138967 0.0020943129845418219 0 -0.025454556051135092 -0.0080413603572081407 0 -0.023960028021726826 -0.023110231646411392 0 -0.026478768982073051 0.0039659715811471725 0 -0.027251510905138967 0.0020943129845418219 0 -0.025244500161946022 0.0029612591649170838 0 -0.024977070440759017 0.0012072260348799145 0 -0.025244500161946022 0.0029612591649170838 0 -0.023367654271092612 0.003429622725770244 0 -0.024977070440759017 0.0012072260348799145 0 -0.027251510905138967 0.0020943129845418219 0 -0.025244500161946022 0.0029612591649170838 0 -0.026478768982073051 0.0039659715811471725 0 -0.025244500161946022 0.0029612591649170838 0 -0.024614290507693554 0.0046932699471960689 0 -0.025244500161946022 0.0029612591649170838 0 -0.024614290507693554 0.0046932699471960689 0 -0.023367654271092612 0.003429622725770244 0 -0.023935921066519948 -0.033641438335576243 0 -0.023728591876060474 -0.034542613483657607 0 -0.022797034872753839 -0.034849385031311027 0 -0.023960028021726826 -0.023110231646411392 0 -0.020700392387029632 -0.030607264554167707 0 -0.021145763318701511 -0.029358703035812183 0 -0.017682526996414795 -0.028091339229184144 0 -0.021242280748173335 -0.024374371040659114 0 -0.023935921066519948 -0.033641438335576243 0 -0.024228633631958447 -0.03373148539070471 0 -0.023728591876060474 -0.034542613483657607 0 -0.023626584397074615 -0.034278727713448857 0 -0.023378627609889131 -0.033982558483838826 0 -0.023550817042351038 -0.034141956946454805 0 -0.020655202960092673 -0.03054394931596437 0 -0.01992114299993351 -0.030328686753279356 0 -0.021174590440270553 -0.031583300121884206 0 -0.025529604984776515 -0.028577649161071413 0 -0.02336557141324621 -0.036151699850257693 0 -0.023626584397074615 -0.034278727713448857 0 -0.023550817042351038 -0.034141956946454805 0 -0.023728591876060474 -0.034542613483657607 0 -0.025529604984776515 -0.028577649161071413 0 -0.02199041706654244 -0.032656067919410212 0 -0.038570986696403464 -0.023566803610999758 0 -0.037846274848819944 -0.023582011325031054 0 -0.037907349455780906 -0.024767670317464369 0 -0.020655202960092673 -0.03054394931596437 0 -0.01992114299993351 -0.030328686753279356 0 -0.020041293211217125 -0.029757436728044023 0 -0.023960028021726826 -0.023110231646411392 0 -0.025529604984776515 -0.028577649161071413 0 -0.012480642834217338 -0.0061331275881208857 0 -0.022495233517558982 -0.016041201331613589 0 -0.023960028021726826 -0.023110231646411392 0 -0.022495233517558982 -0.016041201331613589 0 -0.025529604984776515 -0.028577649161071413 0 -0.022495233517558982 -0.016041201331613589 0 -0.021317234758462769 -0.028426922072658799 0 -0.020041293211217125 -0.029757436728044023 0 -0.021260835762292901 -0.029989078117569561 0 -0.020655202960092673 -0.03054394931596437 0 -0.020041293211217125 -0.029757436728044023 0 -0.021260835762292901 -0.029989078117569561 0 -0.021317234758462769 -0.028426922072658799 0 -0.021260835762292901 -0.029989078117569561 0 -0.023298461652372395 -0.030854272289043305 0 -0.022175280248564661 -0.031269676905810367 0 -0.021174590440270553 -0.031583300121884206 0 -0.022956210720163239 -0.032784142750376839 0 -0.021260835762292901 -0.029989078117569561 0 -0.022175280248564661 -0.031269676905810367 0 -0.021174590440270553 -0.031583300121884206 0 -0.02199041706654244 -0.032656067919410212 0 -0.023106558248803508 -0.032912332973928933 0 -0.020655202960092673 -0.03054394931596437 0 -0.021260835762292901 -0.029989078117569561 0 -0.021174590440270553 -0.031583300121884206 0 -0.023378627609889131 -0.033982558483838826 0 -0.023233503324066741 -0.033607596850994473 0 -0.022956210720163239 -0.032784142750376839 0 -0.023378627609889131 -0.033982558483838826 0 -0.023233503324066741 -0.033607596850994473 0 -0.023550817042351038 -0.034141956946454805 0 -0.023233503324066741 -0.033607596850994473 0 -0.023568440248405105 -0.034172216322426695 0 -0.023172545425193296 -0.033299099742868335 0 -0.020662649135962625 -0.039059085697643207 0 -0.016809924492553523 -0.039567939632472196 0 -0.017128954774397385 -0.0370737446900627 0 -0.021968398535063719 -0.036546238852259785 0 -0.019705288156999762 -0.036332962326931513 0 -0.023568440248405105 -0.034172216322426695 0 -0.023550817042351038 -0.034141956946454805 0 -0.023728591876060474 -0.034542613483657607 0 -0.023233503324066741 -0.033607596850994473 0 -0.023568440248405105 -0.034172216322426695 0 -0.023550817042351038 -0.034141956946454805 0 -0.023728591876060474 -0.034542613483657607 0 -0.023211601744595495 -0.03624172588586503 0 -0.022797034872753839 -0.034849385031311027 0 -0.023568440248405105 -0.034172216322426695 0 -0.023728591876060474 -0.034542613483657607 0 -0.023211601744595495 -0.03624172588586503 0 -0.021968398535063719 -0.036546238852259785 0 -0.022813471365547677 -0.036302212296450677 0 -0.020662649135962625 -0.039059085697643207 0 -0.023230407106458833 -0.037475450231106384 0 -0.023211601744595495 -0.03624172588586503 0 -0.027531659507536447 -0.031841268663049059 0 -0.022540750855863167 -0.039006617789825997 0 -0.02848621275202266 -0.038817563383788903 0 -0.023230407106458833 -0.037475450231106384 0 -0.026454105283468622 -0.036519258024617703 0 -0.021789039295835439 -0.036091787429601757 0 -0.023230407106458833 -0.037475450231106384 0 -0.023211601744595495 -0.03624172588586503 0 -0.027531659507536447 -0.031841268663049059 0 -0.020700392387029632 -0.030607264554167707 0 -0.021789039295835439 -0.036091787429601757 0 -0.023211601744595495 -0.03624172588586503 0 -0.022797034872753839 -0.034849385031311027 0 -0.015099268479178744 0.0028324612001411464 0 -0.014075283555809269 0.0060409217306007321 0 -0.016105414917451009 0.0053896413693815641 0 -0.012154038067517071 0.0026347930293596044 0 -0.015099268479178744 0.0028324612001411464 0 -0.014075283555809269 0.0060409217306007321 0 -0.016289785067434889 0.0077541331752339114 0 -0.014075283555809269 0.0060409217306007321 0 -0.016105414917451009 0.0053896413693815641 0 -0.012154038067517071 0.0026347930293596044 0 -0.014075283555809269 0.0060409217306007321 0 -0.011482851258294253 0.0071706798207749247 0 -0.0093500808860341716 0.0089375187719071651 0 -0.011482851258294253 0.0071706798207749247 0 -0.0088260363855399322 0.0055434119288297855 0 -0.012154038067517071 0.0026347930293596044 0 -0.011482851258294253 0.0071706798207749247 0 -0.0088260363855399322 0.0055434119288297855 0 -0.012480642834217338 -0.0061331275881208857 0 -0.016193799130366983 -0.013220175284260737 0 -0.021260835762292901 -0.029989078117569561 0 -0.022175280248564661 -0.031269676905810367 0 -0.023298461652372395 -0.030854272289043305 0 -0.007428067930369881 0.008447563437524494 0 -0.0054764714500512351 0.0082734478176724278 0 -0.0088260363855399322 0.0055434119288297855 0 -0.022175280248564661 -0.031269676905810367 0 -0.023298461652372395 -0.030854272289043305 0 -0.022956210720163239 -0.032784142750376839 0 -0.018572994523917911 -0.015357596174455672 0 -0.016193799130366983 -0.013220175284260737 0 -0.023694768837287286 -0.032416805678236085 0 -0.023298461652372395 -0.030854272289043305 0 -0.022956210720163239 -0.032784142750376839 0 -0.023694768837287286 -0.032416805678236085 0 -0.022956210720163239 -0.032784142750376839 0 -0.023200383974622492 -0.0330062156893225 0 -0.023694768837287286 -0.032416805678236085 0 -0.023200383974622492 -0.0330062156893225 0 -0.023466539790042512 -0.032750421903760443 0 -0.023233503324066741 -0.033607596850994473 0 -0.022956210720163239 -0.032784142750376839 0 -0.023200383974622492 -0.0330062156893225 0 -0.019705288156999762 -0.036332962326931513 0 -0.019547147867373389 -0.037044894739048977 0 -0.023233503324066741 -0.033607596850994473 0 -0.023200383974622492 -0.0330062156893225 0 -0.023172545425193296 -0.033299099742868335 0 -0.023200383974622492 -0.0330062156893225 0 -0.023172545425193296 -0.033299099742868335 0 -0.023270271614666424 -0.032976724726365501 0 -0.023200383974622492 -0.0330062156893225 0 -0.023270271614666424 -0.032976724726365501 0 -0.023466539790042512 -0.032750421903760443 0 -0.019547147867373389 -0.037044894739048977 0 -0.012326471002054242 -0.028876077950662552 0 -0.023270271614666424 -0.032976724726365501 0 -0.023466539790042512 -0.032750421903760443 0 -0.02338955755717631 -0.032744124021786759 0 -0.023694768837287286 -0.032416805678236085 0 -0.023466539790042512 -0.032750421903760443 0 -0.023460782748223004 -0.032610112612187339 0 -0.012154038067517071 0.0026347930293596044 0 -0.015099268479178744 0.0028324612001411464 0 -0.015705541903234213 -0.0004056846512661543 0 -0.018572994523917911 -0.015357596174455672 0 -0.016458609585865123 -0.013580582691806602 0 -0.0081711294960614671 -0.0076583562324216313 0 -0.0084856139866526081 -0.0078864139624971151 0 -0.0071209926868630062 -0.0097987188781284047 0 -0.023466539790042512 -0.032750421903760443 0 -0.023460782748223004 -0.032610112612187339 0 -0.02338955755717631 -0.032744124021786759 0 -0.016458609585865123 -0.013580582691806602 0 -0.013746805394239151 -0.011581744412227616 0 -0.016458609585865123 -0.013580582691806602 0 -0.012326471002054242 -0.028876077950662552 0 -0.010392509675999098 -0.038811579410572977 0 -0.0093223412397114899 -0.037361438620895908 0 -0.011623211523238036 -0.037465768888228002 0 -0.0093223412397114899 -0.037361438620895908 0 -0.011623211523238036 -0.037465768888228002 0 -0.010509258145323984 -0.036561259844828414 0 -0.0093223412397114899 -0.037361438620895908 0 -0.010509258145323984 -0.036561259844828414 0 -0.0087304343033602749 -0.036461950611279811 0 -0.011623211523238036 -0.037465768888228002 0 -0.012990765904201762 -0.036353122666678776 0 -0.010509258145323984 -0.036561259844828414 0 -0.012326471002054242 -0.028876077950662552 0 -0.010097858219856926 -0.04086123973907109 0 -0.01359986862077454 -0.039588177732972268 0 -0.010880741072427697 -0.039236120523423568 0 -0.011623211523238036 -0.037465768888228002 0 -0.016809924492553523 -0.039567939632472196 0 -0.01359986862077454 -0.039588177732972268 0 -0.014499806047403889 -0.037523620484009985 0 -0.01359986862077454 -0.039588177732972268 0 -0.011623211523238036 -0.037465768888228002 0 -0.014499806047403889 -0.037523620484009985 0 -0.016809924492553523 -0.039567939632472196 0 -0.014499806047403889 -0.037523620484009985 0 -0.017128954774397385 -0.0370737446900627 0 -0.014499806047403889 -0.037523620484009985 0 -0.015773516187893941 -0.035801412215179657 0 -0.017128954774397385 -0.0370737446900627 0 -0.011623211523238036 -0.037465768888228002 0 -0.014499806047403889 -0.037523620484009985 0 -0.012990765904201762 -0.036353122666678776 0 -0.014499806047403889 -0.037523620484009985 0 -0.012990765904201762 -0.036353122666678776 0 -0.015773516187893941 -0.035801412215179657 0 -0.012990765904201762 -0.036353122666678776 0 -0.013967688858079868 -0.03482309061933872 0 -0.01191684607224015 -0.035570960973607069 0 -0.012990765904201762 -0.036353122666678776 0 -0.015773516187893941 -0.035801412215179657 0 -0.013967688858079868 -0.03482309061933872 0 -0.015773516187893941 -0.035801412215179657 0 -0.013967688858079868 -0.03482309061933872 0 -0.016968756245354169 -0.033805604590060434 0 -0.013967688858079868 -0.03482309061933872 0 -0.016968756245354169 -0.033805604590060434 0 -0.014434652022690238 -0.033064603699971058 0 -0.013967688858079868 -0.03482309061933872 0 -0.012167234226806356 -0.034294995014520484 0 -0.014434652022690238 -0.033064603699971058 0 -0.012167234226806356 -0.034294995014520484 0 -0.010105955144066644 -0.03560634092776719 0 -0.01191684607224015 -0.035570960973607069 0 -0.013967688858079868 -0.03482309061933872 0 -0.012167234226806356 -0.034294995014520484 0 -0.01191684607224015 -0.035570960973607069 0 -0.012167234226806356 -0.034294995014520484 0 -0.010105955144066644 -0.03560634092776719 0 -0.010059873217051469 -0.034110148508327991 0 -0.010105955144066644 -0.03560634092776719 0 -0.008340464253241987 -0.035663911858160653 0 -0.0087304343033602749 -0.036461950611279811 0 -0.010105955144066644 -0.03560634092776719 0 -0.010059873217051469 -0.034110148508327991 0 -0.008340464253241987 -0.035663911858160653 0 -0.010105955144066644 -0.03560634092776719 0 -0.010509258145323984 -0.036561259844828414 0 -0.0087304343033602749 -0.036461950611279811 0 -0.012990765904201762 -0.036353122666678776 0 -0.010509258145323984 -0.036561259844828414 0 -0.01191684607224015 -0.035570960973607069 0 -0.010105955144066644 -0.03560634092776719 0 -0.010509258145323984 -0.036561259844828414 0 -0.01191684607224015 -0.035570960973607069 0 -0.027049970268124501 -0.033772618843451709 0 -0.026454105283468622 -0.036519258024617703 0 -0.023729495197653352 -0.035083357592409777 0 -0.023230407106458833 -0.037475450231106384 0 -0.023729495197653352 -0.035083357592409777 0 -0.019944119983656108 -0.036221714520345685 0 -0.023230407106458833 -0.037475450231106384 0 -0.026454105283468622 -0.036519258024617703 0 -0.023729495197653352 -0.035083357592409777 0 -0.027049970268124501 -0.033772618843451709 0 -0.023729495197653352 -0.035083357592409777 0 -0.023203149431543925 -0.031771822272002724 0 -0.019988465820753171 -0.036135166174394752 0 -0.021531100384713679 -0.033481840064770653 0 -0.023729495197653352 -0.035083357592409777 0 -0.019944119983656108 -0.036221714520345685 0 -0.023203149431543925 -0.031771822272002724 0 -0.019944119983656108 -0.036221714520345685 0 -0.018285012875864221 -0.035204951894507931 0 -0.019818541392521198 -0.035026313971178363 0 -0.020662649135962625 -0.039059085697643207 0 -0.023230407106458833 -0.037475450231106384 0 -0.019944119983656108 -0.036221714520345685 0 -0.020662649135962625 -0.039059085697643207 0 -0.019944119983656108 -0.036221714520345685 0 -0.017128954774397385 -0.0370737446900627 0 -0.015773516187893941 -0.035801412215179657 0 -0.017128954774397385 -0.0370737446900627 0 -0.018285012875864221 -0.035204951894507931 0 -0.019944119983656108 -0.036221714520345685 0 -0.017128954774397385 -0.0370737446900627 0 -0.018285012875864221 -0.035204951894507931 0 -0.015773516187893941 -0.035801412215179657 0 -0.018285012875864221 -0.035204951894507931 0 -0.016968756245354169 -0.033805604590060434 0 -0.018285012875864221 -0.035204951894507931 0 -0.016968756245354169 -0.033805604590060434 0 -0.019090595607033533 -0.03345957616902144 0 -0.018285012875864221 -0.035204951894507931 0 -0.019090595607033533 -0.03345957616902144 0 -0.019818541392521198 -0.035026313971178363 0 -0.021531100384713679 -0.033481840064770653 0 -0.023382638410434444 -0.031541758899792098 0 -0.019090595607033533 -0.03345957616902144 0 -0.019818541392521198 -0.035026313971178363 0 -0.020836994300914086 -0.033234623614116901 0 -0.023203149431543925 -0.031771822272002724 0 -0.026132326283703562 -0.029265421859583869 0 -0.027689315729838553 -0.03105940166088449 0 -0.028545357239069633 -0.029564296187681551 0 -0.026132326283703562 -0.029265421859583869 0 -0.027689315729838553 -0.03105940166088449 0 -0.027049970268124501 -0.033772618843451709 0 -0.023203149431543925 -0.031771822272002724 0 -0.027689315729838553 -0.03105940166088449 0 -0.022046583071586683 -0.031195501754803252 0 -0.021045467042990301 -0.030128952391922439 0 -0.022455209885248611 -0.0296815636609041 0 -0.022046583071586683 -0.031195501754803252 0 -0.02072355800118449 -0.031487086650747349 0 -0.021045467042990301 -0.030128952391922439 0 -0.028545357239069633 -0.029564296187681551 0 -0.026132326283703562 -0.029265421859583869 0 -0.028284436955641271 -0.027928418737205168 0 -0.023382638410434444 -0.031541758899792098 0 -0.025206734500016294 -0.028409068007585997 0 -0.020836994300914086 -0.033234623614116901 0 -0.022046583071586683 -0.031195501754803252 0 -0.02072355800118449 -0.031487086650747349 0 -0.020836994300914086 -0.033234623614116901 0 -0.019816504114342964 -0.032109378589947148 0 -0.02072355800118449 -0.031487086650747349 0 -0.019090595607033533 -0.03345957616902144 0 -0.020836994300914086 -0.033234623614116901 0 -0.019816504114342964 -0.032109378589947148 0 -0.019816504114342964 -0.032109378589947148 0 -0.02072355800118449 -0.031487086650747349 0 -0.019859243547569433 -0.030723551926826565 0 -0.02072355800118449 -0.031487086650747349 0 -0.019859243547569433 -0.030723551926826565 0 -0.021045467042990301 -0.030128952391922439 0 -0.019859243547569433 -0.030723551926826565 0 -0.018446609130549057 -0.031728010709758364 0 -0.018811645524155946 -0.029785947483637318 0 -0.018446609130549057 -0.031728010709758364 0 -0.017620102568932764 -0.030362076515115397 0 -0.018811645524155946 -0.029785947483637318 0 -0.019816504114342964 -0.032109378589947148 0 -0.019859243547569433 -0.030723551926826565 0 -0.018446609130549057 -0.031728010709758364 0 -0.019090595607033533 -0.03345957616902144 0 -0.019816504114342964 -0.032109378589947148 0 -0.018446609130549057 -0.031728010709758364 0 -0.016968756245354169 -0.033805604590060434 0 -0.018446609130549057 -0.031728010709758364 0 -0.016461761656766098 -0.031833481628132425 0 -0.016968756245354169 -0.033805604590060434 0 -0.019090595607033533 -0.03345957616902144 0 -0.018446609130549057 -0.031728010709758364 0 -0.018446609130549057 -0.031728010709758364 0 -0.017620102568932764 -0.030362076515115397 0 -0.016461761656766098 -0.031833481628132425 0 -0.017620102568932764 -0.030362076515115397 0 -0.016461761656766098 -0.031833481628132425 0 -0.016178204269392434 -0.030298432090287021 0 -0.017620102568932764 -0.030362076515115397 0 -0.017860013993019282 -0.02888084856092412 0 -0.016632316103637211 -0.029155698273402818 0 -0.017620102568932764 -0.030362076515115397 0 -0.017860013993019282 -0.02888084856092412 0 -0.018811645524155946 -0.029785947483637318 0 -0.017620102568932764 -0.030362076515115397 0 -0.016632316103637211 -0.029155698273402818 0 -0.016178204269392434 -0.030298432090287021 0 -0.017860013993019282 -0.02888084856092412 0 -0.016632316103637211 -0.029155698273402818 0 -0.016974547374429882 -0.028726744777240461 0 -0.015708736876392248 -0.028978219796869872 0 -0.014908952585525641 -0.032852667996294931 0 -0.016632316103637211 -0.029155698273402818 0 -0.016974547374429882 -0.028726744777240461 0 -0.01664955032715382 -0.028422297922242497 0 -0.017860013993019282 -0.02888084856092412 0 -0.016974547374429882 -0.028726744777240461 0 -0.01664955032715382 -0.028422297922242497 0 -0.017860013993019282 -0.02888084856092412 0 -0.01664955032715382 -0.028422297922242497 0 -0.016638910026501304 -0.027841418206162212 0 -0.017860013993019282 -0.02888084856092412 0 -0.016638910026501304 -0.027841418206162212 0 -0.018877969621750396 -0.028180479685013565 0 -0.026874310385859041 -0.044508182187828607 0 -0.027103662116174591 -0.044532659093176601 0 -0.02703943703670646 -0.044442308553468923 0 -0.015791523308323712 -0.041494498654916216 0 -0.024173149447373969 -0.035974532912885902 0 -0.014908952585525641 -0.032852667996294931 0 -0.015791523308323712 -0.041494498654916216 0 -0.017860013993019282 -0.02888084856092412 0 -0.018877969621750396 -0.028180479685013565 0 -0.018811645524155946 -0.029785947483637318 0 -0.018877969621750396 -0.028180479685013565 0 -0.018811645524155946 -0.029785947483637318 0 -0.019940498509457387 -0.029483046122733874 0 -0.019859243547569433 -0.030723551926826565 0 -0.018811645524155946 -0.029785947483637318 0 -0.019940498509457387 -0.029483046122733874 0 -0.021045467042990301 -0.030128952391922439 0 -0.019940498509457387 -0.029483046122733874 0 -0.021107926286048555 -0.028590077199082121 0 -0.019859243547569433 -0.030723551926826565 0 -0.021045467042990301 -0.030128952391922439 0 -0.019940498509457387 -0.029483046122733874 0 -0.024173149447373969 -0.035974532912885902 0 -0.023682429610661079 -0.036868202870842498 0 -0.027345687050271898 -0.044607847354426342 0 -0.027355304337509039 -0.044374734007665229 0 -0.027211731896311472 -0.044426079525594693 0 -0.027103662116174591 -0.044532659093176601 0 -0.027345687050271898 -0.044607847354426342 0 -0.027211731896311472 -0.044426079525594693 0 -0.018877969621750396 -0.028180479685013565 0 -0.019940498509457387 -0.029483046122733874 0 -0.021107926286048555 -0.028590077199082121 0 -0.02751290694984233 -0.033750159566947692 0 -0.023682429610661079 -0.036868202870842498 0 -0.027802724012055056 -0.044766038153094177 0 -0.027345687050271898 -0.044607847354426342 0 -0.027589089266720372 -0.04455689535375796 0 -0.027345687050271898 -0.044607847354426342 0 -0.027589089266720372 -0.04455689535375796 0 -0.027355304337509039 -0.044374734007665229 0 -0.021045467042990301 -0.030128952391922439 0 -0.021107926286048555 -0.028590077199082121 0 -0.022455209885248611 -0.0296815636609041 0 -0.02333233911015628 -0.029018639337904883 0 -0.021107926286048555 -0.028590077199082121 0 -0.022455209885248611 -0.0296815636609041 0 -0.023328192106599251 -0.029042325507911693 0 -0.022046583071586683 -0.031195501754803252 0 -0.022455209885248611 -0.0296815636609041 0 -0.01076154514087142 -0.031552716500745918 0 -0.012400347274341333 -0.032518315077275872 0 -0.012575299258584929 -0.030805909434334332 0 -0.0088688916485379944 -0.035537113827568752 0 -0.011124884261795056 -0.034071379520797744 0 0.00031065580220186181 -0.039560945360124916 0 -0.0016120221335261039 -0.043427436041806232 0 -0.0025218342658816875 -0.040766315828489511 0 0.00031065580220186181 -0.039560945360124916 0 -0.0025218342658816875 -0.040766315828489511 0 -0.0024981542088284223 -0.037824283614675075 0 -0.0088688916485379944 -0.035537113827568752 0 -0.0051100289240943765 -0.036105779366985107 0 -0.0088688916485379944 -0.035537113827568752 0 -0.010410325569509648 -0.032668254415924823 0 -0.010074209014568148 -0.032709901794258874 0 -0.010059873217051469 -0.034110148508327991 0 -0.0087387905843736725 -0.033507208340758918 0 -0.010059873217051469 -0.034110148508327991 0 -0.0087387905843736725 -0.033507208340758918 0 -0.008340464253241987 -0.035663911858160653 0 -0.012167234226806356 -0.034294995014520484 0 -0.010059873217051469 -0.034110148508327991 0 -0.012400347274341333 -0.032518315077275872 0 -0.01076154514087142 -0.031552716500745918 0 -0.010059873217051469 -0.034110148508327991 0 -0.012400347274341333 -0.032518315077275872 0 -0.012167234226806356 -0.034294995014520484 0 -0.012400347274341333 -0.032518315077275872 0 -0.014434652022690238 -0.033064603699971058 0 -0.012400347274341333 -0.032518315077275872 0 -0.014434652022690238 -0.033064603699971058 0 -0.013958500119065975 -0.031519531176306015 0 -0.014365055951277961 -0.033339540235134774 0 -0.014673985369829987 -0.030283649423725786 0 -0.016968756245354169 -0.033805604590060434 0 -0.014434652022690238 -0.033064603699971058 0 -0.016461761656766098 -0.031833481628132425 0 -0.014434652022690238 -0.033064603699971058 0 -0.016461761656766098 -0.031833481628132425 0 -0.014973179503356169 -0.030928214528788404 0 -0.016461761656766098 -0.031833481628132425 0 -0.014973179503356169 -0.030928214528788404 0 -0.016178204269392434 -0.030298432090287021 0 -0.012400347274341333 -0.032518315077275872 0 -0.013958500119065975 -0.031519531176306015 0 -0.012575299258584929 -0.030805909434334332 0 -0.013958500119065975 -0.031519531176306015 0 -0.012575299258584929 -0.030805909434334332 0 -0.013693056460273936 -0.030290587013957482 0 -0.011124884261795056 -0.034071379520797744 0 -0.011318425976111979 -0.034721591587989244 0 -0.0092016706034886118 -0.037722020999677412 0 -0.0081220185537453707 -0.041768050342739255 0 -0.0041704747287979399 -0.040787758865509546 0 -0.014973179503356169 -0.030928214528788404 0 -0.016178204269392434 -0.030298432090287021 0 -0.015258229835966277 -0.029119250517641995 0 -0.014673985369829987 -0.030283649423725786 0 -0.011318425976111979 -0.034721591587989244 0 -0.016632316103637211 -0.029155698273402818 0 -0.016178204269392434 -0.030298432090287021 0 -0.015258229835966277 -0.029119250517641995 0 -0.016632316103637211 -0.029155698273402818 0 -0.016605171362287226 -0.028364309317726984 0 -0.015258229835966277 -0.029119250517641995 0 -0.012329281985740743 -0.037559283468753632 0 -0.011944642663603356 -0.038209651817720826 0 -0.012240692596570943 -0.038568422741821665 0 -0.0041704747287979399 -0.040787758865509546 0 -0.0038474052976092176 -0.045615569966017525 0 -0.0055370271822926141 -0.04380635346495311 0 -0.011318425976111979 -0.034721591587989244 0 -0.006768681434963556 -0.043808551123458134 0 -0.011560975470071637 -0.038041316474768411 0 -0.012329281985740743 -0.037559283468753632 0 -0.011944642663603356 -0.038209651817720826 0 -0.014908952585525641 -0.032852667996294931 0 -0.011318425976111979 -0.034721591587989244 0 -0.011560975470071637 -0.038041316474768411 0 -0.01157027674245858 -0.038426332580703895 0 -0.011944642663603356 -0.038209651817720826 0 -0.0043983971227413406 -0.045706116554097662 0 -0.0040799612895376976 -0.045651646632156581 0 -0.0054850255505131612 -0.046897803363236734 0 -0.0043983971227413406 -0.045706116554097662 0 -0.0038474052976092176 -0.045615569966017525 0 -0.0055370271822926141 -0.04380635346495311 0 -0.0064492064580593837 -0.043840695462993309 0 -0.006768681434963556 -0.043808551123458134 0 -0.0031148694296055553 -0.04627771835874863 0 -0.0045760262980493703 -0.04656958229517965 0 -0.0036171651660452317 -0.047607619760107786 0 -0.01157027674245858 -0.038426332580703895 0 -0.011944642663603356 -0.038209651817720826 0 -0.012240692596570943 -0.038568422741821665 0 -0.015791523308323712 -0.041494498654916216 0 -0.006768681434963556 -0.043808551123458134 0 -0.0057397910707934719 -0.045029661728752821 0 -0.0096429338103596034 -0.044769510189321994 0 -0.011515888745399029 -0.048628733188824907 0 -0.0081220185537453707 -0.041768050342739255 0 -0.0074758363135198251 -0.043616946588017819 0 -0.0055370271822926141 -0.04380635346495311 0 -0.0081220185537453707 -0.041768050342739255 0 -0.0074758363135198251 -0.043616946588017819 0 -0.0096429338103596034 -0.044769510189321994 0 -0.0081220185537453707 -0.041768050342739255 0 -0.0041704747287979399 -0.040787758865509546 0 -0.0055370271822926141 -0.04380635346495311 0 -0.0074758363135198251 -0.043616946588017819 0 -0.0055370271822926141 -0.04380635346495311 0 -0.0057397910707934719 -0.045029661728752821 0 -0.0043983971227413406 -0.045706116554097662 0 -0.0057397910707934719 -0.045029661728752821 0 -0.0054850255505131612 -0.046897803363236734 0 -0.0043983971227413406 -0.045706116554097662 0 -0.0055370271822926141 -0.04380635346495311 0 -0.0057397910707934719 -0.045029661728752821 0 -0.0074758363135198251 -0.043616946588017819 0 -0.0057397910707934719 -0.045029661728752821 0 -0.0096429338103596034 -0.044769510189321994 0 -0.0055632836151206294 -0.043120676788007815 0 -0.0058937148885845588 -0.048209101782704371 0 -0.0096429338103596034 -0.044769510189321994 0 -0.012837375803406494 -0.041586297449490578 0 -0.011515888745399029 -0.048628733188824907 0 -0.0081220185537453707 -0.041768050342739255 0 -0.0096429338103596034 -0.044769510189321994 0 -0.012837375803406494 -0.041586297449490578 0 0.0010522223310913664 -0.043876181863707057 0 -0.0010559371671949173 -0.046325103523538816 0 0.0016613105439304849 -0.04784741036698676 0 -0.014078907070352689 -0.034804383704126959 0 -0.0092016706034886118 -0.037722020999677412 0 -0.012837375803406494 -0.041586297449490578 0 -0.0092016706034886118 -0.037722020999677412 0 -0.0081220185537453707 -0.041768050342739255 0 -0.012837375803406494 -0.041586297449490578 0 -0.0088688916485379944 -0.035537113827568752 0 -0.0055632836151206294 -0.043120676788007815 0 0.00031065580220186181 -0.039560945360124916 0 0.0010522223310913664 -0.043876181863707057 0 -0.0016120221335261039 -0.043427436041806232 0 0.0010522223310913664 -0.043876181863707057 0 -0.0016120221335261039 -0.043427436041806232 0 -0.0010559371671949173 -0.046325103523538816 0 -0.0016120221335261039 -0.043427436041806232 0 -0.0010559371671949173 -0.046325103523538816 0 -0.0039109622712558941 -0.045982459227738276 0 -0.0016120221335261039 -0.043427436041806232 0 -0.0039109622712558941 -0.045982459227738276 0 -0.0038921149856010252 -0.043039955674759579 0 -0.0039109622712558941 -0.045982459227738276 0 -0.0062052272946089993 -0.043968805149459951 0 -0.0038921149856010252 -0.043039955674759579 0 -0.0039109622712558941 -0.045982459227738276 0 -0.0062052272946089993 -0.043968805149459951 0 -0.0067030659305701594 -0.048133646813621672 0 -0.0062052272946089993 -0.043968805149459951 0 -0.0038921149856010252 -0.043039955674759579 0 -0.0050794094077800233 -0.039737316927354258 0 -0.0016120221335261039 -0.043427436041806232 0 -0.0038921149856010252 -0.043039955674759579 0 -0.0025218342658816875 -0.040766315828489511 0 -0.0091817039713749955 -0.044186479964389257 0 -0.0099554852636390221 -0.04816990926246513 0 -0.0067030659305701594 -0.048133646813621672 0 -0.0080106391496306325 -0.042550698448746899 0 -0.0085243589754535835 -0.046035349998720949 0 -0.0062052272946089993 -0.043968805149459951 0 -0.0091817039713749955 -0.044186479964389257 0 -0.0067030659305701594 -0.048133646813621672 0 -0.0080106391496306325 -0.042550698448746899 0 -0.0071349600685711098 -0.039580433557601997 0 -0.0062052272946089993 -0.043968805149459951 0 -0.0091817039713749955 -0.044186479964389257 0 -0.0071940573236365596 -0.039319084098546092 0 -0.0071940573236365596 -0.039319084098546092 0 -0.0080802004167992315 -0.037816915587524119 0 -0.0082120524783635667 -0.039502243480397763 0 -0.00689996161586007 -0.040965024831666641 0 -0.0071940573236365596 -0.039319084098546092 0 -0.0082120524783635667 -0.039502243480397763 0 -0.0071940573236365596 -0.039319084098546092 0 -0.0080802004167992315 -0.037816915587524119 0 -0.0073197824456440888 -0.036873284082830034 0 -0.0038921149856010252 -0.043039955674759579 0 -0.0025218342658816875 -0.040766315828489511 0 -0.0050794094077800233 -0.039737316927354258 0 -0.0025218342658816875 -0.040766315828489511 0 -0.0050794094077800233 -0.039737316927354258 0 -0.0024981542088284223 -0.037824283614675075 0 -0.0071940573236365596 -0.039319084098546092 0 -0.0050794094077800233 -0.039737316927354258 0 -0.0063672656271811581 -0.036054100785622573 0 -0.0062052272946089993 -0.043968805149459951 0 -0.0071940573236365596 -0.039319084098546092 0 -0.0050794094077800233 -0.039737316927354258 0 -0.0071940573236365596 -0.039319084098546092 0 -0.0063672656271811581 -0.036054100785622573 0 -0.0073197824456440888 -0.036873284082830034 0 -0.0050794094077800233 -0.039737316927354258 0 -0.0063672656271811581 -0.036054100785622573 0 -0.0024981542088284223 -0.037824283614675075 0 -0.0063672656271811581 -0.036054100785622573 0 -0.0087387905843736725 -0.033507208340758918 0 -0.008340464253241987 -0.035663911858160653 0 -0.0064374588421941981 -0.035736831454437255 0 -0.0051100289240943765 -0.036105779366985107 0 -0.008340464253241987 -0.035663911858160653 0 -0.0087304343033602749 -0.036461950611279811 0 -0.0073482502566113109 -0.036332826565131524 0 -0.0063672656271811581 -0.036054100785622573 0 -0.008340464253241987 -0.035663911858160653 0 -0.0073482502566113109 -0.036332826565131524 0 -0.0087304343033602749 -0.036461950611279811 0 -0.0073482502566113109 -0.036332826565131524 0 -0.0078088443408357256 -0.036901794569864789 0 -0.0073482502566113109 -0.036332826565131524 0 -0.0075217379865906552 -0.036671120416291961 0 -0.0078088443408357256 -0.036901794569864789 0 -0.0063672656271811581 -0.036054100785622573 0 -0.0073482502566113109 -0.036332826565131524 0 -0.0073197824456440888 -0.036873284082830034 0 -0.0073197824456440888 -0.036873284082830034 0 -0.0077665432051566312 -0.036925128604870031 0 -0.0075217379865906552 -0.036671120416291961 0 -0.0073482502566113109 -0.036332826565131524 0 -0.0073197824456440888 -0.036873284082830034 0 -0.0075217379865906552 -0.036671120416291961 0 -0.0080802004167992315 -0.037816915587524119 0 -0.0073197824456440888 -0.036873284082830034 0 -0.0077665432051566312 -0.036925128604870031 0 -0.0077665432051566312 -0.036925128604870031 0 -0.0075217379865906552 -0.036671120416291961 0 -0.0078312746846048997 -0.036633520391141886 0 -0.0075217379865906552 -0.036671120416291961 0 -0.0075687335038330398 -0.036750844107062766 0 -0.0078088443408357256 -0.036901794569864789 0 -0.0075217379865906552 -0.036671120416291961 0 -0.0078312746846048997 -0.036633520391141886 0 -0.0075687335038330398 -0.036750844107062766 0 -0.0078312746846048997 -0.036633520391141886 0 -0.0075687335038330398 -0.036750844107062766 0 -0.0080976906245733456 -0.036282546334175804 0 -0.01323663211133388 -0.02349681999784169 0 -0.00040251546016855581 -0.025192454040942478 0 -0.014150159249800148 -0.0092522154351841676 0 -0.013309395166176146 -0.01015254634741557 0 -0.015385206198907295 -0.010632258257894033 0 -0.012240655636067306 -0.0087399284045258981 0 -0.013309395166176146 -0.01015254634741557 0 -0.010697831231965854 -0.010059033394468616 0 -0.01323663211133388 -0.02349681999784169 0 -0.0080105300880657804 -0.023196262750289659 0 -0.0075687335038330398 -0.036750844107062766 0 -0.0081141931672622739 -0.03779528748628528 0 -0.0078088443408357256 -0.036901794569864789 0 -0.010392509675999098 -0.038811579410572977 0 -0.0093223412397114899 -0.037361438620895908 0 -0.0081141931672622739 -0.03779528748628528 0 -0.012326471002054242 -0.028876077950662552 0 -0.0080105300880657804 -0.023196262750289659 0 -0.0093223412397114899 -0.037361438620895908 0 -0.0081141931672622739 -0.03779528748628528 0 -0.0078088443408357256 -0.036901794569864789 0 -0.0093223412397114899 -0.037361438620895908 0 -0.0087304343033602749 -0.036461950611279811 0 -0.0078088443408357256 -0.036901794569864789 0 0.0098917549828401001 -0.027246963651985735 0 0.011979773424928012 -0.028392840140708506 0 0.009283738926310417 -0.029583708589447515 0 0.013344948798472245 -0.026682006785610512 0 0.0057150506572326712 -0.027537615877135945 0 0.0098917549828401001 -0.027246963651985735 0 0.009283738926310417 -0.029583708589447515 0 0.0069953489704549822 -0.027489259197232392 0 0.0086434571600598649 -0.024231119513687272 0 0.010441484864093296 -0.026280203829969883 0 0.0069953489704549822 -0.027489259197232392 0 0.0086434571600598649 -0.024231119513687272 0 0.010441484864093296 -0.026280203829969883 0 0.01131548754204127 -0.024526881954355203 0 0.013183762426993212 -0.023784973832300792 0 0.01131548754204127 -0.024526881954355203 0 0.012954170863104878 -0.025493569990043794 0 0.010441484864093296 -0.026280203829969883 0 0.01131548754204127 -0.024526881954355203 0 0.012954170863104878 -0.025493569990043794 0 0.0027588018986367878 -0.014053177472920174 0 -0.00040251546016855581 -0.025192454040942478 0 -0.014150159249800148 -0.0092522154351841676 0 -0.015110016687321547 -0.0091951529961781971 0 -0.015385206198907295 -0.010632258257894033 0 -0.015110016687321547 -0.0091951529961781971 0 -0.015242769631123363 -0.00914612521379282 0 -0.015385206198907295 -0.010632258257894033 0 -0.00040251546016855581 -0.025192454040942478 0 0.0027559449544950188 -0.035192413138061929 0 -0.0078312746846048997 -0.036633520391141886 0 -0.0080976906245733456 -0.036282546334175804 0 -0.0086163521810540145 -0.036836026694423346 0 0.013767408488540923 -0.026533140635502994 0 0.011979773424928012 -0.028392840140708506 0 0.013417255374664381 -0.030704052971749517 0 0.0098917549828401001 -0.027246963651985735 0 0.013767408488540923 -0.026533140635502994 0 0.011979773424928012 -0.028392840140708506 0 0.013344948798472245 -0.026682006785610512 0 -0.00040251546016855581 -0.025192454040942478 0 0.011979773424928012 -0.028392840140708506 0 0.013417255374664381 -0.030704052971749517 0 0.009283738926310417 -0.029583708589447515 0 -0.0077665432051566312 -0.036925128604870031 0 -0.0078312746846048997 -0.036633520391141886 0 -0.0086163521810540145 -0.036836026694423346 0 -0.0080802004167992315 -0.037816915587524119 0 -0.0086163521810540145 -0.036836026694423346 0 -0.0093329730982725529 -0.038160381028231397 0 -0.0080802004167992315 -0.037816915587524119 0 -0.0077665432051566312 -0.036925128604870031 0 -0.0086163521810540145 -0.036836026694423346 0 0.0027559449544950188 -0.035192413138061929 0 0.0017768226064659122 -0.036822302794892618 0 0.013417255374664381 -0.030704052971749517 0 0.010625430356320137 -0.03269927816705194 0 0.013000387532028578 -0.035996416948449302 0 0.010625430356320137 -0.03269927816705194 0 0.009283738926310417 -0.029583708589447515 0 0.0072981030430848857 -0.03171799742634638 0 0.010625430356320137 -0.03269927816705194 0 0.0072981030430848857 -0.03171799742634638 0 0.0080911443539997737 -0.036340672634533736 0 0.013417255374664381 -0.030704052971749517 0 0.010625430356320137 -0.03269927816705194 0 0.009283738926310417 -0.029583708589447515 0 0.009283738926310417 -0.029583708589447515 0 0.0069953489704549822 -0.027489259197232392 0 0.0066535666436560847 -0.029763561113482488 0 0.009283738926310417 -0.029583708589447515 0 0.0072981030430848857 -0.03171799742634638 0 0.0066535666436560847 -0.029763561113482488 0 0.0080911443539997737 -0.036340672634533736 0 0.004243385502304858 -0.035080094922268185 0 0.0042589998146074989 -0.038348382308350464 0 0.0072981030430848857 -0.03171799742634638 0 0.0080911443539997737 -0.036340672634533736 0 0.004243385502304858 -0.035080094922268185 0 0.0080911443539997737 -0.036340672634533736 0 0.0097387330245823529 -0.039444736744638817 0 0.013000387532028578 -0.035996416948449302 0 0.010625430356320137 -0.03269927816705194 0 0.0080911443539997737 -0.036340672634533736 0 0.013000387532028578 -0.035996416948449302 0 0.0080911443539997737 -0.036340672634533736 0 0.0097387330245823529 -0.039444736744638817 0 0.0070544077541783061 -0.041225586072208775 0 0.0097387330245823529 -0.039444736744638817 0 0.0070544077541783061 -0.041225586072208775 0 0.0093730279474021384 -0.041964570503639158 0 0.0073318181017219177 -0.043052175828099552 0 0.0055125493905707089 -0.041602023380949954 0 0.0073544909401991121 -0.044806077136931154 0 0.0065462944498157491 -0.04453148776183917 0 0.0066794776890969345 -0.04553522473722503 0 0.0080911443539997737 -0.036340672634533736 0 0.0070544077541783061 -0.041225586072208775 0 0.0042589998146074989 -0.038348382308350464 0 -0.0080802004167992315 -0.037816915587524119 0 -0.0093329730982725529 -0.038160381028231397 0 -0.0082120524783635667 -0.039502243480397763 0 0.0017768226064659122 -0.036822302794892618 0 0.00070125128122101518 -0.041575059850499634 0 0.0097387330245823529 -0.039444736744638817 0 0.013000387532028578 -0.035996416948449302 0 0.011511538627707129 -0.042683201374698256 0 -0.0093329730982725529 -0.038160381028231397 0 -0.0082120524783635667 -0.039502243480397763 0 -0.010018766576122315 -0.040441007399649613 0 -0.0082120524783635667 -0.039502243480397763 0 -0.0085880863268666969 -0.040743884727075713 0 -0.010018766576122315 -0.040441007399649613 0 -0.00689996161586007 -0.040965024831666641 0 -0.0082120524783635667 -0.039502243480397763 0 -0.0085880863268666969 -0.040743884727075713 0 -0.00689996161586007 -0.040965024831666641 0 -0.0085880863268666969 -0.040743884727075713 0 -0.0084898924287777587 -0.042396594564771913 0 -0.0085880863268666969 -0.040743884727075713 0 -0.010018766576122315 -0.040441007399649613 0 -0.0084898924287777587 -0.042396594564771913 0 0.00070125128122101518 -0.041575059850499634 0 -0.00086282109785723853 -0.045595635684079275 0 0.011511538627707129 -0.042683201374698256 0 0.0094201308165807705 -0.044484285523249824 0 0.0088884593814200739 -0.047394611020603737 0 -0.010018766576122315 -0.040441007399649613 0 -0.0084898924287777587 -0.042396594564771913 0 -0.010751546072073249 -0.04403000286061861 0 -0.00689996161586007 -0.040965024831666641 0 -0.0084898924287777587 -0.042396594564771913 0 -0.0071312730034941091 -0.043910556576357979 0 0.0073544909401991121 -0.044806077136931154 0 0.0073783740449828343 -0.045628861278851712 0 0.0066794776890969345 -0.04553522473722503 0 0.0073783740449828343 -0.045628861278851712 0 0.0066794776890969345 -0.04553522473722503 0 0.0065207399488777613 -0.046364709086204971 0 0.0070544077541783061 -0.041225586072208775 0 0.0093730279474021384 -0.041964570503639158 0 0.0094201308165807705 -0.044484285523249824 0 0.0073318181017219177 -0.043052175828099552 0 0.0093532905324577274 -0.044508785922804397 0 0.0073544909401991121 -0.044806077136931154 0 0.0094201308165807705 -0.044484285523249824 0 0.0073783740449828343 -0.045628861278851712 0 0.011511538627707129 -0.042683201374698256 0 0.0093730279474021384 -0.041964570503639158 0 0.0094201308165807705 -0.044484285523249824 0 0.0097387330245823529 -0.039444736744638817 0 0.011511538627707129 -0.042683201374698256 0 0.0093730279474021384 -0.041964570503639158 0 0.0094201308165807705 -0.044484285523249824 0 0.0079378258578116159 -0.046387020276609479 0 0.0073783740449828343 -0.045628861278851712 0 0.0094201308165807705 -0.044484285523249824 0 0.0079378258578116159 -0.046387020276609479 0 0.0088884593814200739 -0.047394611020603737 0 0.0079378258578116159 -0.046387020276609479 0 0.0071551331232126286 -0.046624967382801745 0 0.0073549734950230164 -0.047408768469741791 0 0.0079378258578116159 -0.046387020276609479 0 0.0071551331232126286 -0.046624967382801745 0 0.0073783740449828343 -0.045628861278851712 0 0.0071551331232126286 -0.046624967382801745 0 0.0073783740449828343 -0.045628861278851712 0 0.0065207399488777613 -0.046364709086204971 0 0.0071551331232126286 -0.046624967382801745 0 0.0064922276879421266 -0.047364146106839457 0 0.0065207399488777613 -0.046364709086204971 0 0.0071551331232126286 -0.046624967382801745 0 0.0064922276879421266 -0.047364146106839457 0 0.0073549734950230164 -0.047408768469741791 0 0.0073549734950230164 -0.047408768469741791 0 0.0072426113082160078 -0.048063523674815548 0 0.0063808650726387122 -0.04808474739872079 0 0.0064922276879421266 -0.047364146106839457 0 0.0073549734950230164 -0.047408768469741791 0 0.0063808650726387122 -0.04808474739872079 0 0.0064922276879421266 -0.047364146106839457 0 0.0063808650726387122 -0.04808474739872079 0 0.0058332605464658602 -0.047911509905880854 0 0.0079378258578116159 -0.046387020276609479 0 0.0088884593814200739 -0.047394611020603737 0 0.0073549734950230164 -0.047408768469741791 0 0.0088884593814200739 -0.047394611020603737 0 0.0073549734950230164 -0.047408768469741791 0 0.0072426113082160078 -0.048063523674815548 0 0.0088884593814200739 -0.047394611020603737 0 0.0072426113082160078 -0.048063523674815548 0 0.0072877996585490176 -0.048717512683065699 0 -0.00086282109785723853 -0.045595635684079275 0 -0.0016641638341209767 -0.048907015451690967 0 0.0072426113082160078 -0.048063523674815548 0 0.0072877996585490176 -0.048717512683065699 0 0.0063796738521005028 -0.048620866509482476 0 0.0063808650726387122 -0.04808474739872079 0 0.0058332605464658602 -0.047911509905880854 0 0.0053699643371977242 -0.048685249639586273 0 0.0072426113082160078 -0.048063523674815548 0 0.0063808650726387122 -0.04808474739872079 0 0.0063796738521005028 -0.048620866509482476 0 0.0063808650726387122 -0.04808474739872079 0 0.0063796738521005028 -0.048620866509482476 0 0.0053699643371977242 -0.048685249639586273 0 0.0063796738521005028 -0.048620866509482476 0 0.0056827371209437049 -0.049501150402641948 0 0.0053699643371977242 -0.048685249639586273 0 0.0056827371209437049 -0.049501150402641948 0 0.0053699643371977242 -0.048685249639586273 0 0.0038768851291105409 -0.049418711112699125 0 -0.0016641638341209767 -0.048907015451690967 0 -0.0015384232249938744 -0.052412709593953492 0 0.0072877996585490176 -0.048717512683065699 0 0.0056827371209437049 -0.049501150402641948 0 0.006222992812763747 -0.051131690201444674 0 0.0072877996585490176 -0.048717512683065699 0 0.0063796738521005028 -0.048620866509482476 0 0.0056827371209437049 -0.049501150402641948 0 -0.01080037592442782 -0.0492525105589448 0 -0.0093151862642144416 -0.05402037791110742 0 -0.0091604083800593383 -0.052336894644228728 0 -0.0093151862642144416 -0.05402037791110742 0 -0.0083879413064966522 -0.053736729121661338 0 -0.0091604083800593383 -0.052336894644228728 0 0.006222992812763747 -0.051131690201444674 0 0.0046832715213197306 -0.050621938731710628 0 0.002857253969377126 -0.052919927850105623 0 0.0056827371209437049 -0.049501150402641948 0 0.0046832715213197306 -0.050621938731710628 0 0.0038768851291105409 -0.049418711112699125 0 0.0056827371209437049 -0.049501150402641948 0 0.006222992812763747 -0.051131690201444674 0 0.0046832715213197306 -0.050621938731710628 0 -0.0084763323285937716 -0.052805441381706356 0 -0.007722186256593204 -0.053911499313229957 0 -0.0077780839971106899 -0.054387475805240067 0 -0.0084763323285937716 -0.052805441381706356 0 -0.008032122181947687 -0.052756390020559769 0 -0.007722186256593204 -0.053911499313229957 0 -0.0084763323285937716 -0.052805441381706356 0 -0.0083879413064966522 -0.053736729121661338 0 -0.0077780839971106899 -0.054387475805240067 0 -0.0084763323285937716 -0.052805441381706356 0 -0.0083879413064966522 -0.053736729121661338 0 -0.0091604083800593383 -0.052336894644228728 0 -0.0084763323285937716 -0.052805441381706356 0 -0.0091604083800593383 -0.052336894644228728 0 -0.0096382365970177075 -0.051018332441438378 0 -0.01080037592442782 -0.0492525105589448 0 -0.0091604083800593383 -0.052336894644228728 0 -0.0080583175450908602 -0.047964206828988706 0 -0.0092940644797696505 -0.052115887367566872 0 -0.008860211450831738 -0.049501035413988176 0 -0.0084763323285937716 -0.052805441381706356 0 -0.0086397430334816932 -0.051456449025135666 0 -0.008032122181947687 -0.052756390020559769 0 -0.0084763323285937716 -0.052805441381706356 0 -0.0096382365970177075 -0.051018332441438378 0 -0.0086397430334816932 -0.051456449025135666 0 -0.0096382365970177075 -0.051018332441438378 0 -0.0099554852636390221 -0.04816990926246513 0 -0.0086397430334816932 -0.051456449025135666 0 -0.01080037592442782 -0.0492525105589448 0 -0.0080583175450908602 -0.047964206828988706 0 -0.0086133414592281642 -0.045095170403937429 0 -0.0084898924287777587 -0.042396594564771913 0 -0.010751546072073249 -0.04403000286061861 0 -0.0086133414592281642 -0.045095170403937429 0 -0.010751546072073249 -0.04403000286061861 0 -0.01080037592442782 -0.0492525105589448 0 -0.0086133414592281642 -0.045095170403937429 0 -0.0084898924287777587 -0.042396594564771913 0 -0.0086133414592281642 -0.045095170403937429 0 -0.0071312730034941091 -0.043910556576357979 0 -0.0080583175450908602 -0.047964206828988706 0 -0.0086133414592281642 -0.045095170403937429 0 -0.0071312730034941091 -0.043910556576357979 0 -0.008860211450831738 -0.049501035413988176 0 -0.0085243589754535835 -0.046035349998720949 0 -0.0099554852636390221 -0.04816990926246513 0 -0.0067030659305701594 -0.048133646813621672 0 -0.0077588865369834972 -0.050560624699484198 0 -0.0067030659305701594 -0.048133646813621672 0 -0.0077588865369834972 -0.050560624699484198 0 -0.0059701095939466882 -0.052340474187597637 0 -0.0099554852636390221 -0.04816990926246513 0 -0.0077588865369834972 -0.050560624699484198 0 -0.0086397430334816932 -0.051456449025135666 0 -0.0039109622712558941 -0.045982459227738276 0 -0.0067030659305701594 -0.048133646813621672 0 -0.0021429829302024505 -0.050140398106059691 0 -0.0067030659305701594 -0.048133646813621672 0 -0.0059701095939466882 -0.052340474187597637 0 -0.0021429829302024505 -0.050140398106059691 0 -0.0010559371671949173 -0.046325103523538816 0 -0.0039109622712558941 -0.045982459227738276 0 -0.0021429829302024505 -0.050140398106059691 0 -0.006106299375911492 -0.052316622341772312 0 -0.0034281535917421021 -0.051362635529450258 0 -0.0059701095939466882 -0.052340474187597637 0 -0.0062252510111198197 -0.052945070684117308 0 -0.006061899314038474 -0.052387964460536535 0 -0.0059701095939466882 -0.052340474187597637 0 -0.0062252510111198197 -0.052945070684117308 0 -0.0071234369893905273 -0.053501883811005804 0 -0.0062252510111198197 -0.052945070684117308 0 -0.0071234369893905273 -0.053501883811005804 0 -0.0068543334204207371 -0.053927522040188719 0 -0.0077588865369834972 -0.050560624699484198 0 -0.0086397430334816932 -0.051456449025135666 0 -0.0074515954282601974 -0.052356577103762021 0 -0.0086397430334816932 -0.051456449025135666 0 -0.0074515954282601974 -0.052356577103762021 0 -0.008032122181947687 -0.052756390020559769 0 -0.0077588865369834972 -0.050560624699484198 0 -0.0059701095939466882 -0.052340474187597637 0 -0.0074515954282601974 -0.052356577103762021 0 -0.0059701095939466882 -0.052340474187597637 0 -0.0074515954282601974 -0.052356577103762021 0 -0.0071234369893905273 -0.053501883811005804 0 -0.0074515954282601974 -0.052356577103762021 0 -0.0071234369893905273 -0.053501883811005804 0 -0.008032122181947687 -0.052756390020559769 0 -0.0071234369893905273 -0.053501883811005804 0 -0.008032122181947687 -0.052756390020559769 0 -0.007722186256593204 -0.053911499313229957 0 -0.0071234369893905273 -0.053501883811005804 0 -0.007722186256593204 -0.053911499313229957 0 -0.0074215018202925028 -0.054544367287514411 0 -0.007722186256593204 -0.053911499313229957 0 -0.0074215018202925028 -0.054544367287514411 0 -0.0074472969624068911 -0.054749664315913944 0 -0.0071234369893905273 -0.053501883811005804 0 -0.0072720486778446048 -0.054429482472905688 0 -0.0074215018202925028 -0.054544367287514411 0 -0.0072720486778446048 -0.054429482472905688 0 -0.0074215018202925028 -0.054544367287514411 0 -0.0073918598113948963 -0.054970786343289675 0 -0.0072720486778446048 -0.054429482472905688 0 -0.0073828291115085008 -0.054827141114773416 0 -0.0073918598113948963 -0.054970786343289675 0 -0.0074215018202925028 -0.054544367287514411 0 -0.0073918598113948963 -0.054970786343289675 0 -0.0072454604898857401 -0.055063934420741124 0 -0.0074215018202925028 -0.054544367287514411 0 -0.0072454604898857401 -0.055063934420741124 0 -0.0074472969624068911 -0.054749664315913944 0 -0.0068543334204207371 -0.053927522040188719 0 -0.0069435976543423174 -0.054461794557274373 0 -0.0062730862130238839 -0.053570837344134856 0 -0.0062252510111198197 -0.052945070684117308 0 -0.0068543334204207371 -0.053927522040188719 0 -0.0062730862130238839 -0.053570837344134856 0 -0.0071234369893905273 -0.053501883811005804 0 -0.0072720486778446048 -0.054429482472905688 0 -0.0068543334204207371 -0.053927522040188719 0 -0.0072720486778446048 -0.054429482472905688 0 -0.0068543334204207371 -0.053927522040188719 0 -0.0073828291115085008 -0.054827141114773416 0 -0.0068543334204207371 -0.053927522040188719 0 -0.0073828291115085008 -0.054827141114773416 0 -0.0069435976543423174 -0.054461794557274373 0 -0.0069435976543423174 -0.054461794557274373 0 -0.0078651964009770915 -0.055718928802560554 0 -0.005973239632193263 -0.054636142523518054 0 -0.0073828291115085008 -0.054827141114773416 0 -0.0069435976543423174 -0.054461794557274373 0 -0.0078651964009770915 -0.055718928802560554 0 -0.0073828291115085008 -0.054827141114773416 0 -0.0075273461865125423 -0.05515891156313326 0 -0.0073918598113948963 -0.054970786343289675 0 -0.0073828291115085008 -0.054827141114773416 0 -0.0078651964009770915 -0.055718928802560554 0 -0.0075273461865125423 -0.05515891156313326 0 -0.0078651964009770915 -0.055718928802560554 0 -0.0075273461865125423 -0.05515891156313326 0 -0.0079203114932768822 -0.055002516055121395 0 -0.0079203114932768822 -0.055002516055121395 0 -0.0073453591829925726 -0.054633995387480233 0 -0.0085716515072526804 -0.054148020032559814 0 -0.0075273461865125423 -0.05515891156313326 0 -0.0079203114932768822 -0.055002516055121395 0 -0.0073453591829925726 -0.054633995387480233 0 -0.0079203114932768822 -0.055002516055121395 0 -0.0097994224918718578 -0.05547814770162298 0 -0.0085716515072526804 -0.054148020032559814 0 -0.0078651964009770915 -0.055718928802560554 0 -0.0079203114932768822 -0.055002516055121395 0 -0.0097994224918718578 -0.05547814770162298 0 -0.009181484380934038 -0.05450106058131874 0 -0.0096047112995026936 -0.057706735645860742 0 -0.0073918598113948963 -0.054970786343289675 0 -0.0072407219021446726 -0.054514776187897324 0 -0.0072454604898857401 -0.055063934420741124 0 -0.0073918598113948963 -0.054970786343289675 0 -0.0072407219021446726 -0.054514776187897324 0 -0.0073453591829925726 -0.054633995387480233 0 -0.0075273461865125423 -0.05515891156313326 0 -0.0073918598113948963 -0.054970786343289675 0 -0.0073453591829925726 -0.054633995387480233 0 -0.0050425596555189892 -0.057677826345976381 0 -0.0037688085160558324 -0.057454788092948385 0 -0.0072407219021446726 -0.054514776187897324 0 -0.0072454604898857401 -0.055063934420741124 0 -0.0064133963622934661 -0.054200656952904047 0 -0.0072454604898857401 -0.055063934420741124 0 -0.0055718180559839771 -0.055561009391151842 0 -0.0069347387222351026 -0.055264114805583443 0 -0.0072454604898857401 -0.055063934420741124 0 -0.0055718180559839771 -0.055561009391151842 0 -0.0064133963622934661 -0.054200656952904047 0 -0.0037688085160558324 -0.057454788092948385 0 -0.0014385050091678571 -0.05735157330363759 0 -0.0055718180559839771 -0.055561009391151842 0 -0.0026450244706494037 -0.054361180741383922 0 -0.0015139261708677668 -0.055766954665413024 0 -0.0055718180559839771 -0.055561009391151842 0 -0.0064133963622934661 -0.054200656952904047 0 -0.0026450244706494037 -0.054361180741383922 0 -0.0014385050091678571 -0.05735157330363759 0 0.00036119786119463313 -0.057607286597381936 0 -0.0015139261708677668 -0.055766954665413024 0 0.00081876416784944976 -0.057703045730693181 0 0.00043016847900329333 -0.056713704196290217 0 -0.0026450244706494037 -0.054361180741383922 0 -0.0015139261708677668 -0.055766954665413024 0 0.00081876416784944976 -0.057703045730693181 0 -0.0015139261708677668 -0.055766954665413024 0 0.00094119390854463796 -0.056323558721614896 0 0.00043016847900329333 -0.056713704196290217 0 -0.0015139261708677668 -0.055766954665413024 0 0.00094119390854463796 -0.056323558721614896 0 0.0035497043977232522 -0.055188605463101427 0 -0.0014208027440271952 -0.055323609111950903 0 -0.0014033825854851544 -0.055077923981855008 0 0.00094119390854463796 -0.056323558721614896 0 0.0035497043977232522 -0.055188605463101427 0 0.00077362530572391494 -0.055366513765389598 0 -0.0055718180559839771 -0.055561009391151842 0 -0.0063825151388696528 -0.055743858465334306 0 -0.0069347387222351026 -0.055264114805583443 0 -0.0055718180559839771 -0.055561009391151842 0 -0.0015139261708677668 -0.055766954665413024 0 -0.0063825151388696528 -0.055743858465334306 0 -0.0063825151388696528 -0.055743858465334306 0 -0.007742377009407303 -0.054807613340481884 0 -0.0069347387222351026 -0.055264114805583443 0 0.0035497043977232522 -0.055188605463101427 0 0.002857253969377126 -0.052919927850105623 0 0.00077362530572391494 -0.055366513765389598 0 0.006222992812763747 -0.051131690201444674 0 0.0035497043977232522 -0.055188605463101427 0 0.002857253969377126 -0.052919927850105623 0 -0.0093151862642144416 -0.05402037791110742 0 -0.0063825151388696528 -0.055743858465334306 0 -0.007742377009407303 -0.054807613340481884 0 -0.0015384232249938744 -0.052412709593953492 0 -0.0014033825854851544 -0.055077923981855008 0 -0.0093151862642144416 -0.05402037791110742 0 -0.0083879413064966522 -0.053736729121661338 0 -0.007742377009407303 -0.054807613340481884 0 -0.007742377009407303 -0.054807613340481884 0 -0.0077780839971106899 -0.054387475805240067 0 -0.0069347387222351026 -0.055264114805583443 0 -0.0083879413064966522 -0.053736729121661338 0 -0.007742377009407303 -0.054807613340481884 0 -0.0077780839971106899 -0.054387475805240067 0 -0.007722186256593204 -0.053911499313229957 0 -0.0077780839971106899 -0.054387475805240067 0 -0.0074472969624068911 -0.054749664315913944 0 -0.0072454604898857401 -0.055063934420741124 0 -0.0074472969624068911 -0.054749664315913944 0 -0.0069347387222351026 -0.055264114805583443 0 -0.0077780839971106899 -0.054387475805240067 0 -0.0074472969624068911 -0.054749664315913944 0 -0.0069347387222351026 -0.055264114805583443 0 -0.027215904472432856 -0.045009059161128712 0 -0.027549219264927184 -0.044346791933021476 0 -0.027286864321034877 -0.044141767931505878 0 -0.026955694476137552 -0.043579730511455216 0 -0.027215904472432856 -0.045009059161128712 0 -0.027286864321034877 -0.044141767931505878 0 -0.027215904472432856 -0.045009059161128712 0 -0.027549219264927184 -0.044346791933021476 0 -0.027688112739950015 -0.045445360807902083 0 -0.027549219264927184 -0.044346791933021476 0 -0.027286864321034877 -0.044141767931505878 0 -0.027361958544711684 -0.044208759183453905 0 -0.027466249708679193 -0.043942963212026016 0 -0.027286864321034877 -0.044141767931505878 0 -0.0274302910902685 -0.044155636382261519 0 -0.027286864321034877 -0.044141767931505878 0 -0.0274302910902685 -0.044155636382261519 0 -0.027361958544711684 -0.044208759183453905 0 -0.0274302910902685 -0.044155636382261519 0 -0.027355304337509039 -0.044374734007665229 0 -0.027361958544711684 -0.044208759183453905 0 -0.0274302910902685 -0.044155636382261519 0 -0.027556687103888266 -0.044348181690831164 0 -0.027355304337509039 -0.044374734007665229 0 -0.027589089266720372 -0.04455689535375796 0 -0.027556687103888266 -0.044348181690831164 0 -0.027355304337509039 -0.044374734007665229 0 -0.027355304337509039 -0.044374734007665229 0 -0.02722416647201157 -0.044340949139367716 0 -0.027211731896311472 -0.044426079525594693 0 -0.027549219264927184 -0.044346791933021476 0 -0.027361958544711684 -0.044208759183453905 0 -0.02722416647201157 -0.044340949139367716 0 -0.027355304337509039 -0.044374734007665229 0 -0.027361958544711684 -0.044208759183453905 0 -0.02722416647201157 -0.044340949139367716 0 -0.027549219264927184 -0.044346791933021476 0 -0.02722416647201157 -0.044340949139367716 0 -0.027116733184662106 -0.04437175788569972 0 -0.02722416647201157 -0.044340949139367716 0 -0.027072988482974444 -0.044393080434012369 0 -0.027116733184662106 -0.04437175788569972 0 -0.02722416647201157 -0.044340949139367716 0 -0.027211731896311472 -0.044426079525594693 0 -0.02703943703670646 -0.044442308553468923 0 -0.027103662116174591 -0.044532659093176601 0 -0.027211731896311472 -0.044426079525594693 0 -0.02703943703670646 -0.044442308553468923 0 -0.02722416647201157 -0.044340949139367716 0 -0.02703943703670646 -0.044442308553468923 0 -0.027072988482974444 -0.044393080434012369 0 -0.026874310385859041 -0.044508182187828607 0 -0.02703943703670646 -0.044442308553468923 0 -0.026939459624729465 -0.044420547597203291 0 -0.015791523308323712 -0.041494498654916216 0 -0.014993634266496475 -0.047600091117889626 0 -0.02703943703670646 -0.044442308553468923 0 -0.027072988482974444 -0.044393080434012369 0 -0.026939459624729465 -0.044420547597203291 0 -0.027116733184662106 -0.04437175788569972 0 -0.026917368747396159 -0.044299315171917521 0 -0.026939459624729465 -0.044420547597203291 0 -0.027072988482974444 -0.044393080434012369 0 -0.027116733184662106 -0.04437175788569972 0 -0.026939459624729465 -0.044420547597203291 0 -0.027116733184662106 -0.04437175788569972 0 -0.027161063766566532 -0.044140838210241957 0 -0.026917368747396159 -0.044299315171917521 0 -0.027549219264927184 -0.044346791933021476 0 -0.027116733184662106 -0.04437175788569972 0 -0.027161063766566532 -0.044140838210241957 0 -0.027151954671662128 -0.044172927885604084 0 -0.029094769223490198 -0.044896906724771833 0 -0.027549219264927184 -0.044346791933021476 0 -0.028518256711851809 -0.045025031611173348 0 -0.027688112739950015 -0.045445360807902083 0 -0.029094769223490198 -0.044896906724771833 0 -0.017923251977953608 -0.04992697991363839 0 -0.027161063766566532 -0.044140838210241957 0 -0.026917368747396159 -0.044299315171917521 0 -0.026853166370282157 -0.044054419685500279 0 -0.0049959612791658859 -0.052902327170809102 0 -0.0034355063826580008 -0.051664309200419464 0 -0.0038278653272201596 -0.053419198330877049 0 -0.014965029703594739 -0.047524236212883653 0 -0.017923251977953608 -0.04992697991363839 0 -0.0049959612791658859 -0.052902327170809102 0 -0.0058710094265543638 -0.052554343009191908 0 -0.0058069744398925238 -0.05337635606294934 0 -0.0049959612791658859 -0.052902327170809102 0 -0.0050121059176372303 -0.051325138704463022 0 -0.0058710094265543638 -0.052554343009191908 0 -0.0050121059176372303 -0.051325138704463022 0 -0.0072054076845572673 -0.050196191170838123 0 -0.0058710094265543638 -0.052554343009191908 0 -0.0049959612791658859 -0.052902327170809102 0 -0.0050121059176372303 -0.051325138704463022 0 -0.0034355063826580008 -0.051664309200419464 0 -0.0050121059176372303 -0.051325138704463022 0 -0.0034355063826580008 -0.051664309200419464 0 -0.0041876506701191227 -0.050226469593989555 0 -0.0034355063826580008 -0.051664309200419464 0 -0.0041876506701191227 -0.050226469593989555 0 -0.0030902313655632994 -0.049069435004764871 0 -0.014965029703594739 -0.047524236212883653 0 -0.014993634266496475 -0.047600091117889626 0 -0.0041876506701191227 -0.050226469593989555 0 -0.0041532403566757999 -0.049160657953572141 0 -0.005409029828551605 -0.049737738339648584 0 -0.0041876506701191227 -0.050226469593989555 0 -0.0041532403566757999 -0.049160657953572141 0 -0.0030902313655632994 -0.049069435004764871 0 -0.0030902313655632994 -0.049069435004764871 0 -0.003850068290424149 -0.048102464550993845 0 -0.0036171651660452317 -0.047607619760107786 0 -0.0041532403566757999 -0.049160657953572141 0 -0.0030902313655632994 -0.049069435004764871 0 -0.003850068290424149 -0.048102464550993845 0 -0.0040799612895376976 -0.045651646632156581 0 -0.0041532403566757999 -0.049160657953572141 0 -0.0054850255505131612 -0.046897803363236734 0 -0.006768681434963556 -0.043808551123458134 0 -0.0037743011426772978 -0.049827542313417843 0 -0.0045760262980493703 -0.04656958229517965 0 -0.0041532403566757999 -0.049160657953572141 0 -0.003850068290424149 -0.048102464550993845 0 -0.0031148694296055553 -0.04627771835874863 0 -0.0030902313655632994 -0.049069435004764871 0 -0.0036171651660452317 -0.047607619760107786 0 -0.0045760262980493703 -0.04656958229517965 0 -0.003850068290424149 -0.048102464550993845 0 -0.0036171651660452317 -0.047607619760107786 0 -0.0072376865256335039 -0.045606008700263247 0 -0.0058937148885845588 -0.048209101782704371 0 -0.0057397910707934719 -0.045029661728752821 0 -0.0054850255505131612 -0.046897803363236734 0 -0.0081872224734754907 -0.047375278643613988 0 -0.0054850255505131612 -0.046897803363236734 0 -0.0060568542678475518 -0.048192756708755384 0 -0.0081872224734754907 -0.047375278643613988 0 -0.0041532403566757999 -0.049160657953572141 0 -0.0054850255505131612 -0.046897803363236734 0 -0.0060568542678475518 -0.048192756708755384 0 -0.0060568542678475518 -0.048192756708755384 0 -0.005409029828551605 -0.049737738339648584 0 -0.0072054076845572673 -0.050196191170838123 0 -0.0050121059176372303 -0.051325138704463022 0 -0.005409029828551605 -0.049737738339648584 0 -0.0072054076845572673 -0.050196191170838123 0 -0.0041532403566757999 -0.049160657953572141 0 -0.0060568542678475518 -0.048192756708755384 0 -0.005409029828551605 -0.049737738339648584 0 -0.0050121059176372303 -0.051325138704463022 0 -0.0041876506701191227 -0.050226469593989555 0 -0.005409029828551605 -0.049737738339648584 0 -0.0065047584450222112 -0.051559481780013516 0 -0.0058937148885845588 -0.048209101782704371 0 -0.0058174014060811356 -0.052453040739719452 0 -0.0058397085494832158 -0.052200112948213334 0 -0.006061899314038474 -0.052387964460536535 0 -0.0060568542678475518 -0.048192756708755384 0 -0.0072054076845572673 -0.050196191170838123 0 -0.0081872224734754907 -0.047375278643613988 0 -0.0058937148885845588 -0.048209101782704371 0 -0.0034281535917421021 -0.051362635529450258 0 -0.0010559371671949173 -0.046325103523538816 0 0.0016613105439304849 -0.04784741036698676 0 -0.0021429829302024505 -0.050140398106059691 0 -0.0062252510111198197 -0.052945070684117308 0 -0.006061899314038474 -0.052387964460536535 0 -0.0059975945639069161 -0.052761203549841103 0 -0.0058174014060811356 -0.052453040739719452 0 -0.006061899314038474 -0.052387964460536535 0 -0.0059975945639069161 -0.052761203549841103 0 -0.0058174014060811356 -0.052453040739719452 0 -0.0059975945639069161 -0.052761203549841103 0 -0.0058710094265543638 -0.052554343009191908 0 -0.0065047584450222112 -0.051559481780013516 0 -0.0060240850228801927 -0.052301084168854255 0 -0.0059975945639069161 -0.052761203549841103 0 -0.0058710094265543638 -0.052554343009191908 0 -0.0058069744398925238 -0.05337635606294934 0 -0.0059975945639069161 -0.052761203549841103 0 -0.0062730862130238839 -0.053570837344134856 0 -0.0058069744398925238 -0.05337635606294934 0 -0.0062252510111198197 -0.052945070684117308 0 -0.0059975945639069161 -0.052761203549841103 0 -0.0062730862130238839 -0.053570837344134856 0 -0.0062730862130238839 -0.053570837344134856 0 -0.0058069744398925238 -0.05337635606294934 0 -0.005973239632193263 -0.054636142523518054 0 -0.0058069744398925238 -0.05337635606294934 0 -0.005973239632193263 -0.054636142523518054 0 -0.0052521934306272175 -0.054007813059211138 0 -0.0090582310713159461 -0.056047905524662399 0 -0.0074008318483171579 -0.056142136736272122 0 -0.011511842007336705 -0.057563357267258593 0 -0.01317025032523032 -0.056719480805943259 0 -0.013026024121492353 -0.057392418402930787 0 -0.0069435976543423174 -0.054461794557274373 0 -0.0062730862130238839 -0.053570837344134856 0 -0.005973239632193263 -0.054636142523518054 0 -0.0077824901865397346 -0.055713242027811721 0 -0.0090582310713159461 -0.056047905524662399 0 -0.0078651964009770915 -0.055718928802560554 0 -0.011511842007336705 -0.057563357267258593 0 -0.0097994224918718578 -0.05547814770162298 0 -0.011511842007336705 -0.057563357267258593 0 -0.0097994224918718578 -0.05547814770162298 0 -0.011956237397739825 -0.056236667394500089 0 -0.0097994224918718578 -0.05547814770162298 0 -0.011956237397739825 -0.056236667394500089 0 -0.011551325555037793 -0.054996815808244684 0 -0.0097994224918718578 -0.05547814770162298 0 -0.011551325555037793 -0.054996815808244684 0 -0.0094198819602212165 -0.054613336915985064 0 -0.011956237397739825 -0.056236667394500089 0 -0.013839072162234477 -0.056695791155193062 0 -0.011551325555037793 -0.054996815808244684 0 -0.011511842007336705 -0.057563357267258593 0 -0.011956237397739825 -0.056236667394500089 0 -0.01317025032523032 -0.056719480805943259 0 -0.011956237397739825 -0.056236667394500089 0 -0.01317025032523032 -0.056719480805943259 0 -0.013839072162234477 -0.056695791155193062 0 -0.01317025032523032 -0.056719480805943259 0 -0.013586664524280791 -0.056617022296858444 0 -0.013839072162234477 -0.056695791155193062 0 -0.01317025032523032 -0.056719480805943259 0 -0.013586664524280791 -0.056617022296858444 0 -0.013537693005119807 -0.056830935975323911 0 -0.021450733730074695 -0.053031727089917567 0 -0.021966805684232031 -0.052480807853667891 0 -0.01317025032523032 -0.056719480805943259 0 -0.013537693005119807 -0.056830935975323911 0 -0.013026024121492353 -0.057392418402930787 0 -0.0049959612791658859 -0.052902327170809102 0 -0.0058069744398925238 -0.05337635606294934 0 -0.0052521934306272175 -0.054007813059211138 0 -0.021966805684232031 -0.052480807853667891 0 -0.017923251977953608 -0.04992697991363839 0 -0.0074008318483171579 -0.056142136736272122 0 -0.017923251977953608 -0.04992697991363839 0 -0.0049959612791658859 -0.052902327170809102 0 -0.0052521934306272175 -0.054007813059211138 0 -0.0038278653272201596 -0.053419198330877049 0 -0.013537693005119807 -0.056830935975323911 0 -0.013026024121492353 -0.057392418402930787 0 -0.013479965068763972 -0.057037670860804884 0 -0.028518256711851809 -0.045025031611173348 0 -0.029434312099437414 -0.045783522128031925 0 -0.028239313117663346 -0.04644814837641946 0 -0.029459630744222882 -0.047453368392287955 0 -0.029434312099437414 -0.045783522128031925 0 -0.028239313117663346 -0.04644814837641946 0 -0.028518256711851809 -0.045025031611173348 0 -0.028239313117663346 -0.04644814837641946 0 -0.027688112739950015 -0.045445360807902083 0 -0.028239313117663346 -0.04644814837641946 0 -0.027756288363927448 -0.048255912153107199 0 -0.027159402444147239 -0.046557480501430423 0 -0.029459630744222882 -0.047453368392287955 0 -0.028239313117663346 -0.04644814837641946 0 -0.027756288363927448 -0.048255912153107199 0 -0.029452855727124042 -0.049565717682435763 0 -0.029459630744222882 -0.047453368392287955 0 -0.027756288363927448 -0.048255912153107199 0 -0.029452855727124042 -0.049565717682435763 0 -0.027756288363927448 -0.048255912153107199 0 -0.027871612340759661 -0.050512408780886475 0 -0.027756288363927448 -0.048255912153107199 0 -0.026310338445898716 -0.050188605450364222 0 -0.027871612340759661 -0.050512408780886475 0 -0.027756288363927448 -0.048255912153107199 0 -0.026611077177009661 -0.048239800934407516 0 -0.027159402444147239 -0.046557480501430423 0 -0.026611077177009661 -0.048239800934407516 0 -0.026201710314551853 -0.048889961538609909 0 -0.026310338445898716 -0.050188605450364222 0 -0.027756288363927448 -0.048255912153107199 0 -0.026611077177009661 -0.048239800934407516 0 -0.026310338445898716 -0.050188605450364222 0 -0.026328085975259898 -0.048266220339025459 0 -0.026611077177009661 -0.048239800934407516 0 -0.026201710314551853 -0.048889961538609909 0 -0.026470914557363973 -0.046968792394009022 0 -0.026328085975259898 -0.048266220339025459 0 -0.026611077177009661 -0.048239800934407516 0 -0.026470914557363973 -0.046968792394009022 0 -0.026611077177009661 -0.048239800934407516 0 -0.027159402444147239 -0.046557480501430423 0 -0.02677761528796304 -0.045642757603296294 0 -0.026470914557363973 -0.046968792394009022 0 -0.027159402444147239 -0.046557480501430423 0 -0.027215904472432856 -0.045009059161128712 0 -0.027159402444147239 -0.046557480501430423 0 -0.027688112739950015 -0.045445360807902083 0 -0.028239313117663346 -0.04644814837641946 0 -0.027159402444147239 -0.046557480501430423 0 -0.027688112739950015 -0.045445360807902083 0 -0.02677761528796304 -0.045642757603296294 0 -0.027215904472432856 -0.045009059161128712 0 -0.027159402444147239 -0.046557480501430423 0 -0.024842676153604915 -0.055232025626043867 0 -0.025640993690521724 -0.056464337540890891 0 -0.025471437182919689 -0.055813710255310213 0 -0.025471437182919689 -0.055813710255310213 0 -0.026007964807076123 -0.054738398067120934 0 -0.025683488225551356 -0.056237759418694085 0 -0.025471437182919689 -0.055813710255310213 0 -0.025683488225551356 -0.056237759418694085 0 -0.025319458245977495 -0.056817918425042593 0 -0.025217667107500459 -0.054555252206513007 0 -0.02580855566343495 -0.053349153738826073 0 -0.026007964807076123 -0.054738398067120934 0 -0.025471437182919689 -0.055813710255310213 0 -0.025217667107500459 -0.054555252206513007 0 -0.026007964807076123 -0.054738398067120934 0 -0.024842676153604915 -0.055232025626043867 0 -0.025217667107500459 -0.054555252206513007 0 -0.024483572242649125 -0.053413874030640636 0 -0.024842676153604915 -0.055232025626043867 0 -0.025471437182919689 -0.055813710255310213 0 -0.025217667107500459 -0.054555252206513007 0 -0.026350155386647391 -0.048142499516416415 0 -0.025912046345963689 -0.048259583638869855 0 -0.026201710314551853 -0.048889961538609909 0 -0.025912046345963689 -0.048259583638869855 0 -0.026201710314551853 -0.048889961538609909 0 -0.026310338445898716 -0.050188605450364222 0 -0.025390163163080865 -0.0507223510114167 0 -0.026366798655083731 -0.050125725856434204 0 -0.025217667107500459 -0.054555252206513007 0 -0.024483572242649125 -0.053413874030640636 0 -0.02580855566343495 -0.053349153738826073 0 -0.024483572242649125 -0.053413874030640636 0 -0.026310338445898716 -0.050188605450364222 0 -0.02580855566343495 -0.053349153738826073 0 -0.026310338445898716 -0.050188605450364222 0 -0.02580855566343495 -0.053349153738826073 0 -0.027017663513159096 -0.052796197307863661 0 -0.02580855566343495 -0.053349153738826073 0 -0.027017663513159096 -0.052796197307863661 0 -0.026007964807076123 -0.054738398067120934 0 -0.026310338445898716 -0.050188605450364222 0 -0.027017663513159096 -0.052796197307863661 0 -0.027871612340759661 -0.050512408780886475 0 -0.029452855727124042 -0.049565717682435763 0 -0.027871612340759661 -0.050512408780886475 0 -0.028944433567612966 -0.052857975217225281 0 -0.027017663513159096 -0.052796197307863661 0 -0.027871612340759661 -0.050512408780886475 0 -0.028944433567612966 -0.052857975217225281 0 -0.027017663513159096 -0.052796197307863661 0 -0.02691445589583101 -0.054609476367281161 0 -0.028944433567612966 -0.052857975217225281 0 -0.02691445589583101 -0.054609476367281161 0 -0.027120296709319359 -0.055685848432965285 0 -0.028944433567612966 -0.052857975217225281 0 -0.027017663513159096 -0.052796197307863661 0 -0.02691445589583101 -0.054609476367281161 0 -0.026007964807076123 -0.054738398067120934 0 -0.02691445589583101 -0.054609476367281161 0 -0.026007964807076123 -0.054738398067120934 0 -0.025683488225551356 -0.056237759418694085 0 -0.025683488225551356 -0.056237759418694085 0 -0.027120296709319359 -0.055685848432965285 0 -0.024565986146522514 -0.057106188747418692 0 -0.02691445589583101 -0.054609476367281161 0 -0.025683488225551356 -0.056237759418694085 0 -0.027120296709319359 -0.055685848432965285 0 -0.015465207946159848 -0.058620320101387166 0 -0.015655511917865756 -0.058619739849451603 0 -0.017434355000516343 -0.058305143901545953 0 -0.015465207946159848 -0.058620320101387166 0 -0.015655511917865756 -0.058619739849451603 0 -0.014991096375922219 -0.058473168388143322 0 -0.015655511917865756 -0.058619739849451603 0 -0.014991096375922219 -0.058473168388143322 0 -0.01481921512099699 -0.058679359629789866 0 -0.015465207946159848 -0.058620320101387166 0 -0.014991096375922219 -0.058473168388143322 0 -0.013987570064095029 -0.057718561131875144 0 -0.021286187180856557 -0.05695901813477984 0 -0.021464339550605178 -0.055198715669517763 0 -0.014991096375922219 -0.058473168388143322 0 -0.013987570064095029 -0.057718561131875144 0 -0.014621519560867486 -0.05811129275881325 0 -0.013987570064095029 -0.057718561131875144 0 -0.013839072162234477 -0.056695791155193062 0 -0.014621519560867486 -0.05811129275881325 0 -0.021450733730074695 -0.053031727089917567 0 -0.021464339550605178 -0.055198715669517763 0 -0.013586664524280791 -0.056617022296858444 0 -0.013987570064095029 -0.057718561131875144 0 -0.013839072162234477 -0.056695791155193062 0 -0.014621519560867486 -0.05811129275881325 0 -0.014564550440916717 -0.057902013742314754 0 -0.014410508677363158 -0.058563830528860453 0 -0.014621519560867486 -0.05811129275881325 0 -0.014410508677363158 -0.058563830528860453 0 -0.01481921512099699 -0.058679359629789866 0 -0.013839072162234477 -0.056695791155193062 0 -0.014621519560867486 -0.05811129275881325 0 -0.014564550440916717 -0.057902013742314754 0 -0.013394514608152512 -0.056664065206483483 0 -0.013454651855769301 -0.05636978337253086 0 -0.013454651855769301 -0.05636978337253086 0 -0.0096047112995026936 -0.057706735645860742 0 -0.014564550440916717 -0.057902013742314754 0 -0.014410508677363158 -0.058563830528860453 0 -0.014416236938058324 -0.058343017137671614 0 -0.014410508677363158 -0.058563830528860453 0 -0.01481921512099699 -0.058679359629789866 0 -0.014295666882837685 -0.058860594070829199 0 -0.014991096375922219 -0.058473168388143322 0 -0.014621519560867486 -0.05811129275881325 0 -0.01481921512099699 -0.058679359629789866 0 -0.015655511917865756 -0.058619739849451603 0 -0.01481921512099699 -0.058679359629789866 0 -0.014991332928234777 -0.058541806436137357 0 -0.01481921512099699 -0.058679359629789866 0 -0.014295666882837685 -0.058860594070829199 0 -0.014991332928234777 -0.058541806436137357 0 -0.014295666882837685 -0.058860594070829199 0 -0.014991332928234777 -0.058541806436137357 0 -0.013867855610922575 -0.058382332097062777 0 -0.014991332928234777 -0.058541806436137357 0 -0.014964935518870084 -0.057810795368922654 0 -0.013867855610922575 -0.058382332097062777 0 -0.015655511917865756 -0.058619739849451603 0 -0.014991332928234777 -0.058541806436137357 0 -0.016350938465089355 -0.058111275918588064 0 -0.014991332928234777 -0.058541806436137357 0 -0.014964935518870084 -0.057810795368922654 0 -0.016350938465089355 -0.058111275918588064 0 -0.014964935518870084 -0.057810795368922654 0 -0.01687427091214239 -0.056981663796334368 0 -0.016350938465089355 -0.058111275918588064 0 -0.014964935518870084 -0.057810795368922654 0 -0.013867855610922575 -0.058382332097062777 0 -0.013815691007378412 -0.057491592722819264 0 -0.014964935518870084 -0.057810795368922654 0 -0.013815691007378412 -0.057491592722819264 0 -0.013830602175600469 -0.056485676542266043 0 -0.014964935518870084 -0.057810795368922654 0 -0.015583641078222764 -0.056201605605189477 0 -0.013830602175600469 -0.056485676542266043 0 -0.014728136482419843 -0.054999992889557162 0 -0.015583641078222764 -0.056201605605189477 0 -0.013830602175600469 -0.056485676542266043 0 -0.015583641078222764 -0.056201605605189477 0 -0.01687427091214239 -0.056981663796334368 0 -0.017816110853798094 -0.054999274555622264 0 -0.014728136482419843 -0.054999992889557162 0 -0.015583641078222764 -0.056201605605189477 0 -0.017816110853798094 -0.054999274555622264 0 -0.014964935518870084 -0.057810795368922654 0 -0.015583641078222764 -0.056201605605189477 0 -0.01687427091214239 -0.056981663796334368 0 -0.01687427091214239 -0.056981663796334368 0 -0.020378874653404717 -0.056423640129016177 0 -0.017719505173498216 -0.057611844786149044 0 -0.01687427091214239 -0.056981663796334368 0 -0.017816110853798094 -0.054999274555622264 0 -0.020378874653404717 -0.056423640129016177 0 -0.017816110853798094 -0.054999274555622264 0 -0.020378874653404717 -0.056423640129016177 0 -0.020906391528154607 -0.054999235209796389 0 -0.017434355000516343 -0.058305143901545953 0 -0.017719505173498216 -0.057611844786149044 0 -0.016350938465089355 -0.058111275918588064 0 -0.020378874653404717 -0.056423640129016177 0 -0.017434355000516343 -0.058305143901545953 0 -0.017719505173498216 -0.057611844786149044 0 -0.020478815501396127 -0.056160889921904239 0 -0.020957189191725557 -0.057388784196802697 0 -0.01687427091214239 -0.056981663796334368 0 -0.017719505173498216 -0.057611844786149044 0 -0.016350938465089355 -0.058111275918588064 0 -0.015655511917865756 -0.058619739849451603 0 -0.017434355000516343 -0.058305143901545953 0 -0.016350938465089355 -0.058111275918588064 0 -0.021286187180856557 -0.05695901813477984 0 -0.020957189191725557 -0.057388784196802697 0 -0.025683488225551356 -0.056237759418694085 0 -0.024565986146522514 -0.057106188747418692 0 -0.024601962334602639 -0.056879302206402312 0 -0.025683488225551356 -0.056237759418694085 0 -0.024601962334602639 -0.056879302206402312 0 -0.025319458245977495 -0.056817918425042593 0 -0.024601962334602639 -0.056879302206402312 0 -0.024275325699709985 -0.056600066907910418 0 -0.025319458245977495 -0.056817918425042593 0 -0.024601962334602639 -0.056879302206402312 0 -0.023338154709147754 -0.056881124858357557 0 -0.024275325699709985 -0.056600066907910418 0 -0.020378874653404717 -0.056423640129016177 0 -0.024565986146522514 -0.057106188747418692 0 -0.023338154709147754 -0.056881124858357557 0 -0.024565986146522514 -0.057106188747418692 0 -0.024601962334602639 -0.056879302206402312 0 -0.023338154709147754 -0.056881124858357557 0 -0.020378874653404717 -0.056423640129016177 0 -0.023338154709147754 -0.056881124858357557 0 -0.022642743605088236 -0.056055142627087891 0 -0.022642743605088236 -0.056055142627087891 0 -0.020906391528154607 -0.054999235209796389 0 -0.023994043474732114 -0.054999744932251259 0 -0.020378874653404717 -0.056423640129016177 0 -0.022642743605088236 -0.056055142627087891 0 -0.020906391528154607 -0.054999235209796389 0 -0.022642743605088236 -0.056055142627087891 0 -0.023994043474732114 -0.054999744932251259 0 -0.024275325699709985 -0.056600066907910418 0 -0.023338154709147754 -0.056881124858357557 0 -0.022642743605088236 -0.056055142627087891 0 -0.024275325699709985 -0.056600066907910418 0 -0.023994043474732114 -0.054999744932251259 0 -0.024275325699709985 -0.056600066907910418 0 -0.025902142611281594 -0.056348112786747069 0 -0.023994043474732114 -0.054999744932251259 0 -0.027081826159504066 -0.054999387188064408 0 -0.025902142611281594 -0.056348112786747069 0 -0.027642955363436188 -0.056204747883316086 0 -0.027081826159504066 -0.054999387188064408 0 -0.025902142611281594 -0.056348112786747069 0 -0.026406212540591001 -0.056681924487575523 0 -0.025902142611281594 -0.056348112786747069 0 -0.025319458245977495 -0.056817918425042593 0 -0.024275325699709985 -0.056600066907910418 0 -0.025902142611281594 -0.056348112786747069 0 -0.025319458245977495 -0.056817918425042593 0 -0.025640993690521724 -0.056464337540890891 0 -0.025471437182919689 -0.055813710255310213 0 -0.025319458245977495 -0.056817918425042593 0 -0.026406212540591001 -0.056681924487575523 0 -0.025640993690521724 -0.056464337540890891 0 -0.025319458245977495 -0.056817918425042593 0 -0.0028218355066177755 -0.059886311606019219 0 -0.0011293805790236809 -0.060038840929188035 0 -0.0038086146654856311 -0.060720274455317573 0 -0.0029176812081740848 -0.05907786633405606 0 -0.00093097234015606072 -0.06000592471876981 0 -0.0038086146654856311 -0.060720274455317573 0 -0.0050852335470196091 -0.059679367533329405 0 -0.006417462514077937 -0.060648471415488375 0 -0.0014922458785482844 -0.059178575134054057 0 -0.0020724614744791151 -0.059867685981782964 0 -0.0028181936674781423 -0.058646480700492089 0 -0.0028218355066177755 -0.059886311606019219 0 -0.0040981504167191306 -0.059705024035291779 0 -0.0038086146654856311 -0.060720274455317573 0 -0.0050852335470196091 -0.059679367533329405 0 -0.0029176812081740848 -0.05907786633405606 0 -0.0050852335470196091 -0.059679367533329405 0 -0.0029176812081740848 -0.05907786633405606 0 -0.0056401839213025421 -0.058431817516415539 0 -0.0029176812081740848 -0.05907786633405606 0 -0.00082634396815576758 -0.058944474215569524 0 -0.0016250890366659768 -0.058007928309361419 0 -0.00082634396815576758 -0.058944474215569524 0 7.1608361040030035e-05 -0.057708463600392855 0 0.00069233148088098913 -0.058847007820521637 0 -0.00082634396815576758 -0.058944474215569524 0 -0.00013124286278393452 -0.0595092913363846 0 0.00069233148088098913 -0.058847007820521637 0 -0.00013124286278393452 -0.0595092913363846 0 0.00069233148088098913 -0.058847007820521637 0 0.00058272997244829749 -0.059593760932478576 0 -0.00082634396815576758 -0.058944474215569524 0 -0.00013124286278393452 -0.0595092913363846 0 -0.00093097234015606072 -0.06000592471876981 0 -0.0029176812081740848 -0.05907786633405606 0 -0.00082634396815576758 -0.058944474215569524 0 -0.00093097234015606072 -0.06000592471876981 0 -0.00093097234015606072 -0.06000592471876981 0 -0.00045364364960180046 -0.059908665282585934 0 6.3127622532777492e-05 -0.059810678179438748 0 -0.00045364364960180046 -0.059908665282585934 0 6.3127622532777492e-05 -0.059810678179438748 0 9.6849156557593218e-06 -0.059841398931899735 0 -0.00093097234015606072 -0.06000592471876981 0 -0.00045364364960180046 -0.059908665282585934 0 -0.00099730579229138374 -0.059896618858172282 0 -0.00013124286278393452 -0.0595092913363846 0 -0.00093097234015606072 -0.06000592471876981 0 6.3127622532777492e-05 -0.059810678179438748 0 -0.00013124286278393452 -0.0595092913363846 0 6.3127622532777492e-05 -0.059810678179438748 0 0.00058272997244829749 -0.059593760932478576 0 6.3127622532777492e-05 -0.059810678179438748 0 0.00061977032700135336 -0.059676533569635426 0 0.00058272997244829749 -0.059593760932478576 0 8.6377888092559931e-05 -0.060224157998406476 0 0.000555424190432301 -0.059505375167454071 0 0.00081876416784944976 -0.057703045730693181 0 6.3127622532777492e-05 -0.059810678179438748 0 0.000555424190432301 -0.059505375167454071 0 0.00061977032700135336 -0.059676533569635426 0 6.3127622532777492e-05 -0.059810678179438748 0 0.000555424190432301 -0.059505375167454071 0 9.6849156557593218e-06 -0.059841398931899735 0 8.6377888092559931e-05 -0.060224157998406476 0 0.000555424190432301 -0.059505375167454071 0 9.6849156557593218e-06 -0.059841398931899735 0 -0.0012898300122639365 -0.060711756410480315 0 8.6377888092559931e-05 -0.060224157998406476 0 -0.00050400450234785858 -0.060082241424114995 0 -0.00045364364960180046 -0.059908665282585934 0 -0.00050400450234785858 -0.060082241424114995 0 -0.00099730579229138374 -0.059896618858172282 0 -0.00045364364960180046 -0.059908665282585934 0 -0.00050400450234785858 -0.060082241424114995 0 9.6849156557593218e-06 -0.059841398931899735 0 8.6377888092559931e-05 -0.060224157998406476 0 -0.00050400450234785858 -0.060082241424114995 0 9.6849156557593218e-06 -0.059841398931899735 0 -0.0012898300122639365 -0.060711756410480315 0 -0.00050400450234785858 -0.060082241424114995 0 -0.00099730579229138374 -0.059896618858172282 0 -0.0012898300122639365 -0.060711756410480315 0 -0.00099730579229138374 -0.059896618858172282 0 -0.0020724614744791151 -0.059867685981782964 0 -0.0014922458785482844 -0.059178575134054057 0 -0.00093097234015606072 -0.06000592471876981 0 -0.00099730579229138374 -0.059896618858172282 0 -0.0014922458785482844 -0.059178575134054057 0 -0.00099730579229138374 -0.059896618858172282 0 -0.0020724614744791151 -0.059867685981782964 0 -0.0026297514471373879 -0.060872379279893668 0 -0.0012898300122639365 -0.060711756410480315 0 -0.0020724614744791151 -0.059867685981782964 0 -0.0026297514471373879 -0.060872379279893668 0 -0.0020724614744791151 -0.059867685981782964 0 -0.0035060268630466699 -0.059666327282889571 0 -0.0026297514471373879 -0.060872379279893668 0 -0.0041397734330022844 -0.060877477083804823 0 -0.0035060268630466699 -0.059666327282889571 0 -0.0050425596555189892 -0.057677826345976381 0 -0.0052349625703250755 -0.057713562278207751 0 -0.0020724614744791151 -0.059867685981782964 0 -0.0035060268630466699 -0.059666327282889571 0 -0.0028181936674781423 -0.058646480700492089 0 -0.0096047112995026936 -0.057706735645860742 0 -0.0096042284688002914 -0.0593739727848746 0 -0.0041397734330022844 -0.060877477083804823 0 -0.0056675147761556148 -0.060805455069792444 0 -0.004921279602560261 -0.059526833132673165 0 -0.0052349625703250755 -0.057713562278207751 0 -0.0096047112995026936 -0.057706735645860742 0 -0.0041397734330022844 -0.060877477083804823 0 -0.0035060268630466699 -0.059666327282889571 0 -0.004921279602560261 -0.059526833132673165 0 -0.014410508677363158 -0.058563830528860453 0 -0.014084187603062053 -0.058703546272800791 0 -0.014003956800395366 -0.058916695006374045 0 -0.014410508677363158 -0.058563830528860453 0 -0.014416236938058324 -0.058343017137671614 0 -0.014084187603062053 -0.058703546272800791 0 -0.014084187603062053 -0.058703546272800791 0 -0.014003956800395366 -0.058916695006374045 0 -0.013392286971553886 -0.05922603906994519 0 -0.014410508677363158 -0.058563830528860453 0 -0.014295666882837685 -0.058860594070829199 0 -0.014003956800395366 -0.058916695006374045 0 -0.0096042284688002914 -0.0593739727848746 0 -0.0089521514269647832 -0.059150188530176263 0 -0.0035060268630466699 -0.059666327282889571 0 -0.004921279602560261 -0.059526833132673165 0 -0.0042119842498326591 -0.058264202109571839 0 -0.014084187603062053 -0.058703546272800791 0 -0.013714159449722062 -0.059159919792240792 0 -0.013392286971553886 -0.05922603906994519 0 -0.011976222983376011 -0.059930105370931505 0 -0.012501243640421942 -0.05903879164603628 0 -0.013392286971553886 -0.05922603906994519 0 -0.0089521514269647832 -0.059150188530176263 0 -0.014026359022095815 -0.058878180029259132 0 -0.012501243640421942 -0.05903879164603628 0 -0.013392286971553886 -0.05922603906994519 0 -0.013674891671024147 -0.058910172843873822 0 -0.012501243640421942 -0.05903879164603628 0 -0.013674891671024147 -0.058910172843873822 0 -0.012464949463058379 -0.058426131452982769 0 -0.014295666882837685 -0.058860594070829199 0 -0.013674891671024147 -0.058910172843873822 0 -0.013867855610922575 -0.058382332097062777 0 -0.014295666882837685 -0.058860594070829199 0 -0.014003956800395366 -0.058916695006374045 0 -0.013674891671024147 -0.058910172843873822 0 -0.014003956800395366 -0.058916695006374045 0 -0.013392286971553886 -0.05922603906994519 0 -0.013674891671024147 -0.058910172843873822 0 -0.0089521514269647832 -0.059150188530176263 0 -0.0040981504167191306 -0.059705024035291779 0 -0.0035060268630466699 -0.059666327282889571 0 -0.0042119842498326591 -0.058264202109571839 0 -0.0028181936674781423 -0.058646480700492089 0 -0.011976222983376011 -0.059930105370931505 0 -0.012501243640421942 -0.05903879164603628 0 -0.010447994558965437 -0.058825482333837949 0 -0.0089521514269647832 -0.059150188530176263 0 -0.0092289550192897092 -0.058758266828690557 0 -0.0085699494467130627 -0.060140325020655479 0 -0.0071868313851161797 -0.05958510390852953 0 -0.007743867818867386 -0.058437438757967405 0 -0.0085699494467130627 -0.060140325020655479 0 -0.006417462514077937 -0.060648471415488375 0 -0.0071868313851161797 -0.05958510390852953 0 -0.0050852335470196091 -0.059679367533329405 0 -0.006417462514077937 -0.060648471415488375 0 -0.0071868313851161797 -0.05958510390852953 0 -0.0050852335470196091 -0.059679367533329405 0 -0.0071868313851161797 -0.05958510390852953 0 -0.0056401839213025421 -0.058431817516415539 0 -0.0092289550192897092 -0.058758266828690557 0 -0.0077877793505923693 -0.056837615612727467 0 -0.007743867818867386 -0.058437438757967405 0 -0.0077703055073255261 -0.056959715368767892 0 -0.0056401839213025421 -0.058431817516415539 0 -0.0071868313851161797 -0.05958510390852953 0 -0.007743867818867386 -0.058437438757967405 0 -0.0056401839213025421 -0.058431817516415539 0 -0.010447994558965437 -0.058825482333837949 0 -0.0099564119985948336 -0.057244963088977238 0 -0.01144269856625282 -0.057682228015262384 0 -0.010447994558965437 -0.058825482333837949 0 -0.0099564119985948336 -0.057244963088977238 0 -0.0077703055073255261 -0.056959715368767892 0 -0.0099564119985948336 -0.057244963088977238 0 -0.01144269856625282 -0.057682228015262384 0 -0.010841986036053177 -0.056481372234283039 0 -0.0099564119985948336 -0.057244963088977238 0 -0.0090072946415324737 -0.056197826930025091 0 -0.010841986036053177 -0.056481372234283039 0 -0.0099564119985948336 -0.057244963088977238 0 -0.0077703055073255261 -0.056959715368767892 0 -0.0090072946415324737 -0.056197826930025091 0 -0.0077703055073255261 -0.056959715368767892 0 -0.0058900846864789903 -0.057361868014230356 0 -0.0056401839213025421 -0.058431817516415539 0 -0.0077703055073255261 -0.056959715368767892 0 -0.0090072946415324737 -0.056197826930025091 0 -0.0063652059377469847 -0.055833470048014283 0 -0.0077703055073255261 -0.056959715368767892 0 -0.0063652059377469847 -0.055833470048014283 0 -0.0058900846864789903 -0.057361868014230356 0 -0.013674891671024147 -0.058910172843873822 0 -0.013867855610922575 -0.058382332097062777 0 -0.012464949463058379 -0.058426131452982769 0 -0.013867855610922575 -0.058382332097062777 0 -0.012464949463058379 -0.058426131452982769 0 -0.012533273103248525 -0.057242279751867887 0 -0.012501243640421942 -0.05903879164603628 0 -0.010447994558965437 -0.058825482333837949 0 -0.012464949463058379 -0.058426131452982769 0 -0.010447994558965437 -0.058825482333837949 0 -0.012464949463058379 -0.058426131452982769 0 -0.01144269856625282 -0.057682228015262384 0 -0.012533273103248525 -0.057242279751867887 0 -0.01144269856625282 -0.057682228015262384 0 -0.010841986036053177 -0.056481372234283039 0 -0.012464949463058379 -0.058426131452982769 0 -0.012533273103248525 -0.057242279751867887 0 -0.01144269856625282 -0.057682228015262384 0 -0.012533273103248525 -0.057242279751867887 0 -0.013815691007378412 -0.057491592722819264 0 -0.013830602175600469 -0.056485676542266043 0 -0.013867855610922575 -0.058382332097062777 0 -0.012533273103248525 -0.057242279751867887 0 -0.013815691007378412 -0.057491592722819264 0 -0.012533273103248525 -0.057242279751867887 0 -0.013830602175600469 -0.056485676542266043 0 -0.011781197624556062 -0.055981982989532469 0 -0.012533273103248525 -0.057242279751867887 0 -0.011781197624556062 -0.055981982989532469 0 -0.010841986036053177 -0.056481372234283039 0 -0.011640020630222542 -0.055000101217596367 0 -0.0094675920251226578 -0.055710981189135839 0 -0.011781197624556062 -0.055981982989532469 0 -0.011642574715566489 -0.054998132848879777 0 -0.010006266404819547 -0.05496132411112125 0 -0.013830602175600469 -0.056485676542266043 0 -0.011781197624556062 -0.055981982989532469 0 -0.011642574715566489 -0.054998132848879777 0 -0.014728136482419843 -0.054999992889557162 0 -0.013830602175600469 -0.056485676542266043 0 -0.011642574715566489 -0.054998132848879777 0 -0.0094675920251226578 -0.055710981189135839 0 -0.0062995893847277041 -0.056644592001466577 0 -0.0090912435132626344 -0.056456187232121931 0 -0.0069631496388213223 -0.056035872352651707 0 -0.006216408139518099 -0.057427889599159419 0 -0.0090072946415324737 -0.056197826930025091 0 -0.010006266404819547 -0.05496132411112125 0 -0.0063652059377469847 -0.055833470048014283 0 -0.011781197624556062 -0.055981982989532469 0 -0.010841986036053177 -0.056481372234283039 0 -0.010006266404819547 -0.05496132411112125 0 -0.0090072946415324737 -0.056197826930025091 0 -0.010841986036053177 -0.056481372234283039 0 -0.010006266404819547 -0.05496132411112125 0 -0.01164054738144178 -0.055000116968604455 0 -0.0086017935675925233 -0.054999663795190716 0 -0.0090912435132626344 -0.056456187232121931 0 -0.0086017935675925233 -0.054999663795190716 0 -0.0090912435132626344 -0.056456187232121931 0 -0.0069631496388213223 -0.056035872352651707 0 -0.0086017935675925233 -0.054999663795190716 0 -0.0069631496388213223 -0.056035872352651707 0 -0.005563216491817226 -0.054999554803594995 0 -0.0069631496388213223 -0.056035872352651707 0 -0.005563216491817226 -0.054999554803594995 0 -0.0056292958210795883 -0.056253324219754382 0 -0.005563216491817226 -0.054999554803594995 0 -0.0039631506545956662 -0.056431542085711044 0 -0.0056292958210795883 -0.056253324219754382 0 -0.005563216491817226 -0.054999554803594995 0 -0.0039631506545956662 -0.056431542085711044 0 -0.0025251260571433382 -0.054999418952870242 0 -0.0039631506545956662 -0.056431542085711044 0 -0.0034890322435515786 -0.057607646494144855 0 -0.0013507321288708891 -0.056638073316386664 0 -0.0069631496388213223 -0.056035872352651707 0 -0.0056292958210795883 -0.056253324219754382 0 -0.006216408139518099 -0.057427889599159419 0 -0.0039631506545956662 -0.056431542085711044 0 -0.0056292958210795883 -0.056253324219754382 0 -0.006216408139518099 -0.057427889599159419 0 -0.0039631506545956662 -0.056431542085711044 0 -0.006216408139518099 -0.057427889599159419 0 -0.0034890322435515786 -0.057607646494144855 0 -0.0063652059377469847 -0.055833470048014283 0 -0.0058900846864789903 -0.057361868014230356 0 -0.0034890322435515786 -0.057607646494144855 0 -0.0062995893847277041 -0.056644592001466577 0 -0.0037494692414339168 -0.05758546541571806 0 -0.0029176812081740848 -0.05907786633405606 0 -0.0034890322435515786 -0.057607646494144855 0 -0.0016250890366659768 -0.058007928309361419 0 -0.0029176812081740848 -0.05907786633405606 0 -0.0034890322435515786 -0.057607646494144855 0 -0.0056401839213025421 -0.058431817516415539 0 -0.0058900846864789903 -0.057361868014230356 0 -0.0034890322435515786 -0.057607646494144855 0 -0.0056401839213025421 -0.058431817516415539 0 -0.00082634396815576758 -0.058944474215569524 0 7.1608361040030035e-05 -0.057708463600392855 0 -0.0016250890366659768 -0.058007928309361419 0 -0.0034890322435515786 -0.057607646494144855 0 -0.0016250890366659768 -0.058007928309361419 0 -0.0013507321288708891 -0.056638073316386664 0 7.1608361040030035e-05 -0.057708463600392855 0 -0.0013507321288708891 -0.056638073316386664 0 0.001697732239345583 -0.056304997778253776 0 7.1608361040030035e-05 -0.057708463600392855 0 -0.0016250890366659768 -0.058007928309361419 0 -0.0013507321288708891 -0.056638073316386664 0 -0.0039631506545956662 -0.056431542085711044 0 -0.0013507321288708891 -0.056638073316386664 0 -0.0025251260571433382 -0.054999418952870242 0 -0.0013507321288708891 -0.056638073316386664 0 -0.0025251260571433382 -0.054999418952870242 0 0.00051292456679736273 -0.054999268385374868 0 0.001697732239345583 -0.056304997778253776 0 0.003551108620294736 -0.054999078990549073 0 0.0048386578977347031 -0.055889935826537861 0 0.00051292456679736273 -0.054999268385374868 0 0.001697732239345583 -0.056304997778253776 0 0.003551108620294736 -0.054999078990549073 0 0.001697732239345583 -0.056304997778253776 0 0.0048386578977347031 -0.055889935826537861 0 0.003825045164436386 -0.056714390198706874 0 -0.0013507321288708891 -0.056638073316386664 0 0.00051292456679736273 -0.054999268385374868 0 0.001697732239345583 -0.056304997778253776 0 0.0065889875096856393 -0.054999323830426931 0 0.0065523370123185456 -0.055717405957315551 0 0.0048386578977347031 -0.055889935826537861 0 0.0065889875096856393 -0.054999323830426931 0 0.003551108620294736 -0.054999078990549073 0 0.0048386578977347031 -0.055889935826537861 0 0.0065523370123185456 -0.055717405957315551 0 0.0048386578977347031 -0.055889935826537861 0 0.0067951882489749402 -0.056135585087551461 0 0.0048386578977347031 -0.055889935826537861 0 0.0055742022388704671 -0.05629144078193573 0 0.0067951882489749402 -0.056135585087551461 0 0.0055742022388704671 -0.05629144078193573 0 0.0051928439892806539 -0.056740949166312442 0 0.0068590228090017122 -0.05606825229799893 0 0.0055742022388704671 -0.05629144078193573 0 0.0068590228090017122 -0.05606825229799893 0 0.0067951882489749402 -0.056135585087551461 0 0.0048386578977347031 -0.055889935826537861 0 0.0055742022388704671 -0.05629144078193573 0 0.003825045164436386 -0.056714390198706874 0 0.0055742022388704671 -0.05629144078193573 0 0.003825045164436386 -0.056714390198706874 0 0.0051928439892806539 -0.056740949166312442 0 0.003825045164436386 -0.056714390198706874 0 0.0051928439892806539 -0.056740949166312442 0 0.003886814012526843 -0.057800970784581393 0 0.0051928439892806539 -0.056740949166312442 0 0.0068222357671890279 -0.056357225954593665 0 0.0068590228090017122 -0.05606825229799893 0 0.0051928439892806539 -0.056740949166312442 0 0.0068222357671890279 -0.056357225954593665 0 0.003886814012526843 -0.057800970784581393 0 7.1608361040030035e-05 -0.057708463600392855 0 0.001697732239345583 -0.056304997778253776 0 0.001985151006885811 -0.057704337197444715 0 0.001697732239345583 -0.056304997778253776 0 0.003825045164436386 -0.056714390198706874 0 0.001985151006885811 -0.057704337197444715 0 0.003825045164436386 -0.056714390198706874 0 0.001985151006885811 -0.057704337197444715 0 0.003886814012526843 -0.057800970784581393 0 7.1608361040030035e-05 -0.057708463600392855 0 0.001985151006885811 -0.057704337197444715 0 0.00069233148088098913 -0.058847007820521637 0 0.001985151006885811 -0.057704337197444715 0 0.00069233148088098913 -0.058847007820521637 0 0.0019685544070405067 -0.058574812479596068 0 0.00069233148088098913 -0.058847007820521637 0 0.001428744876722488 -0.059313091719610592 0 0.00058272997244829749 -0.059593760932478576 0 0.00069233148088098913 -0.058847007820521637 0 0.001428744876722488 -0.059313091719610592 0 0.0019685544070405067 -0.058574812479596068 0 0.001428744876722488 -0.059313091719610592 0 0.0026970434748664848 -0.059114953049820347 0 0.0020069923969368948 -0.059752137022002341 0 0.001428744876722488 -0.059313091719610592 0 0.0026970434748664848 -0.059114953049820347 0 0.0019685544070405067 -0.058574812479596068 0 0.0026970434748664848 -0.059114953049820347 0 0.0019685544070405067 -0.058574812479596068 0 0.003886814012526843 -0.057800970784581393 0 0.001985151006885811 -0.057704337197444715 0 0.0019685544070405067 -0.058574812479596068 0 0.003886814012526843 -0.057800970784581393 0 0.0068222357671890279 -0.056357225954593665 0 0.003886814012526843 -0.057800970784581393 0 0.0057212922104838007 -0.058342570659321989 0 0.003886814012526843 -0.057800970784581393 0 0.0057212922104838007 -0.058342570659321989 0 0.004281425544234393 -0.05917380293824781 0 0.0057212922104838007 -0.058342570659321989 0 0.004281425544234393 -0.05917380293824781 0 0.0056651316377902133 -0.059697904344336722 0 0.0026970434748664848 -0.059114953049820347 0 0.003886814012526843 -0.057800970784581393 0 0.004281425544234393 -0.05917380293824781 0 0.0026970434748664848 -0.059114953049820347 0 0.004281425544234393 -0.05917380293824781 0 0.0031944039376508655 -0.059821077587899951 0 0.0031944039376508655 -0.059821077587899951 0 0.0029134172768010484 -0.06105274212598312 0 0.0020069923969368948 -0.059752137022002341 0 0.0031944039376508655 -0.059821077587899951 0 0.0043067642594881387 -0.060214241084170256 0 0.0029134172768010484 -0.06105274212598312 0 0.004281425544234393 -0.05917380293824781 0 0.0031944039376508655 -0.059821077587899951 0 0.0043067642594881387 -0.060214241084170256 0 0.0056651316377902133 -0.059697904344336722 0 0.0043067642594881387 -0.060214241084170256 0 0.0057491637391838858 -0.061232948529892639 0 0.004281425544234393 -0.05917380293824781 0 0.0056651316377902133 -0.059697904344336722 0 0.0043067642594881387 -0.060214241084170256 0 -0.00035698196620524507 -0.05726005289000366 0 -0.00067252801546760054 -0.057636607622116351 0 -0.00098959952201423487 -0.057970698427404002 0 0.0043067642594881387 -0.060214241084170256 0 0.0057491637391838858 -0.061232948529892639 0 0.0029134172768010484 -0.06105274212598312 0 0.0020229787749771262 -0.059344833257396826 0 0.001269505001260467 -0.059446562809865731 0 -0.00035698196620524507 -0.05726005289000366 0 -0.00067252801546760054 -0.057636607622116351 0 -0.00041623759676972524 -0.057470591692977357 0 -0.00067252801546760054 -0.057636607622116351 0 -0.00098959952201423487 -0.057970698427404002 0 -0.0009888195830199363 -0.057691860683113529 0 -0.00098959952201423487 -0.057970698427404002 0 -0.00043986423390058308 -0.05791838904754585 0 -0.0009888195830199363 -0.057691860683113529 0 -0.00098959952201423487 -0.057970698427404002 0 0.0005806075918308516 -0.059374931796818631 0 -0.00043986423390058308 -0.05791838904754585 0 0.0029134172768010484 -0.06105274212598312 0 0.0005806075918308516 -0.059374931796818631 0 0.0010581962543385717 -0.059740497397892785 0 0.001269505001260467 -0.059446562809865731 0 0.00071478332721721977 -0.059399200446604329 0 0.0005806075918308516 -0.059374931796818631 0 -0.00043986423390058308 -0.05791838904754585 0 0.00015845929125358755 -0.057533505482499574 0 0.000555424190432301 -0.059505375167454071 0 0.0006667872166046375 -0.05922422296344057 0 0.00081876416784944976 -0.057703045730693181 0 0.0005806075918308516 -0.059374931796818631 0 0.0006667872166046375 -0.05922422296344057 0 0.00081876416784944976 -0.057703045730693181 0 0.000555424190432301 -0.059505375167454071 0 0.0006667872166046375 -0.05922422296344057 0 0.00061977032700135336 -0.059676533569635426 0 0.0005806075918308516 -0.059374931796818631 0 0.0006667872166046375 -0.05922422296344057 0 0.00061977032700135336 -0.059676533569635426 0 0.0005806075918308516 -0.059374931796818631 0 0.0010581962543385717 -0.059740497397892785 0 0.00061977032700135336 -0.059676533569635426 0 0.001428744876722488 -0.059313091719610592 0 0.0010581962543385717 -0.059740497397892785 0 0.00058272997244829749 -0.059593760932478576 0 0.0010581962543385717 -0.059740497397892785 0 0.00061977032700135336 -0.059676533569635426 0 0.00058272997244829749 -0.059593760932478576 0 0.001428744876722488 -0.059313091719610592 0 0.0010581962543385717 -0.059740497397892785 0 0.0020069923969368948 -0.059752137022002341 0 0.0029134172768010484 -0.06105274212598312 0 0.0010581962543385717 -0.059740497397892785 0 0.0020069923969368948 -0.059752137022002341 0 0.0026970434748664848 -0.059114953049820347 0 0.0031944039376508655 -0.059821077587899951 0 0.0020069923969368948 -0.059752137022002341 0 0.013948658802323781 -0.057179138438947848 0 0.017738343893462256 -0.055208763244010618 0 0.012375236556709827 -0.061436652041473978 0 0.013948658802323781 -0.057179138438947848 0 0.014601528527937247 -0.055789021900466904 0 0.017738343893462256 -0.055208763244010618 0 0.013948658802323781 -0.057179138438947848 0 0.012886544810730689 -0.056495051185338256 0 0.012369252898804955 -0.05782385735765834 0 0.013948658802323781 -0.057179138438947848 0 0.012886544810730689 -0.056495051185338256 0 0.014601528527937247 -0.055789021900466904 0 0.012886544810730689 -0.056495051185338256 0 0.014601528527937247 -0.055789021900466904 0 0.013140424877390778 -0.055332839385559926 0 0.014601528527937247 -0.055789021900466904 0 0.015180629568114711 -0.054790483742957648 0 0.013140424877390778 -0.055332839385559926 0 0.014601528527937247 -0.055789021900466904 0 0.017738343893462256 -0.055208763244010618 0 0.015180629568114711 -0.054790483742957648 0 0.017738343893462256 -0.055208763244010618 0 0.015180629568114711 -0.054790483742957648 0 0.018003848641024986 -0.054144563404750781 0 0.017738343893462256 -0.055208763244010618 0 0.018365051118517325 -0.054377753512103527 0 0.018003848641024986 -0.054144563404750781 0 0.018365051118517325 -0.054377753512103527 0 0.018003848641024986 -0.054144563404750781 0 0.018790606909081121 -0.053884009146510689 0 0.018365051118517325 -0.054377753512103527 0 0.018293322671941722 -0.05402749308292009 0 0.018771682279103415 -0.053902379613391858 0 0.017738343893462256 -0.055208763244010618 0 0.018365051118517325 -0.054377753512103527 0 0.018293322671941722 -0.05402749308292009 0 0.017738343893462256 -0.055208763244010618 0 0.018324832421409705 -0.053522907631818398 0 0.018293322671941722 -0.05402749308292009 0 0.018324832421409705 -0.053522907631818398 0 0.018293322671941722 -0.05402749308292009 0 0.018595852838788098 -0.053187705053667898 0 0.018324832421409705 -0.053522907631818398 0 0.018595852838788098 -0.053187705053667898 0 0.01848800222074325 -0.052885328934311707 0 0.017738343893462256 -0.055208763244010618 0 0.018324832421409705 -0.053522907631818398 0 0.019189324414098347 -0.0528201507212731 0 0.018324832421409705 -0.053522907631818398 0 0.019189324414098347 -0.0528201507212731 0 0.01848800222074325 -0.052885328934311707 0 0.018303347544071896 -0.056222094368586932 0 0.012813235492158431 -0.053808523802150246 0 0.013948658802323781 -0.057179138438947848 0 0.012375236556709827 -0.061436652041473978 0 0.012369252898804955 -0.05782385735765834 0 -5.4324323547587428e-05 -0.057237753614427324 0 -1.7147498918617087e-05 -0.057087570741803734 0 -6.5295444633491596e-06 -0.057219056749307967 0 -1.7147498918617087e-05 -0.057087570741803734 0 -6.5295444633491596e-06 -0.057219056749307967 0 -2.8983399268431871e-05 -0.057264763596114418 0 -6.5295444633491596e-06 -0.057219056749307967 0 -2.8983399268431871e-05 -0.057264763596114418 0 9.6025868710706265e-05 -0.057165125504987792 0 0.012813235492158431 -0.053808523802150246 0 0.0071104264988881612 -0.058565002417043099 0 0.012375236556709827 -0.061436652041473978 0 0.012369252898804955 -0.05782385735765834 0 0.010586093307424618 -0.058027441427238029 0 -5.4324323547587428e-05 -0.057237753614427324 0 -6.5295444633491596e-06 -0.057219056749307967 0 9.6025868710706265e-05 -0.057165125504987792 0 0.0020229787749771262 -0.059344833257396826 0 0.0071104264988881612 -0.058565002417043099 0 -0.00035698196620524507 -0.05726005289000366 0 -2.8983399268431871e-05 -0.057264763596114418 0 9.6025868710706265e-05 -0.057165125504987792 0 -0.00035698196620524507 -0.05726005289000366 0 -8.7579734711829322e-05 -0.057348399275368694 0 -2.8983399268431871e-05 -0.057264763596114418 0 -1.7147498918617087e-05 -0.057087570741803734 0 -8.7579734711829322e-05 -0.057348399275368694 0 8.4591778326120992e-05 -0.05696533806855221 0 -1.7147498918617087e-05 -0.057087570741803734 0 -8.7579734711829322e-05 -0.057348399275368694 0 -2.8983399268431871e-05 -0.057264763596114418 0 -0.00035698196620524507 -0.05726005289000366 0 -0.00041623759676972524 -0.057470591692977357 0 -8.7579734711829322e-05 -0.057348399275368694 0 0.0066762056058238383 -0.060229929389209097 0 0.0080548305162059138 -0.060927651177471571 0 0.0070532635454335297 -0.058885144683443691 0 0.0056651316377902133 -0.059697904344336722 0 0.0057491637391838858 -0.061232948529892639 0 0.0066762056058238383 -0.060229929389209097 0 0.0057491637391838858 -0.061232948529892639 0 0.0066762056058238383 -0.060229929389209097 0 0.0080548305162059138 -0.060927651177471571 0 0.011657603002110044 -0.0576532729884012 0 0.011755531831498982 -0.056324907576749017 0 0.009580301058037085 -0.055440337971081916 0 0.0071104264988881612 -0.058565002417043099 0 0.0086633255960049983 -0.057387324914216671 0 0.012111891098755946 -0.057075209780054877 0 0.011657603002110044 -0.0576532729884012 0 0.011755531831498982 -0.056324907576749017 0 0.012886544810730689 -0.056495051185338256 0 0.012111891098755946 -0.057075209780054877 0 0.012369252898804955 -0.05782385735765834 0 0.012111891098755946 -0.057075209780054877 0 0.012369252898804955 -0.05782385735765834 0 0.011657603002110044 -0.0576532729884012 0 0.010643768664803472 -0.05810355190361869 0 0.0071104264988881612 -0.058565002417043099 0 0.012886544810730689 -0.056495051185338256 0 0.011755531831498982 -0.056324907576749017 0 0.013140424877390778 -0.055332839385559926 0 0.012886544810730689 -0.056495051185338256 0 0.012111891098755946 -0.057075209780054877 0 0.011755531831498982 -0.056324907576749017 0 0.011755531831498982 -0.056324907576749017 0 0.011179967552417666 -0.055024032130816448 0 0.013140424877390778 -0.055332839385559926 0 0.011755531831498982 -0.056324907576749017 0 0.011179967552417666 -0.055024032130816448 0 0.009580301058037085 -0.055440337971081916 0 0.0056651316377902133 -0.059697904344336722 0 0.0066762056058238383 -0.060229929389209097 0 0.0070532635454335297 -0.058885144683443691 0 0.0057212922104838007 -0.058342570659321989 0 0.0056651316377902133 -0.059697904344336722 0 0.0070532635454335297 -0.058885144683443691 0 0.0068222357671890279 -0.056357225954593665 0 0.0057212922104838007 -0.058342570659321989 0 0.0070532635454335297 -0.058885144683443691 0 0.0067573488457048064 -0.056009077417959414 0 0.0086633255960049983 -0.057387324914216671 0 0.0068222357671890279 -0.056357225954593665 0 0.009580301058037085 -0.055440337971081916 0 0.0091871126904477345 -0.054852552825946414 0 0.011179967552417666 -0.055024032130816448 0 0.0091871126904477345 -0.054852552825946414 0 0.012529267054269854 -0.054011230814900238 0 0.011179967552417666 -0.055024032130816448 0 0.009580301058037085 -0.055440337971081916 0 0.0091871126904477345 -0.054852552825946414 0 0.018678336220298162 -0.053496595943539581 0 0.018887943673810005 -0.053490633111406505 0 0.018829201752587513 -0.053507040574331532 0 0.012529267054269854 -0.054011230814900238 0 0.015180629568114711 -0.054790483742957648 0 0.013140424877390778 -0.055332839385559926 0 0.012529267054269854 -0.054011230814900238 0 0.015180629568114711 -0.054790483742957648 0 0.018003848641024986 -0.054144563404750781 0 0.011179967552417666 -0.055024032130816448 0 0.012529267054269854 -0.054011230814900238 0 0.013140424877390778 -0.055332839385559926 0 0.016269539078759762 -0.053675010515097467 0 0.017741989554362025 -0.054476838686954618 0 0.018678336220298162 -0.053496595943539581 0 0.018003848641024986 -0.054144563404750781 0 0.018708631969582355 -0.053610666816714378 0 0.018003848641024986 -0.054144563404750781 0 0.018708631969582355 -0.053610666816714378 0 0.018790606909081121 -0.053884009146510689 0 0.018708631969582355 -0.053610666816714378 0 0.018887943673810005 -0.053490633111406505 0 0.019242767125534504 -0.053412134458154285 0 0.018678336220298162 -0.053496595943539581 0 0.018708631969582355 -0.053610666816714378 0 0.018887943673810005 -0.053490633111406505 0 0.018829201752587513 -0.053507040574331532 0 0.019086040468755106 -0.05325583478112994 0 0.019234344457538299 -0.053412050558735519 0 0.018887943673810005 -0.053490633111406505 0 0.018829201752587513 -0.053507040574331532 0 0.019234344457538299 -0.053412050558735519 0 0.018678336220298162 -0.053496595943539581 0 0.018829201752587513 -0.053507040574331532 0 0.018837190019580299 -0.053601410043929036 0 0.019037098354009522 -0.053754669859734934 0 0.018851481930808371 -0.053693022131489243 0 0.018829201752587513 -0.053507040574331532 0 0.019086040468755106 -0.05325583478112994 0 0.018797317101038585 -0.053692012545030213 0 0.018819533884462329 -0.053981541756098483 0 0.018906309878787626 -0.054254740175341772 0 0.018797317101038585 -0.053692012545030213 0 0.0068222357671890279 -0.056357225954593665 0 0.0091871126904477345 -0.054852552825946414 0 0.0082457259987965062 -0.055459485052229113 0 0.0068222357671890279 -0.056357225954593665 0 0.0082457259987965062 -0.055459485052229113 0 0.0068590228090017122 -0.05606825229799893 0 0.016269539078759762 -0.053675010515097467 0 0.010802830420690336 -0.055185332954081845 0 0.018829201752587513 -0.053507040574331532 0 0.018837190019580299 -0.053601410043929036 0 0.018797317101038585 -0.053692012545030213 0 0.0091871126904477345 -0.054852552825946414 0 0.012529267054269854 -0.054011230814900238 0 0.0092774762136619768 -0.053098567844953676 0 0.0092532068749293442 -0.054669477887173419 0 0.010802830420690336 -0.055185332954081845 0 0.018837190019580299 -0.053601410043929036 0 0.018797317101038585 -0.053692012545030213 0 0.018888306686524782 -0.053963338240697184 0 0.010802830420690336 -0.055185332954081845 0 0.013524675439480478 -0.055218608948782312 0 0.018819533884462329 -0.053981541756098483 0 0.018797317101038585 -0.053692012545030213 0 0.018888306686524782 -0.053963338240697184 0 0.0082457259987965062 -0.055459485052229113 0 0.0068590228090017122 -0.05606825229799893 0 0.0067951882489749402 -0.056135585087551461 0 0.010802830420690336 -0.055185332954081845 0 0.0062681367833767841 -0.056410690199104052 0 0.0079833366867796927 -0.0575964341771781 0 0.0080730979060459652 -0.056406097086003665 0 0.0067951882489749402 -0.056135585087551461 0 0.0080730979060459652 -0.056406097086003665 0 0.0067951882489749402 -0.056135585087551461 0 0.0078540842649550465 -0.055881986041175447 0 0.0065523370123185456 -0.055717405957315551 0 0.0067951882489749402 -0.056135585087551461 0 0.0078540842649550465 -0.055881986041175447 0 0.0080730979060459652 -0.056406097086003665 0 0.0078540842649550465 -0.055881986041175447 0 0.0081765401025451143 -0.055827845558896812 0 0.018888306686524782 -0.053963338240697184 0 0.018802446194351521 -0.054075988656409744 0 0.018814828848190544 -0.054066737040668833 0 0.013524675439480478 -0.055218608948782312 0 0.01190386483560199 -0.054849624228821135 0 0.0078540842649550465 -0.055881986041175447 0 0.0090139972863457294 -0.055934362326918535 0 0.0096257935908946393 -0.054999359152099754 0 0.01190386483560199 -0.054849624228821135 0 0.0096278395849248889 -0.055001311680340323 0 0.0077926149111674321 -0.05574812131628188 0 0.01190386483560199 -0.054849624228821135 0 0.0065889875096856393 -0.054999323830426931 0 0.0065523370123185456 -0.055717405957315551 0 0.0078540842649550465 -0.055881986041175447 0 0.0065889875096856393 -0.054999323830426931 0 0.0078540842649550465 -0.055881986041175447 0 0.0096257935908946393 -0.054999359152099754 0 0.018906309878787626 -0.054254740175341772 0 0.019126743074598846 -0.054200936548361306 0 0.018865134948473382 -0.054045656126092509 0 0.018906309878787626 -0.054254740175341772 0 0.018814828848190544 -0.054066737040668833 0 0.018865134948473382 -0.054045656126092509 0 0.018802446194351521 -0.054075988656409744 0 0.018814828848190544 -0.054066737040668833 0 0.018865134948473382 -0.054045656126092509 0 0.018819533884462329 -0.053981541756098483 0 0.018906309878787626 -0.054254740175341772 0 0.018814828848190544 -0.054066737040668833 0 0.018819533884462329 -0.053981541756098483 0 0.018888306686524782 -0.053963338240697184 0 0.018814828848190544 -0.054066737040668833 0 0.01190386483560199 -0.054849624228821135 0 0.015903064273607749 -0.055106076841717484 0 0.0095067799439503067 -0.05653701048080477 0 0.0096276482235358746 -0.054999974721721676 0 0.012014911096457664 -0.056159155892680918 0 0.0096276482235358746 -0.054999974721721676 0 0.012014911096457664 -0.056159155892680918 0 0.012112583356215971 -0.054999991131112917 0 0.012014911096457664 -0.056159155892680918 0 0.012112583356215971 -0.054999991131112917 0 0.014530218885913788 -0.055773818744237633 0 0.015903064273607749 -0.055106076841717484 0 0.016819144658968978 -0.054945927664660055 0 0.012112583356215971 -0.054999991131112917 0 0.014597584251706276 -0.054999992049400218 0 0.014530218885913788 -0.055773818744237633 0 0.019126743074598846 -0.054200936548361306 0 0.018865134948473382 -0.054045656126092509 0 0.019303359671073952 -0.054078164355052555 0 0.014597584251706276 -0.054999992049400218 0 0.014530218885913788 -0.055773818744237633 0 0.017047433120353599 -0.055384853918106811 0 0.019126743074598846 -0.054200936548361306 0 0.019303359671073952 -0.054078164355052555 0 0.019509384063258119 -0.054436642474292224 0 0.018906309878787626 -0.054254740175341772 0 0.019126743074598846 -0.054200936548361306 0 0.019509384063258119 -0.054436642474292224 0 0.019037098354009522 -0.053754669859734934 0 0.019648003269748048 -0.053929502612662245 0 0.019509384063258119 -0.054436642474292224 0 0.019904217507014717 -0.054321665821888548 0 0.020024590839420219 -0.054392890694982751 0 0.019834276631030465 -0.053334921479832827 0 0.020024590839420219 -0.054392890694982751 0 0.02000235694330935 -0.053576724213535598 0 0.019648003269748048 -0.053929502612662245 0 0.019936233803966603 -0.054305675074326119 0 0.019303359671073952 -0.054078164355052555 0 0.019509384063258119 -0.054436642474292224 0 0.019904217507014717 -0.054321665821888548 0 0.014597584251706276 -0.054999992049400218 0 0.017082564747453888 -0.054999997704871358 0 0.017047433120353599 -0.055384853918106811 0 0.016819144658968978 -0.054945927664660055 0 0.018447490345905555 -0.054873753676708409 0 0.017082564747453888 -0.054999997704871358 0 0.017047433120353599 -0.055384853918106811 0 0.019567547181132298 -0.055005868290642211 0 0.018447490345905555 -0.054873753676708409 0 0.01956719702394219 -0.055005782211871398 0 0.019904217507014717 -0.054321665821888548 0 0.019571119091403251 -0.055003793204973034 0 0.020024590839420219 -0.054392890694982751 0 0.019571119091403251 -0.055003793204973034 0 0.020320442751397334 -0.055087260553350524 0 0.020024590839420219 -0.054392890694982751 0 0.020320442751397334 -0.055087260553350524 0 0.020024590839420219 -0.054392890694982751 0 0.020035897746087709 -0.05365691003227456 0 0.020024590839420219 -0.054392890694982751 0 0.02000235694330935 -0.053576724213535598 0 0.020035897746087709 -0.05365691003227456 0 0.02000235694330935 -0.053576724213535598 0 0.020035897746087709 -0.05365691003227456 0 0.019976760596043575 -0.053302418158042091 0 0.020035897746087709 -0.05365691003227456 0 0.019976760596043575 -0.053302418158042091 0 0.020072194147620837 -0.053168334143625158 0 0.020035897746087709 -0.05365691003227456 0 0.020190699992973068 -0.053019988038469579 0 0.020403884491966447 -0.052734408076409334 0 0.020035897746087709 -0.05365691003227456 0 0.020190699992973068 -0.053019988038469579 0 0.020072194147620837 -0.053168334143625158 0 0.020190699992973068 -0.053019988038469579 0 0.020072194147620837 -0.053168334143625158 0 0.020146109850082153 -0.053108834639790221 0 0.020190699992973068 -0.053019988038469579 0 0.020390863741591134 -0.052976300003466384 0 0.020146109850082153 -0.053108834639790221 0 0.019976760596043575 -0.053302418158042091 0 0.020072194147620837 -0.053168334143625158 0 0.019954819671572595 -0.053206663710370861 0 0.020072194147620837 -0.053168334143625158 0 0.019954819671572595 -0.053206663710370861 0 0.020146109850082153 -0.053108834639790221 0 0.019976760596043575 -0.053302418158042091 0 0.019718579240485826 -0.053366307880893943 0 0.019674576421759592 -0.05330915913741658 0 0.019976760596043575 -0.053302418158042091 0 0.019674576421759592 -0.05330915913741658 0 0.019954819671572595 -0.053206663710370861 0 0.019234344457538299 -0.053412050558735519 0 0.019718579240485826 -0.053366307880893943 0 0.019674576421759592 -0.05330915913741658 0 0.019086040468755106 -0.05325583478112994 0 0.019234344457538299 -0.053412050558735519 0 0.019718579240485826 -0.053366307880893943 0 0.019086040468755106 -0.05325583478112994 0 0.019834276631030465 -0.053334921479832827 0 0.019718579240485826 -0.053366307880893943 0 0.019834276631030465 -0.053334921479832827 0 0.02000235694330935 -0.053576724213535598 0 0.019718579240485826 -0.053366307880893943 0 0.02000235694330935 -0.053576724213535598 0 0.019976760596043575 -0.053302418158042091 0 0.019718579240485826 -0.053366307880893943 0 0.022982599615600875 -0.050559370835642999 0 0.022043610028970099 -0.050432594353657441 0 0.022383049404504311 -0.051126983013152806 0 0.022982599615600875 -0.050559370835642999 0 0.02287525988571279 -0.051162942046040501 0 0.023625875870621493 -0.051045952550774897 0 0.022982599615600875 -0.050559370835642999 0 0.022383049404504311 -0.051126983013152806 0 0.02287525988571279 -0.051162942046040501 0 0.022982599615600875 -0.050559370835642999 0 0.022043610028970099 -0.050432594353657441 0 0.023389744903554308 -0.049788603072659948 0 0.023392219103203275 -0.05318646287726702 0 0.026136031054362682 -0.053774351034429416 0 0.024840756691873345 -0.056330173162374632 0 0.024863180145767542 -0.054999494061659215 0 0.027511187433240748 -0.055000156197109989 0 0.024840756691873345 -0.056330173162374632 0 0.027771957021257905 -0.055380589325362627 0 0.027511187433240748 -0.055000156197109989 0 0.024840756691873345 -0.056330173162374632 0 0.024863180145767542 -0.054999494061659215 0 0.023292978654666226 -0.055526760563001626 0 0.022043610028970099 -0.050432594353657441 0 0.022383049404504311 -0.051126983013152806 0 0.021640795065123532 -0.051655095744958628 0 0.023392219103203275 -0.05318646287726702 0 0.021308025939375835 -0.053732532623586106 0 0.022043610028970099 -0.050432594353657441 0 0.020693803550568789 -0.051571096723040381 0 0.021640795065123532 -0.051655095744958628 0 0.024840756691873345 -0.056330173162374632 0 0.023292978654666226 -0.055526760563001626 0 0.021575402286881002 -0.056018891854482743 0 0.024863180145767542 -0.054999494061659215 0 0.023292978654666226 -0.055526760563001626 0 0.022213537293139123 -0.054999564333402466 0 0.023292978654666226 -0.055526760563001626 0 0.022213537293139123 -0.054999564333402466 0 0.021575402286881002 -0.056018891854482743 0 0.020320442751397334 -0.055087260553350524 0 0.022213537293139123 -0.054999564333402466 0 0.021575402286881002 -0.056018891854482743 0 0.019571119091403251 -0.055003793204973034 0 0.020320442751397334 -0.055087260553350524 0 0.022213537293139123 -0.054999564333402466 0 0.020309286656847534 -0.053639693408088884 0 0.021308025939375835 -0.053732532623586106 0 0.020320442751397334 -0.055087260553350524 0 0.020035897746087709 -0.05365691003227456 0 0.021575402286881002 -0.056018891854482743 0 0.020693803550568789 -0.051571096723040381 0 0.020403884491966447 -0.052734408076409334 0 0.020952360399276004 -0.052289626278190393 0 0.020035897746087709 -0.05365691003227456 0 0.020693803550568789 -0.051571096723040381 0 0.020403884491966447 -0.052734408076409334 0 0.020403884491966447 -0.052734408076409334 0 0.020619922834862033 -0.052746147111549749 0 0.020952360399276004 -0.052289626278190393 0 0.020190699992973068 -0.053019988038469579 0 0.020403884491966447 -0.052734408076409334 0 0.020619922834862033 -0.052746147111549749 0 0.020190699992973068 -0.053019988038469579 0 0.020390863741591134 -0.052976300003466384 0 0.020619922834862033 -0.052746147111549749 0 0.020390863741591134 -0.052976300003466384 0 0.020619922834862033 -0.052746147111549749 0 0.020776764261074832 -0.05290306859355276 0 0.020619922834862033 -0.052746147111549749 0 0.021432371123103255 -0.052537084360665995 0 0.020952360399276004 -0.052289626278190393 0 0.020619922834862033 -0.052746147111549749 0 0.021432371123103255 -0.052537084360665995 0 0.020776764261074832 -0.05290306859355276 0 0.020693803550568789 -0.051571096723040381 0 0.020952360399276004 -0.052289626278190393 0 0.021640795065123532 -0.051655095744958628 0 0.021432371123103255 -0.052537084360665995 0 0.020952360399276004 -0.052289626278190393 0 0.021640795065123532 -0.051655095744958628 0 0.021432371123103255 -0.052537084360665995 0 0.021640795065123532 -0.051655095744958628 0 0.022294901909593118 -0.051731184928385243 0 0.022383049404504311 -0.051126983013152806 0 0.021640795065123532 -0.051655095744958628 0 0.022294901909593118 -0.051731184928385243 0 0.021432371123103255 -0.052537084360665995 0 0.022294901909593118 -0.051731184928385243 0 0.022464045306591861 -0.052185060533417454 0 0.021432371123103255 -0.052537084360665995 0 0.022464045306591861 -0.052185060533417454 0 0.022282236079454263 -0.052672397585706937 0 0.022294901909593118 -0.051731184928385243 0 0.022464045306591861 -0.052185060533417454 0 0.023490552873379689 -0.051620599032234184 0 0.022464045306591861 -0.052185060533417454 0 0.023490552873379689 -0.051620599032234184 0 0.023088561583895186 -0.05242113809621491 0 0.022294901909593118 -0.051731184928385243 0 0.02287525988571279 -0.051162942046040501 0 0.023490552873379689 -0.051620599032234184 0 0.022383049404504311 -0.051126983013152806 0 0.022294901909593118 -0.051731184928385243 0 0.02287525988571279 -0.051162942046040501 0 0.022093274089969025 -0.053156741446543934 0 0.022773210284006039 -0.05300216116248925 0 0.022678970380425292 -0.053579885065478144 0 0.022093274089969025 -0.053156741446543934 0 0.021807945184383191 -0.053396859076818043 0 0.022678970380425292 -0.053579885065478144 0 0.022093274089969025 -0.053156741446543934 0 0.022773210284006039 -0.05300216116248925 0 0.022282236079454263 -0.052672397585706937 0 0.022773210284006039 -0.05300216116248925 0 0.022282236079454263 -0.052672397585706937 0 0.023088561583895186 -0.05242113809621491 0 0.022464045306591861 -0.052185060533417454 0 0.022282236079454263 -0.052672397585706937 0 0.023088561583895186 -0.05242113809621491 0 0.021432371123103255 -0.052537084360665995 0 0.021675848335286428 -0.0529104290853648 0 0.021190393700591323 -0.052902200967054266 0 0.022093274089969025 -0.053156741446543934 0 0.022282236079454263 -0.052672397585706937 0 0.021675848335286428 -0.0529104290853648 0 0.021432371123103255 -0.052537084360665995 0 0.022282236079454263 -0.052672397585706937 0 0.021675848335286428 -0.0529104290853648 0 0.021675848335286428 -0.0529104290853648 0 0.021418235302796074 -0.053097546592496811 0 0.021190393700591323 -0.052902200967054266 0 0.021418235302796074 -0.053097546592496811 0 0.021093883882642626 -0.053204030579035347 0 0.021807945184383191 -0.053396859076818043 0 0.022093274089969025 -0.053156741446543934 0 0.021675848335286428 -0.0529104290853648 0 0.021418235302796074 -0.053097546592496811 0 0.022093274089969025 -0.053156741446543934 0 0.021418235302796074 -0.053097546592496811 0 0.021807945184383191 -0.053396859076818043 0 0.021418235302796074 -0.053097546592496811 0 0.020834972665243628 -0.053066597595596426 0 0.021190393700591323 -0.052902200967054266 0 0.021418235302796074 -0.053097546592496811 0 0.020834972665243628 -0.053066597595596426 0 0.021093883882642626 -0.053204030579035347 0 0.020834972665243628 -0.053066597595596426 0 0.020652319420237878 -0.053138340728021184 0 0.021093883882642626 -0.053204030579035347 0 0.021432371123103255 -0.052537084360665995 0 0.021190393700591323 -0.052902200967054266 0 0.020776764261074832 -0.05290306859355276 0 0.020834972665243628 -0.053066597595596426 0 0.021190393700591323 -0.052902200967054266 0 0.020776764261074832 -0.05290306859355276 0 0.020834972665243628 -0.053066597595596426 0 0.020776764261074832 -0.05290306859355276 0 0.020448163873975418 -0.053047661589882944 0 0.020390863741591134 -0.052976300003466384 0 0.020776764261074832 -0.05290306859355276 0 0.020448163873975418 -0.053047661589882944 0 0.020529308949385025 -0.053105263977880693 0 0.020652319420237878 -0.053138340728021184 0 0.020327690079378635 -0.053129474564967777 0 0.020448163873975418 -0.053047661589882944 0 0.020529308949385025 -0.053105263977880693 0 0.020260911038896826 -0.053121196297374079 0 0.020834972665243628 -0.053066597595596426 0 0.020448163873975418 -0.053047661589882944 0 0.020529308949385025 -0.053105263977880693 0 0.020834972665243628 -0.053066597595596426 0 0.020529308949385025 -0.053105263977880693 0 0.020652319420237878 -0.053138340728021184 0 0.020652319420237878 -0.053138340728021184 0 0.020449075593043195 -0.053086992511220878 0 0.020327690079378635 -0.053129474564967777 0 0.020652319420237878 -0.053138340728021184 0 0.020640627062478 -0.05312554844883359 0 0.020449075593043195 -0.053086992511220878 0 0.020652319420237878 -0.053138340728021184 0 0.020640627062478 -0.05312554844883359 0 0.020956435012277976 -0.053235518862253063 0 0.020640627062478 -0.05312554844883359 0 0.020449075593043195 -0.053086992511220878 0 0.02050327225878263 -0.052977299073214114 0 0.020474588007524264 -0.052640278171309861 0 0.020458270757545517 -0.052591367262555144 0 0.020520721856647609 -0.052914718947473072 0 0.02050327225878263 -0.052977299073214114 0 0.020474588007524264 -0.052640278171309861 0 0.020520721856647609 -0.052914718947473072 0 0.020520721856647609 -0.052914718947473072 0 0.020769321060262292 -0.053196957601547731 0 0.020520165877707951 -0.052931100343654135 0 0.020458270757545517 -0.052591367262555144 0 0.020520721856647609 -0.052914718947473072 0 0.020520165877707951 -0.052931100343654135 0 0.020640627062478 -0.05312554844883359 0 0.02050327225878263 -0.052977299073214114 0 0.020706834818908466 -0.053127697680753726 0 0.02050327225878263 -0.052977299073214114 0 0.020520721856647609 -0.052914718947473072 0 0.020706834818908466 -0.053127697680753726 0 0.020706834818908466 -0.053127697680753726 0 0.021146188929764963 -0.053399147715936526 0 0.020956435012277976 -0.053235518862253063 0 0.020706834818908466 -0.053127697680753726 0 0.020769321060262292 -0.053196957601547731 0 0.021146188929764963 -0.053399147715936526 0 0.020520721856647609 -0.052914718947473072 0 0.020706834818908466 -0.053127697680753726 0 0.020769321060262292 -0.053196957601547731 0 0.020769321060262292 -0.053196957601547731 0 0.021146188929764963 -0.053399147715936526 0 0.021077317969207872 -0.053501668262015384 0 0.021146188929764963 -0.053399147715936526 0 0.021529785416686525 -0.053715983738595478 0 0.021077317969207872 -0.053501668262015384 0 0.021146188929764963 -0.053399147715936526 0 0.020956435012277976 -0.053235518862253063 0 0.021339818000867108 -0.053369775109186543 0 0.020956435012277976 -0.053235518862253063 0 0.021093883882642626 -0.053204030579035347 0 0.021339818000867108 -0.053369775109186543 0 0.020640627062478 -0.05312554844883359 0 0.020706834818908466 -0.053127697680753726 0 0.020956435012277976 -0.053235518862253063 0 0.020652319420237878 -0.053138340728021184 0 0.020956435012277976 -0.053235518862253063 0 0.021093883882642626 -0.053204030579035347 0 0.021807945184383191 -0.053396859076818043 0 0.021339818000867108 -0.053369775109186543 0 0.021831517518296196 -0.053684849349447172 0 0.021093883882642626 -0.053204030579035347 0 0.021807945184383191 -0.053396859076818043 0 0.021339818000867108 -0.053369775109186543 0 0.021529785416686525 -0.053715983738595478 0 0.021831517518296196 -0.053684849349447172 0 0.022137389856191389 -0.054143480338163109 0 0.021146188929764963 -0.053399147715936526 0 0.021339818000867108 -0.053369775109186543 0 0.021831517518296196 -0.053684849349447172 0 0.021146188929764963 -0.053399147715936526 0 0.021529785416686525 -0.053715983738595478 0 0.021831517518296196 -0.053684849349447172 0 0.022357678648390906 -0.053773442185949899 0 0.022137389856191389 -0.054143480338163109 0 0.022925471908866749 -0.054036812923722269 0 0.025981236952451033 -0.051318635084258775 0 0.02499212688981391 -0.053780793928450712 0 0.021831517518296196 -0.053684849349447172 0 0.022357678648390906 -0.053773442185949899 0 0.022137389856191389 -0.054143480338163109 0 0.021807945184383191 -0.053396859076818043 0 0.022357678648390906 -0.053773442185949899 0 0.022678970380425292 -0.053579885065478144 0 0.021807945184383191 -0.053396859076818043 0 0.021831517518296196 -0.053684849349447172 0 0.022357678648390906 -0.053773442185949899 0 0.022357678648390906 -0.053773442185949899 0 0.022678970380425292 -0.053579885065478144 0 0.022925471908866749 -0.054036812923722269 0 0.019816583581721805 -0.053278833415321074 0 0.019336172568062717 -0.053500679718279744 0 0.019573779657220503 -0.053357211977962449 0 0.019816583581721805 -0.053278833415321074 0 0.019336172568062717 -0.053500679718279744 0 0.01961009931819991 -0.053361094198488723 0 0.019816583581721805 -0.053278833415321074 0 0.019573779657220503 -0.053357211977962449 0 0.019821753960279499 -0.053266296731605739 0 0.019816583581721805 -0.053278833415321074 0 0.020001543037841209 -0.053172529563582399 0 0.01961009931819991 -0.053361094198488723 0 0.019336172568062717 -0.053500679718279744 0 0.01961009931819991 -0.053361094198488723 0 0.019194292558018265 -0.053620926574308961 0 0.018708631969582355 -0.053610666816714378 0 0.018790606909081121 -0.053884009146510689 0 0.019336172568062717 -0.053500679718279744 0 0.018708631969582355 -0.053610666816714378 0 0.019336172568062717 -0.053500679718279744 0 0.019242767125534504 -0.053412134458154285 0 0.018790606909081121 -0.053884009146510689 0 0.019336172568062717 -0.053500679718279744 0 0.019194292558018265 -0.053620926574308961 0 0.019336172568062717 -0.053500679718279744 0 0.019242767125534504 -0.053412134458154285 0 0.019573779657220503 -0.053357211977962449 0 0.018887943673810005 -0.053490633111406505 0 0.019234344457538299 -0.053412050558735519 0 0.019242767125534504 -0.053412134458154285 0 0.019234344457538299 -0.053412050558735519 0 0.019242767125534504 -0.053412134458154285 0 0.019674576421759592 -0.05330915913741658 0 0.019674576421759592 -0.05330915913741658 0 0.019821753960279499 -0.053266296731605739 0 0.019954819671572595 -0.053206663710370861 0 0.019242767125534504 -0.053412134458154285 0 0.019674576421759592 -0.05330915913741658 0 0.019573779657220503 -0.053357211977962449 0 0.019674576421759592 -0.05330915913741658 0 0.019573779657220503 -0.053357211977962449 0 0.019821753960279499 -0.053266296731605739 0 0.019954819671572595 -0.053206663710370861 0 0.020146109850082153 -0.053108834639790221 0 0.020076126106635044 -0.053174829181711368 0 0.019821753960279499 -0.053266296731605739 0 0.019954819671572595 -0.053206663710370861 0 0.020076126106635044 -0.053174829181711368 0 0.020390863741591134 -0.052976300003466384 0 0.020448163873975418 -0.053047661589882944 0 0.020146109850082153 -0.053108834639790221 0 0.020146109850082153 -0.053108834639790221 0 0.020260911038896826 -0.053121196297374079 0 0.020076126106635044 -0.053174829181711368 0 0.020448163873975418 -0.053047661589882944 0 0.020146109850082153 -0.053108834639790221 0 0.020260911038896826 -0.053121196297374079 0 0.020529308949385025 -0.053105263977880693 0 0.020260911038896826 -0.053121196297374079 0 0.020327690079378635 -0.053129474564967777 0 0.020260911038896826 -0.053121196297374079 0 0.020327690079378635 -0.053129474564967777 0 0.020076126106635044 -0.053174829181711368 0 0.020327690079378635 -0.053129474564967777 0 0.020076126106635044 -0.053174829181711368 0 0.020112474661828129 -0.053165741900820677 0 0.020327690079378635 -0.053129474564967777 0 0.020112474661828129 -0.053165741900820677 0 0.020262227850073297 -0.053081673748698849 0 0.019816583581721805 -0.053278833415321074 0 0.019821753960279499 -0.053266296731605739 0 0.020076126106635044 -0.053174829181711368 0 0.019816583581721805 -0.053278833415321074 0 0.020112474661828129 -0.053165741900820677 0 0.020001543037841209 -0.053172529563582399 0 0.019816583581721805 -0.053278833415321074 0 0.020076126106635044 -0.053174829181711368 0 0.020112474661828129 -0.053165741900820677 0 0.020112474661828129 -0.053165741900820677 0 0.020001543037841209 -0.053172529563582399 0 0.020262227850073297 -0.053081673748698849 0 0.020001543037841209 -0.053172529563582399 0 0.020197107245161876 -0.052975094955480272 0 0.020262227850073297 -0.053081673748698849 0 0.020001543037841209 -0.053172529563582399 0 0.020197107245161876 -0.052975094955480272 0 0.019820478421658082 -0.053138541967777439 0 0.020449075593043195 -0.053086992511220878 0 0.020327690079378635 -0.053129474564967777 0 0.020262227850073297 -0.053081673748698849 0 0.020197107245161876 -0.052975094955480272 0 0.020262227850073297 -0.053081673748698849 0 0.020416040926726511 -0.052870143240277306 0 0.020449075593043195 -0.053086992511220878 0 0.020262227850073297 -0.053081673748698849 0 0.020416040926726511 -0.052870143240277306 0 0.020449075593043195 -0.053086992511220878 0 0.02050327225878263 -0.052977299073214114 0 0.020416040926726511 -0.052870143240277306 0 0.02050327225878263 -0.052977299073214114 0 0.020474588007524264 -0.052640278171309861 0 0.020416040926726511 -0.052870143240277306 0 0.020416040926726511 -0.052870143240277306 0 0.020387137018522343 -0.052568965346531812 0 0.020600006548171287 -0.052197597008632843 0 0.020474588007524264 -0.052640278171309861 0 0.020416040926726511 -0.052870143240277306 0 0.020600006548171287 -0.052197597008632843 0 0.020197107245161876 -0.052975094955480272 0 0.020048657323839595 -0.052853135791544117 0 0.019820478421658082 -0.053138541967777439 0 0.020197107245161876 -0.052975094955480272 0 0.020416040926726511 -0.052870143240277306 0 0.020387137018522343 -0.052568965346531812 0 0.020197107245161876 -0.052975094955480272 0 0.020048657323839595 -0.052853135791544117 0 0.020387137018522343 -0.052568965346531812 0 0.020048657323839595 -0.052853135791544117 0 0.020387137018522343 -0.052568965346531812 0 0.020073874515644876 -0.052526305594909284 0 0.020048657323839595 -0.052853135791544117 0 0.019603995038570847 -0.053048173213847867 0 0.020073874515644876 -0.052526305594909284 0 0.019603995038570847 -0.053048173213847867 0 0.019316410639703185 -0.052926367100746156 0 0.020073874515644876 -0.052526305594909284 0 0.019603995038570847 -0.053048173213847867 0 0.019820478421658082 -0.053138541967777439 0 0.019273366219787452 -0.053447040559477202 0 0.020048657323839595 -0.052853135791544117 0 0.019603995038570847 -0.053048173213847867 0 0.019820478421658082 -0.053138541967777439 0 0.019820478421658082 -0.053138541967777439 0 0.01961009931819991 -0.053361094198488723 0 0.019273366219787452 -0.053447040559477202 0 0.01961009931819991 -0.053361094198488723 0 0.019194292558018265 -0.053620926574308961 0 0.019273366219787452 -0.053447040559477202 0 0.020001543037841209 -0.053172529563582399 0 0.019820478421658082 -0.053138541967777439 0 0.01961009931819991 -0.053361094198488723 0 0.018790606909081121 -0.053884009146510689 0 0.019194292558018265 -0.053620926574308961 0 0.018771682279103415 -0.053902379613391858 0 0.018365051118517325 -0.054377753512103527 0 0.018790606909081121 -0.053884009146510689 0 0.018771682279103415 -0.053902379613391858 0 0.019273366219787452 -0.053447040559477202 0 0.018771682279103415 -0.053902379613391858 0 0.018940418767145931 -0.053421694441519355 0 0.019194292558018265 -0.053620926574308961 0 0.019273366219787452 -0.053447040559477202 0 0.018771682279103415 -0.053902379613391858 0 0.018293322671941722 -0.05402749308292009 0 0.018771682279103415 -0.053902379613391858 0 0.018940418767145931 -0.053421694441519355 0 0.018595852838788098 -0.053187705053667898 0 0.018940418767145931 -0.053421694441519355 0 0.019316410639703185 -0.052926367100746156 0 0.018293322671941722 -0.05402749308292009 0 0.018595852838788098 -0.053187705053667898 0 0.018940418767145931 -0.053421694441519355 0 0.019603995038570847 -0.053048173213847867 0 0.019273366219787452 -0.053447040559477202 0 0.018940418767145931 -0.053421694441519355 0 0.019603995038570847 -0.053048173213847867 0 0.018940418767145931 -0.053421694441519355 0 0.019316410639703185 -0.052926367100746156 0 0.019316410639703185 -0.052926367100746156 0 0.018874279106648059 -0.053076861813103865 0 0.020023120673489873 -0.052576163322106073 0 0.018595852838788098 -0.053187705053667898 0 0.019316410639703185 -0.052926367100746156 0 0.018874279106648059 -0.053076861813103865 0 0.0196380652975813 -0.04445922257970273 0 0.021653838550410053 -0.044099176470027701 0 0.020382709923453458 -0.03558666465322282 0 0.023417551839439079 -0.035752274797537384 0 0.021173265390527506 -0.037731521702782149 0 0.020382709923453458 -0.03558666465322282 0 0.021173265390527506 -0.037731521702782149 0 0.018720460734058475 -0.037459129681188613 0 0.019316410639703185 -0.052926367100746156 0 0.020023120673489873 -0.052576163322106073 0 0.020073874515644876 -0.052526305594909284 0 0.020387137018522343 -0.052568965346531812 0 0.020073874515644876 -0.052526305594909284 0 0.020594485666156636 -0.051912273731377578 0 0.020023120673489873 -0.052576163322106073 0 0.020594485666156636 -0.051912273731377578 0 0.020872523685810981 -0.050895759471461417 0 0.020023120673489873 -0.052576163322106073 0 0.020073874515644876 -0.052526305594909284 0 0.020594485666156636 -0.051912273731377578 0 0.020387137018522343 -0.052568965346531812 0 0.020594485666156636 -0.051912273731377578 0 0.020600006548171287 -0.052197597008632843 0 0.020474588007524264 -0.052640278171309861 0 0.020600006548171287 -0.052197597008632843 0 0.02047753046340255 -0.051796417352759395 0 0.020600006548171287 -0.052197597008632843 0 0.020872523685810981 -0.050895759471461417 0 0.02047753046340255 -0.051796417352759395 0 0.020594485666156636 -0.051912273731377578 0 0.020600006548171287 -0.052197597008632843 0 0.020872523685810981 -0.050895759471461417 0 0.020872523685810981 -0.050895759471461417 0 0.021389484443757965 -0.048963120821311476 0 0.02047753046340255 -0.051796417352759395 0 0.020872523685810981 -0.050895759471461417 0 0.021389484443757965 -0.048963120821311476 0 0.020561681689700212 -0.050787088883482774 0 0.023417551839439079 -0.035752274797537384 0 0.026854035619988455 -0.03616299530392289 0 0.025883733636977244 -0.038088232094425259 0 0.021653838550410053 -0.044099176470027701 0 0.023609608394029695 -0.043402754924458248 0 0.020023120673489873 -0.052576163322106073 0 0.020872523685810981 -0.050895759471461417 0 0.020561681689700212 -0.050787088883482774 0 0.025883733636977244 -0.038088232094425259 0 0.02462600251035164 -0.039778947330818049 0 0.023330675755510302 -0.03824243396474198 0 0.023417551839439079 -0.035752274797537384 0 0.025883733636977244 -0.038088232094425259 0 0.023330675755510302 -0.03824243396474198 0 0.025883733636977244 -0.038088232094425259 0 0.028269430754405897 -0.039196375752315084 0 0.026451722144325899 -0.039643862588325064 0 0.025883733636977244 -0.038088232094425259 0 0.02835682672421274 -0.037926663647040747 0 0.028269430754405897 -0.039196375752315084 0 0.026854035619988455 -0.03616299530392289 0 0.025883733636977244 -0.038088232094425259 0 0.02835682672421274 -0.037926663647040747 0 0.028269430754405897 -0.039196375752315084 0 0.026451722144325899 -0.039643862588325064 0 0.026854182939885202 -0.040998995869092135 0 0.026451722144325899 -0.039643862588325064 0 0.02462600251035164 -0.039778947330818049 0 0.026854182939885202 -0.040998995869092135 0 0.025883733636977244 -0.038088232094425259 0 0.026451722144325899 -0.039643862588325064 0 0.02462600251035164 -0.039778947330818049 0 0.02462600251035164 -0.039778947330818049 0 0.022005202443792126 -0.039817938891567151 0 0.023330675755510302 -0.03824243396474198 0 0.02462600251035164 -0.039778947330818049 0 0.022005202443792126 -0.039817938891567151 0 0.023546375793239163 -0.041807170401111343 0 0.020383717084481438 -0.041649560158998636 0 0.019201493478416827 -0.04035885583566691 0 0.022005202443792126 -0.039817938891567151 0 0.020591804967023206 -0.041705084922541019 0 0.019800605240327809 -0.039597340216425719 0 0.022005202443792126 -0.039817938891567151 0 0.021173265390527506 -0.037731521702782149 0 0.019800605240327809 -0.039597340216425719 0 0.023417551839439079 -0.035752274797537384 0 0.021173265390527506 -0.037731521702782149 0 0.023330675755510302 -0.03824243396474198 0 0.022005202443792126 -0.039817938891567151 0 0.021173265390527506 -0.037731521702782149 0 0.023330675755510302 -0.03824243396474198 0 0.032684311343034803 -0.040033516475693559 0 0.032549258784754183 -0.040231044374693326 0 0.032590533390365189 -0.040224384371664576 0 0.032684311343034803 -0.040033516475693559 0 0.032363155434918044 -0.040425094394920431 0 0.032549258784754183 -0.040231044374693326 0 0.032684311343034803 -0.040033516475693559 0 0.032363155434918044 -0.040425094394920431 0 0.032729722894138898 -0.03973356879742139 0 0.032363155434918044 -0.040425094394920431 0 0.032549258784754183 -0.040231044374693326 0 0.032262133986935289 -0.040430334033319505 0 0.032549258784754183 -0.040231044374693326 0 0.032432362248938931 -0.040269318998270215 0 0.032590533390365189 -0.040224384371664576 0 0.025981236952451033 -0.051318635084258775 0 0.030110011545791324 -0.050718797241046859 0 0.030264198231965592 -0.044845721577239699 0 0.031632406802877641 -0.047247748628285013 0 0.029023008698577515 -0.048147719605655288 0 0.028757916176815758 -0.048454284548801289 0 0.030219794171413648 -0.048657576276103287 0 0.025981236952451033 -0.051318635084258775 0 0.030264198231965592 -0.044845721577239699 0 0.032549258784754183 -0.040231044374693326 0 0.032432362248938931 -0.040269318998270215 0 0.032262133986935289 -0.040430334033319505 0 0.025981236952451033 -0.051318635084258775 0 0.02296866127130098 -0.048612263893271598 0 0.032571951427814369 -0.04005685835874484 0 0.032262133986935289 -0.040430334033319505 0 0.030663699197086461 -0.040068810029182625 0 0.030264198231965592 -0.044845721577239699 0 0.02296866127130098 -0.048612263893271598 0 0.021529785416686525 -0.053715983738595478 0 0.022137389856191389 -0.054143480338163109 0 0.021336184574574816 -0.053948063253045062 0 0.028054734658663105 -0.04809361079503964 0 0.02712506290043893 -0.049181594102974166 0 0.024107243809442184 -0.048765374431063956 0 0.030264198231965592 -0.044845721577239699 0 0.031532276767783224 -0.043037071400856247 0 0.021529785416686525 -0.053715983738595478 0 0.021336184574574816 -0.053948063253045062 0 0.021077317969207872 -0.053501668262015384 0 0.032262133986935289 -0.040430334033319505 0 0.030663699197086461 -0.040068810029182625 0 0.031371402890810682 -0.041129116436941643 0 0.030663699197086461 -0.040068810029182625 0 0.031371402890810682 -0.041129116436941643 0 0.029284932353889667 -0.042483556050245133 0 0.031371402890810682 -0.041129116436941643 0 0.032013328529458956 -0.040765346575993441 0 0.029284932353889667 -0.042483556050245133 0 0.032363155434918044 -0.040425094394920431 0 0.032262133986935289 -0.040430334033319505 0 0.031371402890810682 -0.041129116436941643 0 0.032363155434918044 -0.040425094394920431 0 0.032013328529458956 -0.040765346575993441 0 0.032286880609655615 -0.039527072285961647 0 0.032363155434918044 -0.040425094394920431 0 0.031371402890810682 -0.041129116436941643 0 0.032013328529458956 -0.040765346575993441 0 0.03114021511971422 -0.041082029918917601 0 0.027400664574806388 -0.04216646915173649 0 0.032013328529458956 -0.040765346575993441 0 0.030432342558884141 -0.037452853619419559 0 0.031504714834403605 -0.039184738612603583 0 0.032013328529458956 -0.040765346575993441 0 0.029284932353889667 -0.042483556050245133 0 0.025055902665458242 -0.047086187149841488 0 0.029284932353889667 -0.042483556050245133 0 0.0260257783118403 -0.042957932227658063 0 0.025055902665458242 -0.047086187149841488 0 0.030663699197086461 -0.040068810029182625 0 0.029284932353889667 -0.042483556050245133 0 0.0260257783118403 -0.042957932227658063 0 0.02296866127130098 -0.048612263893271598 0 0.018370555314995787 -0.051888777785175824 0 0.02296866127130098 -0.048612263893271598 0 0.022081426283131353 -0.046677044984185963 0 0.014530587217909218 -0.05070105649501578 0 0.01707349429671573 -0.051048800146593395 0 0.017388215970052408 -0.050037977638643295 0 0.021336184574574816 -0.053948063253045062 0 0.021077317969207872 -0.053501668262015384 0 0.02062338018779283 -0.053337897341689318 0 0.020769321060262292 -0.053196957601547731 0 0.02062338018779283 -0.053337897341689318 0 0.020520165877707951 -0.052931100343654135 0 0.020769321060262292 -0.053196957601547731 0 0.021077317969207872 -0.053501668262015384 0 0.02062338018779283 -0.053337897341689318 0 0.021389484443757965 -0.048963120821311476 0 0.017388215970052408 -0.050037977638643295 0 0.02047753046340255 -0.051796417352759395 0 0.01707349429671573 -0.051048800146593395 0 0.017388215970052408 -0.050037977638643295 0 0.02047753046340255 -0.051796417352759395 0 0.021737646662350053 -0.048094680491484972 0 0.022081426283131353 -0.046677044984185963 0 0.018370555314995787 -0.051888777785175824 0 0.020575555182218805 -0.052026652627589168 0 0.02062338018779283 -0.053337897341689318 0 0.020520165877707951 -0.052931100343654135 0 0.02047753046340255 -0.051796417352759395 0 0.020458270757545517 -0.052591367262555144 0 0.020520165877707951 -0.052931100343654135 0 0.02047753046340255 -0.051796417352759395 0 0.020474588007524264 -0.052640278171309861 0 0.020458270757545517 -0.052591367262555144 0 0.02047753046340255 -0.051796417352759395 0 0.023609608394029695 -0.043402754924458248 0 0.027400664574806388 -0.04216646915173649 0 0.026854035619988455 -0.03616299530392289 0 0.02835682672421274 -0.037926663647040747 0 0.030432342558884141 -0.037452853619419559 0 0.021389484443757965 -0.048963120821311476 0 0.0260257783118403 -0.042957932227658063 0 0.025055902665458242 -0.047086187149841488 0 0.021389484443757965 -0.048963120821311476 0 0.020561681689700212 -0.050787088883482774 0 0.025055902665458242 -0.047086187149841488 0 0.02835682672421274 -0.037926663647040747 0 0.030432342558884141 -0.037452853619419559 0 0.030062532036750803 -0.038852465622903704 0 0.02835682672421274 -0.037926663647040747 0 0.028269430754405897 -0.039196375752315084 0 0.030062532036750803 -0.038852465622903704 0 0.030062532036750803 -0.038852465622903704 0 0.030027970996562656 -0.040065209131260118 0 0.0313594945221417 -0.039348181115301244 0 0.028269430754405897 -0.039196375752315084 0 0.030027970996562656 -0.040065209131260118 0 0.026854182939885202 -0.040998995869092135 0 0.028269430754405897 -0.039196375752315084 0 0.030062532036750803 -0.038852465622903704 0 0.030027970996562656 -0.040065209131260118 0 0.030027970996562656 -0.040065209131260118 0 0.0313594945221417 -0.039348181115301244 0 0.032433114276635616 -0.039369998099744209 0 0.0313594945221417 -0.039348181115301244 0 0.031504714834403605 -0.039184738612603583 0 0.032286880609655615 -0.039527072285961647 0 0.030062532036750803 -0.038852465622903704 0 0.0313594945221417 -0.039348181115301244 0 0.031504714834403605 -0.039184738612603583 0 0.030432342558884141 -0.037452853619419559 0 0.030062532036750803 -0.038852465622903704 0 0.031504714834403605 -0.039184738612603583 0 0.032013328529458956 -0.040765346575993441 0 0.031504714834403605 -0.039184738612603583 0 0.032286880609655615 -0.039527072285961647 0 0.032363155434918044 -0.040425094394920431 0 0.032286880609655615 -0.039527072285961647 0 0.032729722894138898 -0.03973356879742139 0 0.0313594945221417 -0.039348181115301244 0 0.032286880609655615 -0.039527072285961647 0 0.032433114276635616 -0.039369998099744209 0 0.032286880609655615 -0.039527072285961647 0 0.033219826063557265 -0.039093616298525598 0 0.032433114276635616 -0.039369998099744209 0 0.033219826063557265 -0.039093616298525598 0 0.034235173888775471 -0.038042219071030781 0 0.033475752177716103 -0.038594203320499794 0 0.033219826063557265 -0.039093616298525598 0 0.034235173888775471 -0.038042219071030781 0 0.032433114276635616 -0.039369998099744209 0 0.033219826063557265 -0.039093616298525598 0 0.032729722894138898 -0.03973356879742139 0 0.032947448032788873 -0.039572542657795223 0 0.032286880609655615 -0.039527072285961647 0 0.033219826063557265 -0.039093616298525598 0 0.032729722894138898 -0.03973356879742139 0 0.032684311343034803 -0.040033516475693559 0 0.032729722894138898 -0.03973356879742139 0 0.032947448032788873 -0.039572542657795223 0 0.033526646062510067 -0.040304366505438526 0 0.034235173888775471 -0.038042219071030781 0 0.032191702750578345 -0.040062716581681278 0 0.034463772998375851 -0.036746788000244508 0 0.034317326639255429 -0.037881231077242658 0 0.034235173888775471 -0.038042219071030781 0 0.032433114276635616 -0.039369998099744209 0 0.032191702750578345 -0.040062716581681278 0 0.033526646062510067 -0.040304366505438526 0 0.032191702750578345 -0.040062716581681278 0 0.032432735555655526 -0.040895978462476418 0 0.032191702750578345 -0.040062716581681278 0 0.031092307085133098 -0.039267844656651237 0 0.031538800127322769 -0.040947354447823728 0 0.032251977520054403 -0.039539521426298151 0 0.030479628093063402 -0.040573204560267792 0 0.032433114276635616 -0.039369998099744209 0 0.032191702750578345 -0.040062716581681278 0 0.031092307085133098 -0.039267844656651237 0 0.030027970996562656 -0.040065209131260118 0 0.032433114276635616 -0.039369998099744209 0 0.030019790865904828 -0.041967708610837644 0 0.030027970996562656 -0.040065209131260118 0 0.030019790865904828 -0.041967708610837644 0 0.026854182939885202 -0.040998995869092135 0 0.031092307085133098 -0.039267844656651237 0 0.030224601784364237 -0.040966845350613602 0 0.031538800127322769 -0.040947354447823728 0 0.030479628093063402 -0.040573204560267792 0 0.027805644311815286 -0.041451358935736746 0 0.031092307085133098 -0.039267844656651237 0 0.030224601784364237 -0.040966845350613602 0 0.02907593983455501 -0.039423493368909185 0 0.030224601784364237 -0.040966845350613602 0 0.030754091467651824 -0.041786956601301682 0 0.031538800127322769 -0.040947354447823728 0 0.030224601784364237 -0.040966845350613602 0 0.030754091467651824 -0.041786956601301682 0 0.029708253817436255 -0.042526141963832087 0 0.030754091467651824 -0.041786956601301682 0 0.029708253817436255 -0.042526141963832087 0 0.03032868411690004 -0.042250997174748929 0 0.030754091467651824 -0.041786956601301682 0 0.031538800127322769 -0.040947354447823728 0 0.031816711102835793 -0.041672869345808029 0 0.032191702750578345 -0.040062716581681278 0 0.031538800127322769 -0.040947354447823728 0 0.032432735555655526 -0.040895978462476418 0 0.031538800127322769 -0.040947354447823728 0 0.032432735555655526 -0.040895978462476418 0 0.031816711102835793 -0.041672869345808029 0 0.032432735555655526 -0.040895978462476418 0 0.032700026956421338 -0.041402955035281477 0 0.031816711102835793 -0.041672869345808029 0 0.033526646062510067 -0.040304366505438526 0 0.032432735555655526 -0.040895978462476418 0 0.032700026956421338 -0.041402955035281477 0 0.035668818901291525 -0.033041843105820874 0 0.033681769658136733 -0.035546610092798601 0 0.036251161986887707 -0.033275376938858216 0 0.034463772998375851 -0.036746788000244508 0 0.033280396428669722 -0.038553054848884119 0 0.021889001440915198 -0.0427603984496241 0 0.021452210256073752 -0.043503814772725975 0 0.023046386515794014 -0.044299530667959615 0 0.021889001440915198 -0.0427603984496241 0 0.023546375793239163 -0.041807170401111343 0 0.023046386515794014 -0.044299530667959615 0 0.021889001440915198 -0.0427603984496241 0 0.021452210256073752 -0.043503814772725975 0 0.02058956004353981 -0.042993134282829089 0 0.02058956004353981 -0.042993134282829089 0 0.020925649921035253 -0.043423569305612648 0 0.020395638757154003 -0.043428541647052198 0 0.021452210256073752 -0.043503814772725975 0 0.02058956004353981 -0.042993134282829089 0 0.020925649921035253 -0.043423569305612648 0 0.021889001440915198 -0.0427603984496241 0 0.02058956004353981 -0.042993134282829089 0 0.020591804967023206 -0.041705084922541019 0 0.02058956004353981 -0.042993134282829089 0 0.020591804967023206 -0.041705084922541019 0 0.018308367483060244 -0.042134697953573795 0 0.021889001440915198 -0.0427603984496241 0 0.020591804967023206 -0.041705084922541019 0 0.023546375793239163 -0.041807170401111343 0 0.022005202443792126 -0.039817938891567151 0 0.020591804967023206 -0.041705084922541019 0 0.023546375793239163 -0.041807170401111343 0 0.02462600251035164 -0.039778947330818049 0 0.023546375793239163 -0.041807170401111343 0 0.026854182939885202 -0.040998995869092135 0 0.023546375793239163 -0.041807170401111343 0 0.026854182939885202 -0.040998995869092135 0 0.026614522815951808 -0.043495362767357951 0 0.030019790865904828 -0.041967708610837644 0 0.026854182939885202 -0.040998995869092135 0 0.026614522815951808 -0.043495362767357951 0 0.027805644311815286 -0.041451358935736746 0 0.02439269380163011 -0.04233990060201364 0 0.023546375793239163 -0.041807170401111343 0 0.026614522815951808 -0.043495362767357951 0 0.023046386515794014 -0.044299530667959615 0 0.02907593983455501 -0.039423493368909185 0 0.027554664471630224 -0.042070048607532509 0 0.025651430275971759 -0.040358584126798172 0 0.030224601784364237 -0.040966845350613602 0 0.02907593983455501 -0.039423493368909185 0 0.027554664471630224 -0.042070048607532509 0 0.030224601784364237 -0.040966845350613602 0 0.029708253817436255 -0.042526141963832087 0 0.027554664471630224 -0.042070048607532509 0 0.027554664471630224 -0.042070048607532509 0 0.02415313551534615 -0.044033291665410659 0 0.026558482800262562 -0.046162521809192149 0 0.029708253817436255 -0.042526141963832087 0 0.027554664471630224 -0.042070048607532509 0 0.026558482800262562 -0.046162521809192149 0 0.027554664471630224 -0.042070048607532509 0 0.02415313551534615 -0.044033291665410659 0 0.025651430275971759 -0.040358584126798172 0 0.02415313551534615 -0.044033291665410659 0 0.025651430275971759 -0.040358584126798172 0 0.021238090094164302 -0.04340668343248464 0 0.021452210256073752 -0.043503814772725975 0 0.023046386515794014 -0.044299530667959615 0 0.021238090094164302 -0.04340668343248464 0 0.02439269380163011 -0.04233990060201364 0 0.021563671831038422 -0.043320756108408187 0 0.021238090094164302 -0.04340668343248464 0 0.020800416267707327 -0.044062263774713804 0 0.020395638757154003 -0.043428541647052198 0 0.020925649921035253 -0.043423569305612648 0 0.021238090094164302 -0.04340668343248464 0 0.020395638757154003 -0.043428541647052198 0 0.021452210256073752 -0.043503814772725975 0 0.020925649921035253 -0.043423569305612648 0 0.021238090094164302 -0.04340668343248464 0 0.02415313551534615 -0.044033291665410659 0 0.021238090094164302 -0.04340668343248464 0 0.022030211363061016 -0.044325486390035786 0 0.021238090094164302 -0.04340668343248464 0 0.022030211363061016 -0.044325486390035786 0 0.020800416267707327 -0.044062263774713804 0 0.02415313551534615 -0.044033291665410659 0 0.022030211363061016 -0.044325486390035786 0 0.021891913827366778 -0.04620702472815983 0 0.017958536228209438 -0.043918181758414193 0 0.020336619527654209 -0.045555074701728003 0 0.022030211363061016 -0.044325486390035786 0 0.020800416267707327 -0.044062263774713804 0 0.021891913827366778 -0.04620702472815983 0 0.015984837749928874 -0.043351885529659059 0 0.01573900977315025 -0.043360050753679109 0 0.015635108745780904 -0.043229702282306715 0 0.015984837749928874 -0.043351885529659059 0 0.01573900977315025 -0.043360050753679109 0 0.016586376110782921 -0.043303310446208908 0 0.015984837749928874 -0.043351885529659059 0 0.015716469055614246 -0.043327267746259744 0 0.016067814193272436 -0.04329548478795079 0 0.015716469055614246 -0.043327267746259744 0 0.016067814193272436 -0.04329548478795079 0 0.015300305611319906 -0.043374757189215227 0 0.015984837749928874 -0.043351885529659059 0 0.015716469055614246 -0.043327267746259744 0 0.015635108745780904 -0.043229702282306715 0 0.016067814193272436 -0.04329548478795079 0 0.016605144004780897 -0.042792706598806914 0 0.015803726265397135 -0.043090931243448878 0 0.016067814193272436 -0.04329548478795079 0 0.01686602308996344 -0.042973289809143431 0 0.016605144004780897 -0.042792706598806914 0 0.015984837749928874 -0.043351885529659059 0 0.016067814193272436 -0.04329548478795079 0 0.016586376110782921 -0.043303310446208908 0 0.017237043066627666 -0.044330389336529205 0 0.016586376110782921 -0.043303310446208908 0 0.017181623081748771 -0.043006996296884592 0 0.017958536228209438 -0.043918181758414193 0 0.01881833639518175 -0.043172119843572589 0 0.017958536228209438 -0.043918181758414193 0 0.016285619035489869 -0.043113156677321088 0 0.016586376110782921 -0.043303310446208908 0 0.017181623081748771 -0.043006996296884592 0 0.01686602308996344 -0.042973289809143431 0 0.016067814193272436 -0.04329548478795079 0 0.016586376110782921 -0.043303310446208908 0 0.01686602308996344 -0.042973289809143431 0 0.02058956004353981 -0.042993134282829089 0 0.020395638757154003 -0.043428541647052198 0 0.018308367483060244 -0.042134697953573795 0 0.01881833639518175 -0.043172119843572589 0 0.018372645082702345 -0.041974050810273743 0 0.01686602308996344 -0.042973289809143431 0 0.016605144004780897 -0.042792706598806914 0 0.018308367483060244 -0.042134697953573795 0 0.017181623081748771 -0.043006996296884592 0 0.01686602308996344 -0.042973289809143431 0 0.018308367483060244 -0.042134697953573795 0 0.016605144004780897 -0.042792706598806914 0 0.016538283194542338 -0.041940590320854558 0 0.015803726265397135 -0.043090931243448878 0 0.016605144004780897 -0.042792706598806914 0 0.016538283194542338 -0.041940590320854558 0 0.018308367483060244 -0.042134697953573795 0 0.01637013731979833 -0.042093612558991689 0 0.015624283706588504 -0.043207237066388064 0 0.016538283194542338 -0.041940590320854558 0 0.017749291903441575 -0.041285610836849639 0 0.018308367483060244 -0.042134697953573795 0 0.020591804967023206 -0.041705084922541019 0 0.017749291903441575 -0.041285610836849639 0 0.018308367483060244 -0.042134697953573795 0 0.01471023663111181 -0.041881413632879783 0 0.014445800680614206 -0.042944702392277219 0 0.01375278636448121 -0.041903056755298262 0 0.01471023663111181 -0.041881413632879783 0 0.015271673418664372 -0.04245852054090294 0 0.014445800680614206 -0.042944702392277219 0 0.01471023663111181 -0.041881413632879783 0 0.01375278636448121 -0.041903056755298262 0 0.014299539037273316 -0.041330177693159616 0 0.01471023663111181 -0.041881413632879783 0 0.015450858400177282 -0.041819012758426685 0 0.015271673418664372 -0.04245852054090294 0 0.016212351049801878 -0.042316542763727663 0 0.015450858400177282 -0.041819012758426685 0 0.015886537129546158 -0.041344788625305738 0 0.016212351049801878 -0.042316542763727663 0 0.015450858400177282 -0.041819012758426685 0 0.015271673418664372 -0.04245852054090294 0 0.015271673418664372 -0.04245852054090294 0 0.014445800680614206 -0.042944702392277219 0 0.015425363656490719 -0.04335525491969823 0 0.016212351049801878 -0.042316542763727663 0 0.015271673418664372 -0.04245852054090294 0 0.015425363656490719 -0.04335525491969823 0 0.014445800680614206 -0.042944702392277219 0 0.014834898940994811 -0.04346951115209309 0 0.014172876178819961 -0.043507290621066702 0 0.014445800680614206 -0.042944702392277219 0 0.014834898940994811 -0.04346951115209309 0 0.015425363656490719 -0.04335525491969823 0 0.016067814193272436 -0.04329548478795079 0 0.015803726265397135 -0.043090931243448878 0 0.015300305611319906 -0.043374757189215227 0 0.015624283706588504 -0.043207237066388064 0 0.015335911777897587 -0.043401200747644191 0 0.014834898940994811 -0.04346951115209309 0 0.015425363656490719 -0.04335525491969823 0 0.015300305611319906 -0.043374757189215227 0 0.014834898940994811 -0.04346951115209309 0 0.015300305611319906 -0.043374757189215227 0 0.01516798798472983 -0.043310583687877005 0 0.014834898940994811 -0.04346951115209309 0 0.014639475094561021 -0.043454550023037525 0 0.01516798798472983 -0.043310583687877005 0 0.0149572296463989 -0.04330719135786143 0 0.014671435963325366 -0.043516229461180708 0 0.015183294716922846 -0.043239874322184159 0 0.0149572296463989 -0.04330719135786143 0 0.014639475094561021 -0.043454550023037525 0 0.014671435963325366 -0.043516229461180708 0 0.0149572296463989 -0.04330719135786143 0 0.014639475094561021 -0.043454550023037525 0 0.01516798798472983 -0.043310583687877005 0 0.011905949699112399 -0.045029667959175908 0 0.010733534993242151 -0.045295448707848664 0 0.0065941666020072143 -0.047583637592355635 0 0.0091017219970805779 -0.047129172524196745 0 0.0058478544196738898 -0.048004989385757847 0 0.0065941666020072143 -0.047583637592355635 0 0.0057648085721721384 -0.047740728820884003 0 0.0058478544196738898 -0.048004989385757847 0 0.0065941666020072143 -0.047583637592355635 0 0.0091017219970805779 -0.047129172524196745 0 0.0094971812008434516 -0.043811239052898965 0 0.0065941666020072143 -0.047583637592355635 0 0.0056376893513995167 -0.04801976809743299 0 0.0051732913058013174 -0.048528023171685204 0 0.0067677517208454942 -0.047659000983996794 0 0.0073657143063549013 -0.046596887965157957 0 0.0091017219970805779 -0.047129172524196745 0 0.013178013552574587 -0.043376437026263141 0 0.0094971812008434516 -0.043811239052898965 0 0.011905949699112399 -0.045029667959175908 0 0.013055685920876046 -0.043278021481109888 0 0.014172876178819961 -0.043507290621066702 0 0.014671435963325366 -0.043516229461180708 0 0.013178013552574587 -0.043376437026263141 0 0.014834898940994811 -0.04346951115209309 0 0.014639475094561021 -0.043454550023037525 0 0.014172876178819961 -0.043507290621066702 0 0.014639475094561021 -0.043454550023037525 0 0.014172876178819961 -0.043507290621066702 0 0.014671435963325366 -0.043516229461180708 0 0.0064922276879421266 -0.047364146106839457 0 0.0058332605464658602 -0.047911509905880854 0 0.0060166838668476103 -0.047300003780216128 0 0.0060166838668476103 -0.047300003780216128 0 0.0057331515630912313 -0.047698429155581777 0 0.0057442086563393941 -0.047510485576638159 0 0.0058332605464658602 -0.047911509905880854 0 0.0060166838668476103 -0.047300003780216128 0 0.0057331515630912313 -0.047698429155581777 0 0.0057331515630912313 -0.047698429155581777 0 0.005655291279511798 -0.047787588793992142 0 0.0054098124078685392 -0.048188520371602636 0 0.0057331515630912313 -0.047698429155581777 0 0.0057442086563393941 -0.047510485576638159 0 0.005655291279511798 -0.047787588793992142 0 0.0057442086563393941 -0.047510485576638159 0 0.0057648085721721384 -0.047740728820884003 0 0.005655291279511798 -0.047787588793992142 0 0.0065941666020072143 -0.047583637592355635 0 0.0057648085721721384 -0.047740728820884003 0 0.005655291279511798 -0.047787588793992142 0 0.0065941666020072143 -0.047583637592355635 0 0.005655291279511798 -0.047787588793992142 0 0.0056376893513995167 -0.04801976809743299 0 0.0056376893513995167 -0.04801976809743299 0 0.0054098124078685392 -0.048188520371602636 0 0.0052509467115810235 -0.048537047077088245 0 0.005655291279511798 -0.047787588793992142 0 0.0056376893513995167 -0.04801976809743299 0 0.0054098124078685392 -0.048188520371602636 0 0.0058332605464658602 -0.047911509905880854 0 0.0054098124078685392 -0.048188520371602636 0 0.0053699643371977242 -0.048685249639586273 0 0.0058332605464658602 -0.047911509905880854 0 0.0057331515630912313 -0.047698429155581777 0 0.0054098124078685392 -0.048188520371602636 0 0.0054098124078685392 -0.048188520371602636 0 0.0053699643371977242 -0.048685249639586273 0 0.0048327802395469336 -0.04886317060877525 0 0.0053699643371977242 -0.048685249639586273 0 0.0048327802395469336 -0.04886317060877525 0 0.0038768851291105409 -0.049418711112699125 0 0.0048327802395469336 -0.04886317060877525 0 0.0049826293575379191 -0.04883911407119567 0 0.0038768851291105409 -0.049418711112699125 0 0.0048327802395469336 -0.04886317060877525 0 0.0052509467115810235 -0.048537047077088245 0 0.0049826293575379191 -0.04883911407119567 0 0.0054098124078685392 -0.048188520371602636 0 0.0048327802395469336 -0.04886317060877525 0 0.0052509467115810235 -0.048537047077088245 0 0.0056376893513995167 -0.04801976809743299 0 0.0052509467115810235 -0.048537047077088245 0 0.0051732913058013174 -0.048528023171685204 0 0.0052509467115810235 -0.048537047077088245 0 0.0049826293575379191 -0.04883911407119567 0 0.0051732913058013174 -0.048528023171685204 0 0.0049826293575379191 -0.04883911407119567 0 0.0052025062805335903 -0.048547319664659618 0 0.004854224830374421 -0.048342895838127065 0 0.0049826293575379191 -0.04883911407119567 0 0.0038768851291105409 -0.049418711112699125 0 0.004854224830374421 -0.048342895838127065 0 0.0037881973737692721 -0.049365557110472157 0 0.0022545728556158337 -0.050392113410241621 0 0.0046832715213197306 -0.050621938731710628 0 0.0038768851291105409 -0.049418711112699125 0 0.002857253969377126 -0.052919927850105623 0 0.0038768851291105409 -0.049418711112699125 0 0.002857253969377126 -0.052919927850105623 0 0.00013949402991037506 -0.051971961274089519 0 0.012136639220201716 -0.042530799188819961 0 0.013178013552574587 -0.043376437026263141 0 0.013070888059331119 -0.042463682324022117 0 0.014445800680614206 -0.042944702392277219 0 0.013178013552574587 -0.043376437026263141 0 0.013070888059331119 -0.042463682324022117 0 0.014445800680614206 -0.042944702392277219 0 0.014172876178819961 -0.043507290621066702 0 0.013178013552574587 -0.043376437026263141 0 0.0049826293575379191 -0.04883911407119567 0 0.0051732913058013174 -0.048528023171685204 0 0.0052025062805335903 -0.048547319664659618 0 0.012136639220201716 -0.042530799188819961 0 0.013178013552574587 -0.043376437026263141 0 0.0094971812008434516 -0.043811239052898965 0 0.012136639220201716 -0.042530799188819961 0 0.0094971812008434516 -0.043811239052898965 0 0.011783360277664374 -0.042106740221550851 0 0.0094971812008434516 -0.043811239052898965 0 0.011783360277664374 -0.042106740221550851 0 0.011898395612156231 -0.04153337701074792 0 0.0073657143063549013 -0.046596887965157957 0 0.0087488751364799243 -0.044202363076386267 0 0.011783360277664374 -0.042106740221550851 0 0.011903219380923064 -0.041635324428967412 0 0.012662898131320896 -0.041950003838522459 0 0.011783360277664374 -0.042106740221550851 0 0.011898395612156231 -0.04153337701074792 0 0.011903219380923064 -0.041635324428967412 0 0.011903219380923064 -0.041635324428967412 0 0.012662898131320896 -0.041950003838522459 0 0.01335049017163828 -0.041341299134345214 0 0.012136639220201716 -0.042530799188819961 0 0.011783360277664374 -0.042106740221550851 0 0.012662898131320896 -0.041950003838522459 0 0.012136639220201716 -0.042530799188819961 0 0.012662898131320896 -0.041950003838522459 0 0.013070888059331119 -0.042463682324022117 0 0.014445800680614206 -0.042944702392277219 0 0.013070888059331119 -0.042463682324022117 0 0.01375278636448121 -0.041903056755298262 0 0.012662898131320896 -0.041950003838522459 0 0.013070888059331119 -0.042463682324022117 0 0.01375278636448121 -0.041903056755298262 0 0.012662898131320896 -0.041950003838522459 0 0.01375278636448121 -0.041903056755298262 0 0.01335049017163828 -0.041341299134345214 0 0.014018826032828049 -0.040978318184076573 0 0.01335049017163828 -0.041341299134345214 0 0.014299539037273316 -0.041330177693159616 0 0.011903219380923064 -0.041635324428967412 0 0.013551490431948247 -0.040726139248772865 0 0.01335049017163828 -0.041341299134345214 0 0.011775064960149871 -0.042340146612395907 0 0.012902548726982632 -0.040649167749779579 0 0.01375278636448121 -0.041903056755298262 0 0.01335049017163828 -0.041341299134345214 0 0.014299539037273316 -0.041330177693159616 0 0.014018826032828049 -0.040978318184076573 0 0.013551490431948247 -0.040726139248772865 0 0.01335049017163828 -0.041341299134345214 0 0.0087488751364799243 -0.044202363076386267 0 0.0036630920038999001 -0.05051012675370873 0 0.0052025062805335903 -0.048547319664659618 0 0.0051969519862128718 -0.048065656816998259 0 0.004854224830374421 -0.048342895838127065 0 0.011903219380923064 -0.041635324428967412 0 0.01099094291525511 -0.04332528796376784 0 0.012217862023491455 -0.043367417323736737 0 0.011898395612156231 -0.04153337701074792 0 0.011903219380923064 -0.041635324428967412 0 0.012217862023491455 -0.043367417323736737 0 -0.00052686689335216272 -0.057348952696374196 0 -0.00070457904085207714 -0.057664169212603589 0 -0.00061479609583346218 -0.057693639627200588 0 -0.0017247710680862625 -0.05396490332105431 0 -0.00047388569183166136 -0.055328437028900293 0 -0.0014569090226239621 -0.056095323847920903 0 0.0036630920038999001 -0.05051012675370873 0 -0.0013079752019931033 -0.057902591268609992 0 0.013551490431948247 -0.040726139248772865 0 0.01433126235071305 -0.040722365223554435 0 0.014544248844570321 -0.040450195056408941 0 0.01099094291525511 -0.04332528796376784 0 0.012217862023491455 -0.043367417323736737 0 0.010194732625247461 -0.045469192947101215 0 0.012902548726982632 -0.040649167749779579 0 0.006562635529812311 -0.049571182535256643 0 0.0036630920038999001 -0.05051012675370873 0 0.006562635529812311 -0.049571182535256643 0 0.014018826032828049 -0.040978318184076573 0 0.013551490431948247 -0.040726139248772865 0 0.01433126235071305 -0.040722365223554435 0 0.002857253969377126 -0.052919927850105623 0 0.00013949402991037506 -0.051971961274089519 0 0.00016043468029771978 -0.053933964350329995 0 0.0036630920038999001 -0.05051012675370873 0 0.0022545728556158337 -0.050392113410241621 0 -0.0017247710680862625 -0.05396490332105431 0 0.00013949402991037506 -0.051971961274089519 0 0.00016043468029771978 -0.053933964350329995 0 -0.0017247710680862625 -0.05396490332105431 0 -0.00047388569183166136 -0.055328437028900293 0 0.00016043468029771978 -0.053933964350329995 0 -0.00047388569183166136 -0.055328437028900293 0 0.00016043468029771978 -0.053933964350329995 0 0.00077362530572391494 -0.055366513765389598 0 0.002857253969377126 -0.052919927850105623 0 0.00016043468029771978 -0.053933964350329995 0 0.00077362530572391494 -0.055366513765389598 0 0.00094119390854463796 -0.056323558721614896 0 0.00077362530572391494 -0.055366513765389598 0 0.00050379815179092192 -0.056732143029564315 0 0.00077362530572391494 -0.055366513765389598 0 -0.0002842115743446835 -0.056823835458527601 0 0.00050379815179092192 -0.056732143029564315 0 0.00094119390854463796 -0.056323558721614896 0 0.00050379815179092192 -0.056732143029564315 0 0.00043016847900329333 -0.056713704196290217 0 -0.00047388569183166136 -0.055328437028900293 0 -0.0002842115743446835 -0.056823835458527601 0 -0.0014569090226239621 -0.056095323847920903 0 -0.00047388569183166136 -0.055328437028900293 0 0.00077362530572391494 -0.055366513765389598 0 -0.0002842115743446835 -0.056823835458527601 0 -0.0002842115743446835 -0.056823835458527601 0 -0.00043986423390058308 -0.05791838904754585 0 -0.0009888195830199363 -0.057691860683113529 0 -0.0002842115743446835 -0.056823835458527601 0 -0.00043986423390058308 -0.05791838904754585 0 0.00015845929125358755 -0.057533505482499574 0 -0.0002842115743446835 -0.056823835458527601 0 0.00050379815179092192 -0.056732143029564315 0 0.00015845929125358755 -0.057533505482499574 0 0.00050379815179092192 -0.056732143029564315 0 0.00015845929125358755 -0.057533505482499574 0 0.00081876416784944976 -0.057703045730693181 0 0.0005806075918308516 -0.059374931796818631 0 0.00015845929125358755 -0.057533505482499574 0 0.00081876416784944976 -0.057703045730693181 0 0.00050379815179092192 -0.056732143029564315 0 0.00081876416784944976 -0.057703045730693181 0 0.00043016847900329333 -0.056713704196290217 0 -0.00070457904085207714 -0.057664169212603589 0 -0.00061479609583346218 -0.057693639627200588 0 -0.00070477297199636707 -0.057758354408095777 0 0.006562635529812311 -0.049571182535256643 0 -0.00054734475831517873 -0.058622778961844951 0 -0.00070457904085207714 -0.057664169212603589 0 -0.00070477297199636707 -0.057758354408095777 0 -0.00053236022506369994 -0.057784708925459248 0 -0.0013079752019931033 -0.057902591268609992 0 -0.00096942300247416819 -0.057172672656694318 0 -0.00061479609583346218 -0.057693639627200588 0 -0.0009888195830199363 -0.057691860683113529 0 -0.00070477297199636707 -0.057758354408095777 0 -0.0002842115743446835 -0.056823835458527601 0 -0.0014569090226239621 -0.056095323847920903 0 -0.0009888195830199363 -0.057691860683113529 0 -0.00067252801546760054 -0.057636607622116351 0 -0.0009888195830199363 -0.057691860683113529 0 -0.00070477297199636707 -0.057758354408095777 0 -0.00067252801546760054 -0.057636607622116351 0 -0.00070477297199636707 -0.057758354408095777 0 -0.00053236022506369994 -0.057784708925459248 0 -0.00067252801546760054 -0.057636607622116351 0 -0.00041623759676972524 -0.057470591692977357 0 -0.00053236022506369994 -0.057784708925459248 0 0.00017244702718002803 -0.056769020054395061 0 -0.00054734475831517873 -0.058622778961844951 0 -0.00041623759676972524 -0.057470591692977357 0 -8.7579734711829322e-05 -0.057348399275368694 0 -0.00053236022506369994 -0.057784708925459248 0 -8.7579734711829322e-05 -0.057348399275368694 0 8.4591778326120992e-05 -0.05696533806855221 0 0.00071978894520615061 -0.056632484162596072 0 -1.7147498918617087e-05 -0.057087570741803734 0 8.4591778326120992e-05 -0.05696533806855221 0 -3.761583767291443e-05 -0.056652030071418204 0 8.4591778326120992e-05 -0.05696533806855221 0 -3.761583767291443e-05 -0.056652030071418204 0 0.00071978894520615061 -0.056632484162596072 0 0.015592271438795045 -0.04098306086073001 0 0.015515391268368478 -0.040810945311632638 0 0.015830781401111521 -0.041158270607510733 0 0.006562635529812311 -0.049571182535256643 0 0.0076262794208602058 -0.04807386330715805 0 0.014544248844570321 -0.040450195056408941 0 0.015515391268368478 -0.040810945311632638 0 0.015298367853362953 -0.040645552091408757 0 0.0012541065915530909 -0.055180444264656202 0 -3.761583767291443e-05 -0.056652030071418204 0 0.00071978894520615061 -0.056632484162596072 0 0.014544248844570321 -0.040450195056408941 0 0.015592271438795045 -0.04098306086073001 0 0.015515391268368478 -0.040810945311632638 0 0.015747212776008386 -0.040671180441661445 0 0.015830781401111521 -0.041158270607510733 0 0.016090616475267869 -0.040226690556889343 0 0.015898920818210101 -0.040483243042058428 0 0.015568120916265823 -0.04058866703624698 0 0.015747212776008386 -0.040671180441661445 0 0.015298367853362953 -0.040645552091408757 0 0.015568120916265823 -0.04058866703624698 0 0.015747212776008386 -0.040671180441661445 0 0.015515391268368478 -0.040810945311632638 0 0.015747212776008386 -0.040671180441661445 0 0.015830781401111521 -0.041158270607510733 0 0.015515391268368478 -0.040810945311632638 0 0.015298367853362953 -0.040645552091408757 0 0.015747212776008386 -0.040671180441661445 0 -5.4324323547587428e-05 -0.057237753614427324 0 -1.7147498918617087e-05 -0.057087570741803734 0 -3.761583767291443e-05 -0.056652030071418204 0 0.015516660924666952 -0.041091960240981468 0 0.018325357150965501 -0.042032829025821339 0 0.017018395614152301 -0.041348579755828882 0 0.015592271438795045 -0.04098306086073001 0 0.015830781401111521 -0.041158270607510733 0 0.017018395614152301 -0.041348579755828882 0 0.015830781401111521 -0.041158270607510733 0 0.017869872878235417 -0.042724578189773724 0 0.012813235492158431 -0.053808523802150246 0 0.0076262794208602058 -0.04807386330715805 0 0.019189324414098347 -0.0528201507212731 0 0.018488291756134277 -0.052410776034814949 0 0.01848800222074325 -0.052885328934311707 0 0.012813235492158431 -0.053808523802150246 0 0.018325357150965501 -0.042032829025821339 0 0.018595852838788098 -0.053187705053667898 0 0.018874279106648059 -0.053076861813103865 0 0.01848800222074325 -0.052885328934311707 0 0.018874279106648059 -0.053076861813103865 0 0.018488291756134277 -0.052410776034814949 0 0.01848800222074325 -0.052885328934311707 0 0.020382709923453458 -0.03558666465322282 0 0.017620443613547105 -0.035397655583017482 0 0.018720460734058475 -0.037459129681188613 0 0.0196380652975813 -0.04445922257970273 0 0.018325357150965501 -0.042032829025821339 0 0.016090616475267869 -0.040226690556889343 0 0.016221335608825226 -0.040532282565751664 0 0.01687375788011285 -0.040284040581514129 0 0.015898920818210101 -0.040483243042058428 0 0.015747212776008386 -0.040671180441661445 0 0.016090616475267869 -0.040226690556889343 0 0.018325357150965501 -0.042032829025821339 0 0.017468200723060923 -0.038114762049177964 0 0.015898920818210101 -0.040483243042058428 0 0.016090616475267869 -0.040226690556889343 0 0.016221335608825226 -0.040532282565751664 0 0.016221335608825226 -0.040532282565751664 0 0.017049894292542694 -0.040698411168111494 0 0.015854225752893813 -0.040840011511264637 0 0.016221335608825226 -0.040532282565751664 0 0.01687375788011285 -0.040284040581514129 0 0.017049894292542694 -0.040698411168111494 0 0.01687375788011285 -0.040284040581514129 0 0.018266277500721781 -0.04055739443643859 0 0.017049894292542694 -0.040698411168111494 0 0.017468200723060923 -0.038114762049177964 0 0.019201493478416827 -0.04035885583566691 0 0.021173265390527506 -0.037731521702782149 0 0.018720460734058475 -0.037459129681188613 0 0.019800605240327809 -0.039597340216425719 0 0.020591804967023206 -0.041705084922541019 0 0.017749291903441575 -0.041285610836849639 0 0.018266277500721781 -0.04055739443643859 0 0.017749291903441575 -0.041285610836849639 0 0.018266277500721781 -0.04055739443643859 0 0.017049894292542694 -0.040698411168111494 0 0.016212351049801878 -0.042316542763727663 0 0.017049894292542694 -0.040698411168111494 0 0.015886537129546158 -0.041344788625305738 0 0.017049894292542694 -0.040698411168111494 0 0.015886537129546158 -0.041344788625305738 0 0.015854225752893813 -0.040840011511264637 0 0.01637013731979833 -0.042093612558991689 0 0.017005170239423398 -0.040773587606652333 0 0.016538283194542338 -0.041940590320854558 0 0.017749291903441575 -0.041285610836849639 0 0.017049894292542694 -0.040698411168111494 0 0.015450858400177282 -0.041819012758426685 0 0.015886537129546158 -0.041344788625305738 0 0.015202028050676678 -0.041154703889349317 0 0.015886537129546158 -0.041344788625305738 0 0.015202028050676678 -0.041154703889349317 0 0.015854225752893813 -0.040840011511264637 0 0.01471023663111181 -0.041881413632879783 0 0.015450858400177282 -0.041819012758426685 0 0.015202028050676678 -0.041154703889349317 0 0.01471023663111181 -0.041881413632879783 0 0.015202028050676678 -0.041154703889349317 0 0.014299539037273316 -0.041330177693159616 0 0.014018826032828049 -0.040978318184076573 0 0.01433126235071305 -0.040722365223554435 0 0.014542364936134769 -0.040929982990617488 0 0.014018826032828049 -0.040978318184076573 0 0.014299539037273316 -0.041330177693159616 0 0.014542364936134769 -0.040929982990617488 0 0.015202028050676678 -0.041154703889349317 0 0.014299539037273316 -0.041330177693159616 0 0.014542364936134769 -0.040929982990617488 0 0.014544248844570321 -0.040450195056408941 0 0.015298367853362953 -0.040645552091408757 0 0.014992637698616047 -0.040681511760267811 0 0.015202028050676678 -0.041154703889349317 0 0.014542364936134769 -0.040929982990617488 0 0.014992637698616047 -0.040681511760267811 0 0.01433126235071305 -0.040722365223554435 0 0.014542364936134769 -0.040929982990617488 0 0.014992637698616047 -0.040681511760267811 0 0.01433126235071305 -0.040722365223554435 0 0.014544248844570321 -0.040450195056408941 0 0.014992637698616047 -0.040681511760267811 0 0.015298367853362953 -0.040645552091408757 0 0.015568120916265823 -0.04058866703624698 0 0.014992637698616047 -0.040681511760267811 0 0.015568120916265823 -0.04058866703624698 0 0.014992637698616047 -0.040681511760267811 0 0.015546829188194366 -0.040740535614210205 0 0.015898920818210101 -0.040483243042058428 0 0.015568120916265823 -0.04058866703624698 0 0.016221335608825226 -0.040532282565751664 0 0.015568120916265823 -0.04058866703624698 0 0.016221335608825226 -0.040532282565751664 0 0.015546829188194366 -0.040740535614210205 0 0.016221335608825226 -0.040532282565751664 0 0.015854225752893813 -0.040840011511264637 0 0.015546829188194366 -0.040740535614210205 0 0.015202028050676678 -0.041154703889349317 0 0.014992637698616047 -0.040681511760267811 0 0.015546829188194366 -0.040740535614210205 0 0.015202028050676678 -0.041154703889349317 0 0.015854225752893813 -0.040840011511264637 0 0.015546829188194366 -0.040740535614210205 0 0.054995727539739546 -0.043129100371649576 0 0.0560517405832257 -0.048895940344762398 0 0.055917089491505381 -0.051987010909573229 0 0.054995727539739546 -0.043129100371649576 0 0.055492212269415468 -0.043926587080640775 0 0.056221774149150305 -0.039802498845034333 0 0.054995727539739546 -0.043129100371649576 0 0.055492212269415468 -0.043926587080640775 0 0.054301701243281965 -0.047342189924641204 0 0.055492212269415468 -0.043926587080640775 0 0.056326369405968975 -0.043779121546576656 0 0.056405602230759883 -0.042126979368068307 0 0.056326369405968975 -0.043779121546576656 0 0.056759241360528671 -0.042536599252786356 0 0.056405602230759883 -0.042126979368068307 0 0.055492212269415468 -0.043926587080640775 0 0.056326369405968975 -0.043779121546576656 0 0.055384020896183918 -0.045846534127364343 0 0.056326369405968975 -0.043779121546576656 0 0.05641391097585776 -0.044390251342091624 0 0.055384020896183918 -0.045846534127364343 0 0.051996796133783156 -0.048936830849303954 0 0.051050391551299625 -0.044072768227015349 0 0.051815974064870221 -0.048635158180925224 0 0.051965960524045618 -0.044759520549596352 0 0.051599161014100788 -0.043808588385408152 0 0.05641391097585776 -0.044390251342091624 0 0.056366321655776506 -0.046015376404510852 0 0.057638004119467644 -0.041825172373070735 0 0.056326369405968975 -0.043779121546576656 0 0.05641391097585776 -0.044390251342091624 0 0.057638004119467644 -0.041825172373070735 0 0.053952727225170395 -0.047222859568086244 0 0.054601543176974195 -0.042811884627923132 0 0.052017971871861315 -0.049268470631736713 0 0.051815974064870221 -0.048635158180925224 0 0.051965960524045618 -0.044759520549596352 0 0.05185024978782804 -0.046316793812470093 0 0.052017971871861315 -0.049268470631736713 0 0.049948928181501893 -0.043514963240403076 0 0.05185024978782804 -0.046316793812470093 0 0.049948928181501893 -0.043514963240403076 0 0.052228628390328234 -0.044110548618613188 0 0.056366321655776506 -0.046015376404510852 0 0.055384020896183918 -0.045846534127364343 0 0.054220821335382814 -0.048513686918624205 0 0.05641391097585776 -0.044390251342091624 0 0.056366321655776506 -0.046015376404510852 0 0.055384020896183918 -0.045846534127364343 0 0.055492212269415468 -0.043926587080640775 0 0.055384020896183918 -0.045846534127364343 0 0.054301701243281965 -0.047342189924641204 0 0.055384020896183918 -0.045846534127364343 0 0.054220821335382814 -0.048513686918624205 0 0.054301701243281965 -0.047342189924641204 0 0.054220821335382814 -0.048513686918624205 0 0.05255955374570942 -0.051572565066842012 0 0.054301701243281965 -0.047342189924641204 0 0.054220821335382814 -0.048513686918624205 0 0.05255955374570942 -0.051572565066842012 0 0.052710907753957523 -0.050851804644809553 0 0.056366321655776506 -0.046015376404510852 0 0.054220821335382814 -0.048513686918624205 0 0.052710907753957523 -0.050851804644809553 0 0.05255955374570942 -0.051572565066842012 0 0.054301701243281965 -0.047342189924641204 0 0.050589020281323317 -0.05248580491968264 0 0.054160170546111441 -0.047716291465783052 0 0.053386645099346847 -0.050773837876082917 0 0.054995727539739546 -0.043129100371649576 0 0.054301701243281965 -0.047342189924641204 0 0.0560517405832257 -0.048895940344762398 0 0.054995727539739546 -0.043129100371649576 0 0.055917089491505381 -0.051987010909573229 0 0.054993920181701877 -0.054999653277764696 0 0.053386645099346847 -0.050773837876082917 0 0.053452493825940146 -0.053384754778291951 0 0.050589020281323317 -0.05248580491968264 0 0.050952253651045977 -0.055152128646921782 0 0.051086133075012842 -0.053926275908664563 0 0.050952253651045977 -0.055152128646921782 0 0.051455032364050593 -0.055207946650212537 0 0.050407772018625473 -0.055117754926402439 0 0.051455032364050593 -0.055207946650212537 0 0.053699985952251554 -0.054999562608772118 0 0.051036158625339147 -0.054999053528817309 0 0.050952253651045977 -0.055152128646921782 0 0.051455032364050593 -0.055207946650212537 0 0.053699985952251554 -0.054999562608772118 0 0.055917089491505381 -0.051987010909573229 0 0.054993920181701877 -0.054999653277764696 0 0.053713799869817072 -0.054997263132255024 0 0.053452493825940146 -0.053384754778291951 0 0.053703443156497929 -0.054999038798635914 0 0.048370873114772249 -0.05499887166807433 0 0.050407772018625473 -0.055117754926402439 0 0.048820117831641169 -0.055007667979464846 0 0.048370873114772249 -0.05499887166807433 0 0.051036158625339147 -0.054999053528817309 0 0.050407772018625473 -0.055117754926402439 0 0.051455032364050593 -0.055207946650212537 0 0.051036158625339147 -0.054999053528817309 0 0.050407772018625473 -0.055117754926402439 0 0.050952253651045977 -0.055152128646921782 0 0.050407772018625473 -0.055117754926402439 0 0.051086133075012842 -0.053926275908664563 0 0.050407772018625473 -0.055117754926402439 0 0.050062705512741869 -0.054229847355320465 0 0.048820117831641169 -0.055007667979464846 0 0.050407772018625473 -0.055117754926402439 0 0.051086133075012842 -0.053926275908664563 0 0.050062705512741869 -0.054229847355320465 0 0.05255955374570942 -0.051572565066842012 0 0.050589020281323317 -0.05248580491968264 0 0.051086133075012842 -0.053926275908664563 0 0.05255955374570942 -0.051572565066842012 0 0.051086133075012842 -0.053926275908664563 0 0.050062705512741869 -0.054229847355320465 0 0.05255955374570942 -0.051572565066842012 0 0.050062705512741869 -0.054229847355320465 0 0.051049406420413557 -0.052672309676092675 0 0.04955182994016475 -0.054172694505405371 0 0.050579303098809182 -0.053569676379968262 0 0.051049406420413557 -0.052672309676092675 0 0.04955182994016475 -0.054172694505405371 0 0.050062705512741869 -0.054229847355320465 0 0.051049406420413557 -0.052672309676092675 0 0.048110716882155707 -0.054616868924628997 0 0.050062705512741869 -0.054229847355320465 0 0.047785733003300322 -0.054844323422093139 0 0.04955182994016475 -0.054172694505405371 0 0.048110716882155707 -0.054616868924628997 0 0.050062705512741869 -0.054229847355320465 0 0.050062705512741869 -0.054229847355320465 0 0.048820117831641169 -0.055007667979464846 0 0.047785733003300322 -0.054844323422093139 0 0.048110716882155707 -0.054616868924628997 0 0.047785733003300322 -0.054844323422093139 0 0.045966786923971402 -0.054810371493683729 0 0.047785733003300322 -0.054844323422093139 0 0.045703246508426137 -0.054998774626214025 0 0.045966786923971402 -0.054810371493683729 0 0.048820117831641169 -0.055007667979464846 0 0.047785733003300322 -0.054844323422093139 0 0.045703246508426137 -0.054998774626214025 0 0.048370873114772249 -0.05499887166807433 0 0.048820117831641169 -0.055007667979464846 0 0.045703246508426137 -0.054998774626214025 0 0.043035944079539146 -0.054999571763506644 0 0.044126388223163511 -0.055114751999325799 0 0.04303380684795842 -0.05499936342114492 0 0.042763760676080675 -0.055887667231102826 0 0.03998047328483037 -0.054999149486645721 0 0.043042142329617138 -0.054998620596535659 0 0.045966786923971402 -0.054810371493683729 0 0.045648987767353433 -0.054406184954691482 0 0.045703246508426137 -0.054998774626214025 0 0.043042142329617138 -0.054998620596535659 0 0.045966786923971402 -0.054810371493683729 0 0.045966786923971402 -0.054810371493683729 0 0.045648987767353433 -0.054406184954691482 0 0.046687666506120676 -0.054698914715861302 0 0.048110716882155707 -0.054616868924628997 0 0.045966786923971402 -0.054810371493683729 0 0.046687666506120676 -0.054698914715861302 0 0.045648987767353433 -0.054406184954691482 0 0.044523755914829807 -0.055653170994433253 0 0.046687666506120676 -0.054698914715861302 0 0.044126388223163511 -0.055114751999325799 0 0.044372240328343519 -0.055779172190473632 0 0.042763760676080675 -0.055887667231102826 0 0.044523755914829807 -0.055653170994433253 0 0.041298571682062503 -0.055919208241492165 0 0.044523755914829807 -0.055653170994433253 0 0.046687666506120676 -0.054698914715861302 0 0.047726761859231179 -0.055054299174975542 0 0.04955182994016475 -0.054172694505405371 0 0.048110716882155707 -0.054616868924628997 0 0.047726761859231179 -0.055054299174975542 0 0.048110716882155707 -0.054616868924628997 0 0.046687666506120676 -0.054698914715861302 0 0.047726761859231179 -0.055054299174975542 0 0.04955182994016475 -0.054172694505405371 0 0.047726761859231179 -0.055054299174975542 0 0.050579303098809182 -0.053569676379968262 0 0.05000623219961934 -0.053748517681746107 0 0.04862952031338174 -0.054690801234051331 0 0.047726761859231179 -0.055054299174975542 0 0.050579303098809182 -0.053569676379968262 0 0.044676919415395457 -0.057041747669882348 0 0.044523755914829807 -0.055653170994433253 0 0.047726761859231179 -0.055054299174975542 0 0.044676919415395457 -0.057041747669882348 0 0.050579303098809182 -0.053569676379968262 0 0.053106153747988688 -0.052103565138961062 0 0.052948171661036353 -0.052876442596673845 0 0.052547426505995261 -0.051297957720096474 0 0.050579303098809182 -0.053569676379968262 0 0.053106153747988688 -0.052103565138961062 0 0.052547426505995261 -0.051297957720096474 0 0.052847287893744495 -0.050086307171631719 0 0.053383349508914262 -0.050625414642687924 0 0.052547426505995261 -0.051297957720096474 0 0.051558420194775703 -0.051410586526969754 0 0.05239517277169916 -0.050130037649973709 0 0.052547426505995261 -0.051297957720096474 0 0.050579303098809182 -0.053569676379968262 0 0.051558420194775703 -0.051410586526969754 0 0.050579303098809182 -0.053569676379968262 0 0.051049406420413557 -0.052672309676092675 0 0.051558420194775703 -0.051410586526969754 0 0.051049406420413557 -0.052672309676092675 0 0.052710907753957523 -0.050851804644809553 0 0.051558420194775703 -0.051410586526969754 0 0.05255955374570942 -0.051572565066842012 0 0.051049406420413557 -0.052672309676092675 0 0.052710907753957523 -0.050851804644809553 0 0.052017971871861315 -0.049268470631736713 0 0.052710907753957523 -0.050851804644809553 0 0.052559215509418653 -0.050087768107894115 0 0.051558420194775703 -0.051410586526969754 0 0.052559215509418653 -0.050087768107894115 0 0.05239517277169916 -0.050130037649973709 0 0.052710907753957523 -0.050851804644809553 0 0.051558420194775703 -0.051410586526969754 0 0.052559215509418653 -0.050087768107894115 0 0.052755420611390436 -0.049208579237720464 0 0.052559215509418653 -0.050087768107894115 0 0.05239517277169916 -0.050130037649973709 0 0.052755420611390436 -0.049208579237720464 0 0.052559215509418653 -0.050087768107894115 0 0.052797908446945395 -0.04919447654517161 0 0.053952727225170395 -0.047222859568086244 0 0.052981708866114509 -0.050305071893632723 0 0.052755420611390436 -0.049208579237720464 0 0.052797908446945395 -0.04919447654517161 0 0.053524958401652854 -0.048454496825263996 0 0.052017971871861315 -0.049268470631736713 0 0.051815974064870221 -0.048635158180925224 0 0.052710907753957523 -0.050851804644809553 0 0.052017971871861315 -0.049268470631736713 0 0.052559215509418653 -0.050087768107894115 0 0.052797908446945395 -0.04919447654517161 0 0.052017971871861315 -0.049268470631736713 0 0.052797908446945395 -0.04919447654517161 0 0.052686127661213229 -0.048082760274884576 0 0.052797908446945395 -0.04919447654517161 0 0.052686127661213229 -0.048082760274884576 0 0.053524958401652854 -0.048454496825263996 0 0.053524958401652854 -0.048454496825263996 0 0.052828571542433547 -0.04610694771447206 0 0.054145517187056118 -0.043069477657333904 0 0.05185024978782804 -0.046316793812470093 0 0.052686127661213229 -0.048082760274884576 0 0.052828571542433547 -0.04610694771447206 0 0.052686127661213229 -0.048082760274884576 0 0.053524958401652854 -0.048454496825263996 0 0.052828571542433547 -0.04610694771447206 0 0.05185024978782804 -0.046316793812470093 0 0.052017971871861315 -0.049268470631736713 0 0.052686127661213229 -0.048082760274884576 0 0.05185024978782804 -0.046316793812470093 0 0.052828571542433547 -0.04610694771447206 0 0.052228628390328234 -0.044110548618613188 0 0.052828571542433547 -0.04610694771447206 0 0.054145517187056118 -0.043069477657333904 0 0.052228628390328234 -0.044110548618613188 0 0.052755420611390436 -0.049208579237720464 0 0.053524958401652854 -0.048454496825263996 0 0.052600368783556395 -0.049161366183140411 0 0.053609488962905245 -0.048072042040391082 0 0.056706675967108745 -0.045733412177448966 0 0.052755420611390436 -0.049208579237720464 0 0.052638054154948738 -0.049361717492663007 0 0.052600368783556395 -0.049161366183140411 0 0.052638054154948738 -0.049361717492663007 0 0.052847287893744495 -0.050086307171631719 0 0.053099350219157931 -0.049439056442619637 0 0.052638054154948738 -0.049361717492663007 0 0.053099350219157931 -0.049439056442619637 0 0.053073719123240215 -0.04891250855350996 0 0.052638054154948738 -0.049361717492663007 0 0.052847287893744495 -0.050086307171631719 0 0.05239517277169916 -0.050130037649973709 0 0.052547426505995261 -0.051297957720096474 0 0.052847287893744495 -0.050086307171631719 0 0.05239517277169916 -0.050130037649973709 0 0.052755420611390436 -0.049208579237720464 0 0.052638054154948738 -0.049361717492663007 0 0.05239517277169916 -0.050130037649973709 0 0.053972005370718501 -0.050515344896698545 0 0.053406342345734367 -0.049937346424507645 0 0.053986644193823999 -0.049920071093617173 0 0.053972005370718501 -0.050515344896698545 0 0.053986644193823999 -0.049920071093617173 0 0.05445726050278521 -0.050176315674441856 0 0.053972005370718501 -0.050515344896698545 0 0.054332975074420517 -0.050748703994408874 0 0.053912399915019303 -0.051048302989554248 0 0.053972005370718501 -0.050515344896698545 0 0.053383349508914262 -0.050625414642687924 0 0.053912399915019303 -0.051048302989554248 0 0.052847287893744495 -0.050086307171631719 0 0.053383349508914262 -0.050625414642687924 0 0.053406342345734367 -0.049937346424507645 0 0.053972005370718501 -0.050515344896698545 0 0.053383349508914262 -0.050625414642687924 0 0.053406342345734367 -0.049937346424507645 0 0.053406342345734367 -0.049937346424507645 0 0.053099350219157931 -0.049439056442619637 0 0.05350953661079523 -0.049451651808180661 0 0.052847287893744495 -0.050086307171631719 0 0.053406342345734367 -0.049937346424507645 0 0.053099350219157931 -0.049439056442619637 0 0.05350953661079523 -0.049451651808180661 0 0.053842425196165729 -0.049013976106845741 0 0.053394328455606974 -0.049013519256221452 0 0.053099350219157931 -0.049439056442619637 0 0.05350953661079523 -0.049451651808180661 0 0.053394328455606974 -0.049013519256221452 0 0.05350953661079523 -0.049451651808180661 0 0.053842425196165729 -0.049013976106845741 0 0.053986644193823999 -0.049920071093617173 0 0.053406342345734367 -0.049937346424507645 0 0.05350953661079523 -0.049451651808180661 0 0.053986644193823999 -0.049920071093617173 0 0.053986644193823999 -0.049920071093617173 0 0.054479220419621582 -0.049442439553255009 0 0.05445726050278521 -0.050176315674441856 0 0.053842425196165729 -0.049013976106845741 0 0.053986644193823999 -0.049920071093617173 0 0.054479220419621582 -0.049442439553255009 0 0.053842425196165729 -0.049013976106845741 0 0.054479220419621582 -0.049442439553255009 0 0.054976650070803698 -0.048060432783103693 0 0.030845628529225632 -0.054996076289814677 0 0.032946516287178505 -0.057025345821671639 0 0.03092270172069065 -0.053536790170858689 0 0.054479220419621582 -0.049442439553255009 0 0.055246769788120612 -0.049508832529421051 0 0.054976650070803698 -0.048060432783103693 0 0.034125378641817347 -0.052763894596084486 0 0.029077846236121731 -0.05254151882565234 0 0.055246769788120612 -0.049508832529421051 0 0.05445726050278521 -0.050176315674441856 0 0.054678595526957453 -0.050447194688741974 0 0.055246769788120612 -0.049508832529421051 0 0.054797660497543359 -0.050704539412675997 0 0.054678595526957453 -0.050447194688741974 0 0.054479220419621582 -0.049442439553255009 0 0.055246769788120612 -0.049508832529421051 0 0.05445726050278521 -0.050176315674441856 0 0.027888961732509703 -0.052406480365377886 0 0.028548542859378582 -0.052243830893046059 0 0.028089618519352752 -0.051539799889848185 0 0.030845628529225632 -0.054996076289814677 0 0.032946516287178505 -0.057025345821671639 0 0.03393696532450606 -0.058726143588671745 0 0.043002754877146457 -0.052253461435010078 0 0.045024582881038229 -0.053365345418823748 0 0.027888961732509703 -0.052406480365377886 0 0.028089618519352752 -0.051539799889848185 0 0.027409238278662096 -0.051241505269971781 0 0.039350755426004413 -0.051467443098721539 0 0.039734450915421778 -0.052145739392849777 0 0.040261516466623549 -0.052797492066469595 0 0.034125378641817347 -0.052763894596084486 0 0.042014999302046323 -0.050369455475473897 0 0.027888961732509703 -0.052406480365377886 0 0.027839155790219949 -0.052679697804193987 0 0.028107652596491294 -0.052573323410072446 0 0.034125378641817347 -0.052763894596084486 0 0.045024582881038229 -0.053365345418823748 0 0.054797660497543359 -0.050704539412675997 0 0.054678595526957453 -0.050447194688741974 0 0.054512212658503631 -0.050858784897221669 0 0.054797660497543359 -0.050704539412675997 0 0.054512212658503631 -0.050858784897221669 0 0.054383590600386576 -0.051203759463839434 0 0.045024582881038229 -0.053365345418823748 0 0.042014999302046323 -0.050369455475473897 0 0.05445726050278521 -0.050176315674441856 0 0.054678595526957453 -0.050447194688741974 0 0.054332975074420517 -0.050748703994408874 0 0.053972005370718501 -0.050515344896698545 0 0.05445726050278521 -0.050176315674441856 0 0.054332975074420517 -0.050748703994408874 0 0.054512212658503631 -0.050858784897221669 0 0.054332975074420517 -0.050748703994408874 0 0.054289079876081156 -0.051145129289017946 0 0.054678595526957453 -0.050447194688741974 0 0.054512212658503631 -0.050858784897221669 0 0.054332975074420517 -0.050748703994408874 0 0.054332975074420517 -0.050748703994408874 0 0.054289079876081156 -0.051145129289017946 0 0.053912399915019303 -0.051048302989554248 0 0.054289079876081156 -0.051145129289017946 0 0.054083983011458107 -0.051436316972180041 0 0.053912399915019303 -0.051048302989554248 0 0.054512212658503631 -0.050858784897221669 0 0.054289079876081156 -0.051145129289017946 0 0.054383590600386576 -0.051203759463839434 0 0.054289079876081156 -0.051145129289017946 0 0.054217730675636532 -0.051432355464623679 0 0.054083983011458107 -0.051436316972180041 0 0.054289079876081156 -0.051145129289017946 0 0.054217730675636532 -0.051432355464623679 0 0.054383590600386576 -0.051203759463839434 0 0.054797660497543359 -0.050704539412675997 0 0.054275304849835733 -0.051444163478196955 0 0.054217861119034476 -0.05160267726922118 0 0.045024582881038229 -0.053365345418823748 0 0.05419357591173575 -0.051119376751621134 0 0.054797660497543359 -0.050704539412675997 0 0.054383590600386576 -0.051203759463839434 0 0.054275304849835733 -0.051444163478196955 0 0.051811160705227087 -0.050548958192415373 0 0.052148209028655385 -0.050763165550341362 0 0.05251757803893204 -0.051139915526342027 0 0.054217730675636532 -0.051432355464623679 0 0.054275304849835733 -0.051444163478196955 0 0.054088128326789109 -0.05160318541909107 0 0.054217730675636532 -0.051432355464623679 0 0.054383590600386576 -0.051203759463839434 0 0.054275304849835733 -0.051444163478196955 0 0.054275304849835733 -0.051444163478196955 0 0.054092693079807824 -0.051597627791391723 0 0.054217861119034476 -0.05160267726922118 0 0.054092693079807824 -0.051597627791391723 0 0.05381426208248493 -0.051604603929057379 0 0.054217861119034476 -0.05160267726922118 0 0.054275304849835733 -0.051444163478196955 0 0.054092693079807824 -0.051597627791391723 0 0.054088128326789109 -0.05160318541909107 0 0.054092693079807824 -0.051597627791391723 0 0.054088128326789109 -0.05160318541909107 0 0.053950965706589853 -0.051631468431840806 0 0.054088128326789109 -0.05160318541909107 0 0.053950965706589853 -0.051631468431840806 0 0.053916350055063712 -0.05170498367854709 0 0.054088128326789109 -0.05160318541909107 0 0.054056606532497019 -0.051643210969269063 0 0.053916350055063712 -0.05170498367854709 0 0.053950965706589853 -0.051631468431840806 0 0.053916350055063712 -0.05170498367854709 0 0.053788695996944615 -0.05162676802385182 0 0.053950965706589853 -0.051631468431840806 0 0.053788695996944615 -0.05162676802385182 0 0.05381426208248493 -0.051604603929057379 0 0.054092693079807824 -0.051597627791391723 0 0.053950965706589853 -0.051631468431840806 0 0.05381426208248493 -0.051604603929057379 0 0.054083983011458107 -0.051436316972180041 0 0.054056606532497019 -0.051643210969269063 0 0.053904798379828471 -0.051886487539553765 0 0.054056606532497019 -0.051643210969269063 0 0.053904798379828471 -0.051886487539553765 0 0.053916350055063712 -0.05170498367854709 0 0.054217730675636532 -0.051432355464623679 0 0.054083983011458107 -0.051436316972180041 0 0.054056606532497019 -0.051643210969269063 0 0.054217730675636532 -0.051432355464623679 0 0.054088128326789109 -0.05160318541909107 0 0.054056606532497019 -0.051643210969269063 0 0.054083983011458107 -0.051436316972180041 0 0.053904798379828471 -0.051886487539553765 0 0.053840907080124338 -0.05151639381064485 0 0.053904798379828471 -0.051886487539553765 0 0.053624458558477535 -0.051854023070005376 0 0.053538043933122469 -0.052219504220168543 0 0.053624458558477535 -0.051854023070005376 0 0.053840907080124338 -0.05151639381064485 0 0.053468452863325307 -0.051416157330215734 0 0.053904798379828471 -0.051886487539553765 0 0.053624458558477535 -0.051854023070005376 0 0.053840907080124338 -0.05151639381064485 0 0.054083983011458107 -0.051436316972180041 0 0.053840907080124338 -0.05151639381064485 0 0.053912399915019303 -0.051048302989554248 0 0.053840907080124338 -0.05151639381064485 0 0.053912399915019303 -0.051048302989554248 0 0.053468452863325307 -0.051416157330215734 0 0.052547426505995261 -0.051297957720096474 0 0.053383349508914262 -0.050625414642687924 0 0.053468452863325307 -0.051416157330215734 0 0.053383349508914262 -0.050625414642687924 0 0.053912399915019303 -0.051048302989554248 0 0.053468452863325307 -0.051416157330215734 0 0.052547426505995261 -0.051297957720096474 0 0.053468452863325307 -0.051416157330215734 0 0.053106153747988688 -0.052103565138961062 0 0.053624458558477535 -0.051854023070005376 0 0.053468452863325307 -0.051416157330215734 0 0.053106153747988688 -0.052103565138961062 0 0.053624458558477535 -0.051854023070005376 0 0.053106153747988688 -0.052103565138961062 0 0.053538043933122469 -0.052219504220168543 0 0.053106153747988688 -0.052103565138961062 0 0.052948171661036353 -0.052876442596673845 0 0.053538043933122469 -0.052219504220168543 0 0.04862952031338174 -0.054690801234051331 0 0.046976453558619354 -0.054880348617465352 0 0.052948171661036353 -0.052876442596673845 0 0.053538043933122469 -0.052219504220168543 0 0.053798654459857334 -0.052120081215933839 0 0.053904798379828471 -0.051886487539553765 0 0.053538043933122469 -0.052219504220168543 0 0.053798654459857334 -0.052120081215933839 0 0.044523755914829807 -0.055653170994433253 0 0.040301895051388231 -0.05773018926339045 0 0.041298571682062503 -0.055919208241492165 0 0.044523755914829807 -0.055653170994433253 0 0.044676919415395457 -0.057041747669882348 0 0.040301895051388231 -0.05773018926339045 0 0.040301895051388231 -0.05773018926339045 0 0.041298571682062503 -0.055919208241492165 0 0.038611599369056809 -0.056084165288804708 0 0.038611599369056809 -0.056084165288804708 0 0.03998047328483037 -0.054999149486645721 0 0.036922217158154823 -0.054999332451438024 0 0.041298571682062503 -0.055919208241492165 0 0.038611599369056809 -0.056084165288804708 0 0.03998047328483037 -0.054999149486645721 0 0.042763760676080675 -0.055887667231102826 0 0.041298571682062503 -0.055919208241492165 0 0.03998047328483037 -0.054999149486645721 0 0.03569437448549316 -0.056001540480296652 0 0.036922217158154823 -0.054999332451438024 0 0.033864955828848894 -0.054999648687625365 0 0.038611599369056809 -0.056084165288804708 0 0.03569437448549316 -0.056001540480296652 0 0.036922217158154823 -0.054999332451438024 0 0.038611599369056809 -0.056084165288804708 0 0.03569437448549316 -0.056001540480296652 0 0.03686556891743295 -0.057707318552414816 0 0.045087683084162902 -0.054500774517664906 0 0.044278716468877481 -0.05422626243495797 0 0.03569437448549316 -0.056001540480296652 0 0.03686556891743295 -0.057707318552414816 0 0.033834095917841672 -0.057095030130378088 0 0.053750695450331523 -0.051479640386736809 0 0.053614250419422818 -0.051594708519399082 0 0.053276600261122645 -0.051440048530357566 0 0.053750695450331523 -0.051479640386736809 0 0.053276600261122645 -0.051440048530357566 0 0.053219499150720134 -0.051092086368724927 0 0.053750695450331523 -0.051479640386736809 0 0.053857748808350321 -0.051785110476179258 0 0.053614250419422818 -0.051594708519399082 0 0.040301895051388231 -0.05773018926339045 0 0.038611599369056809 -0.056084165288804708 0 0.03686556891743295 -0.057707318552414816 0 0.053798654459857334 -0.052120081215933839 0 0.053750695450331523 -0.051479640386736809 0 0.053857748808350321 -0.051785110476179258 0 0.046976453558619354 -0.054880348617465352 0 0.045087683084162902 -0.054500774517664906 0 0.053904798379828471 -0.051886487539553765 0 0.053857748808350321 -0.051785110476179258 0 0.053916350055063712 -0.05170498367854709 0 0.053904798379828471 -0.051886487539553765 0 0.053798654459857334 -0.052120081215933839 0 0.053857748808350321 -0.051785110476179258 0 0.053857748808350321 -0.051785110476179258 0 0.053614250419422818 -0.051594708519399082 0 0.053916350055063712 -0.05170498367854709 0 0.053614250419422818 -0.051594708519399082 0 0.053788695996944615 -0.05162676802385182 0 0.053561813259224142 -0.051571487762477622 0 0.053614250419422818 -0.051594708519399082 0 0.053916350055063712 -0.05170498367854709 0 0.053788695996944615 -0.05162676802385182 0 0.053561813259224142 -0.051571487762477622 0 0.053099419348702832 -0.051536373288248019 0 0.053349836486969247 -0.051524105647061086 0 0.053788695996944615 -0.05162676802385182 0 0.053561813259224142 -0.051571487762477622 0 0.05381426208248493 -0.051604603929057379 0 0.053561813259224142 -0.051571487762477622 0 0.053099419348702832 -0.051536373288248019 0 0.05381426208248493 -0.051604603929057379 0 0.053099419348702832 -0.051536373288248019 0 0.053137705829017161 -0.051521588672441741 0 0.05302064348273345 -0.051507104255649666 0 0.053137705829017161 -0.051521588672441741 0 0.053349836486969247 -0.051524105647061086 0 0.053276600261122645 -0.051440048530357566 0 0.053099419348702832 -0.051536373288248019 0 0.053137705829017161 -0.051521588672441741 0 0.053349836486969247 -0.051524105647061086 0 0.053614250419422818 -0.051594708519399082 0 0.053561813259224142 -0.051571487762477622 0 0.053349836486969247 -0.051524105647061086 0 0.053614250419422818 -0.051594708519399082 0 0.053349836486969247 -0.051524105647061086 0 0.053276600261122645 -0.051440048530357566 0 0.034546514154047983 -0.054538755661498614 0 0.026980147736434625 -0.054160435404610664 0 0.053137705829017161 -0.051521588672441741 0 0.053345339784787796 -0.051457089485443502 0 0.052818426302847582 -0.051407685941623919 0 0.053137705829017161 -0.051521588672441741 0 0.053345339784787796 -0.051457089485443502 0 0.05302064348273345 -0.051507104255649666 0 0.034546514154047983 -0.054538755661498614 0 0.042935696447572426 -0.054577060627599802 0 0.030987980757149883 -0.058340621916937618 0 0.030742619315177955 -0.057335602028535562 0 0.030315944688243585 -0.057598304339413854 0 0.053137705829017161 -0.051521588672441741 0 0.052818426302847582 -0.051407685941623919 0 0.053276600261122645 -0.051440048530357566 0 0.052818426302847582 -0.051407685941623919 0 0.053276600261122645 -0.051440048530357566 0 0.053219499150720134 -0.051092086368724927 0 0.044278716468877481 -0.05422626243495797 0 0.037947007843927329 -0.053528753480100631 0 0.030742619315177955 -0.057335602028535562 0 0.030541493814959911 -0.055946961645221199 0 0.030201546969545787 -0.056788225350067154 0 0.042935696447572426 -0.054577060627599802 0 0.037947007843927329 -0.053528753480100631 0 0.052818426302847582 -0.051407685941623919 0 0.053219499150720134 -0.051092086368724927 0 0.052497991980454996 -0.05080675755808757 0 0.032756706252016314 -0.055962246181298067 0 0.031102959040603919 -0.056141912316154646 0 0.03080775544724644 -0.054999995836615988 0 0.033834095917841672 -0.057095030130378088 0 0.032756706252016314 -0.055962246181298067 0 0.031102959040603919 -0.056141912316154646 0 0.032756706252016314 -0.055962246181298067 0 0.033864955828848894 -0.054999648687625365 0 0.03080775544724644 -0.054999995836615988 0 0.033834095917841672 -0.057095030130378088 0 0.032756706252016314 -0.055962246181298067 0 0.033864955828848894 -0.054999648687625365 0 0.03569437448549316 -0.056001540480296652 0 0.033834095917841672 -0.057095030130378088 0 0.033864955828848894 -0.054999648687625365 0 0.026136031054362682 -0.053774351034429416 0 0.026661607208117721 -0.053464279653367155 0 0.029265114443549203 -0.055867279894379514 0 0.028032239571930854 -0.055313056090927404 0 0.029361835479473717 -0.056698532668957927 0 0.022982599615600875 -0.050559370835642999 0 0.023389744903554308 -0.049788603072659948 0 0.024020901350585735 -0.05058018450061439 0 0.026136031054362682 -0.053774351034429416 0 0.02866274351405872 -0.054998542512399717 0 0.027769665108912506 -0.055376986269903478 0 0.027511319671406791 -0.054999997116544588 0 0.028663840629726486 -0.054999996393603305 0 0.026136031054362682 -0.053774351034429416 0 0.027509659621540176 -0.054999316943339441 0 0.029265114443549203 -0.055867279894379514 0 0.028032239571930854 -0.055313056090927404 0 0.028664713152160775 -0.055000016325390803 0 0.029265114443549203 -0.055867279894379514 0 0.028664713152160775 -0.055000016325390803 0 0.029681604337794116 -0.055407852318155579 0 0.028664713152160775 -0.055000016325390803 0 0.029681604337794116 -0.055407852318155579 0 0.030806813355671325 -0.05499971699002066 0 0.029265114443549203 -0.055867279894379514 0 0.029681604337794116 -0.055407852318155579 0 0.030060059504107124 -0.055667027593458845 0 0.029681604337794116 -0.055407852318155579 0 0.030806813355671325 -0.05499971699002066 0 0.030060059504107124 -0.055667027593458845 0 0.030979291480767127 -0.056094610430064057 0 0.030806813355671325 -0.05499971699002066 0 0.030060059504107124 -0.055667027593458845 0 0.037947007843927329 -0.053528753480100631 0 0.030811587634154113 -0.055000166933357554 0 0.037947007843927329 -0.053528753480100631 0 0.031265582687812474 -0.053427131753194516 0 0.030541493814959911 -0.055946961645221199 0 0.030060059504107124 -0.055667027593458845 0 0.029916900815601253 -0.056231247968274653 0 0.029265114443549203 -0.055867279894379514 0 0.030060059504107124 -0.055667027593458845 0 0.029916900815601253 -0.056231247968274653 0 0.026661607208117721 -0.053464279653367155 0 0.026980147736434625 -0.054160435404610664 0 0.029916900815601253 -0.056231247968274653 0 0.030201546969545787 -0.056788225350067154 0 0.029361835479473717 -0.056698532668957927 0 0.029265114443549203 -0.055867279894379514 0 0.029916900815601253 -0.056231247968274653 0 0.029361835479473717 -0.056698532668957927 0 0.030201546969545787 -0.056788225350067154 0 0.029361835479473717 -0.056698532668957927 0 0.030315944688243585 -0.057598304339413854 0 0.030541493814959911 -0.055946961645221199 0 0.029916900815601253 -0.056231247968274653 0 0.030201546969545787 -0.056788225350067154 0 0.022982599615600875 -0.050559370835642999 0 0.024020901350585735 -0.05058018450061439 0 0.023625875870621493 -0.051045952550774897 0 0.02287525988571279 -0.051162942046040501 0 0.023625875870621493 -0.051045952550774897 0 0.023490552873379689 -0.051620599032234184 0 0.023625875870621493 -0.051045952550774897 0 0.023490552873379689 -0.051620599032234184 0 0.02488794888479753 -0.051120406899291211 0 0.024020901350585735 -0.05058018450061439 0 0.023625875870621493 -0.051045952550774897 0 0.02488794888479753 -0.051120406899291211 0 0.030742619315177955 -0.057335602028535562 0 0.030201546969545787 -0.056788225350067154 0 0.030315944688243585 -0.057598304339413854 0 0.023490552873379689 -0.051620599032234184 0 0.02488794888479753 -0.051120406899291211 0 0.024759213424313829 -0.051743087127329591 0 0.026202603987083857 -0.051837563248851165 0 0.02488794888479753 -0.051120406899291211 0 0.024759213424313829 -0.051743087127329591 0 0.026202603987083857 -0.051837563248851165 0 0.024759213424313829 -0.051743087127329591 0 0.025325924340362592 -0.05220864492488711 0 0.024759213424313829 -0.051743087127329591 0 0.024110857785507044 -0.05224381689120481 0 0.025325924340362592 -0.05220864492488711 0 0.023490552873379689 -0.051620599032234184 0 0.024759213424313829 -0.051743087127329591 0 0.024110857785507044 -0.05224381689120481 0 0.023490552873379689 -0.051620599032234184 0 0.023088561583895186 -0.05242113809621491 0 0.024110857785507044 -0.05224381689120481 0 0.023088561583895186 -0.05242113809621491 0 0.024110857785507044 -0.05224381689120481 0 0.023578783721014008 -0.052797004206637251 0 0.024110857785507044 -0.05224381689120481 0 0.023578783721014008 -0.052797004206637251 0 0.024659459395359996 -0.053021672178620687 0 0.022773210284006039 -0.05300216116248925 0 0.023088561583895186 -0.05242113809621491 0 0.023578783721014008 -0.052797004206637251 0 0.022773210284006039 -0.05300216116248925 0 0.023578783721014008 -0.052797004206637251 0 0.023446316349842254 -0.053321711045017518 0 0.022678970380425292 -0.053579885065478144 0 0.023446316349842254 -0.053321711045017518 0 0.024205906605147754 -0.053935860601343116 0 0.022773210284006039 -0.05300216116248925 0 0.022678970380425292 -0.053579885065478144 0 0.023446316349842254 -0.053321711045017518 0 0.023578783721014008 -0.052797004206637251 0 0.023446316349842254 -0.053321711045017518 0 0.024659459395359996 -0.053021672178620687 0 0.024659459395359996 -0.053021672178620687 0 0.026656524106810124 -0.05285032998826094 0 0.024205906605147754 -0.053935860601343116 0 0.026610890434477844 -0.052819113333037508 0 0.026031866749162351 -0.053117334826645532 0 0.023446316349842254 -0.053321711045017518 0 0.024659459395359996 -0.053021672178620687 0 0.024205906605147754 -0.053935860601343116 0 0.024659459395359996 -0.053021672178620687 0 0.026656524106810124 -0.05285032998826094 0 0.025779640955842856 -0.052543087287486398 0 0.024659459395359996 -0.053021672178620687 0 0.025325924340362592 -0.05220864492488711 0 0.025779640955842856 -0.052543087287486398 0 0.024110857785507044 -0.05224381689120481 0 0.024659459395359996 -0.053021672178620687 0 0.025325924340362592 -0.05220864492488711 0 0.034546514154047983 -0.054538755661498614 0 0.027898949449314276 -0.052997375917576479 0 0.034546514154047983 -0.054538755661498614 0 0.04000666725180102 -0.051239798250081611 0 0.053345339784787796 -0.051457089485443502 0 0.05302064348273345 -0.051507104255649666 0 0.051643461543268897 -0.049017146015077027 0 0.026202603987083857 -0.051837563248851165 0 0.025325924340362592 -0.05220864492488711 0 0.026172959483221171 -0.052362641462353948 0 0.026202603987083857 -0.051837563248851165 0 0.026172959483221171 -0.052362641462353948 0 0.026886367464928753 -0.05279003899695757 0 0.025325924340362592 -0.05220864492488711 0 0.026172959483221171 -0.052362641462353948 0 0.025779640955842856 -0.052543087287486398 0 0.02915693103494521 -0.055690398135965657 0 0.028688112338943857 -0.053713745117066426 0 0.027798283393534545 -0.053489137804255099 0 0.026172959483221171 -0.052362641462353948 0 0.026886367464928753 -0.05279003899695757 0 0.026656524106810124 -0.05285032998826094 0 0.026172959483221171 -0.052362641462353948 0 0.026656524106810124 -0.05285032998826094 0 0.025779640955842856 -0.052543087287486398 0 0.05302064348273345 -0.051507104255649666 0 0.051217625789176241 -0.049104401830613695 0 0.051643461543268897 -0.049017146015077027 0 0.053099419348702832 -0.051536373288248019 0 0.052740495993028449 -0.051228629301142879 0 0.05251757803893204 -0.051139915526342027 0 0.052741906620189877 -0.051250464785863405 0 0.052612101764168182 -0.050399790711514604 0 0.053099419348702832 -0.051536373288248019 0 0.05302064348273345 -0.051507104255649666 0 0.052740495993028449 -0.051228629301142879 0 0.053099419348702832 -0.051536373288248019 0 0.05381426208248493 -0.051604603929057379 0 0.054217861119034476 -0.05160267726922118 0 0.052942063969888944 -0.051445526272319859 0 0.05419357591173575 -0.051119376751621134 0 0.042014999302046323 -0.050369455475473897 0 0.04000666725180102 -0.051239798250081611 0 0.049369180488904957 -0.0464595109020286 0 0.051217625789176241 -0.049104401830613695 0 0.051643461543268897 -0.049017146015077027 0 0.027839155790219949 -0.052679697804193987 0 0.027798283393534545 -0.053489137804255099 0 0.027835949706857103 -0.052982016172346512 0 0.028688112338943857 -0.053713745117066426 0 0.027835949706857103 -0.052982016172346512 0 0.027738702849691779 -0.052778342457251722 0 0.042014999302046323 -0.050369455475473897 0 0.052612101764168182 -0.050399790711514604 0 0.052148209028655385 -0.050763165550341362 0 0.052740495993028449 -0.051228629301142879 0 0.05251757803893204 -0.051139915526342027 0 0.028688112338943857 -0.053713745117066426 0 0.027798283393534545 -0.053489137804255099 0 0.027835949706857103 -0.052982016172346512 0 0.027835949706857103 -0.052982016172346512 0 0.027738702849691779 -0.052778342457251722 0 0.027921523044482532 -0.052729938984475096 0 0.027839155790219949 -0.052679697804193987 0 0.027835949706857103 -0.052982016172346512 0 0.027921523044482532 -0.052729938984475096 0 0.026656524106810124 -0.05285032998826094 0 0.027738702849691779 -0.052778342457251722 0 0.027616121572770904 -0.052639686646846609 0 0.026886367464928753 -0.05279003899695757 0 0.026656524106810124 -0.05285032998826094 0 0.027738702849691779 -0.052778342457251722 0 0.027898949449314276 -0.052997375917576479 0 0.027786194384244657 -0.053071779023677941 0 0.027738702849691779 -0.052778342457251722 0 0.027893301638155444 -0.052589037451291454 0 0.028107652596491294 -0.052573323410072446 0 0.027738702849691779 -0.052778342457251722 0 0.027893301638155444 -0.052589037451291454 0 0.027616121572770904 -0.052639686646846609 0 0.027839155790219949 -0.052679697804193987 0 0.027921523044482532 -0.052729938984475096 0 0.028107652596491294 -0.052573323410072446 0 0.027738702849691779 -0.052778342457251722 0 0.027921523044482532 -0.052729938984475096 0 0.028107652596491294 -0.052573323410072446 0 0.027893301638155444 -0.052589037451291454 0 0.028107652596491294 -0.052573323410072446 0 0.028548542859378582 -0.052243830893046059 0 0.027888961732509703 -0.052406480365377886 0 0.028107652596491294 -0.052573323410072446 0 0.028548542859378582 -0.052243830893046059 0 0.028576583050679796 -0.052252383425564215 0 0.029565410938618215 -0.052390740849557638 0 0.028548542859378582 -0.052243830893046059 0 0.031240189198497637 -0.051764250322919286 0 0.029835762701211816 -0.05099202578169084 0 0.027893301638155444 -0.052589037451291454 0 0.028548542859378582 -0.052243830893046059 0 0.027845689828371881 -0.052779459061296573 0 0.027893301638155444 -0.052589037451291454 0 0.027845689828371881 -0.052779459061296573 0 0.027684502353080748 -0.052728911600153541 0 0.027845689828371881 -0.052779459061296573 0 0.027684502353080748 -0.052728911600153541 0 0.027590346198627234 -0.052803955313587045 0 0.027611442247643524 -0.052757905364960542 0 0.027582135608673269 -0.052700604194235445 0 0.027590346198627234 -0.052803955313587045 0 0.027684502353080748 -0.052728911600153541 0 0.027611442247643524 -0.052757905364960542 0 0.027582135608673269 -0.052700604194235445 0 0.027684502353080748 -0.052728911600153541 0 0.027611442247643524 -0.052757905364960542 0 0.027590346198627234 -0.052803955313587045 0 0.027443553797912201 -0.052812584697489597 0 0.027582135608673269 -0.052700604194235445 0 0.027590346198627234 -0.052803955313587045 0 0.02499212688981391 -0.053780793928450712 0 0.026031866749162351 -0.053117334826645532 0 0.027684502353080748 -0.052728911600153541 0 0.027582135608673269 -0.052700604194235445 0 0.027616121572770904 -0.052639686646846609 0 0.022678970380425292 -0.053579885065478144 0 0.022925471908866749 -0.054036812923722269 0 0.024205906605147754 -0.053935860601343116 0 0.027893301638155444 -0.052589037451291454 0 0.027684502353080748 -0.052728911600153541 0 0.027616121572770904 -0.052639686646846609 0 0.031632406802877641 -0.047247748628285013 0 0.031750962620046452 -0.050592230307586063 0 0.031534898298663919 -0.049066393676163562 0 0.032860520911860445 -0.050155066871817221 0 0.031016552827753795 -0.049973230784888509 0 0.031534898298663919 -0.049066393676163562 0 0.032860520911860445 -0.050155066871817221 0 0.032391651789686365 -0.048437209919360243 0 0.032590533390365189 -0.040224384371664576 0 0.03264031304618227 -0.039595449176615109 0 0.032947448032788873 -0.039572542657795223 0 0.031632406802877641 -0.047247748628285013 0 0.032575146052369636 -0.043543655890384329 0 0.032684311343034803 -0.040033516475693559 0 0.032590533390365189 -0.040224384371664576 0 0.032947448032788873 -0.039572542657795223 0 0.029023008698577515 -0.048147719605655288 0 0.030219794171413648 -0.048657576276103287 0 0.030022370233276616 -0.047982338649260513 0 0.031632406802877641 -0.047247748628285013 0 0.030110011545791324 -0.050718797241046859 0 0.033063240376841857 -0.050274989055229494 0 0.033338009919255118 -0.0513109821006602 0 0.031968986431308272 -0.050764179061192349 0 0.029565410938618215 -0.052390740849557638 0 0.030110011545791324 -0.050718797241046859 0 0.031240189198497637 -0.051764250322919286 0 0.031968986431308272 -0.050764179061192349 0 0.031016552827753795 -0.049973230784888509 0 0.031240189198497637 -0.051764250322919286 0 0.033338009919255118 -0.0513109821006602 0 0.031968986431308272 -0.050764179061192349 0 0.033063240376841857 -0.050274989055229494 0 0.031968986431308272 -0.050764179061192349 0 0.031016552827753795 -0.049973230784888509 0 0.031240189198497637 -0.051764250322919286 0 0.029835762701211816 -0.05099202578169084 0 0.031016552827753795 -0.049973230784888509 0 0.029835762701211816 -0.05099202578169084 0 0.029743995441810032 -0.050028600512942251 0 0.031016552827753795 -0.049973230784888509 0 0.028548542859378582 -0.052243830893046059 0 0.029835762701211816 -0.05099202578169084 0 0.028696106687573261 -0.050746748131563421 0 0.029835762701211816 -0.05099202578169084 0 0.028696106687573261 -0.050746748131563421 0 0.029743995441810032 -0.050028600512942251 0 0.029743995441810032 -0.050028600512942251 0 0.028963153406144339 -0.049448115059167033 0 0.030235892462992256 -0.048960586705794437 0 0.028696106687573261 -0.050746748131563421 0 0.029743995441810032 -0.050028600512942251 0 0.028963153406144339 -0.049448115059167033 0 0.031534898298663919 -0.049066393676163562 0 0.031016552827753795 -0.049973230784888509 0 0.030235892462992256 -0.048960586705794437 0 0.029743995441810032 -0.050028600512942251 0 0.031016552827753795 -0.049973230784888509 0 0.030235892462992256 -0.048960586705794437 0 0.030235892462992256 -0.048960586705794437 0 0.03116621636702966 -0.04782918829507167 0 0.029932760028216078 -0.047697973801976545 0 0.031534898298663919 -0.049066393676163562 0 0.030235892462992256 -0.048960586705794437 0 0.03116621636702966 -0.04782918829507167 0 0.030235892462992256 -0.048960586705794437 0 0.029932760028216078 -0.047697973801976545 0 0.028951012131699504 -0.048309068791885179 0 0.028963153406144339 -0.049448115059167033 0 0.030235892462992256 -0.048960586705794437 0 0.028951012131699504 -0.048309068791885179 0 0.029156275012700829 -0.047267810647670501 0 0.030074312767165903 -0.046694503485135722 0 0.028583823123310509 -0.046274923416739472 0 0.029156275012700829 -0.047267810647670501 0 0.029932760028216078 -0.047697973801976545 0 0.028951012131699504 -0.048309068791885179 0 0.029156275012700829 -0.047267810647670501 0 0.029932760028216078 -0.047697973801976545 0 0.030074312767165903 -0.046694503485135722 0 0.03116621636702966 -0.04782918829507167 0 0.029932760028216078 -0.047697973801976545 0 0.030074312767165903 -0.046694503485135722 0 0.03116621636702966 -0.04782918829507167 0 0.030074312767165903 -0.046694503485135722 0 0.031150969050013553 -0.046087142505688863 0 0.032641938019063864 -0.037623336030441171 0 0.03264031304618227 -0.039595449176615109 0 0.033475752177716103 -0.038594203320499794 0 0.03116621636702966 -0.04782918829507167 0 0.031973384181698671 -0.046746681498284211 0 0.032391651789686365 -0.048437209919360243 0 0.03116621636702966 -0.04782918829507167 0 0.031973384181698671 -0.046746681498284211 0 0.031150969050013553 -0.046087142505688863 0 0.032641938019063864 -0.037623336030441171 0 0.033475752177716103 -0.038594203320499794 0 0.03411942877093925 -0.035874160535444406 0 0.032179706634916247 -0.042758668163355378 0 0.032575146052369636 -0.043543655890384329 0 0.031534898298663919 -0.049066393676163562 0 0.03116621636702966 -0.04782918829507167 0 0.032391651789686365 -0.048437209919360243 0 0.033219826063557265 -0.039093616298525598 0 0.032947448032788873 -0.039572542657795223 0 0.033475752177716103 -0.038594203320499794 0 0.03264031304618227 -0.039595449176615109 0 0.032947448032788873 -0.039572542657795223 0 0.033475752177716103 -0.038594203320499794 0 0.034235173888775471 -0.038042219071030781 0 0.033475752177716103 -0.038594203320499794 0 0.03411942877093925 -0.035874160535444406 0 0.034235173888775471 -0.038042219071030781 0 0.03411942877093925 -0.035874160535444406 0 0.034995491419829536 -0.033934189804215122 0 0.032641938019063864 -0.037623336030441171 0 0.03411942877093925 -0.035874160535444406 0 0.03313831045776592 -0.03346996341488935 0 0.032179706634916247 -0.042758668163355378 0 0.035095130049578087 -0.036511385026483163 0 0.031973384181698671 -0.046746681498284211 0 0.031560641589226689 -0.044973973901454634 0 0.031150969050013553 -0.046087142505688863 0 0.035307487700013171 -0.032502674813828736 0 0.037795623075277195 -0.032985263975958752 0 0.040088241716327723 -0.031373104124678315 0 0.03771366783689372 -0.030252294382658619 0 0.035307487700013171 -0.032502674813828736 0 0.040088241716327723 -0.031373104124678315 0 0.035095130049578087 -0.036511385026483163 0 0.03619085012039798 -0.034049579014719382 0 0.03411942877093925 -0.035874160535444406 0 0.03313831045776592 -0.03346996341488935 0 0.035307487700013171 -0.032502674813828736 0 0.035668818901291525 -0.033041843105820874 0 0.034235173888775471 -0.038042219071030781 0 0.034995491419829536 -0.033934189804215122 0 0.035668818901291525 -0.033041843105820874 0 0.034995491419829536 -0.033934189804215122 0 0.036251161986887707 -0.033275376938858216 0 0.035307487700013171 -0.032502674813828736 0 0.034995491419829536 -0.033934189804215122 0 0.036251161986887707 -0.033275376938858216 0 0.03411942877093925 -0.035874160535444406 0 0.035307487700013171 -0.032502674813828736 0 0.034995491419829536 -0.033934189804215122 0 0.035307487700013171 -0.032502674813828736 0 0.036251161986887707 -0.033275376938858216 0 0.037795623075277195 -0.032985263975958752 0 0.036251161986887707 -0.033275376938858216 0 0.037795623075277195 -0.032985263975958752 0 0.038315059205860036 -0.035096977500665899 0 0.037795623075277195 -0.032985263975958752 0 0.038315059205860036 -0.035096977500665899 0 0.04087971060658413 -0.033285371415483496 0 0.033681769658136733 -0.035546610092798601 0 0.036251161986887707 -0.033275376938858216 0 0.038315059205860036 -0.035096977500665899 0 0.044080619021207017 -0.033112472477037053 0 0.04087971060658413 -0.033285371415483496 0 0.042281302280859023 -0.0354689642268253 0 0.038315059205860036 -0.035096977500665899 0 0.04087971060658413 -0.033285371415483496 0 0.042281302280859023 -0.0354689642268253 0 0.037795623075277195 -0.032985263975958752 0 0.04087971060658413 -0.033285371415483496 0 0.040088241716327723 -0.031373104124678315 0 0.044080619021207017 -0.033112472477037053 0 0.04087971060658413 -0.033285371415483496 0 0.044091905188470788 -0.030221307374343861 0 0.04087971060658413 -0.033285371415483496 0 0.044091905188470788 -0.030221307374343861 0 0.040088241716327723 -0.031373104124678315 0 0.044091905188470788 -0.030221307374343861 0 0.041618770207463678 -0.028076485909855807 0 0.04639048051975083 -0.026679767158841041 0 0.044091905188470788 -0.030221307374343861 0 0.040088241716327723 -0.031373104124678315 0 0.041618770207463678 -0.028076485909855807 0 0.035095130049578087 -0.036511385026483163 0 0.035852572984334113 -0.036882685461527842 0 0.03771366783689372 -0.030252294382658619 0 0.040088241716327723 -0.031373104124678315 0 0.041618770207463678 -0.028076485909855807 0 0.030074312767165903 -0.046694503485135722 0 0.030303708130875965 -0.045469515176774396 0 0.031150969050013553 -0.046087142505688863 0 0.031560641589226689 -0.044973973901454634 0 0.030303708130875965 -0.045469515176774396 0 0.031150969050013553 -0.046087142505688863 0 0.030074312767165903 -0.046694503485135722 0 0.030303708130875965 -0.045469515176774396 0 0.028583823123310509 -0.046274923416739472 0 0.035852572984334113 -0.036882685461527842 0 0.037669392791042561 -0.036498441320148713 0 0.04639048051975083 -0.026679767158841041 0 0.047490126339027987 -0.0286073811783597 0 0.04934586460733946 -0.027919241263901849 0 0.04639048051975083 -0.026679767158841041 0 0.04934586460733946 -0.027919241263901849 0 0.049164647553605383 -0.027171989091082441 0 0.037669392791042561 -0.036498441320148713 0 0.037173836728583633 -0.037118259582275687 0 0.049066775596407618 -0.028812010944110723 0 0.047490126339027987 -0.0286073811783597 0 0.04934586460733946 -0.027919241263901849 0 0.044091905188470788 -0.030221307374343861 0 0.04639048051975083 -0.026679767158841041 0 0.047490126339027987 -0.0286073811783597 0 0.044080619021207017 -0.033112472477037053 0 0.044091905188470788 -0.030221307374343861 0 0.048413162625336133 -0.03029232939171406 0 0.044091905188470788 -0.030221307374343861 0 0.047490126339027987 -0.0286073811783597 0 0.048413162625336133 -0.03029232939171406 0 0.049066775596407618 -0.028812010944110723 0 0.047490126339027987 -0.0286073811783597 0 0.048413162625336133 -0.03029232939171406 0 0.048413162625336133 -0.03029232939171406 0 0.05021304255114601 -0.029472622713940667 0 0.048713532821917836 -0.029703965180328352 0 0.048310107239275014 -0.030300564284059608 0 0.047242641665478119 -0.032396455844586731 0 0.044080619021207017 -0.033112472477037053 0 0.048413162625336133 -0.03029232939171406 0 0.045791931363396543 -0.035236357368950845 0 0.048413162625336133 -0.03029232939171406 0 0.051521898093949067 -0.028852967680652292 0 0.05021304255114601 -0.029472622713940667 0 0.048413162625336133 -0.03029232939171406 0 0.051521898093949067 -0.028852967680652292 0 0.050782867194391415 -0.028540777605601034 0 0.049066775596407618 -0.028812010944110723 0 0.048413162625336133 -0.03029232939171406 0 0.050782867194391415 -0.028540777605601034 0 0.051521898093949067 -0.028852967680652292 0 0.050782867194391415 -0.028540777605601034 0 0.053174502765250715 -0.028157999568347351 0 0.050782867194391415 -0.028540777605601034 0 0.052276827234504573 -0.027354452979958196 0 0.053174502765250715 -0.028157999568347351 0 0.049542679065622444 -0.027943993409487927 0 0.051360838536202207 -0.028252752718053151 0 0.050782867194391415 -0.028540777605601034 0 0.04934586460733946 -0.027919241263901849 0 0.052276827234504573 -0.027354452979958196 0 0.049066775596407618 -0.028812010944110723 0 0.050782867194391415 -0.028540777605601034 0 0.04934586460733946 -0.027919241263901849 0 0.04934586460733946 -0.027919241263901849 0 0.049828131494701965 -0.027961604346203733 0 0.049164647553605383 -0.027171989091082441 0 0.049828131494701965 -0.027961604346203733 0 0.050178422542356778 -0.028339723261038587 0 0.050380543434397067 -0.029125501290347952 0 0.04934586460733946 -0.027919241263901849 0 0.049828131494701965 -0.027961604346203733 0 0.050380543434397067 -0.029125501290347952 0 0.049828131494701965 -0.027961604346203733 0 0.050178422542356778 -0.028339723261038587 0 0.050120764258283983 -0.028253744172206021 0 0.050178422542356778 -0.028339723261038587 0 0.050280220301803687 -0.028409560598303123 0 0.050064494879580278 -0.028245241418253245 0 0.050178422542356778 -0.028339723261038587 0 0.050280220301803687 -0.028409560598303123 0 0.050120764258283983 -0.028253744172206021 0 0.049828131494701965 -0.027961604346203733 0 0.050185357459918076 -0.028134704738609798 0 0.049164647553605383 -0.027171989091082441 0 0.049828131494701965 -0.027961604346203733 0 0.050120764258283983 -0.028253744172206021 0 0.050185357459918076 -0.028134704738609798 0 0.050120764258283983 -0.028253744172206021 0 0.050246367669817382 -0.028461584655859476 0 0.050185357459918076 -0.028134704738609798 0 0.050280220301803687 -0.028409560598303123 0 0.050246367669817382 -0.028461584655859476 0 0.05037576445904051 -0.028896743636722195 0 0.050280220301803687 -0.028409560598303123 0 0.050120764258283983 -0.028253744172206021 0 0.050246367669817382 -0.028461584655859476 0 0.050246367669817382 -0.028461584655859476 0 0.050185357459918076 -0.028134704738609798 0 0.05037576445904051 -0.028896743636722195 0 0.052010067157466498 -0.032594261179871027 0 0.050023388366276636 -0.031122834265278419 0 0.05037576445904051 -0.028896743636722195 0 0.042444884016685148 -0.038724732647682801 0 0.045745818319607522 -0.032477002913133476 0 0.052010067157466498 -0.032594261179871027 0 0.051042972531248905 -0.032940077633864896 0 0.050023388366276636 -0.031122834265278419 0 0.042444884016685148 -0.038724732647682801 0 0.044069120483781664 -0.038042331192663752 0 0.051642432393409841 -0.032828717048730638 0 0.051042972531248905 -0.032940077633864896 0 0.051613773212363878 -0.035647828594348951 0 0.051042972531248905 -0.032940077633864896 0 0.051613773212363878 -0.035647828594348951 0 0.050153057233752484 -0.034669080233234097 0 0.042444884016685148 -0.038724732647682801 0 0.039825911067447615 -0.044312901875684887 0 0.050925800227019487 -0.037618794328696879 0 0.051613773212363878 -0.035647828594348951 0 0.050153057233752484 -0.034669080233234097 0 0.051642432393409841 -0.032828717048730638 0 0.051613773212363878 -0.035647828594348951 0 0.054201836232694117 -0.040078702465646272 0 0.025905804941081849 -0.04746617382609563 0 0.026327839917068024 -0.048714985601099436 0 0.026643297037398136 -0.047702064996025431 0 0.050925800227019487 -0.037618794328696879 0 0.054201836232694117 -0.040078702465646272 0 0.05137269107977064 -0.040533589168653211 0 0.050925800227019487 -0.037618794328696879 0 0.051613773212363878 -0.035647828594348951 0 0.054201836232694117 -0.040078702465646272 0 0.050925800227019487 -0.037618794328696879 0 0.05137269107977064 -0.040533589168653211 0 0.048053306437304273 -0.038529835481546308 0 0.026944801558186147 -0.048251794412335736 0 0.026643297037398136 -0.047702064996025431 0 0.027473918237807288 -0.047892260641827854 0 0.027254122533098727 -0.048676246067308131 0 0.026944801558186147 -0.048251794412335736 0 0.027410260268402858 -0.048516311410107316 0 0.027254122533098727 -0.048676246067308131 0 0.026327839917068024 -0.048714985601099436 0 0.026944801558186147 -0.048251794412335736 0 0.026327839917068024 -0.048714985601099436 0 0.026944801558186147 -0.048251794412335736 0 0.026643297037398136 -0.047702064996025431 0 0.026944801558186147 -0.048251794412335736 0 0.027473918237807288 -0.047892260641827854 0 0.027410260268402858 -0.048516311410107316 0 0.027174667487263656 -0.047004758598832602 0 0.026643297037398136 -0.047702064996025431 0 0.027473918237807288 -0.047892260641827854 0 0.025905804941081849 -0.04746617382609563 0 0.027174667487263656 -0.047004758598832602 0 0.026643297037398136 -0.047702064996025431 0 0.042444884016685148 -0.038724732647682801 0 0.037173836728583633 -0.037118259582275687 0 0.027174667487263656 -0.047004758598832602 0 0.028195048864097922 -0.047525601440199697 0 0.027473918237807288 -0.047892260641827854 0 0.028583823123310509 -0.046274923416739472 0 0.027174667487263656 -0.047004758598832602 0 0.028195048864097922 -0.047525601440199697 0 0.029156275012700829 -0.047267810647670501 0 0.028583823123310509 -0.046274923416739472 0 0.028195048864097922 -0.047525601440199697 0 0.029156275012700829 -0.047267810647670501 0 0.028195048864097922 -0.047525601440199697 0 0.028951012131699504 -0.048309068791885179 0 0.028951012131699504 -0.048309068791885179 0 0.02793277478990264 -0.048629057946343278 0 0.028333750729140104 -0.049203876981180096 0 0.028195048864097922 -0.047525601440199697 0 0.028951012131699504 -0.048309068791885179 0 0.02793277478990264 -0.048629057946343278 0 0.028195048864097922 -0.047525601440199697 0 0.027473918237807288 -0.047892260641827854 0 0.02793277478990264 -0.048629057946343278 0 0.027473918237807288 -0.047892260641827854 0 0.02793277478990264 -0.048629057946343278 0 0.027410260268402858 -0.048516311410107316 0 0.02793277478990264 -0.048629057946343278 0 0.027410260268402858 -0.048516311410107316 0 0.027454360298884577 -0.049013510386351773 0 0.027254122533098727 -0.048676246067308131 0 0.027410260268402858 -0.048516311410107316 0 0.027454360298884577 -0.049013510386351773 0 0.027454360298884577 -0.049013510386351773 0 0.027707723538149796 -0.049475693275831303 0 0.027124313743479615 -0.049806697785333989 0 0.027254122533098727 -0.048676246067308131 0 0.027454360298884577 -0.049013510386351773 0 0.027124313743479615 -0.049806697785333989 0 0.02793277478990264 -0.048629057946343278 0 0.027454360298884577 -0.049013510386351773 0 0.027707723538149796 -0.049475693275831303 0 0.027707723538149796 -0.049475693275831303 0 0.028169571936047258 -0.049977493123001995 0 0.027632629284914261 -0.05017554149074533 0 0.027707723538149796 -0.049475693275831303 0 0.027124313743479615 -0.049806697785333989 0 0.027632629284914261 -0.05017554149074533 0 0.028963153406144339 -0.049448115059167033 0 0.028333750729140104 -0.049203876981180096 0 0.028169571936047258 -0.049977493123001995 0 0.028963153406144339 -0.049448115059167033 0 0.028951012131699504 -0.048309068791885179 0 0.028333750729140104 -0.049203876981180096 0 0.027707723538149796 -0.049475693275831303 0 0.028333750729140104 -0.049203876981180096 0 0.028169571936047258 -0.049977493123001995 0 0.02793277478990264 -0.048629057946343278 0 0.027707723538149796 -0.049475693275831303 0 0.028333750729140104 -0.049203876981180096 0 0.028696106687573261 -0.050746748131563421 0 0.028963153406144339 -0.049448115059167033 0 0.028169571936047258 -0.049977493123001995 0 0.028548542859378582 -0.052243830893046059 0 0.028696106687573261 -0.050746748131563421 0 0.028089618519352752 -0.051539799889848185 0 0.028696106687573261 -0.050746748131563421 0 0.028169571936047258 -0.049977493123001995 0 0.027848213205787745 -0.050794269953265261 0 0.028169571936047258 -0.049977493123001995 0 0.027848213205787745 -0.050794269953265261 0 0.027632629284914261 -0.05017554149074533 0 0.027848213205787745 -0.050794269953265261 0 0.028089618519352752 -0.051539799889848185 0 0.027409238278662096 -0.051241505269971781 0 0.028696106687573261 -0.050746748131563421 0 0.027848213205787745 -0.050794269953265261 0 0.028089618519352752 -0.051539799889848185 0 0.030845628529225632 -0.054996076289814677 0 0.03092270172069065 -0.053536790170858689 0 0.027944595719448215 -0.051235479151520553 0 0.055246769788120612 -0.049508832529421051 0 0.054976650070803698 -0.048060432783103693 0 0.055150932213035617 -0.045564959507536841 0 0.043002754877146457 -0.052253461435010078 0 0.04153229924577035 -0.048275391290892505 0 0.028877028839862252 -0.050631438426689893 0 0.030448218876535402 -0.052758905275369743 0 0.027944595719448215 -0.051235479151520553 0 0.030448218876535402 -0.052758905275369743 0 0.03092270172069065 -0.053536790170858689 0 0.027944595719448215 -0.051235479151520553 0 0.028048684806360486 -0.050292337109623983 0 0.028835478592125156 -0.051926345987344226 0 0.027848213205787745 -0.050794269953265261 0 0.027632629284914261 -0.05017554149074533 0 0.027300390546242632 -0.050877112610097856 0 0.027124313743479615 -0.049806697785333989 0 0.027632629284914261 -0.05017554149074533 0 0.027300390546242632 -0.050877112610097856 0 0.027848213205787745 -0.050794269953265261 0 0.027300390546242632 -0.050877112610097856 0 0.027409238278662096 -0.051241505269971781 0 0.028835478592125156 -0.051926345987344226 0 0.029077846236121731 -0.05254151882565234 0 0.053842425196165729 -0.049013976106845741 0 0.054976650070803698 -0.048060432783103693 0 0.053510113275644595 -0.048530914649108366 0 0.054976650070803698 -0.048060432783103693 0 0.055150932213035617 -0.045564959507536841 0 0.053404145423665651 -0.045283965063501089 0 0.055032305660016892 -0.047999319455362448 0 0.053596058654454423 -0.047007964587982197 0 0.053842425196165729 -0.049013976106845741 0 0.053510113275644595 -0.048530914649108366 0 0.053394328455606974 -0.049013519256221452 0 0.053510113275644595 -0.048530914649108366 0 0.053073719123240215 -0.04891250855350996 0 0.053002439532674084 -0.048643128341304839 0 0.053099350219157931 -0.049439056442619637 0 0.053394328455606974 -0.049013519256221452 0 0.053073719123240215 -0.04891250855350996 0 0.053510113275644595 -0.048530914649108366 0 0.053394328455606974 -0.049013519256221452 0 0.053073719123240215 -0.04891250855350996 0 0.053596058654454423 -0.047007964587982197 0 0.05032863252644286 -0.046001107818116782 0 0.053040907251128408 -0.042846016938719061 0 0.05137269107977064 -0.040533589168653211 0 0.048852009025298626 -0.042793451390537494 0 0.053404145423665651 -0.045283965063501089 0 0.053040907251128408 -0.042846016938719061 0 0.048852009025298626 -0.042793451390537494 0 0.054201836232694117 -0.040078702465646272 0 0.053040907251128408 -0.042846016938719061 0 0.05137269107977064 -0.040533589168653211 0 0.055150932213035617 -0.045564959507536841 0 0.053404145423665651 -0.045283965063501089 0 0.053040907251128408 -0.042846016938719061 0 0.039825911067447615 -0.044312901875684887 0 0.04153229924577035 -0.048275391290892505 0 0.027254122533098727 -0.048676246067308131 0 0.026327839917068024 -0.048714985601099436 0 0.027944595719448215 -0.051235479151520553 0 0.054201836232694117 -0.040078702465646272 0 0.055150932213035617 -0.045564959507536841 0 0.053040907251128408 -0.042846016938719061 0 0.027254122533098727 -0.048676246067308131 0 0.028877028839862252 -0.050631438426689893 0 0.027944595719448215 -0.051235479151520553 0 0.027366057484960331 -0.048925248075106051 0 0.028048684806360486 -0.050292337109623983 0 0.052756039833166964 -0.048923128497951766 0 0.052600368783556395 -0.049161366183140411 0 0.052668513249335532 -0.04850671791960063 0 0.056706675967108745 -0.045733412177448966 0 0.052817175878099962 -0.037689302854741494 0 0.05032863252644286 -0.046001107818116782 0 0.052817175878099962 -0.037689302854741494 0 0.053002439532674084 -0.048643128341304839 0 0.052756039833166964 -0.048923128497951766 0 0.052668513249335532 -0.04850671791960063 0 0.048852009025298626 -0.042793451390537494 0 0.042339017967155758 -0.039569856142760616 0 0.048053306437304273 -0.038529835481546308 0 0.05137269107977064 -0.040533589168653211 0 0.048852009025298626 -0.042793451390537494 0 0.048053306437304273 -0.038529835481546308 0 0.053073719123240215 -0.04891250855350996 0 0.053002439532674084 -0.048643128341304839 0 0.052756039833166964 -0.048923128497951766 0 0.052638054154948738 -0.049361717492663007 0 0.053073719123240215 -0.04891250855350996 0 0.052756039833166964 -0.048923128497951766 0 0.052638054154948738 -0.049361717492663007 0 0.052756039833166964 -0.048923128497951766 0 0.052600368783556395 -0.049161366183140411 0 0.054145517187056118 -0.043069477657333904 0 0.054338777932608447 -0.037428026910195908 0 0.052166849070358311 -0.041220257185563561 0 0.053524958401652854 -0.048454496825263996 0 0.059654362791073834 -0.04116845732920163 0 0.054145517187056118 -0.043069477657333904 0 0.059654362791073834 -0.04116845732920163 0 0.054145517187056118 -0.043069477657333904 0 0.054338777932608447 -0.037428026910195908 0 0.054145517187056118 -0.043069477657333904 0 0.052166849070358311 -0.041220257185563561 0 0.052228628390328234 -0.044110548618613188 0 0.054338777932608447 -0.037428026910195908 0 0.058771179093017996 -0.03623266220720793 0 0.055457428253726203 -0.034095391595845938 0 0.059654362791073834 -0.04116845732920163 0 0.054338777932608447 -0.037428026910195908 0 0.058771179093017996 -0.03623266220720793 0 0.059654362791073834 -0.04116845732920163 0 0.058771179093017996 -0.03623266220720793 0 0.063332148363514848 -0.035010935242425496 0 0.058771179093017996 -0.03623266220720793 0 0.057868606997907343 -0.032191623884480464 0 0.055457428253726203 -0.034095391595845938 0 0.056007608300154325 -0.029510059589368993 0 0.052817175878099962 -0.037689302854741494 0 0.058771179093017996 -0.03623266220720793 0 0.057868606997907343 -0.032191623884480464 0 0.063332148363514848 -0.035010935242425496 0 0.057868606997907343 -0.032191623884480464 0 0.055457428253726203 -0.034095391595845938 0 0.053386335567811763 -0.029547118110770716 0 0.054338777932608447 -0.037428026910195908 0 0.055457428253726203 -0.034095391595845938 0 0.052776607556747547 -0.033676850827727159 0 0.056007608300154325 -0.029510059589368993 0 0.053292569799788685 -0.029596799138368251 0 0.053024340869723442 -0.028101545479385672 0 0.053435023652649856 -0.028872818855610185 0 0.053386335567811763 -0.029547118110770716 0 0.053024340869723442 -0.028101545479385672 0 0.052242853515338514 -0.028528225899410349 0 0.053435023652649856 -0.028872818855610185 0 0.053024340869723442 -0.028101545479385672 0 0.051993659848937349 -0.027930988137200317 0 0.052242853515338514 -0.028528225899410349 0 0.051433497238458997 -0.0282058048337267 0 0.051993659848937349 -0.027930988137200317 0 0.052242853515338514 -0.028528225899410349 0 0.051433497238458997 -0.0282058048337267 0 0.051993659848937349 -0.027930988137200317 0 0.051243083532052272 -0.027646488892739355 0 0.053024340869723442 -0.028101545479385672 0 0.051993659848937349 -0.027930988137200317 0 0.051873732914507656 -0.027133590524572145 0 0.051993659848937349 -0.027930988137200317 0 0.051873732914507656 -0.027133590524572145 0 0.051243083532052272 -0.027646488892739355 0 0.052817175878099962 -0.037689302854741494 0 0.048436304496222951 -0.03096648634899592 0 0.042339017967155758 -0.039569856142760616 0 0.048053306437304273 -0.038529835481546308 0 0.045289748376322769 -0.034456731503689705 0 0.048053306437304273 -0.038529835481546308 0 0.048758162831540879 -0.035651447635835033 0 0.045289748376322769 -0.034456731503689705 0 0.050925800227019487 -0.037618794328696879 0 0.048053306437304273 -0.038529835481546308 0 0.048758162831540879 -0.035651447635835033 0 0.050925800227019487 -0.037618794328696879 0 0.048758162831540879 -0.035651447635835033 0 0.050153057233752484 -0.034669080233234097 0 0.048488596949675389 -0.032612862385033622 0 0.045289748376322769 -0.034456731503689705 0 0.050064494879580278 -0.028245241418253245 0 0.051042972531248905 -0.032940077633864896 0 0.050153057233752484 -0.034669080233234097 0 0.048488596949675389 -0.032612862385033622 0 0.048758162831540879 -0.035651447635835033 0 0.048488596949675389 -0.032612862385033622 0 0.045289748376322769 -0.034456731503689705 0 0.048758162831540879 -0.035651447635835033 0 0.050153057233752484 -0.034669080233234097 0 0.048488596949675389 -0.032612862385033622 0 0.051042972531248905 -0.032940077633864896 0 0.048488596949675389 -0.032612862385033622 0 0.050023388366276636 -0.031122834265278419 0 0.048436304496222951 -0.03096648634899592 0 0.049763161113653448 -0.028723271987888394 0 0.051433497238458997 -0.0282058048337267 0 0.051243083532052272 -0.027646488892739355 0 0.050064494879580278 -0.028245241418253245 0 0.048488596949675389 -0.032612862385033622 0 0.050023388366276636 -0.031122834265278419 0 0.050064494879580278 -0.028245241418253245 0 0.050023388366276636 -0.031122834265278419 0 0.05037576445904051 -0.028896743636722195 0 0.050064494879580278 -0.028245241418253245 0 0.050280220301803687 -0.028409560598303123 0 0.05037576445904051 -0.028896743636722195 0 0.050064494879580278 -0.028245241418253245 0 0.050178422542356778 -0.028339723261038587 0 0.051100727064074848 -0.028681427962326294 0 0.050380543434397067 -0.029125501290347952 0 0.050178422542356778 -0.028339723261038587 0 0.050064494879580278 -0.028245241418253245 0 0.051100727064074848 -0.028681427962326294 0 0.051433497238458997 -0.0282058048337267 0 0.050064494879580278 -0.028245241418253245 0 0.051100727064074848 -0.028681427962326294 0 0.051100727064074848 -0.028681427962326294 0 0.052242853515338514 -0.028528225899410349 0 0.052478807793132673 -0.029434925015528128 0 0.051433497238458997 -0.0282058048337267 0 0.051100727064074848 -0.028681427962326294 0 0.052242853515338514 -0.028528225899410349 0 0.053162127329578153 -0.028496817974807052 0 0.051360838536202207 -0.028252752718053151 0 0.053977935575122989 -0.027638036519871744 0 0.052276827234504573 -0.027354452979958196 0 0.053174502765250715 -0.028157999568347351 0 0.051100727064074848 -0.028681427962326294 0 0.052478807793132673 -0.029434925015528128 0 0.050380543434397067 -0.029125501290347952 0 0.053977935575122989 -0.027638036519871744 0 0.053174502765250715 -0.028157999568347351 0 0.054184612408560331 -0.027803417296764475 0 0.053174502765250715 -0.028157999568347351 0 0.054313163213394369 -0.027586424808746443 0 0.053368946569411616 -0.02844682206784056 0 0.053174502765250715 -0.028157999568347351 0 0.054184612408560331 -0.027803417296764475 0 0.054313163213394369 -0.027586424808746443 0 0.051521898093949067 -0.028852967680652292 0 0.053174502765250715 -0.028157999568347351 0 0.053368946569411616 -0.02844682206784056 0 0.05447222255718244 -0.027351592972681773 0 0.054184612408560331 -0.027803417296764475 0 0.053897233143165801 -0.02834017881933576 0 0.05447222255718244 -0.027351592972681773 0 0.054184612408560331 -0.027803417296764475 0 0.054313163213394369 -0.027586424808746443 0 0.053977935575122989 -0.027638036519871744 0 0.054184612408560331 -0.027803417296764475 0 0.053897233143165801 -0.02834017881933576 0 0.053897233143165801 -0.02834017881933576 0 0.053435023652649856 -0.028872818855610185 0 0.053155284866158128 -0.028703640398194244 0 0.053162127329578153 -0.028496817974807052 0 0.053768600990479379 -0.028369201093735297 0 0.052478807793132673 -0.029434925015528128 0 0.053897233143165801 -0.02834017881933576 0 0.053435023652649856 -0.028872818855610185 0 0.052242853515338514 -0.028528225899410349 0 0.052478807793132673 -0.029434925015528128 0 0.053435023652649856 -0.028872818855610185 0 0.053155284866158128 -0.028703640398194244 0 0.052363483217893157 -0.029831878082049651 0 0.053386335567811763 -0.029547118110770716 0 0.053435023652649856 -0.028872818855610185 0 0.053155284866158128 -0.028703640398194244 0 0.053386335567811763 -0.029547118110770716 0 0.055121632929804161 -0.028952952338092756 0 0.054998646268389441 -0.032375577262592693 0 0.054996620337824598 -0.024341696882498976 0 0.053155284866158128 -0.028703640398194244 0 0.052332490311892133 -0.029165453329952087 0 0.052363483217893157 -0.029831878082049651 0 0.053155284866158128 -0.028703640398194244 0 0.052332490311892133 -0.029165453329952087 0 0.053332469147533229 -0.028406876726311318 0 0.053155284866158128 -0.028703640398194244 0 0.053974806906085311 -0.028127749150513373 0 0.053332469147533229 -0.028406876726311318 0 0.053897233143165801 -0.02834017881933576 0 0.053155284866158128 -0.028703640398194244 0 0.053974806906085311 -0.028127749150513373 0 0.05447222255718244 -0.027351592972681773 0 0.053897233143165801 -0.02834017881933576 0 0.053974806906085311 -0.028127749150513373 0 0.05447222255718244 -0.027351592972681773 0 0.053974806906085311 -0.028127749150513373 0 0.054876753458153939 -0.026777964563767437 0 0.053974806906085311 -0.028127749150513373 0 0.055121632929804161 -0.028952952338092756 0 0.054876753458153939 -0.026777964563767437 0 0.053974806906085311 -0.028127749150513373 0 0.055121632929804161 -0.028952952338092756 0 0.053332469147533229 -0.028406876726311318 0 0.055105395140948567 -0.029115451663811926 0 0.054999186217972951 -0.030359248524237485 0 0.055121632929804161 -0.028952952338092756 0 0.054998646268389441 -0.032375577262592693 0 0.05675135381245032 -0.03213096043819863 0 0.052332490311892133 -0.029165453329952087 0 0.053332469147533229 -0.028406876726311318 0 0.051128658659485279 -0.029686873736479848 0 0.054999186217972951 -0.030359248524237485 0 0.054315391896944822 -0.032622724593590238 0 0.054998646268389441 -0.032375577262592693 0 0.05675135381245032 -0.03213096043819863 0 0.057373361491100394 -0.035246138501279292 0 0.057373361491100394 -0.035246138501279292 0 0.057791728747061288 -0.038399470836056472 0 0.056221774149150305 -0.039802498845034333 0 0.054995727539739546 -0.043129100371649576 0 0.054998646268389441 -0.032375577262592693 0 0.056221774149150305 -0.039802498845034333 0 0.054998646268389441 -0.032375577262592693 0 0.057373361491100394 -0.035246138501279292 0 0.056221774149150305 -0.039802498845034333 0 0.052332490311892133 -0.029165453329952087 0 0.051128658659485279 -0.029686873736479848 0 0.051596460020063961 -0.030302321189330361 0 0.052332490311892133 -0.029165453329952087 0 0.051596460020063961 -0.030302321189330361 0 0.052363483217893157 -0.029831878082049651 0 0.051128658659485279 -0.029686873736479848 0 0.051596460020063961 -0.030302321189330361 0 0.051232765434693558 -0.036785876287944795 0 0.051596460020063961 -0.030302321189330361 0 0.052363483217893157 -0.029831878082049651 0 0.051377705536877108 -0.031744939321083361 0 0.052363483217893157 -0.029831878082049651 0 0.051377705536877108 -0.031744939321083361 0 0.051673292939196869 -0.032016186331477972 0 0.052363483217893157 -0.029831878082049651 0 0.053386335567811763 -0.029547118110770716 0 0.051673292939196869 -0.032016186331477972 0 0.053386335567811763 -0.029547118110770716 0 0.052776607556747547 -0.033676850827727159 0 0.051673292939196869 -0.032016186331477972 0 0.055457428253726203 -0.034095391595845938 0 0.053386335567811763 -0.029547118110770716 0 0.052776607556747547 -0.033676850827727159 0 0.051404404059908336 -0.034109785931067269 0 0.052776607556747547 -0.033676850827727159 0 0.051673292939196869 -0.032016186331477972 0 0.051404404059908336 -0.034109785931067269 0 0.052776607556747547 -0.033676850827727159 0 0.051681432667098459 -0.035770960531407749 0 0.051245914160650448 -0.030780166963912062 0 0.050823160064443179 -0.036447449916358857 0 0.051377705536877108 -0.031744939321083361 0 0.051673292939196869 -0.032016186331477972 0 0.049535735507706215 -0.035192351006998843 0 0.051404404059908336 -0.034109785931067269 0 0.051673292939196869 -0.032016186331477972 0 0.049535735507706215 -0.035192351006998843 0 0.051596460020063961 -0.030302321189330361 0 0.051377705536877108 -0.031744939321083361 0 0.049535735507706215 -0.035192351006998843 0 0.051596460020063961 -0.030302321189330361 0 0.051232765434693558 -0.036785876287944795 0 0.051924757420740229 -0.037719807481899063 0 0.054315391896944822 -0.032622724593590238 0 0.054518768894556556 -0.037645645333984436 0 0.057791728747061288 -0.038399470836056472 0 0.057008678019642933 -0.040376794098946851 0 0.056221774149150305 -0.039802498845034333 0 0.057791728747061288 -0.038399470836056472 0 0.057008678019642933 -0.040376794098946851 0 0.057638004119467644 -0.041825172373070735 0 0.051232765434693558 -0.036785876287944795 0 0.051924757420740229 -0.037719807481899063 0 0.051599161014100788 -0.043808588385408152 0 0.054518768894556556 -0.037645645333984436 0 0.054601543176974195 -0.042811884627923132 0 0.050823160064443179 -0.036447449916358857 0 0.051050391551299625 -0.044072768227015349 0 0.049535735507706215 -0.035192351006998843 0 0.050803856397019051 -0.039550806036577957 0 0.049948928181501893 -0.043514963240403076 0 0.054338777932608447 -0.037428026910195908 0 0.051681432667098459 -0.035770960531407749 0 0.051602972994288725 -0.038245641394879092 0 0.054338777932608447 -0.037428026910195908 0 0.052776607556747547 -0.033676850827727159 0 0.051681432667098459 -0.035770960531407749 0 0.049535735507706215 -0.035192351006998843 0 0.051681432667098459 -0.035770960531407749 0 0.051602972994288725 -0.038245641394879092 0 0.051404404059908336 -0.034109785931067269 0 0.049535735507706215 -0.035192351006998843 0 0.051681432667098459 -0.035770960531407749 0 0.049535735507706215 -0.035192351006998843 0 0.050803856397019051 -0.039550806036577957 0 0.051602972994288725 -0.038245641394879092 0 0.054338777932608447 -0.037428026910195908 0 0.051602972994288725 -0.038245641394879092 0 0.052166849070358311 -0.041220257185563561 0 0.051924757420740229 -0.037719807481899063 0 0.051965960524045618 -0.044759520549596352 0 0.051599161014100788 -0.043808588385408152 0 0.050803856397019051 -0.039550806036577957 0 0.051602972994288725 -0.038245641394879092 0 0.052166849070358311 -0.041220257185563561 0 0.050803856397019051 -0.039550806036577957 0 0.052166849070358311 -0.041220257185563561 0 0.049948928181501893 -0.043514963240403076 0 0.052166849070358311 -0.041220257185563561 0 0.049948928181501893 -0.043514963240403076 0 0.052228628390328234 -0.044110548618613188 0 0.057008678019642933 -0.040376794098946851 0 0.056405602230759883 -0.042126979368068307 0 0.056221774149150305 -0.039802498845034333 0 0.057008678019642933 -0.040376794098946851 0 0.056929613500311775 -0.04160811956389391 0 0.056405602230759883 -0.042126979368068307 0 0.057008678019642933 -0.040376794098946851 0 0.057638004119467644 -0.041825172373070735 0 0.056929613500311775 -0.04160811956389391 0 0.056326369405968975 -0.043779121546576656 0 0.057638004119467644 -0.041825172373070735 0 0.056759241360528671 -0.042536599252786356 0 0.056929613500311775 -0.04160811956389391 0 0.056759241360528671 -0.042536599252786356 0 0.056405602230759883 -0.042126979368068307 0 0.057638004119467644 -0.041825172373070735 0 0.056929613500311775 -0.04160811956389391 0 0.056759241360528671 -0.042536599252786356 0 0.055492212269415468 -0.043926587080640775 0 0.056405602230759883 -0.042126979368068307 0 0.056221774149150305 -0.039802498845034333 0 0.055252542831942066 -0.016422382109775407 0 0.054998262833789606 -0.018366991630870692 0 0.055000504488007564 -0.010590112148558609 0 0.055252542831942066 -0.016422382109775407 0 0.057252001993562292 -0.014392588068666959 0 0.056784154106983731 -0.01280802353919751 0 0.055338383574683743 -0.019362990204990192 0 0.055252542831942066 -0.016422382109775407 0 0.055236192121308328 -0.019134200193088539 0 0.055338383574683743 -0.019362990204990192 0 0.055252542831942066 -0.016422382109775407 0 0.054998262833789606 -0.018366991630870692 0 0.05525154170691466 -0.016913598567174604 0 0.056114750392688401 -0.015811255055113847 0 0.055338383574683743 -0.019362990204990192 0 0.055236192121308328 -0.019134200193088539 0 0.055272791469262117 -0.019796277570307108 0 0.055338383574683743 -0.019362990204990192 0 0.055272791469262117 -0.019796277570307108 0 0.055448060424662771 -0.021396420653641009 0 0.055272791469262117 -0.019796277570307108 0 0.055605004833877411 -0.020219630885182752 0 0.055448060424662771 -0.021396420653641009 0 0.055338383574683743 -0.019362990204990192 0 0.055398958924291024 -0.021708779725656574 0 0.055328272945751995 -0.021376865504081573 0 0.055338383574683743 -0.019362990204990192 0 0.055448060424662771 -0.021396420653641009 0 0.055398958924291024 -0.021708779725656574 0 0.055448060424662771 -0.021396420653641009 0 0.055398958924291024 -0.021708779725656574 0 0.055291376890957283 -0.023640165908859173 0 0.055338383574683743 -0.019362990204990192 0 0.055328272945751995 -0.021376865504081573 0 0.054998262833789606 -0.018366991630870692 0 0.055328272945751995 -0.021376865504081573 0 0.054998262833789606 -0.018366991630870692 0 0.054996620337824598 -0.024341696882498976 0 0.055328272945751995 -0.021376865504081573 0 0.054996620337824598 -0.024341696882498976 0 0.055262556710859952 -0.023880905878214745 0 0.054996620337824598 -0.024341696882498976 0 0.054876753458153939 -0.026777964563767437 0 0.055262556710859952 -0.023880905878214745 0 0.055121632929804161 -0.028952952338092756 0 0.054996620337824598 -0.024341696882498976 0 0.054876753458153939 -0.026777964563767437 0 0.05447222255718244 -0.027351592972681773 0 0.054876753458153939 -0.026777964563767437 0 0.054886231496537131 -0.02596880244115168 0 0.054876753458153939 -0.026777964563767437 0 0.055262556710859952 -0.023880905878214745 0 0.054886231496537131 -0.02596880244115168 0 0.055262556710859952 -0.023880905878214745 0 0.055291376890957283 -0.023640165908859173 0 0.054886231496537131 -0.02596880244115168 0 0.055398958924291024 -0.021708779725656574 0 0.055328272945751995 -0.021376865504081573 0 0.055262556710859952 -0.023880905878214745 0 0.055398958924291024 -0.021708779725656574 0 0.055262556710859952 -0.023880905878214745 0 0.055291376890957283 -0.023640165908859173 0 0.055291376890957283 -0.023640165908859173 0 0.054863341921049441 -0.025184421108427956 0 0.054886231496537131 -0.02596880244115168 0 0.054863341921049441 -0.025184421108427956 0 0.054886231496537131 -0.02596880244115168 0 0.054301892288341945 -0.027236964251216945 0 0.054886231496537131 -0.02596880244115168 0 0.054313163213394369 -0.027586424808746443 0 0.054301892288341945 -0.027236964251216945 0 0.05447222255718244 -0.027351592972681773 0 0.054886231496537131 -0.02596880244115168 0 0.054313163213394369 -0.027586424808746443 0 0.054313163213394369 -0.027586424808746443 0 0.053368946569411616 -0.02844682206784056 0 0.054301892288341945 -0.027236964251216945 0 0.053368946569411616 -0.02844682206784056 0 0.054301892288341945 -0.027236964251216945 0 0.052882683876869847 -0.029267119603873328 0 0.054301892288341945 -0.027236964251216945 0 0.054984412689299801 -0.026276294815722825 0 0.052882683876869847 -0.029267119603873328 0 0.054863341921049441 -0.025184421108427956 0 0.054301892288341945 -0.027236964251216945 0 0.054984412689299801 -0.026276294815722825 0 0.054863341921049441 -0.025184421108427956 0 0.055051986678440301 -0.024577455078465961 0 0.054984412689299801 -0.026276294815722825 0 0.05375625587181343 -0.030450792594652762 0 0.053810766115887511 -0.029786275422524149 0 0.054990352962595093 -0.024192402952537041 0 0.055051986678440301 -0.024577455078465961 0 0.054984412689299801 -0.026276294815722825 0 0.054990352962595093 -0.024192402952537041 0 0.05529013798793446 -0.024511939093872431 0 0.055051986678440301 -0.024577455078465961 0 0.054990352962595093 -0.024192402952537041 0 0.05529013798793446 -0.024511939093872431 0 0.053814922532998015 -0.027331122889649503 0 0.052626832340730616 -0.036565148218706434 0 0.05254387185104515 -0.038613237828597789 0 0.051126448137576455 -0.038040066255550072 0 0.05375625587181343 -0.030450792594652762 0 0.053232835112351599 -0.033033471898626564 0 0.055444596979686935 -0.024455102220549269 0 0.056956197025669314 -0.024512627558143419 0 0.05529013798793446 -0.024511939093872431 0 0.055051986678440301 -0.024577455078465961 0 0.055422536586176185 -0.023629434028853754 0 0.054863341921049441 -0.025184421108427956 0 0.055051986678440301 -0.024577455078465961 0 0.055422536586176185 -0.023629434028853754 0 0.055448060424662771 -0.021396420653641009 0 0.055291376890957283 -0.023640165908859173 0 0.055422536586176185 -0.023629434028853754 0 0.055291376890957283 -0.023640165908859173 0 0.054863341921049441 -0.025184421108427956 0 0.055422536586176185 -0.023629434028853754 0 0.055448060424662771 -0.021396420653641009 0 0.055422536586176185 -0.023629434028853754 0 0.055808516941319108 -0.022065885179096134 0 0.05529013798793446 -0.024511939093872431 0 0.055422536586176185 -0.023629434028853754 0 0.055808516941319108 -0.022065885179096134 0 0.055605004833877411 -0.020219630885182752 0 0.055448060424662771 -0.021396420653641009 0 0.055808516941319108 -0.022065885179096134 0 0.060364763927349283 -0.026898101062992133 0 0.056956197025669314 -0.024512627558143419 0 0.063785744997429977 -0.031440943101501119 0 0.058665395756210645 -0.027449103103750906 0 0.058696981339445189 -0.03322617537339119 0 0.058665395756210645 -0.027449103103750906 0 0.056019177745378936 -0.029852214362527385 0 0.058696981339445189 -0.03322617537339119 0 0.056019177745378936 -0.029852214362527385 0 0.053687641840550741 -0.033326728413824065 0 0.058696981339445189 -0.03322617537339119 0 0.056019177745378936 -0.029852214362527385 0 0.053814922532998015 -0.027331122889649503 0 0.053687641840550741 -0.033326728413824065 0 0.05254387185104515 -0.038613237828597789 0 0.051747784544653466 -0.039899368382542807 0 0.052863023353817568 -0.039960253098555998 0 0.05254387185104515 -0.038613237828597789 0 0.051196426893059505 -0.039112403400561296 0 0.051747784544653466 -0.039899368382542807 0 0.053232835112351599 -0.033033471898626564 0 0.053359597500207495 -0.036771222479011836 0 0.058665395756210645 -0.027449103103750906 0 0.056019177745378936 -0.029852214362527385 0 0.053814922532998015 -0.027331122889649503 0 0.05529013798793446 -0.024511939093872431 0 0.058665395756210645 -0.027449103103750906 0 0.053814922532998015 -0.027331122889649503 0 0.05254387185104515 -0.038613237828597789 0 0.051196426893059505 -0.039112403400561296 0 0.051126448137576455 -0.038040066255550072 0 0.049506474570738104 -0.038908248437538165 0 0.051196426893059505 -0.039112403400561296 0 0.051126448137576455 -0.038040066255550072 0 0.051196426893059505 -0.039112403400561296 0 0.050318634275396026 -0.039956657065798609 0 0.051747784544653466 -0.039899368382542807 0 0.049506474570738104 -0.038908248437538165 0 0.050318634275396026 -0.039956657065798609 0 0.04888096588891621 -0.039997155987028576 0 0.049506474570738104 -0.038908248437538165 0 0.051196426893059505 -0.039112403400561296 0 0.050318634275396026 -0.039956657065798609 0 0.04888096588891621 -0.039997155987028576 0 0.04747566791976085 -0.039408499876940409 0 0.048056624935850827 -0.040515637099266595 0 0.04758945459432528 -0.038865696413138973 0 0.04721903862912849 -0.042445812643991075 0 0.045918510209944891 -0.04040581289703838 0 0.04747566791976085 -0.039408499876940409 0 0.046784337027635722 -0.041658322593224044 0 0.04747566791976085 -0.039408499876940409 0 0.047032398631318931 -0.037880297152215754 0 0.045509672647536199 -0.038873894772167863 0 0.045918510209944891 -0.04040581289703838 0 0.04747566791976085 -0.039408499876940409 0 0.045509672647536199 -0.038873894772167863 0 0.049506474570738104 -0.038908248437538165 0 0.04747566791976085 -0.039408499876940409 0 0.047032398631318931 -0.037880297152215754 0 0.049506474570738104 -0.038908248437538165 0 0.04888096588891621 -0.039997155987028576 0 0.04747566791976085 -0.039408499876940409 0 0.049506474570738104 -0.038908248437538165 0 0.047032398631318931 -0.037880297152215754 0 0.049697182123934702 -0.037241617256203174 0 0.047032398631318931 -0.037880297152215754 0 0.045291054616116884 -0.036407299616534411 0 0.048111526242609746 -0.03594345969838797 0 0.047032398631318931 -0.037880297152215754 0 0.045291054616116884 -0.036407299616534411 0 0.044266596119289764 -0.037870990724774366 0 0.047032398631318931 -0.037880297152215754 0 0.048111526242609746 -0.03594345969838797 0 0.049697182123934702 -0.037241617256203174 0 0.049697182123934702 -0.037241617256203174 0 0.051179308963114123 -0.035592323067144813 0 0.051193654773247714 -0.036874365284568902 0 0.048111526242609746 -0.03594345969838797 0 0.049697182123934702 -0.037241617256203174 0 0.051179308963114123 -0.035592323067144813 0 0.049506474570738104 -0.038908248437538165 0 0.049697182123934702 -0.037241617256203174 0 0.051126448137576455 -0.038040066255550072 0 0.052626832340730616 -0.036565148218706434 0 0.051126448137576455 -0.038040066255550072 0 0.051193654773247714 -0.036874365284568902 0 0.049697182123934702 -0.037241617256203174 0 0.051126448137576455 -0.038040066255550072 0 0.051193654773247714 -0.036874365284568902 0 0.052626832340730616 -0.036565148218706434 0 0.051179308963114123 -0.035592323067144813 0 0.051193654773247714 -0.036874365284568902 0 0.052626832340730616 -0.036565148218706434 0 0.051179308963114123 -0.035592323067144813 0 0.052906132787432794 -0.033555990800449943 0 0.051179308963114123 -0.035592323067144813 0 0.0496653776866239 -0.033873248648163393 0 0.052906132787432794 -0.033555990800449943 0 0.048111526242609746 -0.03594345969838797 0 0.051179308963114123 -0.035592323067144813 0 0.0496653776866239 -0.033873248648163393 0 0.0496653776866239 -0.033873248648163393 0 0.052906132787432794 -0.033555990800449943 0 0.049866292606311195 -0.031022497388825187 0 0.053810766115887511 -0.029786275422524149 0 0.053015991133916106 -0.029107230913743221 0 0.052906132787432794 -0.033555990800449943 0 0.052882683876869847 -0.029267119603873328 0 0.049866292606311195 -0.031022497388825187 0 0.052882683876869847 -0.029267119603873328 0 0.049866292606311195 -0.031022497388825187 0 0.05021304255114601 -0.029472622713940667 0 0.051521898093949067 -0.028852967680652292 0 0.052882683876869847 -0.029267119603873328 0 0.05021304255114601 -0.029472622713940667 0 0.051521898093949067 -0.028852967680652292 0 0.053368946569411616 -0.02844682206784056 0 0.052882683876869847 -0.029267119603873328 0 0.044080619021207017 -0.033112472477037053 0 0.045791931363396543 -0.035236357368950845 0 0.042281302280859023 -0.0354689642268253 0 0.049866292606311195 -0.031022497388825187 0 0.05021304255114601 -0.029472622713940667 0 0.048713532821917836 -0.029703965180328352 0 0.049866292606311195 -0.031022497388825187 0 0.048713532821917836 -0.029703965180328352 0 0.046960895928499648 -0.032142710980012999 0 0.047242641665478119 -0.032396455844586731 0 0.045853968858780209 -0.034461561148347947 0 0.045791931363396543 -0.035236357368950845 0 0.04462020528784099 -0.036598035779404257 0 0.042281302280859023 -0.0354689642268253 0 0.0496653776866239 -0.033873248648163393 0 0.049866292606311195 -0.031022497388825187 0 0.046960895928499648 -0.032142710980012999 0 0.048111526242609746 -0.03594345969838797 0 0.0496653776866239 -0.033873248648163393 0 0.046960895928499648 -0.032142710980012999 0 0.045287454355316337 -0.036364100047015929 0 0.045853968858780209 -0.034461561148347947 0 0.045291054616116884 -0.036407299616534411 0 0.048111526242609746 -0.03594345969838797 0 0.046960895928499648 -0.032142710980012999 0 0.045291054616116884 -0.036407299616534411 0 0.04462020528784099 -0.036598035779404257 0 0.043289819660251118 -0.036579018175482036 0 0.04462020528784099 -0.036598035779404257 0 0.043289819660251118 -0.036579018175482036 0 0.042231392053313374 -0.036213084138755375 0 0.045291054616116884 -0.036407299616534411 0 0.043289819660251118 -0.036579018175482036 0 0.042959756590040435 -0.037232686506340804 0 0.043289819660251118 -0.036579018175482036 0 0.041602561409147656 -0.036729867075705226 0 0.042959756590040435 -0.037232686506340804 0 0.043289819660251118 -0.036579018175482036 0 0.042231392053313374 -0.036213084138755375 0 0.041602561409147656 -0.036729867075705226 0 0.04462020528784099 -0.036598035779404257 0 0.042231392053313374 -0.036213084138755375 0 0.042281302280859023 -0.0354689642268253 0 0.042231392053313374 -0.036213084138755375 0 0.042281302280859023 -0.0354689642268253 0 0.040555398753517241 -0.036093841858481898 0 0.037398711538598729 -0.04032091212140216 0 0.032707664709501101 -0.041293953700837986 0 0.034222408438180689 -0.042713619406018991 0 0.033681769658136733 -0.035546610092798601 0 0.038315059205860036 -0.035096977500665899 0 0.037398711538598729 -0.04032091212140216 0 0.038315059205860036 -0.035096977500665899 0 0.042281302280859023 -0.0354689642268253 0 0.040555398753517241 -0.036093841858481898 0 0.038487365518706323 -0.035142372016262961 0 0.038885769172887032 -0.038030302543818839 0 0.037398711538598729 -0.04032091212140216 0 0.035880412587526736 -0.043287544066539861 0 0.034222408438180689 -0.042713619406018991 0 0.038885769172887032 -0.038030302543818839 0 0.038728108137954083 -0.039804574861941347 0 0.042231392053313374 -0.036213084138755375 0 0.040555398753517241 -0.036093841858481898 0 0.041602561409147656 -0.036729867075705226 0 0.038728108137954083 -0.039804574861941347 0 0.038494594095664116 -0.041875773967967836 0 0.035880412587526736 -0.043287544066539861 0 0.034063395573915224 -0.044067372142391995 0 0.034222408438180689 -0.042713619406018991 0 0.035880412587526736 -0.043287544066539861 0 0.035001416399124123 -0.044796109522322582 0 0.034063395573915224 -0.044067372142391995 0 0.035001416399124123 -0.044796109522322582 0 0.034063395573915224 -0.044067372142391995 0 0.03394920709352052 -0.04537074746689311 0 0.038494594095664116 -0.041875773967967836 0 0.036833864073244398 -0.040216497339383525 0 0.035001416399124123 -0.044796109522322582 0 0.034648841725420494 -0.046096220571184572 0 0.03394920709352052 -0.04537074746689311 0 0.041686835879864145 -0.037842208630736375 0 0.042754378360333863 -0.038827366969900516 0 0.041521804297378465 -0.039554070139964696 0 0.041602561409147656 -0.036729867075705226 0 0.041686835879864145 -0.037842208630736375 0 0.042959756590040435 -0.037232686506340804 0 0.041686835879864145 -0.037842208630736375 0 0.042959756590040435 -0.037232686506340804 0 0.042754378360333863 -0.038827366969900516 0 0.045291054616116884 -0.036407299616534411 0 0.042959756590040435 -0.037232686506340804 0 0.044266596119289764 -0.037870990724774366 0 0.047032398631318931 -0.037880297152215754 0 0.044266596119289764 -0.037870990724774366 0 0.045509672647536199 -0.038873894772167863 0 0.044266596119289764 -0.037870990724774366 0 0.044241952840211013 -0.03902250443754645 0 0.045509672647536199 -0.038873894772167863 0 0.042959756590040435 -0.037232686506340804 0 0.044266596119289764 -0.037870990724774366 0 0.042754378360333863 -0.038827366969900516 0 0.044266596119289764 -0.037870990724774366 0 0.043249226685840129 -0.038499358215652986 0 0.044241952840211013 -0.03902250443754645 0 0.043845478165531283 -0.038116546602533136 0 0.043881308335671339 -0.038262749544936109 0 0.043249226685840129 -0.038499358215652986 0 0.044241952840211013 -0.03902250443754645 0 0.043460948061639068 -0.039803130272562291 0 0.044241952840211013 -0.03902250443754645 0 0.043460948061639068 -0.039803130272562291 0 0.044677162148347542 -0.040148021520228679 0 0.045918510209944891 -0.04040581289703838 0 0.045509672647536199 -0.038873894772167863 0 0.044677162148347542 -0.040148021520228679 0 0.044241952840211013 -0.03902250443754645 0 0.045509672647536199 -0.038873894772167863 0 0.044677162148347542 -0.040148021520228679 0 0.045918510209944891 -0.04040581289703838 0 0.044677162148347542 -0.040148021520228679 0 0.044954011916552697 -0.041718904562533701 0 0.044677162148347542 -0.040148021520228679 0 0.043730294447798045 -0.040837120867464882 0 0.044954011916552697 -0.041718904562533701 0 0.043460948061639068 -0.039803130272562291 0 0.044677162148347542 -0.040148021520228679 0 0.043730294447798045 -0.040837120867464882 0 0.043730294447798045 -0.040837120867464882 0 0.042439891627396309 -0.040600505491104416 0 0.043021458328829407 -0.04191181672734947 0 0.043460948061639068 -0.039803130272562291 0 0.043730294447798045 -0.040837120867464882 0 0.042439891627396309 -0.040600505491104416 0 0.043460948061639068 -0.039803130272562291 0 0.042439891627396309 -0.040600505491104416 0 0.042517108842954676 -0.039755632978927098 0 0.042439891627396309 -0.040600505491104416 0 0.041652181651547077 -0.040636803862482786 0 0.042517108842954676 -0.039755632978927098 0 0.031129200551451571 -0.036997048747545218 0 0.031313649101771479 -0.034735425829519849 0 0.028859980307767475 -0.03606916030714491 0 0.042439891627396309 -0.040600505491104416 0 0.041652181651547077 -0.040636803862482786 0 0.041507938250555793 -0.042002068643145263 0 0.031129200551451571 -0.036997048747545218 0 0.028859980307767475 -0.03606916030714491 0 0.029388918708855676 -0.038157089350959593 0 0.036416544325606925 -0.038316999538734485 0 0.036833864073244398 -0.040216497339383525 0 0.036833864073244398 -0.040216497339383525 0 0.030510619434491942 -0.041743281912315543 0 0.034648841725420494 -0.046096220571184572 0 0.03394920709352052 -0.04537074746689311 0 0.033539140582245795 -0.046594757434931154 0 0.043249226685840129 -0.038499358215652986 0 0.041766347370556456 -0.03927876114379255 0 0.042517108842954676 -0.039755632978927098 0 0.043881308335671339 -0.038262749544936109 0 0.036833864073244398 -0.040216497339383525 0 0.041652181651547077 -0.040636803862482786 0 0.041766347370556456 -0.03927876114379255 0 0.042517108842954676 -0.039755632978927098 0 0.043249226685840129 -0.038499358215652986 0 0.043460948061639068 -0.039803130272562291 0 0.042517108842954676 -0.039755632978927098 0 0.041492828892715904 -0.042928961829517977 0 0.043021458328829407 -0.04191181672734947 0 0.043960232064250468 -0.043279476414747511 0 0.043940879328678822 -0.028963749965029102 0 0.045456844495807371 -0.02911662816219512 0 0.044770705558673331 -0.029712689896748346 0 0.039967374837964018 -0.034871472257548851 0 0.045047769622621421 -0.036359559138854462 0 0.032362887930012157 -0.032046104673160762 0 0.032130896626505735 -0.032019851510817841 0 0.03217010015033691 -0.031337495685168852 0 0.039967374837964018 -0.034871472257548851 0 0.038216003346668866 -0.03079905491048714 0 0.030208744629701301 -0.035274365874875632 0 0.037564669239036903 -0.040546795088966782 0 0.030208744629701301 -0.035274365874875632 0 0.039967374837964018 -0.034871472257548851 0 0.037551310158982901 -0.035376821474184521 0 0.035825026923159684 -0.035169790993200528 0 0.035603792118260001 -0.038679712359348993 0 0.039967374837964018 -0.034871472257548851 0 0.037564669239036903 -0.040546795088966782 0 0.036416544325606925 -0.038316999538734485 0 0.037564669239036903 -0.040546795088966782 0 0.031129200551451571 -0.036997048747545218 0 0.030974248571558036 -0.039301641642487908 0 0.029388918708855676 -0.038157089350959593 0 0.030974248571558036 -0.039301641642487908 0 0.029212521546917284 -0.039549730068197501 0 0.029388918708855676 -0.038157089350959593 0 0.030092916642174523 -0.04074886713117315 0 0.030974248571558036 -0.039301641642487908 0 0.029212521546917284 -0.039549730068197501 0 0.042439891627396309 -0.040600505491104416 0 0.041562933758521131 -0.042025297546406652 0 0.043021458328829407 -0.04191181672734947 0 0.041492828892715904 -0.042928961829517977 0 0.041562933758521131 -0.042025297546406652 0 0.043021458328829407 -0.04191181672734947 0 0.042952748099348743 -0.040703378117451533 0 0.037564669239036903 -0.040546795088966782 0 0.043730294447798045 -0.040837120867464882 0 0.043021458328829407 -0.04191181672734947 0 0.044954011916552697 -0.041718904562533701 0 0.043021458328829407 -0.04191181672734947 0 0.044954011916552697 -0.041718904562533701 0 0.043960232064250468 -0.043279476414747511 0 0.045047769622621421 -0.036359559138854462 0 0.047950499009250566 -0.036497005123666576 0 0.044954011916552697 -0.041718904562533701 0 0.043960232064250468 -0.043279476414747511 0 0.046451677198343623 -0.043587419257116088 0 0.045456844495807371 -0.02911662816219512 0 0.046140955633207678 -0.029759260809859068 0 0.044770705558673331 -0.029712689896748346 0 0.046140955633207678 -0.029759260809859068 0 0.045332318561807784 -0.030401365736322985 0 0.044770705558673331 -0.029712689896748346 0 0.045456844495807371 -0.02911662816219512 0 0.046140955633207678 -0.029759260809859068 0 0.04694419182906983 -0.029310215294699959 0 0.046140955633207678 -0.029759260809859068 0 0.045332318561807784 -0.030401365736322985 0 0.046792765659835443 -0.030405255099154975 0 0.0484178484021415 -0.014060125555766327 0 0.049221159359855028 -0.015985021453871647 0 0.051197347797499189 -0.01412814626419363 0 0.047386452728650927 -0.021809567044331995 0 0.050676846002366542 -0.023012933157731823 0 0.0484178484021415 -0.014060125555766327 0 0.046774233679470735 -0.015028132617728741 0 0.047984250941744966 -0.015347781658694345 0 0.045332318561807784 -0.030401365736322985 0 0.044770705558673331 -0.029712689896748346 0 0.043848653252709917 -0.03036929794903406 0 0.0484178484021415 -0.014060125555766327 0 0.04560086043013193 -0.014024262615340958 0 0.046774233679470735 -0.015028132617728741 0 0.047386452728650927 -0.021809567044331995 0 0.040674191986591599 -0.024547790987872985 0 0.032362887930012157 -0.032046104673160762 0 0.03217010015033691 -0.031337495685168852 0 0.032696242424098181 -0.031357487947254771 0 0.044770705558673331 -0.029712689896748346 0 0.04390502153495407 -0.029668711496090402 0 0.043848653252709917 -0.03036929794903406 0 0.043940879328678822 -0.028963749965029102 0 0.044770705558673331 -0.029712689896748346 0 0.04390502153495407 -0.029668711496090402 0 0.038216003346668866 -0.03079905491048714 0 0.040674191986591599 -0.024547790987872985 0 0.03217010015033691 -0.031337495685168852 0 0.032529163901722884 -0.03103636938746205 0 0.032696242424098181 -0.031357487947254771 0 0.03217010015033691 -0.031337495685168852 0 0.032243003537172847 -0.030724823861726393 0 0.032529163901722884 -0.03103636938746205 0 0.039206743433010845 -0.019887572322621942 0 0.038997327102727158 -0.023002702935999306 0 0.026538209260014548 -0.019692917911343585 0 0.04560086043013193 -0.014024262615340958 0 0.045576940865831445 -0.014524660804475851 0 0.046774233679470735 -0.015028132617728741 0 0.040674191986591599 -0.024547790987872985 0 0.038525669274863665 -0.016245043163592095 0 0.036334057055946174 -0.0098838797756653548 0 0.034374744241101172 -0.013400462121707164 0 0.036068074964742576 -0.01388569815044839 0 0.038525669274863665 -0.016245043163592095 0 0.041839760323682175 -0.0083070192404816213 0 0.045576940865831445 -0.014524660804475851 0 0.045496066833226004 -0.01585344032394561 0 0.046774233679470735 -0.015028132617728741 0 0.04332773341158469 -0.0039388455848462121 0 0.043383199697859025 -0.0030916719960403277 0 0.049164390276331467 -0.0072687560036191297 0 0.03555742072450039 0.0049509841339101359 0 0.033892047659556869 0.0058897706621434467 0 0.033845554475751917 0.0037527276413419457 0 0.041857230359639487 -0.0027403327046197109 0 0.041839760323682175 -0.0083070192404816213 0 0.041857230359639487 -0.0027403327046197109 0 0.035329511892707971 -0.004165578362209041 0 0.035329511892707971 -0.004165578362209041 0 0.041839760323682175 -0.0083070192404816213 0 0.043300434265899676 -0.0077876164946880395 0 0.035741790201893102 -0.0034759615893264996 0 0.043436711281644926 -0.0057233979857178579 0 0.041839760323682175 -0.0083070192404816213 0 0.052525123845641952 -0.0067684771733587433 0 0.045496066833226004 -0.01585344032394561 0 0.046774233679470735 -0.015028132617728741 0 0.047432710467215672 -0.016414342773828538 0 0.046774233679470735 -0.015028132617728741 0 0.047432710467215672 -0.016414342773828538 0 0.047984250941744966 -0.015347781658694345 0 0.059492182133007318 0.006077469886109182 0 0.059491630971858403 0.0057738175349790737 0 0.059937972838739688 0.0059268490223894936 0 0.055105509456072961 -0.0034348862994588265 0 0.055368378623701399 -0.0033562193858513679 0 0.054753675819822545 -0.0030033769097750004 0 0.053967763202978157 -0.0010126497584674568 0 0.057648237966265441 0.0016205304991445987 0 0.043383199697859025 -0.0030916719960403277 0 0.053716087725775755 -0.0061205854497332927 0 0.049164390276331467 -0.0072687560036191297 0 0.052525123845641952 -0.0067684771733587433 0 0.053967763202978157 -0.0010126497584674568 0 0.059492182133007318 0.006077469886109182 0 0.05923224937428722 0.0060163419587468923 0 0.059491630971858403 0.0057738175349790737 0 0.041857230359639487 -0.0027403327046197109 0 0.045910233292039838 0.0061985692044821258 0 0.035393539186745961 0.002397826293498685 0 0.033845554475751917 0.0037527276413419457 0 0.032380407353412445 0.0016570395831273957 0 0.03555742072450039 0.0049509841339101359 0 0.035393539186745961 0.002397826293498685 0 0.033845554475751917 0.0037527276413419457 0 0.053967763202978157 -0.0010126497584674568 0 0.045910233292039838 0.0061985692044821258 0 0.041857230359639487 -0.0027403327046197109 0 0.053967763202978157 -0.0010126497584674568 0 0.045761680557673969 0.0022228086746022171 0 0.049309507690425275 0.00021019473544544703 0 0.045573268439808447 -0.00071689576134064553 0 0.045910233292039838 0.0061985692044821258 0 0.032090414463630312 0.0096340515809391764 0 0.045910233292039838 0.0061985692044821258 0 0.051507207884274667 0.0087002098125367848 0 0.041349291554095925 0.010459088769715921 0 0.041530224612156164 0.012395500218846391 0 0.042135309760776722 0.010688523321944659 0 0.05923224937428722 0.0060163419587468923 0 0.059491630971858403 0.0057738175349790737 0 0.059370728452600045 0.0055538158995401985 0 0.059491630971858403 0.0057738175349790737 0 0.059607679394109568 0.0054026072207857224 0 0.059370728452600045 0.0055538158995401985 0 0.059491630971858403 0.0057738175349790737 0 0.059783079932131306 0.0056302547989208638 0 0.059607679394109568 0.0054026072207857224 0 0.059491630971858403 0.0057738175349790737 0 0.059783079932131306 0.0056302547989208638 0 0.059937972838739688 0.0059268490223894936 0 0.059783079932131306 0.0056302547989208638 0 0.059607679394109568 0.0054026072207857224 0 0.059877678777370262 0.0054053538167249835 0 0.059607679394109568 0.0054026072207857224 0 0.059877678777370262 0.0054053538167249835 0 0.059703659203446439 0.0052511300624948675 0 0.051507207884274667 0.0087002098125367848 0 0.045494091673616378 0.013475781183199328 0 0.041530224612156164 0.012395500218846391 0 0.041913910195546619 0.012504561039147395 0 0.041813937492519854 0.014162582719829264 0 0.059607679394109568 0.0054026072207857224 0 0.059370728452600045 0.0055538158995401985 0 0.059712126076689152 0.0053531998806598509 0 0.033475116424039268 0.018199685648198811 0 0.045494091673616378 0.013475781183199328 0 0.061646145708210393 0.0030067347671276861 0 0.061353672806833764 0.0036663908337868584 0 0.06089921675406202 0.0047598110174629808 0 0.061646145708210393 0.0030067347671276861 0 0.062308629730578262 0.0021500039131490288 0 0.06089921675406202 0.0047598110174629808 0 0.060358747161433253 0.005414235841484415 0 0.060584659504807674 0.0058249819955553967 0 0.06089921675406202 0.0047598110174629808 0 0.060358747161433253 0.005414235841484415 0 0.060078495746427332 0.0056651808887898383 0 0.060584659504807674 0.0058249819955553967 0 0.058555895848170808 0.0018152863180105755 0 0.061671877373765206 0.0055214409977079014 0 0.060358747161433253 0.005414235841484415 0 0.06022187248294892 0.0051342384136262922 0 0.06089921675406202 0.0047598110174629808 0 0.059877678777370262 0.0054053538167249835 0 0.059884812139307096 0.0050943516048679765 0 0.06022187248294892 0.0051342384136262922 0 0.060358747161433253 0.005414235841484415 0 0.059877678777370262 0.0054053538167249835 0 0.06022187248294892 0.0051342384136262922 0 0.059783079932131306 0.0056302547989208638 0 0.059877678777370262 0.0054053538167249835 0 0.060078495746427332 0.0056651808887898383 0 0.060358747161433253 0.005414235841484415 0 0.059877678777370262 0.0054053538167249835 0 0.060078495746427332 0.0056651808887898383 0 0.060078495746427332 0.0056651808887898383 0 0.060584659504807674 0.0058249819955553967 0 0.059937972838739688 0.0059268490223894936 0 0.059783079932131306 0.0056302547989208638 0 0.060078495746427332 0.0056651808887898383 0 0.059937972838739688 0.0059268490223894936 0 0.058555895848170808 0.0018152863180105755 0 0.057648237966265441 0.0016205304991445987 0 0.058555895848170808 0.0018152863180105755 0 0.05809573566632676 -0.00085812807149265912 0 0.054078931635245416 -0.0025516967235988805 0 0.054319059889458163 -0.0032611692821685493 0 0.054753675819822545 -0.0030033769097750004 0 0.062223192710115477 0.0020376437550223597 0 0.062028847893780083 0.00023001960755767261 0 0.061473644304760239 0.0015188785635947724 0 0.061646145708210393 0.0030067347671276861 0 0.062308629730578262 0.0021500039131490288 0 0.061760080164303267 0.0023290550110922187 0 0.058555895848170808 0.0018152863180105755 0 0.059986884473244247 0.0014291784123360855 0 0.054319059889458163 -0.0032611692821685493 0 0.053964778065044683 -0.0032189719814498803 0 0.05387821031882372 -0.0038691745048508516 0 0.054078931635245416 -0.0025516967235988805 0 0.054319059889458163 -0.0032611692821685493 0 0.053964778065044683 -0.0032189719814498803 0 0.055105509456072961 -0.0034348862994588265 0 0.054319059889458163 -0.0032611692821685493 0 0.054753675819822545 -0.0030033769097750004 0 0.052525123845641952 -0.0067684771733587433 0 0.055183255297053695 -0.0026416535443719016 0 0.054975048179650168 -0.0035876752887501213 0 0.054319059889458163 -0.0032611692821685493 0 0.054474509774158283 -0.0036762208244957985 0 0.052525123845641952 -0.0067684771733587433 0 0.050941813599249181 -0.010190721046819669 0 0.047432710467215672 -0.016414342773828538 0 0.049221159359855028 -0.015985021453871647 0 0.047984250941744966 -0.015347781658694345 0 0.0484178484021415 -0.014060125555766327 0 0.049221159359855028 -0.015985021453871647 0 0.047984250941744966 -0.015347781658694345 0 0.049221159359855028 -0.015985021453871647 0 0.050995520489167522 -0.01555281160273312 0 0.051197347797499189 -0.01412814626419363 0 0.050941813599249181 -0.010190721046819669 0 0.055406448906209438 -0.0081796929354309225 0 0.054319059889458163 -0.0032611692821685493 0 0.054474509774158283 -0.0036762208244957985 0 0.05387821031882372 -0.0038691745048508516 0 0.055373242505992341 -0.01599538747868998 0 0.053953236105655639 -0.016601834542123411 0 0.054797608522099139 -0.016705144746792664 0 0.058513048139908611 -0.0079111522494891128 0 0.055379960359871958 -0.013401457767259664 0 0.055751047894877101 -0.015886707154162689 0 0.055373242505992341 -0.01599538747868998 0 0.055553187016210794 -0.017165602001345589 0 0.061773748267412679 -0.0013517575263253768 0 0.061598875323491092 -0.0013646843942996902 0 0.061342869635056897 -0.0014660651015898827 0 0.055406448906209438 -0.0081796929354309225 0 0.058513048139908611 -0.0079111522494891128 0 0.059758943360345151 -0.0069882723816754077 0 0.058513048139908611 -0.0079111522494891128 0 0.061365185725622037 -0.0014328119253160692 0 0.061270833383881181 -0.0006287090950482738 0 0.060245170894627241 -0.00049471781997775289 0 0.061773748267412679 -0.0013517575263253768 0 0.061598875323491092 -0.0013646843942996902 0 0.061270833383881181 -0.0006287090950482738 0 0.061598875323491092 -0.0013646843942996902 0 0.061365185725622037 -0.0014328119253160692 0 0.061270833383881181 -0.0006287090950482738 0 0.058513048139908611 -0.0079111522494891128 0 0.05836937653620685 -0.0054064690134146111 0 0.061365185725622037 -0.0014328119253160692 0 0.060245170894627241 -0.00049471781997775289 0 0.059294278672413978 -0.0019802898331639117 0 0.058459684161292658 -0.0095548330963746309 0 0.056685876595054495 -0.010136022665210128 0 0.057212502193338864 -0.010115807543920967 0 0.060245170894627241 -0.00049471781997775289 0 0.060042179232670488 0.00092867548489978277 0 0.058730997053927189 -0.00029419791609726467 0 0.060245170894627241 -0.00049471781997775289 0 0.060892666287736527 0.00051085898941769957 0 0.060042179232670488 0.00092867548489978277 0 0.062028847893780083 0.00023001960755767261 0 0.061773748267412679 -0.0013517575263253768 0 0.061270833383881181 -0.0006287090950482738 0 0.05809573566632676 -0.00085812807149265912 0 0.055406448906209438 -0.0081796929354309225 0 0.062028847893780083 0.00023001960755767261 0 0.061270833383881181 -0.0006287090950482738 0 0.060892666287736527 0.00051085898941769957 0 0.061270833383881181 -0.0006287090950482738 0 0.060245170894627241 -0.00049471781997775289 0 0.060892666287736527 0.00051085898941769957 0 0.062028847893780083 0.00023001960755767261 0 0.060892666287736527 0.00051085898941769957 0 0.061473644304760239 0.0015188785635947724 0 0.062223192710115477 0.0020376437550223597 0 0.061473644304760239 0.0015188785635947724 0 0.061760080164303267 0.0023290550110922187 0 0.061473644304760239 0.0015188785635947724 0 0.061271645113734396 0.0023700281603670392 0 0.061760080164303267 0.0023290550110922187 0 0.061473644304760239 0.0015188785635947724 0 0.061271645113734396 0.0023700281603670392 0 0.060757030697860065 0.0017398429426753871 0 0.061271645113734396 0.0023700281603670392 0 0.060757030697860065 0.0017398429426753871 0 0.060850381898643016 0.0029183700066871369 0 0.060892666287736527 0.00051085898941769957 0 0.061473644304760239 0.0015188785635947724 0 0.060757030697860065 0.0017398429426753871 0 0.060892666287736527 0.00051085898941769957 0 0.060757030697860065 0.0017398429426753871 0 0.060042179232670488 0.00092867548489978277 0 0.060042179232670488 0.00092867548489978277 0 0.059901972038222624 0.0021838088817513271 0 0.058990241885568666 0.0012395292861246854 0 0.060757030697860065 0.0017398429426753871 0 0.060042179232670488 0.00092867548489978277 0 0.059901972038222624 0.0021838088817513271 0 0.060757030697860065 0.0017398429426753871 0 0.059901972038222624 0.0021838088817513271 0 0.060850381898643016 0.0029183700066871369 0 0.059901972038222624 0.0021838088817513271 0 0.060364226484974762 0.0033441256610977255 0 0.060850381898643016 0.0029183700066871369 0 0.059901972038222624 0.0021838088817513271 0 0.059631123676197766 0.00328371543769502 0 0.060364226484974762 0.0033441256610977255 0 0.060364226484974762 0.0033441256610977255 0 0.060850381898643016 0.0029183700066871369 0 0.060947676334709898 0.0038483716860488347 0 0.061148776063816378 0.0035332016605839353 0 0.060850381898643016 0.0029183700066871369 0 0.060947676334709898 0.0038483716860488347 0 0.061148776063816378 0.0035332016605839353 0 0.061195270895654609 0.0040962156755925527 0 0.060947676334709898 0.0038483716860488347 0 0.061353672806833764 0.0036663908337868584 0 0.061195270895654609 0.0040962156755925527 0 0.061206582825552816 0.0042840672713613031 0 0.061353672806833764 0.0036663908337868584 0 0.061148776063816378 0.0035332016605839353 0 0.061195270895654609 0.0040962156755925527 0 0.061353672806833764 0.0036663908337868584 0 0.061148776063816378 0.0035332016605839353 0 0.061242410777239263 0.0029948342409689276 0 0.061148776063816378 0.0035332016605839353 0 0.061242410777239263 0.0029948342409689276 0 0.060850381898643016 0.0029183700066871369 0 0.061646145708210393 0.0030067347671276861 0 0.061353672806833764 0.0036663908337868584 0 0.061242410777239263 0.0029948342409689276 0 0.061646145708210393 0.0030067347671276861 0 0.061271645113734396 0.0023700281603670392 0 0.061242410777239263 0.0029948342409689276 0 0.061646145708210393 0.0030067347671276861 0 0.061271645113734396 0.0023700281603670392 0 0.061760080164303267 0.0023290550110922187 0 0.061271645113734396 0.0023700281603670392 0 0.061242410777239263 0.0029948342409689276 0 0.060850381898643016 0.0029183700066871369 0 0.058475843144143141 0.0026208712027901374 0 0.056182615469980692 0.0021653973119714993 0 0.05753915623417423 0.0039324948764454812 0 0.058475843144143141 0.0026208712027901374 0 0.057828854357538352 0.00098619589319456176 0 0.056182615469980692 0.0021653973119714993 0 0.059901972038222624 0.0021838088817513271 0 0.058475843144143141 0.0026208712027901374 0 0.058990241885568666 0.0012395292861246854 0 0.059901972038222624 0.0021838088817513271 0 0.059631123676197766 0.00328371543769502 0 0.058475843144143141 0.0026208712027901374 0 0.059631123676197766 0.00328371543769502 0 0.058475843144143141 0.0026208712027901374 0 0.059003161959244488 0.0039298602401723164 0 0.058990241885568666 0.0012395292861246854 0 0.057828854357538352 0.00098619589319456176 0 0.058730997053927189 -0.00029419791609726467 0 0.058475843144143141 0.0026208712027901374 0 0.058990241885568666 0.0012395292861246854 0 0.057828854357538352 0.00098619589319456176 0 0.057828854357538352 0.00098619589319456176 0 0.058730997053927189 -0.00029419791609726467 0 0.057181587187280683 -0.00078750817019506499 0 0.060042179232670488 0.00092867548489978277 0 0.058990241885568666 0.0012395292861246854 0 0.058730997053927189 -0.00029419791609726467 0 0.058730997053927189 -0.00029419791609726467 0 0.058178193197214331 -0.0015842612635193242 0 0.059294278672413978 -0.0019802898331639117 0 0.060245170894627241 -0.00049471781997775289 0 0.058730997053927189 -0.00029419791609726467 0 0.059294278672413978 -0.0019802898331639117 0 0.058730997053927189 -0.00029419791609726467 0 0.058178193197214331 -0.0015842612635193242 0 0.057181587187280683 -0.00078750817019506499 0 0.058178193197214331 -0.0015842612635193242 0 0.057166332122392513 -0.001900210475466866 0 0.057181587187280683 -0.00078750817019506499 0 0.058178193197214331 -0.0015842612635193242 0 0.057441823446396069 -0.0026033306767443976 0 0.057166332122392513 -0.001900210475466866 0 0.056269090819132589 -0.0089557842043656733 0 0.053957701651931617 -0.018934175797724877 0 0.058178193197214331 -0.0015842612635193242 0 0.057441823446396069 -0.0026033306767443976 0 0.059294278672413978 -0.0019802898331639117 0 0.055291994776428148 -0.018679561720506586 0 0.055410257184105617 -0.018656627072209296 0 0.055252936692598259 -0.018780618239666882 0 0.053957701651931617 -0.018934175797724877 0 0.054144185730504141 -0.02381598766495811 0 0.052875890933451901 -0.029120478633490928 0 0.052528474561829755 -0.029468594943878278 0 0.053005500005977008 -0.029346716826358744 0 0.051933344611524844 -0.035960670892262611 0 0.051372142633265616 -0.035399703791611781 0 0.052875890933451901 -0.029120478633490928 0 0.052279237957872121 -0.029062621372630652 0 0.052528474561829755 -0.029468594943878278 0 0.053957701651931617 -0.018934175797724877 0 0.055379960359871958 -0.013401457767259664 0 0.054924571496067706 -0.010666566483761268 0 0.056685876595054495 -0.010136022665210128 0 0.055969885448133076 -0.010650047599501633 0 0.056685876595054495 -0.010136022665210128 0 0.055969885448133076 -0.010650047599501633 0 0.057212502193338864 -0.010115807543920967 0 0.052279237957872121 -0.029062621372630652 0 0.052528474561829755 -0.029468594943878278 0 0.052085465331309817 -0.02945149786491779 0 0.053957701651931617 -0.018934175797724877 0 0.053369880746513457 -0.023519231087398507 0 0.056269090819132589 -0.0089557842043656733 0 0.05836937653620685 -0.0054064690134146111 0 0.0526428376034642 -0.017149293579048656 0 0.053953236105655639 -0.016601834542123411 0 0.05404404903764462 -0.017136247836512002 0 0.053953236105655639 -0.016601834542123411 0 0.05404404903764462 -0.017136247836512002 0 0.054797608522099139 -0.016705144746792664 0 0.053369880746513457 -0.023519231087398507 0 0.050676846002366542 -0.023012933157731823 0 0.055406448906209438 -0.0081796929354309225 0 0.050676846002366542 -0.023012933157731823 0 0.05404404903764462 -0.017136247836512002 0 0.054797608522099139 -0.016705144746792664 0 0.055553187016210794 -0.017165602001345589 0 0.055373242505992341 -0.01599538747868998 0 0.054797608522099139 -0.016705144746792664 0 0.055553187016210794 -0.017165602001345589 0 0.052085465331309817 -0.02945149786491779 0 0.051682613676964438 -0.029431317637111768 0 0.051727830558651898 -0.029029331618708163 0 0.046140955633207678 -0.029759260809859068 0 0.046792765659835443 -0.030405255099154975 0 0.04694419182906983 -0.029310215294699959 0 0.050676846002366542 -0.023012933157731823 0 0.047950499009250566 -0.036497005123666576 0 0.051372142633265616 -0.035399703791611781 0 0.047950499009250566 -0.036497005123666576 0 0.052279237957872121 -0.029062621372630652 0 0.052085465331309817 -0.02945149786491779 0 0.051727830558651898 -0.029029331618708163 0 0.047920978519786016 -0.041865728676776973 0 0.048056624935850827 -0.040515637099266595 0 0.049285133062960514 -0.040841801477510084 0 0.049587846303878122 -0.042045596715364904 0 0.047920978519786016 -0.041865728676776973 0 0.049285133062960514 -0.040841801477510084 0 0.047950499009250566 -0.036497005123666576 0 0.04721903862912849 -0.042445812643991075 0 0.044954011916552697 -0.041718904562533701 0 0.046451677198343623 -0.043587419257116088 0 0.046784337027635722 -0.041658322593224044 0 0.045918510209944891 -0.04040581289703838 0 0.044954011916552697 -0.041718904562533701 0 0.046784337027635722 -0.041658322593224044 0 0.04888096588891621 -0.039997155987028576 0 0.048056624935850827 -0.040515637099266595 0 0.049285133062960514 -0.040841801477510084 0 0.050318634275396026 -0.039956657065798609 0 0.049285133062960514 -0.040841801477510084 0 0.050837182470498073 -0.040885958514357452 0 0.050318634275396026 -0.039956657065798609 0 0.04888096588891621 -0.039997155987028576 0 0.049285133062960514 -0.040841801477510084 0 0.051747784544653466 -0.039899368382542807 0 0.050837182470498073 -0.040885958514357452 0 0.052544345098198733 -0.040745123090110379 0 0.050318634275396026 -0.039956657065798609 0 0.051747784544653466 -0.039899368382542807 0 0.050837182470498073 -0.040885958514357452 0 0.051583640930786684 -0.042037694758122496 0 0.049587846303878122 -0.042045596715364904 0 0.050837182470498073 -0.040885958514357452 0 0.051583640930786684 -0.042037694758122496 0 0.050837182470498073 -0.040885958514357452 0 0.052544345098198733 -0.040745123090110379 0 0.049587846303878122 -0.042045596715364904 0 0.049285133062960514 -0.040841801477510084 0 0.050837182470498073 -0.040885958514357452 0 0.052544345098198733 -0.040745123090110379 0 0.054099958816030858 -0.041819904640685711 0 0.054233737543489619 -0.040837727087751949 0 0.052544345098198733 -0.040745123090110379 0 0.052863023353817568 -0.039960253098555998 0 0.054233737543489619 -0.040837727087751949 0 0.053359597500207495 -0.036771222479011836 0 0.054198711444393012 -0.040735270006294989 0 0.053687641840550741 -0.033326728413824065 0 0.056976207666776947 -0.03755333957441212 0 0.054233737543489619 -0.040837727087751949 0 0.056976207666776947 -0.03755333957441212 0 0.056561445776565959 -0.040646208814454104 0 0.054233737543489619 -0.040837727087751949 0 0.051747784544653466 -0.039899368382542807 0 0.052544345098198733 -0.040745123090110379 0 0.052863023353817568 -0.039960253098555998 0 0.053687641840550741 -0.033326728413824065 0 0.058696981339445189 -0.03322617537339119 0 0.056976207666776947 -0.03755333957441212 0 0.058696981339445189 -0.03322617537339119 0 0.056976207666776947 -0.03755333957441212 0 0.059479098994253042 -0.037278807986763259 0 0.058696981339445189 -0.03322617537339119 0 0.062110321574753005 -0.036173687552851434 0 0.059479098994253042 -0.037278807986763259 0 0.063785744997429977 -0.031440943101501119 0 0.058696981339445189 -0.03322617537339119 0 0.062110321574753005 -0.036173687552851434 0 0.062110321574753005 -0.036173687552851434 0 0.061317944130161173 -0.039573709500161904 0 0.059479098994253042 -0.037278807986763259 0 0.062110321574753005 -0.036173687552851434 0 0.061317944130161173 -0.039573709500161904 0 0.063713773025171547 -0.038186711371198279 0 0.061317944130161173 -0.039573709500161904 0 0.063753819458662889 -0.041336307927361711 0 0.063713773025171547 -0.038186711371198279 0 0.056976207666776947 -0.03755333957441212 0 0.059479098994253042 -0.037278807986763259 0 0.058252737355331242 -0.039870632311679546 0 0.061317944130161173 -0.039573709500161904 0 0.059479098994253042 -0.037278807986763259 0 0.058252737355331242 -0.039870632311679546 0 0.056976207666776947 -0.03755333957441212 0 0.058252737355331242 -0.039870632311679546 0 0.056561445776565959 -0.040646208814454104 0 0.055920802014767845 -0.018408330092856411 0 0.054873240266485046 -0.032201717194384728 0 0.055920802014767845 -0.018408330092856411 0 0.055233042209557062 -0.010485712517195829 0 0.060030442672629532 -0.042539193219151394 0 0.053999348059329454 -0.042111219303424013 0 0.054645937334946569 -0.041855658191195355 0 0.056561445776565959 -0.040646208814454104 0 0.060030442672629532 -0.042539193219151394 0 0.054645937334946569 -0.041855658191195355 0 0.061317944130161173 -0.039573709500161904 0 0.058252737355331242 -0.039870632311679546 0 0.060030442672629532 -0.042539193219151394 0 0.058252737355331242 -0.039870632311679546 0 0.056561445776565959 -0.040646208814454104 0 0.060030442672629532 -0.042539193219151394 0 0.061317944130161173 -0.039573709500161904 0 0.060030442672629532 -0.042539193219151394 0 0.063753819458662889 -0.041336307927361711 0 0.053808762469986622 -0.0041942796916066517 0 0.053303054205483577 -0.0041289077841941465 0 0.052380346229283455 -0.0046204849234280409 0 0.055920802014767845 -0.018408330092856411 0 0.057071835166538548 -0.01409646925761451 0 0.055920802014767845 -0.018408330092856411 0 0.053541034106211291 -0.01451138258311967 0 0.054660120308188627 -0.00037908199222778564 0 0.057071835166538548 -0.01409646925761451 0 0.053303054205483577 -0.0041289077841941465 0 0.054195530665055495 -0.0025100321255911084 0 0.052380346229283455 -0.0046204849234280409 0 0.055239016089413069 -0.0023091035804258353 0 0.055377196399693102 -0.0021044082145463966 0 0.055273901503803353 -0.0025235123344124703 0 0.055206657435414565 -0.0021747442486021173 0 0.055377196399693102 -0.0021044082145463966 0 0.0551491721174594 -0.0019418613601533666 0 0.053782038809831394 -0.0041313110454306839 0 0.053303054205483577 -0.0041289077841941465 0 0.054195530665055495 -0.0025100321255911084 0 0.055239016089413069 -0.0023091035804258353 0 0.055206657435414565 -0.0021747442486021173 0 0.055377196399693102 -0.0021044082145463966 0 0.053782038809831394 -0.0041313110454306839 0 0.054195530665055495 -0.0025100321255911084 0 0.05576174375116414 -0.0033226401975186438 0 0.054195530665055495 -0.0025100321255911084 0 0.05576174375116414 -0.0033226401975186438 0 0.056232775229457403 -0.001993307588795071 0 0.054895510244328136 -0.018888696644095985 0 0.055093329030720513 -0.018797319658820873 0 0.055086360510138217 -0.018910310924203796 0 0.055093329030720513 -0.018797319658820873 0 0.055086360510138217 -0.018910310924203796 0 0.055252936692598259 -0.018780618239666882 0 0.056561445776565959 -0.040646208814454104 0 0.054233737543489619 -0.040837727087751949 0 0.054645937334946569 -0.041855658191195355 0 0.054099958816030858 -0.041819904640685711 0 0.054233737543489619 -0.040837727087751949 0 0.054645937334946569 -0.041855658191195355 0 0.054873240266485046 -0.032201717194384728 0 0.054229933475511194 -0.033132743308588751 0 0.051933344611524844 -0.035960670892262611 0 0.054873240266485046 -0.032201717194384728 0 0.052875890933451901 -0.029120478633490928 0 0.053505869850156054 -0.029223180771249975 0 0.053005500005977008 -0.029346716826358744 0 0.051583640930786684 -0.042037694758122496 0 0.052544345098198733 -0.040745123090110379 0 0.054099958816030858 -0.041819904640685711 0 0.054873240266485046 -0.032201717194384728 0 0.054144185730504141 -0.02381598766495811 0 0.055291994776428148 -0.018679561720506586 0 0.055093329030720513 -0.018797319658820873 0 0.055252936692598259 -0.018780618239666882 0 0.056269090819132589 -0.0089557842043656733 0 0.055233042209557062 -0.010485712517195829 0 0.057488416619442026 -0.002624069969007561 0 0.05576174375116414 -0.0033226401975186438 0 0.0568897025081328 -0.0026779004663375575 0 0.05576174375116414 -0.0033226401975186438 0 0.0568897025081328 -0.0026779004663375575 0 0.056232775229457403 -0.001993307588795071 0 0.0568897025081328 -0.0026779004663375575 0 0.057166332122392513 -0.001900210475466866 0 0.056232775229457403 -0.001993307588795071 0 0.056269090819132589 -0.0089557842043656733 0 0.057029576282462052 -0.0058220278057759117 0 0.057441823446396069 -0.0026033306767443976 0 0.0568897025081328 -0.0026779004663375575 0 0.057166332122392513 -0.001900210475466866 0 0.056232775229457403 -0.001993307588795071 0 0.055891707765404301 -0.00084394696967617176 0 0.057181587187280683 -0.00078750817019506499 0 0.057166332122392513 -0.001900210475466866 0 0.056232775229457403 -0.001993307588795071 0 0.057181587187280683 -0.00078750817019506499 0 0.054195530665055495 -0.0025100321255911084 0 0.056232775229457403 -0.001993307588795071 0 0.055891707765404301 -0.00084394696967617176 0 0.055891707765404301 -0.00084394696967617176 0 0.056401930325583362 0.00036445419657058371 0 0.055252376613817239 0.0003863326049425936 0 0.055891707765404301 -0.00084394696967617176 0 0.057181587187280683 -0.00078750817019506499 0 0.056401930325583362 0.00036445419657058371 0 0.057828854357538352 0.00098619589319456176 0 0.057181587187280683 -0.00078750817019506499 0 0.056401930325583362 0.00036445419657058371 0 0.057828854357538352 0.00098619589319456176 0 0.056401930325583362 0.00036445419657058371 0 0.056182615469980692 0.0021653973119714993 0 0.056401930325583362 0.00036445419657058371 0 0.056182615469980692 0.0021653973119714993 0 0.055252376613817239 0.0003863326049425936 0 0.060103307586456177 0.0024239193255707267 0 0.058885415123969241 -8.7830656052436759e-05 0 0.058700942629059047 0.0028442801031068792 0 0.058137828622748133 0.0022666386232024975 0 0.057031372790565721 0.00012781951494614794 0 0.057145471663633297 0.00046239676834945037 0 0.055928911640272215 0.00047703643717282742 0 0.05646913115412993 0.0017831130272074089 0 0.055928911640272215 0.00047703643717282742 0 0.05646913115412993 0.0017831130272074089 0 0.055301877442224 0.0015859146617461439 0 0.05646913115412993 0.0017831130272074089 0 0.055301877442224 0.0015859146617461439 0 0.056189600892517871 0.0031346187516636558 0 0.057145471663633297 0.00046239676834945037 0 0.05646913115412993 0.0017831130272074089 0 0.057593553853080202 0.0018801796150364047 0 0.05646913115412993 0.0017831130272074089 0 0.057593553853080202 0.0018801796150364047 0 0.056933362431135934 0.0025769038978059829 0 0.057593553853080202 0.0018801796150364047 0 0.058885415123969241 -8.7830656052436759e-05 0 0.058700942629059047 0.0028442801031068792 0 0.057145471663633297 0.00046239676834945037 0 0.057593553853080202 0.0018801796150364047 0 0.058885415123969241 -8.7830656052436759e-05 0 0.057145471663633297 0.00046239676834945037 0 0.058885415123969241 -8.7830656052436759e-05 0 0.056619392409715738 -0.001153415548371686 0 0.057031372790565721 0.00012781951494614794 0 0.055769167611500498 -0.0019632347259323918 0 0.058885415123969241 -8.7830656052436759e-05 0 0.056619392409715738 -0.001153415548371686 0 0.056552368071505189 -0.0030618120831131983 0 0.057145471663633297 0.00046239676834945037 0 0.055928911640272215 0.00047703643717282742 0 0.056619392409715738 -0.001153415548371686 0 0.055928911640272215 0.00047703643717282742 0 0.056619392409715738 -0.001153415548371686 0 0.055587195885103594 -0.00099129642642815301 0 0.056619392409715738 -0.001153415548371686 0 0.056552368071505189 -0.0030618120831131983 0 0.055724539482687678 -0.0027954054343442242 0 0.056619392409715738 -0.001153415548371686 0 0.055724539482687678 -0.0027954054343442242 0 0.055587195885103594 -0.00099129642642815301 0 0.054863829342287916 -0.0011024181352580374 0 0.055247430952837774 -0.0014981478244801187 0 0.055088487031067536 -0.0016450164788411868 0 0.054863829342287916 -0.0011024181352580374 0 0.055146160441471394 -0.0019449793220384435 0 0.055088487031067536 -0.0016450164788411868 0 0.055891707765404301 -0.00084394696967617176 0 0.055252376613817239 0.0003863326049425936 0 0.055247430952837774 -0.0014981478244801187 0 0.055252376613817239 0.0003863326049425936 0 0.054863829342287916 -0.0011024181352580374 0 0.055247430952837774 -0.0014981478244801187 0 0.054660120308188627 -0.00037908199222778564 0 0.055735856026382972 -0.0016350130230960275 0 0.055377196399693102 -0.0021044082145463966 0 0.055891707765404301 -0.00084394696967617176 0 0.055247430952837774 -0.0014981478244801187 0 0.055377196399693102 -0.0021044082145463966 0 0.055247430952837774 -0.0014981478244801187 0 0.0551491721174594 -0.0019418613601533666 0 0.055146160441471394 -0.0019449793220384435 0 0.055088487031067536 -0.0016450164788411868 0 0.0551491721174594 -0.0019418613601533666 0 0.055247430952837774 -0.0014981478244801187 0 0.055088487031067536 -0.0016450164788411868 0 0.0551491721174594 -0.0019418613601533666 0 0.055146160441471394 -0.0019449793220384435 0 0.0551491721174594 -0.0019418613601533666 0 0.05522156086929704 -0.0022007250738238604 0 0.055206657435414565 -0.0021747442486021173 0 0.0551491721174594 -0.0019418613601533666 0 0.05522156086929704 -0.0022007250738238604 0 0.055521836702587486 -0.0025799974661392154 0 0.05516268035044964 -0.0022473545109095222 0 0.055948833856640116 -0.0029323274165403848 0 0.055997356076662751 -0.003730013934611615 0 0.055892516922426777 -0.0031879051177245341 0 0.05522156086929704 -0.0022007250738238604 0 0.055521836702587486 -0.0025799974661392154 0 0.055279138883186994 -0.0022824596944928705 0 0.055146160441471394 -0.0019449793220384435 0 0.05522156086929704 -0.0022007250738238604 0 0.055521836702587486 -0.0025799974661392154 0 0.057109020004655925 -0.004926031070128783 0 0.056749337724539113 -0.0044636618891773948 0 0.056518986168735325 -0.003630792442339444 0 0.057109020004655925 -0.004926031070128783 0 0.056518986168735325 -0.003630792442339444 0 0.055948833856640116 -0.0029323274165403848 0 0.057109020004655925 -0.004926031070128783 0 0.056749337724539113 -0.0044636618891773948 0 0.056666402319311443 -0.005231001252659814 0 0.055521836702587486 -0.0025799974661392154 0 0.05516268035044964 -0.0022473545109095222 0 0.055279138883186994 -0.0022824596944928705 0 0.056749337724539113 -0.0044636618891773948 0 0.056581982512658474 -0.0041050673755787951 0 0.056666402319311443 -0.005231001252659814 0 0.056518986168735325 -0.003630792442339444 0 0.056536571416742766 -0.0036896282351659639 0 0.056581982512658474 -0.0041050673755787951 0 0.056749337724539113 -0.0044636618891773948 0 0.056518986168735325 -0.003630792442339444 0 0.056581982512658474 -0.0041050673755787951 0 0.056518986168735325 -0.003630792442339444 0 0.056151533047118535 -0.0032023094947396073 0 0.056345006117415226 -0.0033945257178208408 0 0.056518986168735325 -0.003630792442339444 0 0.056536571416742766 -0.0036896282351659639 0 0.056345006117415226 -0.0033945257178208408 0 0.056151533047118535 -0.0032023094947396073 0 0.055724539482687678 -0.0027954054343442242 0 0.056345006117415226 -0.0033945257178208408 0 0.056552368071505189 -0.0030618120831131983 0 0.055521836702587486 -0.0025799974661392154 0 0.055948833856640116 -0.0029323274165403848 0 0.055769167611500498 -0.0019632347259323918 0 0.055619574461907711 -0.0024546687442668375 0 0.054863829342287916 -0.0011024181352580374 0 0.055146160441471394 -0.0019449793220384435 0 0.055521836702587486 -0.0025799974661392154 0 0.056518986168735325 -0.003630792442339444 0 0.055948833856640116 -0.0029323274165403848 0 0.056151533047118535 -0.0032023094947396073 0 0.056552368071505189 -0.0030618120831131983 0 0.055948833856640116 -0.0029323274165403848 0 0.055724539482687678 -0.0027954054343442242 0 0.055948833856640116 -0.0029323274165403848 0 0.056151533047118535 -0.0032023094947396073 0 0.055724539482687678 -0.0027954054343442242 0 0.055724539482687678 -0.0027954054343442242 0 0.056345006117415226 -0.0033945257178208408 0 0.056487017270692795 -0.0039868121928634684 0 0.055724539482687678 -0.0027954054343442242 0 0.055587195885103594 -0.00099129642642815301 0 0.054242531142845579 -0.0004617664131335236 0 0.0551611117691704 -0.0029356258983496354 0 0.055708727508094524 -0.00096107836861815789 0 0.055724539482687678 -0.0027954054343442242 0 0.054242531142845579 -0.0004617664131335236 0 0.051821261418814435 0.00036498992035365372 0 0.055928911640272215 0.00047703643717282742 0 0.055587195885103594 -0.00099129642642815301 0 0.054648079935195694 0.00055697830295585644 0 0.055587195885103594 -0.00099129642642815301 0 0.054242531142845579 -0.0004617664131335236 0 0.054648079935195694 0.00055697830295585644 0 0.056345006117415226 -0.0033945257178208408 0 0.056500707941940703 -0.0036452034285636647 0 0.056487017270692795 -0.0039868121928634684 0 0.056536571416742766 -0.0036896282351659639 0 0.056500707941940703 -0.0036452034285636647 0 0.05652094519649855 -0.0036075066954687129 0 0.056536571416742766 -0.0036896282351659639 0 0.056345006117415226 -0.0033945257178208408 0 0.056500707941940703 -0.0036452034285636647 0 0.056500707941940703 -0.0036452034285636647 0 0.056487017270692795 -0.0039868121928634684 0 0.05652094519649855 -0.0036075066954687129 0 0.055708727508094524 -0.00096107836861815789 0 0.056602288756423022 -0.0035117856709689491 0 0.057600096433103952 -0.0021784229376938962 0 0.057746041225885038 -0.0023029814093887256 0 0.056889134119505705 -0.0031807832058089814 0 0.056682762534759137 -0.00032355136928702267 0 0.055174043916730316 0.0016343356592720306 0 0.056087162944045192 0.0029156019308026948 0 0.056497714853318087 0.0031652095678159067 0 0.056084692558321901 0.0035346785273535166 0 0.055708727508094524 -0.00096107836861815789 0 0.055174043916730316 0.0016343356592720306 0 0.054242531142845579 -0.0004617664131335236 0 0.051821261418814435 0.00036498992035365372 0 0.053530300184963318 0.00053446681482610962 0 0.051821261418814435 0.00036498992035365372 0 0.053323258806706721 0.0016327577926931725 0 0.053530300184963318 0.00053446681482610962 0 0.055406402320732649 0.00038224190243131741 0 0.055494961596937425 0.00030668410460107866 0 0.055840356219219504 0.00066524247420157267 0 0.056682762534759137 -0.00032355136928702267 0 0.055708727508094524 -0.00096107836861815789 0 0.053323258806706721 0.0016327577926931725 0 0.055301877442224 0.0015859146617461439 0 0.056189600892517871 0.0031346187516636558 0 0.055928911640272215 0.00047703643717282742 0 0.055301877442224 0.0015859146617461439 0 0.054648079935195694 0.00055697830295585644 0 0.053323258806706721 0.0016327577926931725 0 0.054648079935195694 0.00055697830295585644 0 0.053530300184963318 0.00053446681482610962 0 0.054242531142845579 -0.0004617664131335236 0 0.054648079935195694 0.00055697830295585644 0 0.053530300184963318 0.00053446681482610962 0 0.053323258806706721 0.0016327577926931725 0 0.055301877442224 0.0015859146617461439 0 0.054648079935195694 0.00055697830295585644 0 0.054999980017445826 -0.00083324985311681785 0 0.05698159909563176 -0.0025223381109106702 0 0.056979990134929694 0.00039132291082033896 0 0.058937287104489249 -0.0012952793580080831 0 0.05698159909563176 -0.0025223381109106702 0 0.056979990134929694 0.00039132291082033896 0 0.056682762534759137 -0.00032355136928702267 0 0.056219004516395943 0.0019593390118662134 0 0.056087162944045192 0.0029156019308026948 0 0.055440856257666343 0.0033437303321696126 0 0.056084692558321901 0.0035346785273535166 0 0.057600096433103952 -0.0021784229376938962 0 0.056314196139547502 -0.0029981295220175893 0 0.056889134119505705 -0.0031807832058089814 0 0.056682762534759137 -0.00032355136928702267 0 0.056815167225309555 -0.0028111196543655825 0 0.056314196139547502 -0.0029981295220175893 0 0.056889134119505705 -0.0031807832058089814 0 0.056019216335372483 -0.0040682263873339742 0 0.056815167225309555 -0.0028111196543655825 0 0.055000233812270503 -0.0037734003315989017 0 0.054999980017445826 -0.00083324985311681785 0 0.05698159909563176 -0.0025223381109106702 0 0.054999987168722564 -0.0037735355382673497 0 0.056314196139547502 -0.0029981295220175893 0 0.054999580749001194 -0.0037742923192598723 0 0.056019216335372483 -0.0040682263873339742 0 0.054999580749001194 -0.0037742923192598723 0 0.056019216335372483 -0.0040682263873339742 0 0.054999672969413743 -0.0063563976907443512 0 0.056019216335372483 -0.0040682263873339742 0 0.056374561069407747 -0.0045424678136695134 0 0.05616463922791403 -0.0055294211440202719 0 0.056536571416742766 -0.0036896282351659639 0 0.05652094519649855 -0.0036075066954687129 0 0.056436802606606183 -0.0039558870993445612 0 0.056536571416742766 -0.0036896282351659639 0 0.056436802606606183 -0.0039558870993445612 0 0.056581982512658474 -0.0041050673755787951 0 0.056602288756423022 -0.0035117856709689491 0 0.056129925915725472 -0.0039592341153140463 0 0.05652094519649855 -0.0036075066954687129 0 0.056019216335372483 -0.0040682263873339742 0 0.056436802606606183 -0.0039558870993445612 0 0.056019216335372483 -0.0040682263873339742 0 0.056436802606606183 -0.0039558870993445612 0 0.056374561069407747 -0.0045424678136695134 0 0.056436802606606183 -0.0039558870993445612 0 0.056374561069407747 -0.0045424678136695134 0 0.056581982512658474 -0.0041050673755787951 0 0.05616463922791403 -0.0055294211440202719 0 0.056666402319311443 -0.005231001252659814 0 0.056749711986627177 -0.0072523424203213473 0 0.056374561069407747 -0.0045424678136695134 0 0.056581982512658474 -0.0041050673755787951 0 0.056666402319311443 -0.005231001252659814 0 0.056374561069407747 -0.0045424678136695134 0 0.05616463922791403 -0.0055294211440202719 0 0.056666402319311443 -0.005231001252659814 0 0.056019216335372483 -0.0040682263873339742 0 0.05616463922791403 -0.0055294211440202719 0 0.054999672969413743 -0.0063563976907443512 0 0.05616463922791403 -0.0055294211440202719 0 0.054999672969413743 -0.0063563976907443512 0 0.055730271343809576 -0.0074718696988032903 0 0.054999672969413743 -0.0063563976907443512 0 0.055730271343809576 -0.0074718696988032903 0 0.05499944834005005 -0.0089391623421224784 0 0.055730271343809576 -0.0074718696988032903 0 0.055680796243964992 -0.0092466692342056053 0 0.056749711986627177 -0.0072523424203213473 0 0.055730271343809576 -0.0074718696988032903 0 0.05499944834005005 -0.0089391623421224784 0 0.055680796243964992 -0.0092466692342056053 0 0.055001232204783472 -0.0089408077511006802 0 0.055360463926039279 -0.0072508639974001345 0 0.055360463926039279 -0.0072508639974001345 0 0.055398114126406287 -0.010489901908893316 0 0.054999996835688354 -0.0089408991368351391 0 0.055955856634946878 -0.0096995326357373103 0 0.054999996617944469 -0.010590837725425009 0 0.055360463926039279 -0.0072508639974001345 0 0.054999404852443597 -0.010590054990090973 0 0.054691728642441345 -0.0026939883280863021 0 0.054975853782058083 -0.002625004676075981 0 0.054862766380246855 -0.0028208497275166058 0 0.054975853782058083 -0.002625004676075981 0 0.055129810120499181 -0.0026602517242193414 0 0.054862766380246855 -0.0028208497275166058 0 0.055360463926039279 -0.0072508639974001345 0 0.055823602708392837 -0.0047074073873064025 0 0.054691728642441345 -0.0026939883280863021 0 0.054975853782058083 -0.002625004676075981 0 0.054921187776459393 -0.0024380712747285871 0 0.054975853782058083 -0.002625004676075981 0 0.054921187776459393 -0.0024380712747285871 0 0.055129398248868262 -0.0024282095683236032 0 0.057109020004655925 -0.004926031070128783 0 0.056666402319311443 -0.005231001252659814 0 0.056749711986627177 -0.0072523424203213473 0 0.05616463922791403 -0.0055294211440202719 0 0.055730271343809576 -0.0074718696988032903 0 0.056749711986627177 -0.0072523424203213473 0 0.05516268035044964 -0.0022473545109095222 0 0.054921187776459393 -0.0024380712747285871 0 0.055129398248868262 -0.0024282095683236032 0 0.055997356076662751 -0.003730013934611615 0 0.055823602708392837 -0.0047074073873064025 0 0.05516268035044964 -0.0022473545109095222 0 0.055129398248868262 -0.0024282095683236032 0 0.055279138883186994 -0.0022824596944928705 0 0.055206657435414565 -0.0021747442486021173 0 0.05522156086929704 -0.0022007250738238604 0 0.055229779479506094 -0.0023085217977998999 0 0.055239016089413069 -0.0023091035804258353 0 0.055206657435414565 -0.0021747442486021173 0 0.055229779479506094 -0.0023085217977998999 0 0.05522156086929704 -0.0022007250738238604 0 0.055279138883186994 -0.0022824596944928705 0 0.055229779479506094 -0.0023085217977998999 0 0.055129398248868262 -0.0024282095683236032 0 0.055279138883186994 -0.0022824596944928705 0 0.055229779479506094 -0.0023085217977998999 0 0.055129398248868262 -0.0024282095683236032 0 0.055229779479506094 -0.0023085217977998999 0 0.05520509672529543 -0.0024533557943241316 0 0.055239016089413069 -0.0023091035804258353 0 0.055229779479506094 -0.0023085217977998999 0 0.05520509672529543 -0.0024533557943241316 0 0.059311264095285816 -0.0157053969896403 0 0.057381103977805652 -0.016182925060548591 0 0.058209802788317 -0.016875007430629228 0 0.057071835166538548 -0.01409646925761451 0 0.056408120662786346 -0.009002059795532355 0 0.05520509672529543 -0.0024533557943241316 0 0.055273901503803353 -0.0025235123344124703 0 0.055129810120499181 -0.0026602517242193414 0 0.055239016089413069 -0.0023091035804258353 0 0.05520509672529543 -0.0024533557943241316 0 0.055273901503803353 -0.0025235123344124703 0 0.057071835166538548 -0.01409646925761451 0 0.061319212204552408 -0.028593167723431786 0 0.055129398248868262 -0.0024282095683236032 0 0.05520509672529543 -0.0024533557943241316 0 0.055129810120499181 -0.0026602517242193414 0 0.054975853782058083 -0.002625004676075981 0 0.055129398248868262 -0.0024282095683236032 0 0.055129810120499181 -0.0026602517242193414 0 0.057381103977805652 -0.016182925060548591 0 0.058209802788317 -0.016875007430629228 0 0.057088153258051527 -0.018051681372560233 0 0.057381103977805652 -0.016182925060548591 0 0.057088153258051527 -0.018051681372560233 0 0.055393991408260089 -0.016643629786492108 0 0.061319212204552408 -0.028593167723431786 0 0.059734796651778888 -0.022231987973211544 0 0.066408690175710106 -0.038414039147259146 0 0.0649049541165828 -0.035464960769342684 0 0.069016308831761033 -0.035577059258150807 0 0.063753819458662889 -0.041336307927361711 0 0.063713773025171547 -0.038186711371198279 0 0.066408690175710106 -0.038414039147259146 0 0.062110321574753005 -0.036173687552851434 0 0.063713773025171547 -0.038186711371198279 0 0.0649049541165828 -0.035464960769342684 0 0.063713773025171547 -0.038186711371198279 0 0.066408690175710106 -0.038414039147259146 0 0.0649049541165828 -0.035464960769342684 0 0.063785744997429977 -0.031440943101501119 0 0.062110321574753005 -0.036173687552851434 0 0.0649049541165828 -0.035464960769342684 0 0.063785744997429977 -0.031440943101501119 0 0.0649049541165828 -0.035464960769342684 0 0.069016308831761033 -0.035577059258150807 0 0.060364763927349283 -0.026898101062992133 0 0.059734796651778888 -0.022231987973211544 0 0.055272791469262117 -0.019796277570307108 0 0.055605004833877411 -0.020219630885182752 0 0.055293583513245273 -0.019517872490479454 0 0.055236192121308328 -0.019134200193088539 0 0.055272791469262117 -0.019796277570307108 0 0.055293583513245273 -0.019517872490479454 0 0.057252001993562292 -0.014392588068666959 0 0.059214491716851836 -0.012425227347382144 0 0.056784154106983731 -0.01280802353919751 0 0.056114750392688401 -0.015811255055113847 0 0.059734796651778888 -0.022231987973211544 0 0.055252542831942066 -0.016422382109775407 0 0.055356087237151887 -0.011207415738987762 0 0.055000504488007564 -0.010590112148558609 0 0.055252542831942066 -0.016422382109775407 0 0.056784154106983731 -0.01280802353919751 0 0.055356087237151887 -0.011207415738987762 0 0.056784154106983731 -0.01280802353919751 0 0.055356087237151887 -0.011207415738987762 0 0.057240124520050603 -0.010787426000196472 0 0.055964108371982416 -0.0096941958234219271 0 0.055356087237151887 -0.011207415738987762 0 0.057221940691564353 -0.010710037399413135 0 0.056112862910019677 -0.011024171789529478 0 0.055398114126406287 -0.010489901908893316 0 0.055964108371982416 -0.0096941958234219271 0 0.055356087237151887 -0.011207415738987762 0 0.055000504488007564 -0.010590112148558609 0 0.059734796651778888 -0.022231987973211544 0 0.055398114126406287 -0.010489901908893316 0 0.056408120662786346 -0.009002059795532355 0 0.055398114126406287 -0.010489901908893316 0 0.059214491716851836 -0.012425227347382144 0 0.056784154106983731 -0.01280802353919751 0 0.057240124520050603 -0.010787426000196472 0 0.017760397437585156 -0.038269693103045843 0 0.016733205082069231 -0.038096905622330909 0 0.017163696637041013 -0.037087307420911292 0 0.017760397437585156 -0.038269693103045843 0 0.017163696637041013 -0.037087307420911292 0 0.01870559455897846 -0.037196926040568255 0 -0.0003592140183675023 -0.030595891091281944 0 0.00017916931992633753 -0.03257376256758087 0 0.00058919713077109433 -0.035968466094281393 0 0.017760397437585156 -0.038269693103045843 0 0.01870559455897846 -0.037196926040568255 0 0.018685925045828913 -0.039347854761798737 0 0.0013617866955193078 -0.030444915243446419 0 0.00017916931992633753 -0.03257376256758087 0 0.002438129662582297 -0.031473464139331601 0 -0.0003592140183675023 -0.030595891091281944 0 0.0013617866955193078 -0.030444915243446419 0 0.00017916931992633753 -0.03257376256758087 0 0.017760397437585156 -0.038269693103045843 0 0.018685925045828913 -0.039347854761798737 0 0.017796921362505543 -0.039198053271674679 0 0.0092315440012079204 -0.033899618101269693 0 0.0093362107283180007 -0.037632726191156422 0 0.00017916931992633753 -0.03257376256758087 0 0.00058919713077109433 -0.035968466094281393 0 0.0028159465687379814 -0.034569490639775567 0 0.018685925045828913 -0.039347854761798737 0 0.017796921362505543 -0.039198053271674679 0 0.017532292441984659 -0.040322448050334248 0 0.017796921362505543 -0.039198053271674679 0 0.017045853440864261 -0.039263605053888435 0 0.017532292441984659 -0.040322448050334248 0 0.017796921362505543 -0.039198053271674679 0 0.017223007268105384 -0.038641280041401417 0 0.017045853440864261 -0.039263605053888435 0 0.017760397437585156 -0.038269693103045843 0 0.017796921362505543 -0.039198053271674679 0 0.017223007268105384 -0.038641280041401417 0 0.017760397437585156 -0.038269693103045843 0 0.016733205082069231 -0.038096905622330909 0 0.017223007268105384 -0.038641280041401417 0 0.016733205082069231 -0.038096905622330909 0 0.017223007268105384 -0.038641280041401417 0 0.016554556332646918 -0.038773658039825389 0 0.017223007268105384 -0.038641280041401417 0 0.017045853440864261 -0.039263605053888435 0 0.016554556332646918 -0.038773658039825389 0 0.016002251408148802 -0.039348952429067718 0 0.015913359920474494 -0.038449472874481791 0 0.014586415165730221 -0.038492949146881374 0 0.017045853440864261 -0.039263605053888435 0 0.016002251408148802 -0.039348952429067718 0 0.016554556332646918 -0.038773658039825389 0 0.016002251408148802 -0.039348952429067718 0 0.015913359920474494 -0.038449472874481791 0 0.016554556332646918 -0.038773658039825389 0 0.016733205082069231 -0.038096905622330909 0 0.015913359920474494 -0.038449472874481791 0 0.016554556332646918 -0.038773658039825389 0 0.015528841037901295 -0.04015322650578184 0 0.014586415165730221 -0.038492949146881374 0 0.014768020964689566 -0.040150215954194018 0 0.015548486661771613 -0.039627641630161248 0 0.014657396328590594 -0.038652387249139407 0 0.014586415165730221 -0.038492949146881374 0 0.014768020964689566 -0.040150215954194018 0 0.013935033968059639 -0.039124368428485684 0 0.014586415165730221 -0.038492949146881374 0 0.015804882101992608 -0.03762998018011586 0 0.014991329188322198 -0.036947424763809328 0 0.014586415165730221 -0.038492949146881374 0 0.014991329188322198 -0.036947424763809328 0 0.014001979596470577 -0.036517555100643966 0 0.015913359920474494 -0.038449472874481791 0 0.014586415165730221 -0.038492949146881374 0 0.015804882101992608 -0.03762998018011586 0 0.016733205082069231 -0.038096905622330909 0 0.015913359920474494 -0.038449472874481791 0 0.015804882101992608 -0.03762998018011586 0 0.016733205082069231 -0.038096905622330909 0 0.017163696637041013 -0.037087307420911292 0 0.015804882101992608 -0.03762998018011586 0 0.015804882101992608 -0.03762998018011586 0 0.015994051967748297 -0.036479284984470658 0 0.014991329188322198 -0.036947424763809328 0 0.017163696637041013 -0.037087307420911292 0 0.015804882101992608 -0.03762998018011586 0 0.015994051967748297 -0.036479284984470658 0 0.015994051967748297 -0.036479284984470658 0 0.015224803297892235 -0.034896493290724716 0 0.01711029865826464 -0.035529059890114713 0 0.015994051967748297 -0.036479284984470658 0 0.014991329188322198 -0.036947424763809328 0 0.015224803297892235 -0.034896493290724716 0 0.014991329188322198 -0.036947424763809328 0 0.015224803297892235 -0.034896493290724716 0 0.014001979596470577 -0.036517555100643966 0 0.015224803297892235 -0.034896493290724716 0 0.014001979596470577 -0.036517555100643966 0 0.0139418544984954 -0.035155774389425548 0 0.015224803297892235 -0.034896493290724716 0 0.011853846365928787 -0.032226094318018997 0 0.014667425136293591 -0.03158641447200107 0 0.015142585846268911 -0.034880558419636894 0 0.013004867929075757 -0.033717706590644603 0 0.015224803297892235 -0.034896493290724716 0 0.016784645503643603 -0.032742442987487311 0 0.01711029865826464 -0.035529059890114713 0 0.015224803297892235 -0.034896493290724716 0 0.016784645503643603 -0.032742442987487311 0 0.014667425136293591 -0.03158641447200107 0 0.016784645503643603 -0.032742442987487311 0 0.01711029865826464 -0.035529059890114713 0 0.018710956555420311 -0.034150451355594323 0 0.017163696637041013 -0.037087307420911292 0 0.01870559455897846 -0.037196926040568255 0 0.01711029865826464 -0.035529059890114713 0 0.01870559455897846 -0.037196926040568255 0 0.01711029865826464 -0.035529059890114713 0 0.018710956555420311 -0.034150451355594323 0 0.017163696637041013 -0.037087307420911292 0 0.015994051967748297 -0.036479284984470658 0 0.01711029865826464 -0.035529059890114713 0 0.0092315440012079204 -0.033899618101269693 0 0.0089460622748413141 -0.030330249388787273 0 -0.0003592140183675023 -0.030595891091281944 0 0.0010269399126410289 -0.028630464921365281 0 -0.00072458060435416172 -0.026644418817148897 0 -0.0003592140183675023 -0.030595891091281944 0 0.0013617866955193078 -0.030444915243446419 0 0.0010269399126410289 -0.028630464921365281 0 -0.00072458060435416172 -0.026644418817148897 0 0.0017825567593490912 -0.025741059165246234 0 0.00041482475151934166 -0.024847370348907129 0 0.0010269399126410289 -0.028630464921365281 0 -0.00072458060435416172 -0.026644418817148897 0 0.0017825567593490912 -0.025741059165246234 0 0.0017825567593490912 -0.025741059165246234 0 0.0037331475801316246 -0.026195935231651975 0 0.0029430582614433124 -0.024656493931540582 0 0.0017825567593490912 -0.025741059165246234 0 0.0037331475801316246 -0.026195935231651975 0 0.0023836175163076795 -0.027914684378990671 0 0.0037331475801316246 -0.026195935231651975 0 0.0045701750733381551 -0.024221545951878965 0 0.0029430582614433124 -0.024656493931540582 0 0.0037331475801316246 -0.026195935231651975 0 0.0023836175163076795 -0.027914684378990671 0 0.004951444835738227 -0.028298275558254479 0 0.0010269399126410289 -0.028630464921365281 0 0.0017825567593490912 -0.025741059165246234 0 0.003470985711656526 -0.029213796195827708 0 0.0019155492216892606 -0.026037854432965891 0 0.0029436689099431204 -0.028443137484005485 0 0.0013617866955193078 -0.030444915243446419 0 0.0010269399126410289 -0.028630464921365281 0 0.003470985711656526 -0.029213796195827708 0 0.0086434571600598649 -0.024231119513687272 0 0.0059044408853103445 -0.026073520612206604 0 0.0063120394365687414 -0.023829714229689724 0 0.0086434571600598649 -0.024231119513687272 0 0.0059044408853103445 -0.026073520612206604 0 0.0069953489704549822 -0.027489259197232392 0 0.0059044408853103445 -0.026073520612206604 0 0.0063120394365687414 -0.023829714229689724 0 0.0045701750733381551 -0.024221545951878965 0 0.0037331475801316246 -0.026195935231651975 0 0.0059044408853103445 -0.026073520612206604 0 0.0045701750733381551 -0.024221545951878965 0 0.0059044408853103445 -0.026073520612206604 0 0.004951444835738227 -0.028298275558254479 0 0.0069953489704549822 -0.027489259197232392 0 0.0037331475801316246 -0.026195935231651975 0 0.0059044408853103445 -0.026073520612206604 0 0.004951444835738227 -0.028298275558254479 0 0.004951444835738227 -0.028298275558254479 0 0.0069953489704549822 -0.027489259197232392 0 0.0066535666436560847 -0.029763561113482488 0 0.0072981030430848857 -0.03171799742634638 0 0.0066535666436560847 -0.029763561113482488 0 0.0055063357638422119 -0.030475424393551036 0 0.004951444835738227 -0.028298275558254479 0 0.0055063357638422119 -0.030475424393551036 0 0.0030653357416052908 -0.030123912792389969 0 0.004951444835738227 -0.028298275558254479 0 0.0066535666436560847 -0.029763561113482488 0 0.0055063357638422119 -0.030475424393551036 0 9.213661055817963e-05 -0.033115339726938864 0 -0.0023443161261487168 -0.032680204058699383 0 0.0011622621516056107 -0.035566585513436985 0 9.213661055817963e-05 -0.033115339726938864 0 0.0017838011869041365 -0.031529311419312055 0 -0.0028555454670423524 -0.031234195524787782 0 0.0030892193841871203 -0.030862711221042793 0 0.002885121856744683 -0.032195262181118747 0 9.213661055817963e-05 -0.033115339726938864 0 0.0016387242258045197 -0.033150322753629877 0 0.0014628844369474188 -0.034677192136349143 0 0.0016387242258045197 -0.033150322753629877 0 0.0032689610198568531 -0.033285207016153645 0 0.0014628844369474188 -0.034677192136349143 0 9.213661055817963e-05 -0.033115339726938864 0 0.0016387242258045197 -0.033150322753629877 0 0.0017838011869041365 -0.031529311419312055 0 0.0016387242258045197 -0.033150322753629877 0 0.0017838011869041365 -0.031529311419312055 0 0.0032689610198568531 -0.033285207016153645 0 0.0074256515500101122 -0.031673375621944055 0 0.0030892193841871203 -0.030862711221042793 0 0.0072981030430848857 -0.03171799742634638 0 0.0032689610198568531 -0.033285207016153645 0 0.004243385502304858 -0.035080094922268185 0 0.0072981030430848857 -0.03171799742634638 0 0.0017838011869041365 -0.031529311419312055 0 0.0032689610198568531 -0.033285207016153645 0 0.0032689610198568531 -0.033285207016153645 0 0.004243385502304858 -0.035080094922268185 0 0.0014628844369474188 -0.034677192136349143 0 0.0016282324144561008 -0.032769383861718113 0 0.002885121856744683 -0.032195262181118747 0 0.00017916931992633753 -0.03257376256758087 0 0.002438129662582297 -0.031473464139331601 0 0.0047690875249165104 -0.032698582733340205 0 0.00017916931992633753 -0.03257376256758087 0 0.006544239711544257 -0.033019071306395614 0 0.0053511149375088688 -0.033417986806919646 0 0.003470985711656526 -0.029213796195827708 0 0.002438129662582297 -0.031473464139331601 0 0.0047690875249165104 -0.032698582733340205 0 0.0029436689099431204 -0.028443137484005485 0 0.002885121856744683 -0.032195262181118747 0 0.0013617866955193078 -0.030444915243446419 0 0.003470985711656526 -0.029213796195827708 0 0.002438129662582297 -0.031473464139331601 0 0.0023836175163076795 -0.027914684378990671 0 0.004951444835738227 -0.028298275558254479 0 0.0030653357416052908 -0.030123912792389969 0 0.0032319072042556944 -0.034020930586508312 0 0.0056648358589317773 -0.034576622529479913 0 0.0032319072042556944 -0.034020930586508312 0 0.0031990030291693602 -0.038411727601015064 0 0.0072186676695432002 -0.034875376441539083 0 0.0053511149375088688 -0.033417986806919646 0 0.0049062913345365895 -0.034941451894430965 0 9.213661055817963e-05 -0.033115339726938864 0 -0.0028555454670423524 -0.031234195524787782 0 -0.0023443161261487168 -0.032680204058699383 0 0.006544239711544257 -0.033019071306395614 0 0.0071663573572089004 -0.03483671906973547 0 0.0053511149375088688 -0.033417986806919646 0 0.002885121856744683 -0.032195262181118747 0 0.0032319072042556944 -0.034020930586508312 0 0.00017916931992633753 -0.03257376256758087 0 0.0053511149375088688 -0.033417986806919646 0 0.0028159465687379814 -0.034569490639775567 0 0.0072186676695432002 -0.034875376441539083 0 0.0049062913345365895 -0.034941451894430965 0 0.0042335099552603664 -0.036898743381333074 0 0.0049062913345365895 -0.034941451894430965 0 0.0028159465687379814 -0.034569490639775567 0 0.0042335099552603664 -0.036898743381333074 0 0.0053511149375088688 -0.033417986806919646 0 0.0049062913345365895 -0.034941451894430965 0 0.0028159465687379814 -0.034569490639775567 0 0.00058919713077109433 -0.035968466094281393 0 0.0028159465687379814 -0.034569490639775567 0 0.0042335099552603664 -0.036898743381333074 0 0.00058919713077109433 -0.035968466094281393 0 0.0028500441005249802 -0.038751250321330338 0 0.0042335099552603664 -0.036898743381333074 0 0.0028500441005249802 -0.038751250321330338 0 0.0050059524401512706 -0.040396985476660575 0 0.0015458593300401162 -0.041730417216329467 0 0.0028500441005249802 -0.038751250321330338 0 0.0050059524401512706 -0.040396985476660575 0 0.0042335099552603664 -0.036898743381333074 0 0.0050059524401512706 -0.040396985476660575 0 0.0086843112775719846 -0.038918794594628485 0 0.0076859845810762287 -0.041646201409089999 0 0.0024960409807493569 -0.035242635521111905 0 0.0038369883604158664 -0.039030755713950281 0 0.0066177317956863813 -0.038513659742460515 0 0.0072186676695432002 -0.034875376441539083 0 0.0042335099552603664 -0.036898743381333074 0 0.0086843112775719846 -0.038918794594628485 0 0.0050059524401512706 -0.040396985476660575 0 0.0042335099552603664 -0.036898743381333074 0 0.0086843112775719846 -0.038918794594628485 0 0.0032319072042556944 -0.034020930586508312 0 0.0063520809325719419 -0.039104006763807958 0 0.0050059524401512706 -0.040396985476660575 0 0.0076859845810762287 -0.041646201409089999 0 0.0052359674319640255 -0.04417810683230549 0 0.0063520809325719419 -0.039104006763807958 0 0.0062461579663763683 -0.044045330566851601 0 0.0086843112775719846 -0.038918794594628485 0 0.0076859845810762287 -0.041646201409089999 0 0.010091499482023767 -0.04291527393314 0 0.0076859845810762287 -0.041646201409089999 0 0.007947063030265775 -0.043915528117350063 0 0.010091499482023767 -0.04291527393314 0 0.0076859845810762287 -0.041646201409089999 0 0.007947063030265775 -0.043915528117350063 0 0.0052359674319640255 -0.04417810683230549 0 0.015307111356309109 -0.042971604473891083 0 0.015587065406035067 -0.042857180796026025 0 0.015577288779237319 -0.042932930500071763 0 0.0050059524401512706 -0.040396985476660575 0 0.0052359674319640255 -0.04417810683230549 0 0.0015458593300401162 -0.041730417216329467 0 0.010031005761963096 -0.043461888974348002 0 0.013217685653570345 -0.041249186559144835 0 0.0031990030291693602 -0.038411727601015064 0 0.0055125493905707089 -0.041602023380949954 0 0.004243385502304858 -0.035080094922268185 0 0.0011422711148892156 -0.035650090086704098 0 0.0042589998146074989 -0.038348382308350464 0 0.0038369883604158664 -0.039030755713950281 0 0.0066177317956863813 -0.038513659742460515 0 0.0051863977460637227 -0.042821383966186961 0 0.004243385502304858 -0.035080094922268185 0 0.0014628844369474188 -0.034677192136349143 0 0.0011422711148892156 -0.035650090086704098 0 9.213661055817963e-05 -0.033115339726938864 0 0.0014628844369474188 -0.034677192136349143 0 0.0011622621516056107 -0.035566585513436985 0 0.0031375161037121503 -0.036734697596278593 0 0.0031990030291693602 -0.038411727601015064 0 0.0056206921780105517 -0.04375788249398932 0 0.0052708228689886004 -0.044959016012082395 0 0.0059610933439315558 -0.044870198204565254 0 0.0031990030291693602 -0.038411727601015064 0 0.0062461579663763683 -0.044045330566851601 0 0.0052318837194845818 -0.044906662503642454 0 0.0053834676872786865 -0.045256478517651182 0 0.0052864040893546857 -0.045789524038753832 0 0.0062461579663763683 -0.044045330566851601 0 0.0061682225243282736 -0.044494089537714519 0 0.0052708228689886004 -0.044959016012082395 0 0.0053834676872786865 -0.045256478517651182 0 0.0056978017061654809 -0.045281590159851483 0 0.0059610933439315558 -0.044870198204565254 0 0.0056978017061654809 -0.045281590159851483 0 0.0061753400924672236 -0.045396805375589835 0 0.0052708228689886004 -0.044959016012082395 0 0.0059610933439315558 -0.044870198204565254 0 0.0056978017061654809 -0.045281590159851483 0 0.0065462944498157491 -0.04453148776183917 0 0.0066794776890969345 -0.04553522473722503 0 0.0061753400924672236 -0.045396805375589835 0 0.0056206921780105517 -0.04375788249398932 0 0.0059610933439315558 -0.044870198204565254 0 0.0065462944498157491 -0.04453148776183917 0 0.0059610933439315558 -0.044870198204565254 0 0.0065462944498157491 -0.04453148776183917 0 0.0061753400924672236 -0.045396805375589835 0 0.0066794776890969345 -0.04553522473722503 0 0.0061042783802668097 -0.046155022636769218 0 0.0065207399488777613 -0.046364709086204971 0 0.0061753400924672236 -0.045396805375589835 0 0.0061042783802668097 -0.046155022636769218 0 0.0059344854171689719 -0.045912932300921229 0 0.0066794776890969345 -0.04553522473722503 0 0.0061753400924672236 -0.045396805375589835 0 0.0061042783802668097 -0.046155022636769218 0 0.0052318837194845818 -0.044906662503642454 0 0.0052864040893546857 -0.045789524038753832 0 0.0050449023543401496 -0.046247064551236672 0 0.0061042783802668097 -0.046155022636769218 0 0.0057307754563237865 -0.046254598435198128 0 0.0057539466383285578 -0.046730760977268401 0 0.0061042783802668097 -0.046155022636769218 0 0.0057307754563237865 -0.046254598435198128 0 0.0059344854171689719 -0.045912932300921229 0 0.0057307754563237865 -0.046254598435198128 0 0.0059344854171689719 -0.045912932300921229 0 0.0057512215076614848 -0.04568857730222748 0 0.0057307754563237865 -0.046254598435198128 0 0.0057512215076614848 -0.04568857730222748 0 0.0055049963425816383 -0.04587372677618639 0 0.0056978017061654809 -0.045281590159851483 0 0.0061753400924672236 -0.045396805375589835 0 0.0057512215076614848 -0.04568857730222748 0 0.0061753400924672236 -0.045396805375589835 0 0.0059344854171689719 -0.045912932300921229 0 0.0057512215076614848 -0.04568857730222748 0 0.0056978017061654809 -0.045281590159851483 0 0.0057512215076614848 -0.04568857730222748 0 0.005531507493671887 -0.045579087599853553 0 0.0057512215076614848 -0.04568857730222748 0 0.0055049963425816383 -0.04587372677618639 0 0.005531507493671887 -0.045579087599853553 0 0.0055049963425816383 -0.04587372677618639 0 0.005531507493671887 -0.045579087599853553 0 0.0052864040893546857 -0.045789524038753832 0 0.0053834676872786865 -0.045256478517651182 0 0.0056978017061654809 -0.045281590159851483 0 0.005531507493671887 -0.045579087599853553 0 0.0053834676872786865 -0.045256478517651182 0 0.005531507493671887 -0.045579087599853553 0 0.0052864040893546857 -0.045789524038753832 0 0.0052864040893546857 -0.045789524038753832 0 0.0052210657137786625 -0.046124390874858291 0 0.0053396387226113491 -0.046045033350418159 0 0.0055049963425816383 -0.04587372677618639 0 0.0052864040893546857 -0.045789524038753832 0 0.0053396387226113491 -0.046045033350418159 0 0.0052210657137786625 -0.046124390874858291 0 0.0054729177867267904 -0.046183225679687592 0 0.0054327825248752628 -0.046418612870906928 0 0.0055049963425816383 -0.04587372677618639 0 0.0054729177867267904 -0.046183225679687592 0 0.0053396387226113491 -0.046045033350418159 0 0.0052210657137786625 -0.046124390874858291 0 0.0054729177867267904 -0.046183225679687592 0 0.0053396387226113491 -0.046045033350418159 0 0.0057307754563237865 -0.046254598435198128 0 0.0055049963425816383 -0.04587372677618639 0 0.0054729177867267904 -0.046183225679687592 0 0.0057307754563237865 -0.046254598435198128 0 0.0056176538819436321 -0.046523136456314895 0 0.0057539466383285578 -0.046730760977268401 0 0.0057307754563237865 -0.046254598435198128 0 0.0054729177867267904 -0.046183225679687592 0 0.0056176538819436321 -0.046523136456314895 0 0.0056176538819436321 -0.046523136456314895 0 0.0054327825248752628 -0.046418612870906928 0 0.0055805654829674195 -0.046816104219910767 0 0.0054729177867267904 -0.046183225679687592 0 0.0056176538819436321 -0.046523136456314895 0 0.0054327825248752628 -0.046418612870906928 0 0.0054327825248752628 -0.046418612870906928 0 0.0055805654829674195 -0.046816104219910767 0 0.0050449023543401496 -0.046247064551236672 0 0.0055805654829674195 -0.046816104219910767 0 0.0057336110228362923 -0.047187256186497363 0 0.0055888819863226056 -0.047190222100459096 0 0.0056176538819436321 -0.046523136456314895 0 0.0055805654829674195 -0.046816104219910767 0 0.0057539466383285578 -0.046730760977268401 0 0.0055805654829674195 -0.046816104219910767 0 0.0057336110228362923 -0.047187256186497363 0 0.0057539466383285578 -0.046730760977268401 0 0.0057648085721721384 -0.047740728820884003 0 0.0057336110228362923 -0.047187256186497363 0 0.0055888819863226056 -0.047190222100459096 0 0.0057442086563393941 -0.047510485576638159 0 0.0057648085721721384 -0.047740728820884003 0 0.0057336110228362923 -0.047187256186497363 0 0.0057442086563393941 -0.047510485576638159 0 0.0057336110228362923 -0.047187256186497363 0 0.005953201493343681 -0.046886784073700505 0 0.0061042783802668097 -0.046155022636769218 0 0.0057539466383285578 -0.046730760977268401 0 0.005953201493343681 -0.046886784073700505 0 0.0057336110228362923 -0.047187256186497363 0 0.0057539466383285578 -0.046730760977268401 0 0.005953201493343681 -0.046886784073700505 0 0.0061042783802668097 -0.046155022636769218 0 0.005953201493343681 -0.046886784073700505 0 0.0065207399488777613 -0.046364709086204971 0 0.0060166838668476103 -0.047300003780216128 0 0.005953201493343681 -0.046886784073700505 0 0.0065207399488777613 -0.046364709086204971 0 0.0060166838668476103 -0.047300003780216128 0 0.0057442086563393941 -0.047510485576638159 0 0.005953201493343681 -0.046886784073700505 0 0.0064922276879421266 -0.047364146106839457 0 0.0060166838668476103 -0.047300003780216128 0 0.0065207399488777613 -0.046364709086204971 0 0.015250841601670935 -0.043065566952229836 0 0.015430254037703895 -0.042970519138138187 0 0.015264819986639293 -0.04313523232382574 0 0.015307111356309109 -0.042971604473891083 0 0.015430254037703895 -0.042970519138138187 0 0.015587065406035067 -0.042857180796026025 0 0.015307111356309109 -0.042971604473891083 0 0.015250841601670935 -0.043065566952229836 0 0.015430254037703895 -0.042970519138138187 0 0.0062461579663763683 -0.044045330566851601 0 0.0094326141955059627 -0.045423249170979368 0 0.015307111356309109 -0.042971604473891083 0 0.015250841601670935 -0.043065566952229836 0 0.015284914696873528 -0.043065355048800213 0 0.010031005761963096 -0.043461888974348002 0 0.0094326141955059627 -0.045423249170979368 0 0.007947063030265775 -0.043915528117350063 0 0.010091499482023767 -0.04291527393314 0 0.0088544751408492738 -0.046590455456625109 0 0.007947063030265775 -0.043915528117350063 0 0.0052359674319640255 -0.04417810683230549 0 0.0088544751408492738 -0.046590455456625109 0 0.0052864040893546857 -0.045789524038753832 0 0.0052210657137786625 -0.046124390874858291 0 0.0050449023543401496 -0.046247064551236672 0 0.0052210657137786625 -0.046124390874858291 0 0.0054327825248752628 -0.046418612870906928 0 0.0050449023543401496 -0.046247064551236672 0 0.0094326141955059627 -0.045423249170979368 0 0.010733534993242151 -0.045295448707848664 0 0.015250841601670935 -0.043065566952229836 0 0.015284914696873528 -0.043065355048800213 0 0.015183294716922846 -0.043239874322184159 0 0.015250841601670935 -0.043065566952229836 0 0.015183294716922846 -0.043239874322184159 0 0.015148893424911058 -0.043171423698655752 0 0.0050449023543401496 -0.046247064551236672 0 0.0055888819863226056 -0.047190222100459096 0 0.0058478544196738898 -0.048004989385757847 0 0.0055805654829674195 -0.046816104219910767 0 0.0050449023543401496 -0.046247064551236672 0 0.0055888819863226056 -0.047190222100459096 0 0.0057648085721721384 -0.047740728820884003 0 0.0055888819863226056 -0.047190222100459096 0 0.0058478544196738898 -0.048004989385757847 0 0.0149572296463989 -0.04330719135786143 0 0.015183294716922846 -0.043239874322184159 0 0.015148893424911058 -0.043171423698655752 0 0.015250841601670935 -0.043065566952229836 0 0.015148893424911058 -0.043171423698655752 0 0.015264819986639293 -0.04313523232382574 0 0.0149572296463989 -0.04330719135786143 0 0.015148893424911058 -0.043171423698655752 0 0.015264819986639293 -0.04313523232382574 0 0.0149572296463989 -0.04330719135786143 0 0.015264819986639293 -0.04313523232382574 0 0.01516798798472983 -0.043310583687877005 0 0.015264819986639293 -0.04313523232382574 0 0.01516798798472983 -0.043310583687877005 0 0.015506551837229663 -0.043030401227237447 0 0.01516798798472983 -0.043310583687877005 0 0.015486231420011883 -0.043220559253047894 0 0.015506551837229663 -0.043030401227237447 0 0.015716469055614246 -0.043327267746259744 0 0.015300305611319906 -0.043374757189215227 0 0.015486231420011883 -0.043220559253047894 0 0.015300305611319906 -0.043374757189215227 0 0.01516798798472983 -0.043310583687877005 0 0.015486231420011883 -0.043220559253047894 0 0.015546050611132328 -0.042836612428756617 0 0.015506551837229663 -0.043030401227237447 0 0.015691394123174031 -0.042648466861287891 0 0.015486231420011883 -0.043220559253047894 0 0.015546050611132328 -0.042836612428756617 0 0.015506551837229663 -0.043030401227237447 0 0.015430254037703895 -0.042970519138138187 0 0.015264819986639293 -0.04313523232382574 0 0.015506551837229663 -0.043030401227237447 0 0.015506551837229663 -0.043030401227237447 0 0.015621342508407602 -0.042835148911000917 0 0.015691394123174031 -0.042648466861287891 0 0.015430254037703895 -0.042970519138138187 0 0.015506551837229663 -0.043030401227237447 0 0.015621342508407602 -0.042835148911000917 0 0.015430254037703895 -0.042970519138138187 0 0.015621342508407602 -0.042835148911000917 0 0.015587065406035067 -0.042857180796026025 0 0.01451035026888968 -0.042910778818938893 0 0.013217685653570345 -0.041249186559144835 0 0.015621342508407602 -0.042835148911000917 0 0.015587065406035067 -0.042857180796026025 0 0.015766313353970062 -0.042595999235387892 0 0.015587065406035067 -0.042857180796026025 0 0.015821856743375568 -0.0425920561492324 0 0.015766313353970062 -0.042595999235387892 0 0.015821856743375568 -0.0425920561492324 0 0.015766313353970062 -0.042595999235387892 0 0.015980865326565386 -0.04176023814052103 0 0.015621342508407602 -0.042835148911000917 0 0.015766313353970062 -0.042595999235387892 0 0.015691394123174031 -0.042648466861287891 0 0.015766313353970062 -0.042595999235387892 0 0.015691394123174031 -0.042648466861287891 0 0.015980865326565386 -0.04176023814052103 0 0.015691394123174031 -0.042648466861287891 0 0.015980865326565386 -0.04176023814052103 0 0.015568611587661804 -0.042209540068459526 0 0.015546050611132328 -0.042836612428756617 0 0.015691394123174031 -0.042648466861287891 0 0.015568611587661804 -0.042209540068459526 0 0.015548486661771613 -0.039627641630161248 0 0.017395452157568332 -0.041313895462640991 0 0.017045853440864261 -0.039263605053888435 0 0.016002251408148802 -0.039348952429067718 0 0.017532292441984659 -0.040322448050334248 0 0.015980865326565386 -0.04176023814052103 0 0.015517173918368309 -0.040964010931806717 0 0.015568611587661804 -0.042209540068459526 0 0.013217685653570345 -0.041249186559144835 0 0.017395452157568332 -0.041313895462640991 0 0.00058919713077109433 -0.035968466094281393 0 0.0028500441005249802 -0.038751250321330338 0 0.0015458593300401162 -0.041730417216329467 0 0.018685925045828913 -0.039347854761798737 0 0.018853424426330787 -0.041228606772343329 0 0.017532292441984659 -0.040322448050334248 0 0.0093362107283180007 -0.037632726191156422 0 0.013217685653570345 -0.041249186559144835 0 0.014425755456474116 -0.040543711948242647 0 0.014768020964689566 -0.040150215954194018 0 0.013918597549809956 -0.040022289471265182 0 0.014425755456474116 -0.040543711948242647 0 0.014768020964689566 -0.040150215954194018 0 0.014874186144062372 -0.040824281189283794 0 0.014768020964689566 -0.040150215954194018 0 0.015171913022603371 -0.040507218159390415 0 0.014874186144062372 -0.040824281189283794 0 0.015528841037901295 -0.04015322650578184 0 0.015980865326565386 -0.04176023814052103 0 0.015517173918368309 -0.040964010931806717 0 0.015528841037901295 -0.04015322650578184 0 0.014768020964689566 -0.040150215954194018 0 0.015171913022603371 -0.040507218159390415 0 0.015517173918368309 -0.040964010931806717 0 0.015568611587661804 -0.042209540068459526 0 0.01498721506417861 -0.042133110051303733 0 0.015528841037901295 -0.04015322650578184 0 0.015171913022603371 -0.040507218159390415 0 0.015517173918368309 -0.040964010931806717 0 0.015171913022603371 -0.040507218159390415 0 0.015517173918368309 -0.040964010931806717 0 0.014874186144062372 -0.040824281189283794 0 0.015537437879314128 -0.040965640581712211 0 0.01494079787473215 -0.04144390092303344 0 0.015359564246531765 -0.042505337398506732 0 0.015568611587661804 -0.042209540068459526 0 0.01498721506417861 -0.042133110051303733 0 0.015546050611132328 -0.042836612428756617 0 0.015359564246531765 -0.042505337398506732 0 0.015568611587661804 -0.042209540068459526 0 0.015359564246531765 -0.042505337398506732 0 0.01498721506417861 -0.042133110051303733 0 0.015293985450467958 -0.042760870257047029 0 0.014874186144062372 -0.040824281189283794 0 0.014074083662245947 -0.040911253787549992 0 0.014128623605907541 -0.041365827957059988 0 0.014425755456474116 -0.040543711948242647 0 0.014874186144062372 -0.040824281189283794 0 0.014074083662245947 -0.040911253787549992 0 0.01498721506417861 -0.042133110051303733 0 0.015293985450467958 -0.042760870257047029 0 0.014883641026892169 -0.042575028549278623 0 0.01494079787473215 -0.04144390092303344 0 0.015266945030308557 -0.042607386953014123 0 0.015293985450467958 -0.042760870257047029 0 0.01523074632477798 -0.04307768689610092 0 0.014883641026892169 -0.042575028549278623 0 0.015293985450467958 -0.042760870257047029 0 0.015434347075937842 -0.04305502972859486 0 0.01523074632477798 -0.04307768689610092 0 0.015546050611132328 -0.042836612428756617 0 0.015293985450467958 -0.042760870257047029 0 0.015531442208532044 -0.043101077888127781 0 0.015546050611132328 -0.042836612428756617 0 0.015359564246531765 -0.042505337398506732 0 0.015293985450467958 -0.042760870257047029 0 0.015486231420011883 -0.043220559253047894 0 0.015546050611132328 -0.042836612428756617 0 0.015531442208532044 -0.043101077888127781 0 0.015293985450467958 -0.042760870257047029 0 0.015531442208532044 -0.043101077888127781 0 0.015434347075937842 -0.04305502972859486 0 0.015716469055614246 -0.043327267746259744 0 0.015486231420011883 -0.043220559253047894 0 0.015531442208532044 -0.043101077888127781 0 0.015716469055614246 -0.043327267746259744 0 0.015531442208532044 -0.043101077888127781 0 0.015635108745780904 -0.043229702282306715 0 0.017958536228209438 -0.043918181758414193 0 0.016770986441243467 -0.043499834731650512 0 0.01573900977315025 -0.043360050753679109 0 0.015635108745780904 -0.043229702282306715 0 0.01523074632477798 -0.04307768689610092 0 0.015434347075937842 -0.04305502972859486 0 0.015635108745780904 -0.043229702282306715 0 0.01523074632477798 -0.04307768689610092 0 0.015531442208532044 -0.043101077888127781 0 0.015434347075937842 -0.04305502972859486 0 0.015635108745780904 -0.043229702282306715 0 0.018147486330724952 -0.043953172959536477 0 0.018247147809290022 -0.043866719973161869 0 0.018010379895933983 -0.043722159200673599 0 0.018279702206906678 -0.044177891431141147 0 0.018147486330724952 -0.043953172959536477 0 0.018247147809290022 -0.043866719973161869 0 0.020336619527654209 -0.045555074701728003 0 0.020796411962919953 -0.043588591553773412 0 0.018247147809290022 -0.043866719973161869 0 0.018010379895933983 -0.043722159200673599 0 0.01819889290498752 -0.043551397401245161 0 0.016770986441243467 -0.043499834731650512 0 0.015266945030308557 -0.042607386953014123 0 0.020796411962919953 -0.043588591553773412 0 0.015266945030308557 -0.042607386953014123 0 0.02931419312579174 -0.042561976794438218 0 0.029386779996639967 -0.042571705850195582 0 0.029438674743803229 -0.042294759986674139 0 0.02931419312579174 -0.042561976794438218 0 0.029512459642181244 -0.042330369236360271 0 0.029386779996639967 -0.042571705850195582 0 0.021891913827366778 -0.04620702472815983 0 0.023466494691966659 -0.048628689597193742 0 0.026558482800262562 -0.046162521809192149 0 0.020796411962919953 -0.043588591553773412 0 0.028869536910373726 -0.044151015607049961 0 0.02415313551534615 -0.044033291665410659 0 0.021891913827366778 -0.04620702472815983 0 0.026558482800262562 -0.046162521809192149 0 0.029284938270106982 -0.042839900213493216 0 0.028869536910373726 -0.044151015607049961 0 0.029708253817436255 -0.042526141963832087 0 0.029512459642181244 -0.042330369236360271 0 0.03032868411690004 -0.042250997174748929 0 0.029512459642181244 -0.042330369236360271 0 0.029810014907609886 -0.042448597249884541 0 0.03032868411690004 -0.042250997174748929 0 0.029810014907609886 -0.042448597249884541 0 0.03023725927727108 -0.042504323340918394 0 0.03032868411690004 -0.042250997174748929 0 0.029810014907609886 -0.042448597249884541 0 0.03023725927727108 -0.042504323340918394 0 0.029765565541588979 -0.042647916120736463 0 0.029512459642181244 -0.042330369236360271 0 0.029810014907609886 -0.042448597249884541 0 0.029386779996639967 -0.042571705850195582 0 0.029810014907609886 -0.042448597249884541 0 0.029386779996639967 -0.042571705850195582 0 0.029765565541588979 -0.042647916120736463 0 0.029386779996639967 -0.042571705850195582 0 0.029253049154446716 -0.042607357132537819 0 0.029438674743803229 -0.042294759986674139 0 0.029253049154446716 -0.042607357132537819 0 0.029438674743803229 -0.042294759986674139 0 0.027563876812156822 -0.041096792394515635 0 0.029386779996639967 -0.042571705850195582 0 0.029253049154446716 -0.042607357132537819 0 0.029765565541588979 -0.042647916120736463 0 0.029253049154446716 -0.042607357132537819 0 0.029911106217997453 -0.043052790595658211 0 0.029892992552261948 -0.043786157453615068 0 0.03023725927727108 -0.042504323340918394 0 0.029765565541588979 -0.042647916120736463 0 0.030210277476551733 -0.042902833509713523 0 0.029765565541588979 -0.042647916120736463 0 0.029911106217997453 -0.043052790595658211 0 0.030210277476551733 -0.042902833509713523 0 0.029253049154446716 -0.042607357132537819 0 0.029765565541588979 -0.042647916120736463 0 0.029911106217997453 -0.043052790595658211 0 0.029911106217997453 -0.043052790595658211 0 0.030210277476551733 -0.042902833509713523 0 0.030453993746581913 -0.043401848503219036 0 0.029911106217997453 -0.043052790595658211 0 0.029892992552261948 -0.043786157453615068 0 0.030453993746581913 -0.043401848503219036 0 0.012517901967123069 -0.040838001840880184 0 0.012510019593392733 -0.039717344549887179 0 0.011669912594518803 -0.039215115000979892 0 0.020967445242420585 -0.041324359742544073 0 0.019952860563869849 -0.039918025615717986 0 0.0291701820023809 -0.04260370847877136 0 0.028774742620813979 -0.042446499889792724 0 0.029438674743803229 -0.042294759986674139 0 0.027563876812156822 -0.041096792394515635 0 0.028173129393919794 -0.040484905234208175 0 0.012510019593392733 -0.039717344549887179 0 0.012838825821435763 -0.040276694237772102 0 0.013206182577925664 -0.039484517532676171 0 0.012517901967123069 -0.040838001840880184 0 0.012510019593392733 -0.039717344549887179 0 0.012838825821435763 -0.040276694237772102 0 0.012517901967123069 -0.040838001840880184 0 0.012838825821435763 -0.040276694237772102 0 0.013024136117547358 -0.04070189840711274 0 0.012838825821435763 -0.040276694237772102 0 0.013310051828050768 -0.040419023502178499 0 0.013024136117547358 -0.04070189840711274 0 0.012838825821435763 -0.040276694237772102 0 0.013310051828050768 -0.040419023502178499 0 0.013206182577925664 -0.039484517532676171 0 0.013310051828050768 -0.040419023502178499 0 0.013918597549809956 -0.040022289471265182 0 0.013206182577925664 -0.039484517532676171 0 0.014425755456474116 -0.040543711948242647 0 0.013788425459198389 -0.040477655273009686 0 0.014074083662245947 -0.040911253787549992 0 0.014425755456474116 -0.040543711948242647 0 0.013918597549809956 -0.040022289471265182 0 0.013788425459198389 -0.040477655273009686 0 0.013310051828050768 -0.040419023502178499 0 0.013918597549809956 -0.040022289471265182 0 0.013788425459198389 -0.040477655273009686 0 0.013310051828050768 -0.040419023502178499 0 0.013788425459198389 -0.040477655273009686 0 0.013407231293272353 -0.041252869356015506 0 0.013788425459198389 -0.040477655273009686 0 0.014074083662245947 -0.040911253787549992 0 0.013407231293272353 -0.041252869356015506 0 0.014542475447424145 -0.040962367307568734 0 0.015266945030308557 -0.042607386953014123 0 0.014074083662245947 -0.040911253787549992 0 0.014159520404259223 -0.041435685268863487 0 0.013407231293272353 -0.041252869356015506 0 0.013374807064414093 -0.042105993865795853 0 0.014159520404259223 -0.041435685268863487 0 0.013407231293272353 -0.041252869356015506 0 0.020796411962919953 -0.043588591553773412 0 0.020967445242420585 -0.041324359742544073 0 0.013374807064414093 -0.042105993865795853 0 0.012517901967123069 -0.040838001840880184 0 0.013407231293272353 -0.041252869356015506 0 0.012517901967123069 -0.040838001840880184 0 0.013407231293272353 -0.041252869356015506 0 0.013024136117547358 -0.04070189840711274 0 0.013310051828050768 -0.040419023502178499 0 0.013407231293272353 -0.041252869356015506 0 0.013024136117547358 -0.04070189840711274 0 0.033681769658136733 -0.035546610092798601 0 0.037398711538598729 -0.04032091212140216 0 0.032707664709501101 -0.041293953700837986 0 0.033280396428669722 -0.038553054848884119 0 0.032714434683289696 -0.041151030735708347 0 0.032700026956421338 -0.041402955035281477 0 0.032707664709501101 -0.041293953700837986 0 0.031816711102835793 -0.041672869345808029 0 0.032707664709501101 -0.041293953700837986 0 0.031484477085209413 -0.04205180930108663 0 0.031816711102835793 -0.041672869345808029 0 0.032707664709501101 -0.041293953700837986 0 0.031484477085209413 -0.04205180930108663 0 0.031557162322337004 -0.042697971267027623 0 0.031484477085209413 -0.04205180930108663 0 0.030819824861666335 -0.042428741355828636 0 0.031557162322337004 -0.042697971267027623 0 0.031484477085209413 -0.04205180930108663 0 0.031816711102835793 -0.041672869345808029 0 0.03032868411690004 -0.042250997174748929 0 0.030754091467651824 -0.041786956601301682 0 0.031816711102835793 -0.041672869345808029 0 0.03032868411690004 -0.042250997174748929 0 0.03023725927727108 -0.042504323340918394 0 0.03032868411690004 -0.042250997174748929 0 0.030819824861666335 -0.042428741355828636 0 0.031484477085209413 -0.04205180930108663 0 0.03032868411690004 -0.042250997174748929 0 0.030819824861666335 -0.042428741355828636 0 0.03023725927727108 -0.042504323340918394 0 0.030819824861666335 -0.042428741355828636 0 0.030711713918698862 -0.042874761244850255 0 0.030819824861666335 -0.042428741355828636 0 0.030711713918698862 -0.042874761244850255 0 0.031557162322337004 -0.042697971267027623 0 0.03023725927727108 -0.042504323340918394 0 0.030210277476551733 -0.042902833509713523 0 0.030711713918698862 -0.042874761244850255 0 0.030210277476551733 -0.042902833509713523 0 0.030711713918698862 -0.042874761244850255 0 0.030453993746581913 -0.043401848503219036 0 0.030453993746581913 -0.043401848503219036 0 0.031269447629974925 -0.043530855638894 0 0.030723704781968609 -0.044015204122080993 0 0.031269447629974925 -0.043530855638894 0 0.031292565891448798 -0.044473657206887333 0 0.030723704781968609 -0.044015204122080993 0 0.030711713918698862 -0.042874761244850255 0 0.030453993746581913 -0.043401848503219036 0 0.031269447629974925 -0.043530855638894 0 0.029892992552261948 -0.043786157453615068 0 0.030453993746581913 -0.043401848503219036 0 0.030723704781968609 -0.044015204122080993 0 0.031269447629974925 -0.043530855638894 0 0.032563473978963552 -0.043360506829367235 0 0.031938889486050538 -0.04417459477122089 0 0.031269447629974925 -0.043530855638894 0 0.031557162322337004 -0.042697971267027623 0 0.032563473978963552 -0.043360506829367235 0 0.030711713918698862 -0.042874761244850255 0 0.031269447629974925 -0.043530855638894 0 0.031557162322337004 -0.042697971267027623 0 0.032707664709501101 -0.041293953700837986 0 0.031557162322337004 -0.042697971267027623 0 0.032563473978963552 -0.043360506829367235 0 0.032563473978963552 -0.043360506829367235 0 0.032860343375736317 -0.044601841458411048 0 0.031938889486050538 -0.04417459477122089 0 0.032563473978963552 -0.043360506829367235 0 0.034063395573915224 -0.044067372142391995 0 0.032860343375736317 -0.044601841458411048 0 0.032563473978963552 -0.043360506829367235 0 0.034063395573915224 -0.044067372142391995 0 0.034222408438180689 -0.042713619406018991 0 0.032707664709501101 -0.041293953700837986 0 0.032563473978963552 -0.043360506829367235 0 0.034222408438180689 -0.042713619406018991 0 0.03394920709352052 -0.04537074746689311 0 0.032860343375736317 -0.044601841458411048 0 0.032833044587136415 -0.045643836243909885 0 0.034063395573915224 -0.044067372142391995 0 0.03394920709352052 -0.04537074746689311 0 0.032860343375736317 -0.044601841458411048 0 0.032860343375736317 -0.044601841458411048 0 0.031777362224834578 -0.045054733495998485 0 0.031938889486050538 -0.04417459477122089 0 0.032860343375736317 -0.044601841458411048 0 0.032833044587136415 -0.045643836243909885 0 0.031777362224834578 -0.045054733495998485 0 0.032833044587136415 -0.045643836243909885 0 0.031777362224834578 -0.045054733495998485 0 0.031601704146077103 -0.04596174258897346 0 0.031777362224834578 -0.045054733495998485 0 0.030721897591581213 -0.044912806387793477 0 0.031601704146077103 -0.04596174258897346 0 0.031269447629974925 -0.043530855638894 0 0.031292565891448798 -0.044473657206887333 0 0.031938889486050538 -0.04417459477122089 0 0.031777362224834578 -0.045054733495998485 0 0.031292565891448798 -0.044473657206887333 0 0.031938889486050538 -0.04417459477122089 0 0.031777362224834578 -0.045054733495998485 0 0.031292565891448798 -0.044473657206887333 0 0.030721897591581213 -0.044912806387793477 0 0.031292565891448798 -0.044473657206887333 0 0.030723704781968609 -0.044015204122080993 0 0.030721897591581213 -0.044912806387793477 0 0.029892992552261948 -0.043786157453615068 0 0.030723704781968609 -0.044015204122080993 0 0.030721897591581213 -0.044912806387793477 0 0.026565349766881012 -0.0396919692530803 0 0.026519948888819325 -0.039070277310963082 0 0.026048377126818446 -0.03884534503961689 0 0.028607556462068692 -0.042212751746812251 0 0.028947656563020386 -0.042889518586817721 0 0.026565349766881012 -0.0396919692530803 0 0.026519948888819325 -0.039070277310963082 0 0.027116709973871563 -0.039286460190933938 0 0.018526209121652908 -0.037476098623743848 0 0.019169130373589992 -0.038470543690195223 0 0.010915343058828526 -0.036460814270845819 0 0.011129145622201261 -0.037572789476998165 0 0.011340957785457562 -0.036799919359735471 0 0.026519948888819325 -0.039070277310963082 0 0.026412497021468268 -0.038496852105128557 0 0.027116709973871563 -0.039286460190933938 0 0.026519948888819325 -0.039070277310963082 0 0.026412497021468268 -0.038496852105128557 0 0.026048377126818446 -0.03884534503961689 0 0.010915343058828526 -0.036460814270845819 0 0.011340957785457562 -0.036799919359735471 0 0.011337995265737045 -0.036205179109435569 0 0.010915343058828526 -0.036460814270845819 0 0.010565581633921713 -0.035636905385279201 0 0.011177496360476354 -0.035728160349404813 0 0.010915343058828526 -0.036460814270845819 0 0.011337995265737045 -0.036205179109435569 0 0.011177496360476354 -0.035728160349404813 0 0.026023640121648692 -0.038379858137392614 0 0.025694734516538566 -0.03830478146320225 0 0.025958505557634619 -0.037907611295623263 0 0.018526209121652908 -0.037476098623743848 0 0.019314569656976092 -0.036659540594614064 0 0.026023640121648692 -0.038379858137392614 0 0.026048377126818446 -0.03884534503961689 0 0.025694734516538566 -0.03830478146320225 0 0.026412497021468268 -0.038496852105128557 0 0.026023640121648692 -0.038379858137392614 0 0.025958505557634619 -0.037907611295623263 0 0.026412497021468268 -0.038496852105128557 0 0.026023640121648692 -0.038379858137392614 0 0.026048377126818446 -0.03884534503961689 0 0.032833044587136415 -0.045643836243909885 0 0.031601704146077103 -0.04596174258897346 0 0.032592798109936809 -0.046293526702685418 0 0.028947656563020386 -0.042889518586817721 0 0.029085486169062421 -0.040035984178986385 0 0.031601704146077103 -0.04596174258897346 0 0.032592798109936809 -0.046293526702685418 0 0.032430411292018929 -0.046971419120749376 0 0.032592798109936809 -0.046293526702685418 0 0.032430411292018929 -0.046971419120749376 0 0.033539140582245795 -0.046594757434931154 0 0.029085486169062421 -0.040035984178986385 0 0.030510619434491942 -0.041743281912315543 0 0.026376297949138771 -0.037422277294493794 0 0.028859980307767475 -0.03606916030714491 0 0.027930612980103874 -0.037825467450568681 0 0.028859980307767475 -0.03606916030714491 0 0.029388918708855676 -0.038157089350959593 0 0.027930612980103874 -0.037825467450568681 0 0.032833044587136415 -0.045643836243909885 0 0.032592798109936809 -0.046293526702685418 0 0.033539140582245795 -0.046594757434931154 0 0.03394920709352052 -0.04537074746689311 0 0.032833044587136415 -0.045643836243909885 0 0.033539140582245795 -0.046594757434931154 0 0.01259360629354289 -0.038629381493302917 0 0.012046971906742253 -0.038012623625893305 0 0.012854574547822441 -0.037199387529576432 0 0.01344291108955932 -0.0382179492656083 0 0.01259360629354289 -0.038629381493302917 0 0.012854574547822441 -0.037199387529576432 0 0.014586415165730221 -0.038492949146881374 0 0.01344291108955932 -0.0382179492656083 0 0.014001979596470577 -0.036517555100643966 0 0.01344291108955932 -0.0382179492656083 0 0.012854574547822441 -0.037199387529576432 0 0.014001979596470577 -0.036517555100643966 0 0.014586415165730221 -0.038492949146881374 0 0.01344291108955932 -0.0382179492656083 0 0.013935033968059639 -0.039124368428485684 0 0.01344291108955932 -0.0382179492656083 0 0.013935033968059639 -0.039124368428485684 0 0.013206182577925664 -0.039484517532676171 0 0.014768020964689566 -0.040150215954194018 0 0.013918597549809956 -0.040022289471265182 0 0.013935033968059639 -0.039124368428485684 0 0.013918597549809956 -0.040022289471265182 0 0.013935033968059639 -0.039124368428485684 0 0.013206182577925664 -0.039484517532676171 0 0.01344291108955932 -0.0382179492656083 0 0.013206182577925664 -0.039484517532676171 0 0.01259360629354289 -0.038629381493302917 0 0.012510019593392733 -0.039717344549887179 0 0.013206182577925664 -0.039484517532676171 0 0.01259360629354289 -0.038629381493302917 0 0.012510019593392733 -0.039717344549887179 0 0.01259360629354289 -0.038629381493302917 0 0.012208650843066564 -0.038946815023103272 0 0.012208650843066564 -0.038946815023103272 0 0.011669912594518803 -0.039215115000979892 0 0.012046971906742253 -0.038012623625893305 0 0.012510019593392733 -0.039717344549887179 0 0.012208650843066564 -0.038946815023103272 0 0.011669912594518803 -0.039215115000979892 0 0.01259360629354289 -0.038629381493302917 0 0.012208650843066564 -0.038946815023103272 0 0.012046971906742253 -0.038012623625893305 0 0.019952860563869849 -0.039918025615717986 0 0.019169130373589992 -0.038470543690195223 0 0.028774742620813979 -0.042446499889792724 0 0.028607556462068692 -0.042212751746812251 0 0.028173129393919794 -0.040484905234208175 0 0.027343290405265435 -0.040072643883755504 0 0.027116709973871563 -0.039286460190933938 0 0.027563876812156822 -0.041096792394515635 0 0.026565349766881012 -0.0396919692530803 0 0.027343290405265435 -0.040072643883755504 0 0.027563876812156822 -0.041096792394515635 0 0.028173129393919794 -0.040484905234208175 0 0.027343290405265435 -0.040072643883755504 0 0.011129145622201261 -0.037572789476998165 0 0.012046971906742253 -0.038012623625893305 0 0.011688262625823389 -0.037183947488912891 0 0.011669912594518803 -0.039215115000979892 0 0.011129145622201261 -0.037572789476998165 0 0.012046971906742253 -0.038012623625893305 0 0.026565349766881012 -0.0396919692530803 0 0.027343290405265435 -0.040072643883755504 0 0.027116709973871563 -0.039286460190933938 0 0.012046971906742253 -0.038012623625893305 0 0.012211516975904365 -0.037005266007673912 0 0.012854574547822441 -0.037199387529576432 0 0.012046971906742253 -0.038012623625893305 0 0.012211516975904365 -0.037005266007673912 0 0.011688262625823389 -0.037183947488912891 0 0.012211516975904365 -0.037005266007673912 0 0.011790068959005095 -0.036510075792877399 0 0.012659380710587687 -0.035942587311013442 0 0.012211516975904365 -0.037005266007673912 0 0.011688262625823389 -0.037183947488912891 0 0.011790068959005095 -0.036510075792877399 0 0.011129145622201261 -0.037572789476998165 0 0.011688262625823389 -0.037183947488912891 0 0.011340957785457562 -0.036799919359735471 0 0.011688262625823389 -0.037183947488912891 0 0.011790068959005095 -0.036510075792877399 0 0.011340957785457562 -0.036799919359735471 0 0.011790068959005095 -0.036510075792877399 0 0.011340957785457562 -0.036799919359735471 0 0.011337995265737045 -0.036205179109435569 0 0.011790068959005095 -0.036510075792877399 0 0.011337995265737045 -0.036205179109435569 0 0.011752538218963798 -0.035729613797339056 0 0.011337995265737045 -0.036205179109435569 0 0.011752538218963798 -0.035729613797339056 0 0.011177496360476354 -0.035728160349404813 0 0.011790068959005095 -0.036510075792877399 0 0.011752538218963798 -0.035729613797339056 0 0.012659380710587687 -0.035942587311013442 0 0.011752538218963798 -0.035729613797339056 0 0.012659380710587687 -0.035942587311013442 0 0.012292147534561211 -0.035422706050594922 0 0.012211516975904365 -0.037005266007673912 0 0.012659380710587687 -0.035942587311013442 0 0.012854574547822441 -0.037199387529576432 0 0.012659380710587687 -0.035942587311013442 0 0.012854574547822441 -0.037199387529576432 0 0.013286275689935189 -0.036355711230317979 0 0.012854574547822441 -0.037199387529576432 0 0.014001979596470577 -0.036517555100643966 0 0.013286275689935189 -0.036355711230317979 0 0.014001979596470577 -0.036517555100643966 0 0.013286275689935189 -0.036355711230317979 0 0.0139418544984954 -0.035155774389425548 0 0.012659380710587687 -0.035942587311013442 0 0.013286275689935189 -0.036355711230317979 0 0.0139418544984954 -0.035155774389425548 0 0.011853846365928787 -0.032226094318018997 0 0.011238927733988172 -0.028820105137765936 0 0.0094691207615749395 -0.030071407827090609 0 0.013004867929075757 -0.033717706590644603 0 0.01116438795461467 -0.032521571078405941 0 0.011853846365928787 -0.032226094318018997 0 0.011238927733988172 -0.028820105137765936 0 0.013418344565521849 -0.02900940388769362 0 0.0094691207615749395 -0.030071407827090609 0 0.0088823615012119956 -0.027763330310868008 0 0.010059280488849923 -0.027963134021585765 0 0.011238927733988172 -0.028820105137765936 0 0.0094691207615749395 -0.030071407827090609 0 0.010059280488849923 -0.027963134021585765 0 0.012659380710587687 -0.035942587311013442 0 0.0139418544984954 -0.035155774389425548 0 0.012794974613124075 -0.034900181736876618 0 0.012659380710587687 -0.035942587311013442 0 0.012794974613124075 -0.034900181736876618 0 0.012292147534561211 -0.035422706050594922 0 0.012794974613124075 -0.034900181736876618 0 0.012292147534561211 -0.035422706050594922 0 0.011949207486687964 -0.035074467516105039 0 0.011752538218963798 -0.035729613797339056 0 0.012292147534561211 -0.035422706050594922 0 0.011949207486687964 -0.035074467516105039 0 0.011752538218963798 -0.035729613797339056 0 0.011599037461972529 -0.035135549368055102 0 0.011177496360476354 -0.035728160349404813 0 0.011949207486687964 -0.035074467516105039 0 0.011599037461972529 -0.035135549368055102 0 0.011829371200801606 -0.034817470747007882 0 0.011752538218963798 -0.035729613797339056 0 0.011949207486687964 -0.035074467516105039 0 0.011599037461972529 -0.035135549368055102 0 0.011617717023558426 -0.034677893131925097 0 0.01201333074384894 -0.034637042018962234 0 0.013502786772004293 -0.036125020202961218 0 0.011599037461972529 -0.035135549368055102 0 0.011829371200801606 -0.034817470747007882 0 0.01201333074384894 -0.034637042018962234 0 0.011599037461972529 -0.035135549368055102 0 0.01201333074384894 -0.034637042018962234 0 0.01104429021502379 -0.035119893607261359 0 0.011949207486687964 -0.035074467516105039 0 0.011829371200801606 -0.034817470747007882 0 0.011617717023558426 -0.034677893131925097 0 0.011829371200801606 -0.034817470747007882 0 0.011617717023558426 -0.034677893131925097 0 0.01201333074384894 -0.034637042018962234 0 0.012794974613124075 -0.034900181736876618 0 0.011949207486687964 -0.035074467516105039 0 0.011617717023558426 -0.034677893131925097 0 0.01116438795461467 -0.032521571078405941 0 0.0098191764138780106 -0.031398826049361332 0 0.0094691207615749395 -0.030071407827090609 0 0.0077807665189876122 -0.028236828511849565 0 0.0088823615012119956 -0.027763330310868008 0 0.0088823615012119956 -0.027763330310868008 0 0.0078250603068895971 -0.027519928777650551 0 0.0089677647173560856 -0.026349882132767687 0 0.0077807665189876122 -0.028236828511849565 0 0.0088823615012119956 -0.027763330310868008 0 0.0078250603068895971 -0.027519928777650551 0 0.0098191764138780106 -0.031398826049361332 0 0.010637387842913034 -0.032733092392184471 0 0.0077807665189876122 -0.028236828511849565 0 0.0078657708795236581 -0.027632353144578237 0 0.0080959087749442431 -0.027468854730201789 0 0.0077807665189876122 -0.028236828511849565 0 0.0078250603068895971 -0.027519928777650551 0 0.0078657708795236581 -0.027632353144578237 0 0.0078250603068895971 -0.027519928777650551 0 0.0078657708795236581 -0.027632353144578237 0 0.0078331733414685328 -0.027851052767297026 0 0.0097526087200325851 -0.028753807903335146 0 0.0094513545302356439 -0.015834265223813669 0 0.0078657708795236581 -0.027632353144578237 0 0.0078331733414685328 -0.027851052767297026 0 0.0080959087749442431 -0.027468854730201789 0 0.0096512588835114994 -0.0059988058140956046 0 0.012564906055989658 0.0012444295552846126 0 0.010389704204650912 0.00056125891570397545 0 0.010561330626144292 0.00037026608769410047 0 0.012551959400050475 0.00071952498604730851 0 0.010472739252650888 0.0010238804761402969 0 0.011595557155033765 0.0016184504792889328 0 0.012551959400050475 0.00071952498604730851 0 0.0096512588835114994 -0.0059988058140956046 0 0.0094513545302356439 -0.015834265223813669 0 0.010472739252650888 0.0010238804761402969 0 0.011595557155033765 0.0016184504792889328 0 0.010837774061158158 0.0023921207503384318 0 0.010561330626144292 0.00037026608769410047 0 0.013304759326062609 0.00067148712851264173 0 0.012551959400050475 0.00071952498604730851 0 0.0094513545302356439 -0.015834265223813669 0 0.01131076040418314 -0.012410372786248122 0 0.0078250603068895971 -0.027519928777650551 0 0.0070324815541693113 -0.026414277806052076 0 0.0089677647173560856 -0.026349882132767687 0 0.012551959400050475 0.00071952498604730851 0 0.012339319098448929 0.0015769523569458266 0 0.013029485293031497 0.0016114422117270483 0 0.011595557155033765 0.0016184504792889328 0 0.012551959400050475 0.00071952498604730851 0 0.012339319098448929 0.0015769523569458266 0 0.011595557155033765 0.0016184504792889328 0 0.012339319098448929 0.0015769523569458266 0 0.012193415819413521 0.0023321210927817275 0 0.012339319098448929 0.0015769523569458266 0 0.013029485293031497 0.0016114422117270483 0 0.012193415819413521 0.0023321210927817275 0 0.013304759326062609 0.00067148712851264173 0 0.013029485293031497 0.0016114422117270483 0 0.013877782097540219 0.0016687760128085009 0 0.013304759326062609 0.00067148712851264173 0 0.012551959400050475 0.00071952498604730851 0 0.013029485293031497 0.0016114422117270483 0 0.0089677647173560856 -0.026349882132767687 0 0.011112880103451881 -0.026066487605799098 0 0.0099567615218151325 -0.026972150340806588 0 0.013304759326062609 0.00067148712851264173 0 0.013877782097540219 0.0016687760128085009 0 0.014758499190493372 0.0014851669078795105 0 0.01131076040418314 -0.012410372786248122 0 0.01218735370567444 -0.014232232776015954 0 0.013029485293031497 0.0016114422117270483 0 0.013877782097540219 0.0016687760128085009 0 0.013788035124752525 0.0022952157391714261 0 0.013304759326062609 0.00067148712851264173 0 0.014758499190493372 0.0014851669078795105 0 0.01621233302687692 0.00052378589885235228 0 0.013877782097540219 0.0016687760128085009 0 0.014758499190493372 0.0014851669078795105 0 0.014506342571602172 0.0022805132848447481 0 0.014758499190493372 0.0014851669078795105 0 0.015496992206460393 0.0019257896355349825 0 0.014506342571602172 0.0022805132848447481 0 0.015496992206460393 0.0019257896355349825 0 0.01621233302687692 0.00052378589885235228 0 0.017068002253324329 0.0022025848595209922 0 0.014758499190493372 0.0014851669078795105 0 0.015496992206460393 0.0019257896355349825 0 0.01621233302687692 0.00052378589885235228 0 0.01218735370567444 -0.014232232776015954 0 0.0068279760558977096 -0.0003842966874195146 0 0.01218735370567444 -0.014232232776015954 0 0.0090156904776700145 -0.025475725296289244 0 0.011238927733988172 -0.028820105137765936 0 0.010794649425544462 -0.026788458594699988 0 0.012635536109164519 -0.026985639632179256 0 0.011112880103451881 -0.026066487605799098 0 0.010794649425544462 -0.026788458594699988 0 0.0099567615218151325 -0.026972150340806588 0 0.011238927733988172 -0.028820105137765936 0 0.010794649425544462 -0.026788458594699988 0 0.010059280488849923 -0.027963134021585765 0 0.011226155688439852 -0.025751638760616275 0 0.010794649425544462 -0.026788458594699988 0 0.012635536109164519 -0.026985639632179256 0 0.0088823615012119956 -0.027763330310868008 0 0.0089677647173560856 -0.026349882132767687 0 0.0099567615218151325 -0.026972150340806588 0 0.0088823615012119956 -0.027763330310868008 0 0.010059280488849923 -0.027963134021585765 0 0.0099567615218151325 -0.026972150340806588 0 0.010794649425544462 -0.026788458594699988 0 0.010059280488849923 -0.027963134021585765 0 0.0099567615218151325 -0.026972150340806588 0 0.019341583518827664 -0.033495592077336697 0 0.018393763399105211 -0.0348891395594828 0 0.020627177800555608 -0.035960853243339135 0 0.030208744629701301 -0.035274365874875632 0 0.022947132739743584 -0.036996470825647436 0 0.022028313429610803 -0.033780987284214782 0 0.019341583518827664 -0.033495592077336697 0 0.020627177800555608 -0.035960853243339135 0 0.030092916642174523 -0.04074886713117315 0 0.027581752579361237 -0.040483744834678315 0 0.029212521546917284 -0.039549730068197501 0 0.030208744629701301 -0.035274365874875632 0 0.02631075393923419 -0.034257024076974167 0 0.029212521546917284 -0.039549730068197501 0 0.029388918708855676 -0.038157089350959593 0 0.027990942100342513 -0.03908002099676567 0 0.027930612980103874 -0.037825467450568681 0 0.027990942100342513 -0.03908002099676567 0 0.026896437440983304 -0.038118391496135218 0 0.029388918708855676 -0.038157089350959593 0 0.027930612980103874 -0.037825467450568681 0 0.027990942100342513 -0.03908002099676567 0 0.027581752579361237 -0.040483744834678315 0 0.029212521546917284 -0.039549730068197501 0 0.027990942100342513 -0.03908002099676567 0 0.027581752579361237 -0.040483744834678315 0 0.027990942100342513 -0.03908002099676567 0 0.026615929467878635 -0.039326056541148277 0 0.027990942100342513 -0.03908002099676567 0 0.026615929467878635 -0.039326056541148277 0 0.026896437440983304 -0.038118391496135218 0 0.026307283273548174 -0.037325361046220314 0 0.025606766033558711 -0.038767115315251295 0 0.023963950715055249 -0.038607627213518549 0 0.029085486169062421 -0.040035984178986385 0 0.019314569656976092 -0.036659540594614064 0 0.026376297949138771 -0.037422277294493794 0 0.027930612980103874 -0.037825467450568681 0 0.026896437440983304 -0.038118391496135218 0 0.026307283273548174 -0.037325361046220314 0 0.026896437440983304 -0.038118391496135218 0 0.025606766033558711 -0.038767115315251295 0 0.026615929467878635 -0.039326056541148277 0 0.026896437440983304 -0.038118391496135218 0 0.025606766033558711 -0.038767115315251295 0 0.029085486169062421 -0.040035984178986385 0 0.027368605735063934 -0.03809391392173813 0 0.026615929467878635 -0.039326056541148277 0 0.025606766033558711 -0.038767115315251295 0 0.024969256241946784 -0.040191004260079648 0 0.027581752579361237 -0.040483744834678315 0 0.026615929467878635 -0.039326056541148277 0 0.024969256241946784 -0.040191004260079648 0 0.019341583518827664 -0.033495592077336697 0 0.017088634426363714 -0.033918396557346839 0 0.016684485719570312 -0.03327618989773537 0 0.022947132739743584 -0.036996470825647436 0 0.019983229366089799 -0.035741786446766614 0 0.018544210824954912 -0.034116568583291443 0 0.019983229366089799 -0.035741786446766614 0 0.019341583518827664 -0.033495592077336697 0 0.017088634426363714 -0.033918396557346839 0 0.018393763399105211 -0.0348891395594828 0 0.017088634426363714 -0.033918396557346839 0 0.018393763399105211 -0.0348891395594828 0 0.016895233035365709 -0.03504684664064929 0 0.016895233035365709 -0.03504684664064929 0 0.016232161721113005 -0.034171250870207066 0 0.01534479846257669 -0.035069344473258324 0 0.017088634426363714 -0.033918396557346839 0 0.016895233035365709 -0.03504684664064929 0 0.016232161721113005 -0.034171250870207066 0 0.01534479846257669 -0.035069344473258324 0 0.014893066661656278 -0.03380618854363128 0 0.014294110878256203 -0.0347267035183021 0 0.016232161721113005 -0.034171250870207066 0 0.01534479846257669 -0.035069344473258324 0 0.015642391219171402 -0.033977361105936618 0 0.01534479846257669 -0.035069344473258324 0 0.014893066661656278 -0.03380618854363128 0 0.015642391219171402 -0.033977361105936618 0 0.014893066661656278 -0.03380618854363128 0 0.015642391219171402 -0.033977361105936618 0 0.016177330979960186 -0.033386110169060811 0 0.016232161721113005 -0.034171250870207066 0 0.015642391219171402 -0.033977361105936618 0 0.016177330979960186 -0.033386110169060811 0 0.016232161721113005 -0.034171250870207066 0 0.016177330979960186 -0.033386110169060811 0 0.016683061050776563 -0.033400739520043105 0 0.017088634426363714 -0.033918396557346839 0 0.016232161721113005 -0.034171250870207066 0 0.016683061050776563 -0.033400739520043105 0 0.01839529021673723 -0.035297763381752389 0 0.019983229366089799 -0.035741786446766614 0 0.025606766033558711 -0.038767115315251295 0 0.024969256241946784 -0.040191004260079648 0 0.023963950715055249 -0.038607627213518549 0 0.019983229366089799 -0.035741786446766614 0 0.019314569656976092 -0.036659540594614064 0 0.016177330979960186 -0.033386110169060811 0 0.01666971626454692 -0.03345166992503442 0 0.015774645705660995 -0.032059385081250363 0 0.014893066661656278 -0.03380618854363128 0 0.016177330979960186 -0.033386110169060811 0 0.015774645705660995 -0.032059385081250363 0 0.019314569656976092 -0.036659540594614064 0 0.011788643500495974 -0.034531498994440614 0 0.014893066661656278 -0.03380618854363128 0 0.015774645705660995 -0.032059385081250363 0 0.01372948991757429 -0.033281940603786968 0 0.010565581633921713 -0.035636905385279201 0 0.011177496360476354 -0.035728160349404813 0 0.01104429021502379 -0.035119893607261359 0 0.011599037461972529 -0.035135549368055102 0 0.011177496360476354 -0.035728160349404813 0 0.01104429021502379 -0.035119893607261359 0 0.012254101795826221 -0.034427588551978312 0 0.011788643500495974 -0.034531498994440614 0 0.01201333074384894 -0.034637042018962234 0 0.01372948991757429 -0.033281940603786968 0 0.01339109275534218 -0.034728483195478929 0 0.014893066661656278 -0.03380618854363128 0 0.01372948991757429 -0.033281940603786968 0 0.014294110878256203 -0.0347267035183021 0 0.01372948991757429 -0.033281940603786968 0 0.014294110878256203 -0.0347267035183021 0 0.01339109275534218 -0.034728483195478929 0 0.01201333074384894 -0.034637042018962234 0 0.01339109275534218 -0.034728483195478929 0 0.013502786772004293 -0.036125020202961218 0 0.01534479846257669 -0.035069344473258324 0 0.014294110878256203 -0.0347267035183021 0 0.013502786772004293 -0.036125020202961218 0 0.014294110878256203 -0.0347267035183021 0 0.01339109275534218 -0.034728483195478929 0 0.013502786772004293 -0.036125020202961218 0 0.0078331733414685328 -0.027851052767297026 0 0.0080959087749442431 -0.027468854730201789 0 0.0084794668122734392 -0.028050369431236882 0 0.0094513545302356439 -0.015834265223813669 0 0.0098906115019433416 -0.021178771919429077 0 0.013655193697178162 -0.0019180399459227141 0 0.017638405147601809 -0.0021431332038445742 0 0.017560558418548245 -0.0038933207106983114 0 0.0079107670099095133 -0.014803325181249022 0 0.012595626266805479 -0.014372644752859466 0 0.013873236969480545 -0.015276112462388186 0 0.0079107670099095133 -0.014803325181249022 0 0.0074423585769616803 -0.014209381389526892 0 0.012595626266805479 -0.014372644752859466 0 0.0096512588835114994 -0.0059988058140956046 0 0.015957978665093384 -0.0085770100089494396 0 0.017638405147601809 -0.0021431332038445742 0 0.019502041887393604 -0.0032326543058359487 0 0.021712076260415221 -0.0024343339312399193 0 0.012595626266805479 -0.014372644752859466 0 0.013873236969480545 -0.015276112462388186 0 0.017747671123795085 -0.014516128784896231 0 0.013873236969480545 -0.015276112462388186 0 0.017747671123795085 -0.014516128784896231 0 0.01983194186258911 -0.015721274938789536 0 0.0098906115019433416 -0.021178771919429077 0 0.015890455202924203 -0.025827190583784059 0 0.015957978665093384 -0.0085770100089494396 0 0.020701022167239416 -0.014653885582862869 0 0.0080959087749442431 -0.027468854730201789 0 0.0084794668122734392 -0.028050369431236882 0 0.0096604648539991549 -0.028019317686213178 0 0.017638405147601809 -0.0021431332038445742 0 0.019502041887393604 -0.0032326543058359487 0 0.017560558418548245 -0.0038933207106983114 0 0.016629724310456766 -0.037985377150481808 0 0.016001485312117977 -0.036130033114886412 0 0.017688840853036673 -0.036435643282214561 0 0.013502786772004293 -0.036125020202961218 0 0.016629724310456766 -0.037985377150481808 0 0.016001485312117977 -0.036130033114886412 0 0.010637387842913034 -0.032733092392184471 0 0.015890455202924203 -0.025827190583784059 0 0.01534479846257669 -0.035069344473258324 0 0.013502786772004293 -0.036125020202961218 0 0.016001485312117977 -0.036130033114886412 0 0.016895233035365709 -0.03504684664064929 0 0.01534479846257669 -0.035069344473258324 0 0.016001485312117977 -0.036130033114886412 0 0.018393763399105211 -0.0348891395594828 0 0.016895233035365709 -0.03504684664064929 0 0.017688840853036673 -0.036435643282214561 0 0.016895233035365709 -0.03504684664064929 0 0.016001485312117977 -0.036130033114886412 0 0.017688840853036673 -0.036435643282214561 0 0.018393763399105211 -0.0348891395594828 0 0.019014617065548522 -0.036205397075180105 0 0.017688840853036673 -0.036435643282214561 0 0.019014617065548522 -0.036205397075180105 0 0.017688840853036673 -0.036435643282214561 0 0.019283060957821271 -0.038052295906288419 0 0.016629724310456766 -0.037985377150481808 0 0.017688840853036673 -0.036435643282214561 0 0.019283060957821271 -0.038052295906288419 0 0.017093131416711368 -0.022727726487885819 0 0.020410900557817163 -0.024615942128956538 0 0.025846210692447014 -0.022864948030960001 0 0.015890455202924203 -0.025827190583784059 0 0.024696415286492635 -0.0282770941200138 0 0.015890455202924203 -0.025827190583784059 0 0.020701022167239416 -0.014653885582862869 0 0.019502041887393604 -0.0032326543058359487 0 0.021712076260415221 -0.0024343339312399193 0 0.02257398554935865 -0.0042059738187988647 0 0.021792511128142775 -0.014180998895150244 0 0.025886425291209027 -0.016519271147146259 0 0.027091289689347625 -0.01452057566331235 0 0.020410900557817163 -0.024615942128956538 0 0.024625069934273998 -0.024884896915984809 0 0.025846210692447014 -0.022864948030960001 0 0.021712076260415221 -0.0024343339312399193 0 0.02315568290165804 -0.0032610685689374911 0 0.02257398554935865 -0.0042059738187988647 0 0.020701022167239416 -0.014653885582862869 0 0.026352776856129852 -0.016967123088103671 0 0.026080403284360839 -0.0095936369975092688 0 0.026352776856129852 -0.016967123088103671 0 0.020701022167239416 -0.014653885582862869 0 0.026080403284360839 -0.0095936369975092688 0 0.038997327102727158 -0.023002702935999306 0 0.025073861234382964 -0.022115793902443861 0 0.026538209260014548 -0.019692917911343585 0 0.040674191986591599 -0.024547790987872985 0 0.024696415286492635 -0.0282770941200138 0 0.032243003537172847 -0.030724823861726393 0 0.032977640845484192 -0.030750730465123884 0 0.032529163901722884 -0.03103636938746205 0 0.038525669274863665 -0.016245043163592095 0 0.026352776856129852 -0.016967123088103671 0 0.026352776856129852 -0.016967123088103671 0 0.024696415286492635 -0.0282770941200138 0 0.032977640845484192 -0.030750730465123884 0 0.032529163901722884 -0.03103636938746205 0 0.032696242424098181 -0.031357487947254771 0 0.024696415286492635 -0.0282770941200138 0 0.02631075393923419 -0.034257024076974167 0 0.019014617065548522 -0.036205397075180105 0 0.019283060957821271 -0.038052295906288419 0 0.020627177800555608 -0.035960853243339135 0 0.018393763399105211 -0.0348891395594828 0 0.019014617065548522 -0.036205397075180105 0 0.020627177800555608 -0.035960853243339135 0 0.032346970926284441 0.0016622060744500055 0 0.032003078588089817 0.0038733101973065223 0 0.029437931077562526 0.0044968475563394528 0 0.032090414463630312 0.0096340515809391764 0 0.032604190324939518 0.0033987855051889654 0 0.033845554475751917 0.0037527276413419457 0 0.032380407353412445 0.0016570395831273957 0 0.032003078588089817 0.0038733101973065223 0 0.033892047659556869 0.0058897706621434467 0 0.032003078588089817 0.0038733101973065223 0 0.029437931077562526 0.0044968475563394528 0 0.034017810986868215 -0.0064911741074791477 0 0.027031543190245554 -0.0025476339240659146 0 0.026039003175135845 -0.0041929903419261668 0 0.033892047659556869 0.0058897706621434467 0 0.029437931077562526 0.0044968475563394528 0 0.02781980440485024 0.0076115500155520448 0 0.034374744241101172 -0.013400462121707164 0 0.02898502063320129 -0.01037740762996801 0 0.029545037079028082 -0.0094563236159032563 0 0.033892047659556869 0.0058897706621434467 0 0.033845554475751917 0.0037527276413419457 0 0.032003078588089817 0.0038733101973065223 0 0.035329511892707971 -0.004165578362209041 0 0.025643216346633212 -0.0021173508454974733 0 0.036334057055946174 -0.0098838797756653548 0 0.034374744241101172 -0.013400462121707164 0 0.029545037079028082 -0.0094563236159032563 0 0.035329511892707971 -0.004165578362209041 0 0.026080403284360839 -0.0095936369975092688 0 0.029437931077562526 0.0044968475563394528 0 0.02781980440485024 0.0076115500155520448 0 0.025874121601132095 0.0043862022015886274 0 0.029137373318253647 0.0039517033728359357 0 0.024401931621332903 0.0017199571326160618 0 0.026080403284360839 -0.0095936369975092688 0 0.025643216346633212 -0.0021173508454974733 0 0.019285096684073102 -0.0029405688513344254 0 0.025643216346633212 -0.0021173508454974733 0 0.025643216346633212 -0.0021173508454974733 0 0.024401931621332903 0.0017199571326160618 0 0.022417592063495816 -0.0040356989097973667 0 0.021013951274025503 -0.0063614381997550307 0 0.019587085562183117 -0.0048795546984706601 0 0.029437931077562526 0.0044968475563394528 0 0.025820295403245045 0.0044648219045574592 0 0.024310091622845871 0.0020170180274540549 0 0.032346970926284441 0.0016622060744500055 0 0.029437931077562526 0.0044968475563394528 0 0.024513289817568239 -0.00026715532207605819 0 0.029437931077562526 0.0044968475563394528 0 0.024310091622845871 0.0020170180274540549 0 0.024513289817568239 -0.00026715532207605819 0 0.032090414463630312 0.0096340515809391764 0 0.024689829328574043 0.010877448549155906 0 0.016044780121113822 0.0015740200226781694 0 0.024689829328574043 0.010877448549155906 0 0.016352552011409244 0.0047870244697804532 0 0.016259564853222868 0.0039031567048651429 0 0.017036568387481951 0.004105931161134448 0 0.024310091622845871 0.0020170180274540549 0 0.020759500025915419 0.0043769535222614358 0 0.024513289817568239 -0.00026715532207605819 0 0.02577674989745455 0.0044671064662670451 0 0.024310091622845871 0.0020170180274540549 0 0.020759500025915419 0.0043769535222614358 0 0.024401931621332903 0.0017199571326160618 0 0.024946910363821028 0.0029088100752459765 0 0.024401931621332903 0.0017199571326160618 0 0.016044780121113822 0.0015740200226781694 0 0.021013951274025503 -0.0063614381997550307 0 0.019587085562183117 -0.0048795546984706601 0 0.017377932005909195 -0.0064546672957745315 0 0.019502041887393604 -0.0032326543058359487 0 0.022417592063495816 -0.0040356989097973667 0 0.019587085562183117 -0.0048795546984706601 0 0.019502041887393604 -0.0032326543058359487 0 0.019587085562183117 -0.0048795546984706601 0 0.017560558418548245 -0.0038933207106983114 0 0.019587085562183117 -0.0048795546984706601 0 0.017560558418548245 -0.0038933207106983114 0 0.017377932005909195 -0.0064546672957745315 0 0.0096512588835114994 -0.0059988058140956046 0 0.016044780121113822 0.0015740200226781694 0 0.010472739252650888 0.0010238804761402969 0 0.0087338082458093044 0.0033930381752793615 0 0.010837774061158158 0.0023921207503384318 0 0.013655193697178162 -0.0019180399459227141 0 0.017560558418548245 -0.0038933207106983114 0 0.017377932005909195 -0.0064546672957745315 0 0.016044780121113822 0.0015740200226781694 0 0.0125107755052893 0.0043668315042495473 0 0.016352552011409244 0.0047870244697804532 0 0.015841753335932268 0.0043628611524401716 0 0.016259564853222868 0.0039031567048651429 0 0.016352552011409244 0.0047870244697804532 0 0.015841753335932268 0.0043628611524401716 0 0.015190489556133014 0.0045646919422653058 0 0.016259564853222868 0.0039031567048651429 0 0.01542442783168037 0.0039629524857245245 0 0.015523083868207239 0.003771516353697461 0 0.015841753335932268 0.0043628611524401716 0 0.016259564853222868 0.0039031567048651429 0 0.01542442783168037 0.0039629524857245245 0 0.021924710609566616 0.012035372907239902 0 0.019026244982692189 0.015668685188354344 0 0.019026244982692189 0.015668685188354344 0 0.023175319361477546 0.025268768440538589 0 0.027695892596485361 0.020146699879978181 0 0.027871022168634883 0.020209120448704189 0 0.027821356919082097 0.020609881224933901 0 0.027695892596485361 0.020146699879978181 0 0.027633206431840453 0.02033822689907714 0 0.027821356919082097 0.020609881224933901 0 0.027633206431840453 0.02033822689907714 0 0.027642288196909559 0.020595749639723548 0 0.027821356919082097 0.020609881224933901 0 0.027695892596485361 0.020146699879978181 0 0.027633206431840453 0.02033822689907714 0 0.027569406867186737 0.020113915675703323 0 0.021924710609566616 0.012035372907239902 0 0.024689829328574043 0.010877448549155906 0 0.027028387194026365 0.018694196300629698 0 0.028500993796925625 0.019053236469707396 0 0.027434338702888809 0.019488201430933508 0 0.024689829328574043 0.010877448549155906 0 0.027757935796993757 0.022904516280794891 0 0.027633206431840453 0.02033822689907714 0 0.027569406867186737 0.020113915675703323 0 0.027531914448727594 0.020233013879213176 0 0.028500993796925625 0.019053236469707396 0 0.027531914448727594 0.020233013879213176 0 0.027434338702888809 0.019488201430933508 0 0.027633206431840453 0.02033822689907714 0 0.027531914448727594 0.020233013879213176 0 0.027642288196909559 0.020595749639723548 0 0.027531914448727594 0.020233013879213176 0 0.027010576355607441 0.020019132882490121 0 0.027390888090492522 0.020548751590436794 0 0.032090414463630312 0.0096340515809391764 0 0.033475116424039268 0.018199685648198811 0 0.027028387194026365 0.018694196300629698 0 0.027010576355607441 0.020019132882490121 0 0.027434338702888809 0.019488201430933508 0 0.041530224612156164 0.012395500218846391 0 0.042135309760776722 0.010688523321944659 0 0.041913910195546619 0.012504561039147395 0 0.027531914448727594 0.020233013879213176 0 0.027010576355607441 0.020019132882490121 0 0.027434338702888809 0.019488201430933508 0 0.014603331972744873 0.0039961968993748216 0 0.014562050094447155 0.0039495040823155888 0 0.014678440517183276 0.0038857863487052747 0 0.014603331972744873 0.0039961968993748216 0 0.014566380040184436 0.0040336274874635076 0 0.014568106902422499 0.0040058942957867123 0 0.014603331972744873 0.0039961968993748216 0 0.014568106902422499 0.0040058942957867123 0 0.014562050094447155 0.0039495040823155888 0 0.014603331972744873 0.0039961968993748216 0 0.014471895404764229 0.0040131198455883275 0 0.014566380040184436 0.0040336274874635076 0 0.014603331972744873 0.0039961968993748216 0 0.014471895404764229 0.0040131198455883275 0 0.014678440517183276 0.0038857863487052747 0 0.014648376553567053 0.0040657091632364381 0 0.014566380040184436 0.0040336274874635076 0 0.014568106902422499 0.0040058942957867123 0 0.014471895404764229 0.0040131198455883275 0 0.014648376553567053 0.0040657091632364381 0 0.014566380040184436 0.0040336274874635076 0 0.014648376553567053 0.0040657091632364381 0 0.014568106902422499 0.0040058942957867123 0 0.014642740934956005 0.0039856335739877477 0 0.014648376553567053 0.0040657091632364381 0 0.014832380108978468 0.0040484632402950577 0 0.014642740934956005 0.0039856335739877477 0 0.014568106902422499 0.0040058942957867123 0 0.014535634723217629 0.003971535783309452 0 0.014642740934956005 0.0039856335739877477 0 0.014509384363560821 0.0039717879208377299 0 0.014535634723217629 0.003971535783309452 0 0.014443683559564192 0.0039579082346583245 0 0.014509384363560821 0.0039717879208377299 0 0.014443683559564192 0.0039579082346583245 0 0.014348465484024167 0.0039734956234483663 0 0.014568106902422499 0.0040058942957867123 0 0.014509384363560821 0.0039717879208377299 0 0.014535634723217629 0.003971535783309452 0 0.014509384363560821 0.0039717879208377299 0 0.014457664634520077 0.0039845956889943794 0 0.014348465484024167 0.0039734956234483663 0 0.014509384363560821 0.0039717879208377299 0 0.014562050094447155 0.0039495040823155888 0 0.014457664634520077 0.0039845956889943794 0 0.014568106902422499 0.0040058942957867123 0 0.014509384363560821 0.0039717879208377299 0 0.014562050094447155 0.0039495040823155888 0 0.014562050094447155 0.0039495040823155888 0 0.014389238836536764 0.004094522442419494 0 0.014678440517183276 0.0038857863487052747 0 0.015496992206460393 0.0019257896355349825 0 0.017068002253324329 0.0022025848595209922 0 0.015020118136586054 0.002825298056403313 0 0.017068002253324329 0.0022025848595209922 0 0.015020118136586054 0.002825298056403313 0 0.014678440517183276 0.0038857863487052747 0 0.0068279760558977096 -0.0003842966874195146 0 0.0172882720410352 0.0036802971658661354 0 0.014562050094447155 0.0039495040823155888 0 0.014457664634520077 0.0039845956889943794 0 0.014389238836536764 0.004094522442419494 0 0.015496992206460393 0.0019257896355349825 0 0.014506342571602172 0.0022805132848447481 0 0.015020118136586054 0.002825298056403313 0 0.014506342571602172 0.0022805132848447481 0 0.015020118136586054 0.002825298056403313 0 0.014159939682510544 0.0028879108467457061 0 0.015020118136586054 0.002825298056403313 0 0.014343110047373996 0.0033395759328091979 0 0.014159939682510544 0.0028879108467457061 0 0.015020118136586054 0.002825298056403313 0 0.014678440517183276 0.0038857863487052747 0 0.014343110047373996 0.0033395759328091979 0 0.014471895404764229 0.0040131198455883275 0 0.014678440517183276 0.0038857863487052747 0 0.014343110047373996 0.0033395759328091979 0 0.014343110047373996 0.0033395759328091979 0 0.014159939682510544 0.0028879108467457061 0 0.013358037189942593 0.0029984260045364296 0 0.014471895404764229 0.0040131198455883275 0 0.014343110047373996 0.0033395759328091979 0 0.013358037189942593 0.0029984260045364296 0 0.014159939682510544 0.0028879108467457061 0 0.013788035124752525 0.0022952157391714261 0 0.013358037189942593 0.0029984260045364296 0 0.014506342571602172 0.0022805132848447481 0 0.014159939682510544 0.0028879108467457061 0 0.013788035124752525 0.0022952157391714261 0 0.013877782097540219 0.0016687760128085009 0 0.014506342571602172 0.0022805132848447481 0 0.013788035124752525 0.0022952157391714261 0 0.013093943593263074 0.0023084091961939448 0 0.012193415819413521 0.0023321210927817275 0 0.013358037189942593 0.0029984260045364296 0 0.013029485293031497 0.0016114422117270483 0 0.013788035124752525 0.0022952157391714261 0 0.013093943593263074 0.0023084091961939448 0 0.013029485293031497 0.0016114422117270483 0 0.013093943593263074 0.0023084091961939448 0 0.012193415819413521 0.0023321210927817275 0 0.012193415819413521 0.0023321210927817275 0 0.013358037189942593 0.0029984260045364296 0 0.011350779148897157 0.0035529748552212805 0 0.014471895404764229 0.0040131198455883275 0 0.013358037189942593 0.0029984260045364296 0 0.011350779148897157 0.0035529748552212805 0 0.013788035124752525 0.0022952157391714261 0 0.013093943593263074 0.0023084091961939448 0 0.013358037189942593 0.0029984260045364296 0 0.0087338082458093044 0.0033930381752793615 0 0.010837774061158158 0.0023921207503384318 0 0.011350779148897157 0.0035529748552212805 0 0.011595557155033765 0.0016184504792889328 0 0.012193415819413521 0.0023321210927817275 0 0.010837774061158158 0.0023921207503384318 0 0.012193415819413521 0.0023321210927817275 0 0.010837774061158158 0.0023921207503384318 0 0.011350779148897157 0.0035529748552212805 0 0.015841753335932268 0.0043628611524401716 0 0.015190489556133014 0.0045646919422653058 0 0.015399535408577344 0.0042512615455768989 0 0.01511998497481056 0.0041060884475317815 0 0.015399535408577344 0.0042512615455768989 0 0.01542442783168037 0.0039629524857245245 0 0.015190489556133014 0.0045646919422653058 0 0.01511998497481056 0.0041060884475317815 0 0.015399535408577344 0.0042512615455768989 0 0.015841753335932268 0.0043628611524401716 0 0.015399535408577344 0.0042512615455768989 0 0.01542442783168037 0.0039629524857245245 0 0.014471895404764229 0.0040131198455883275 0 0.014648376553567053 0.0040657091632364381 0 0.015190489556133014 0.0045646919422653058 0 0.014798187401402554 0.0039521678579797362 0 0.0125107755052893 0.0043668315042495473 0 0.014648376553567053 0.0040657091632364381 0 0.015190489556133014 0.0045646919422653058 0 0.014832380108978468 0.0040484632402950577 0 0.015190489556133014 0.0045646919422653058 0 0.01511998497481056 0.0041060884475317815 0 0.014832380108978468 0.0040484632402950577 0 0.01511998497481056 0.0041060884475317815 0 0.014832380108978468 0.0040484632402950577 0 0.014845364888113815 0.0038097427400681913 0 0.014832380108978468 0.0040484632402950577 0 0.014845364888113815 0.0038097427400681913 0 0.014642740934956005 0.0039856335739877477 0 0.016649827088200706 0.014246792094811372 0 0.019026244982692189 0.015668685188354344 0 0.014845364888113815 0.0038097427400681913 0 0.01542442783168037 0.0039629524857245245 0 0.015481056578314145 0.003865469657630626 0 0.01511998497481056 0.0041060884475317815 0 0.014845364888113815 0.0038097427400681913 0 0.01542442783168037 0.0039629524857245245 0 0.019655067747160391 0.0094597645019277102 0 0.019026244982692189 0.015668685188354344 0 0.019626389600834803 0.025993607619076761 0 0.018410349810745127 0.025650924914385247 0 0.018731899144139329 0.026762371841570806 0 0.018410349810745127 0.025650924914385247 0 0.018731899144139329 0.026762371841570806 0 0.017961227234682044 0.027285098632842366 0 0.019626389600834803 0.025993607619076761 0 0.018731899144139329 0.026762371841570806 0 0.019538523083764629 0.026943007137083131 0 0.016649827088200706 0.014246792094811372 0 0.017564762126633333 0.021750546314586453 0 0.019626389600834803 0.025993607619076761 0 0.019538523083764629 0.026943007137083131 0 0.020741548547335627 0.026244075970377676 0 0.01890745718091176 0.028059020461965872 0 0.017564762126633333 0.021750546314586453 0 0.018063618911645346 0.027959871064557017 0 0.017906262234244213 0.027880500733422964 0 0.017987639768386618 0.027941761110754831 0 0.017906262234244213 0.027880500733422964 0 0.017933988367315058 0.027915305888602318 0 0.017987639768386618 0.027941761110754831 0 0.014845364888113815 0.0038097427400681913 0 0.014551910944501154 0.0039340177584836697 0 0.014642740934956005 0.0039856335739877477 0 0.014845364888113815 0.0038097427400681913 0 0.014569173876922272 0.0038700761090399928 0 0.014551910944501154 0.0039340177584836697 0 0.014535634723217629 0.003971535783309452 0 0.014551910944501154 0.0039340177584836697 0 0.014642740934956005 0.0039856335739877477 0 0.014569173876922272 0.0038700761090399928 0 0.014551910944501154 0.0039340177584836697 0 0.014425240830778566 0.0039279100281782945 0 0.014551910944501154 0.0039340177584836697 0 0.014443683559564192 0.0039579082346583245 0 0.014425240830778566 0.0039279100281782945 0 0.014535634723217629 0.003971535783309452 0 0.014551910944501154 0.0039340177584836697 0 0.014443683559564192 0.0039579082346583245 0 0.017564762126633333 0.021750546314586453 0 0.017404234836308076 0.015231274717767702 0 0.017883692578255922 0.027853119225962668 0 0.017862790091274849 0.027699557689420128 0 0.017887859874353856 0.027848898042030796 0 0.017862790091274849 0.027699557689420128 0 0.017883576507842794 0.027817734455288078 0 0.017887859874353856 0.027848898042030796 0 0.017906262234244213 0.027880500733422964 0 0.017887859874353856 0.027848898042030796 0 0.017900491468464293 0.027881281099692842 0 0.017564762126633333 0.021750546314586453 0 0.018138007945160177 0.022740180329928531 0 0.017883576507842794 0.027817734455288078 0 0.017887859874353856 0.027848898042030796 0 0.017900491468464293 0.027881281099692842 0 0.017906262234244213 0.027880500733422964 0 0.017900491468464293 0.027881281099692842 0 0.017933988367315058 0.027915305888602318 0 0.017883576507842794 0.027817734455288078 0 0.017900491468464293 0.027881281099692842 0 0.017899357433365248 0.027877031507553926 0 0.017883576507842794 0.027817734455288078 0 0.017899357433365248 0.027877031507553926 0 0.017896985520572933 0.027791566418977686 0 0.017862790091274849 0.027699557689420128 0 0.017883576507842794 0.027817734455288078 0 0.017896985520572933 0.027791566418977686 0 -0.0018265975824869887 0.018976485617710804 0 -0.0068814419995428359 0.0084279234628929448 0 0.00046512118452024536 0.011133401518857356 0 0.017896985520572933 0.027791566418977686 0 0.017980391823992966 0.027831145979630909 0 0.017880619355078797 0.027543024303253529 0 0.0085643174832262699 0.025016079043598097 0 0.0062054297052211854 0.011067854842565743 0 -0.0068814419995428359 0.0084279234628929448 0 0.00046512118452024536 0.011133401518857356 0 0.0018436032499268829 0.0042593012257972854 0 0.0062054297052211854 0.011067854842565743 0 0.00076747525812495294 0.0029527656560706652 0 0.017862790091274849 0.027699557689420128 0 0.017896985520572933 0.027791566418977686 0 0.017880619355078797 0.027543024303253529 0 0.014443683559564192 0.0039579082346583245 0 0.014425240830778566 0.0039279100281782945 0 0.014285543631844897 0.0039732373006591513 0 0.017404234836308076 0.015231274717767702 0 0.0062054297052211854 0.011067854842565743 0 0.0085383892063819761 0.013641227404190775 0 0.011312512430371366 0.0079839270623254504 0 0.01034944096895272 0.01973823524380134 0 0.0079430973647884283 0.010623616915685127 0 0.0073860763118177956 0.01960857112908812 0 0.0039439205181745693 0.012810108073974711 0 0.0062763670475241085 0.017004728046892556 0 0.0044630071766004267 0.019810111073744124 0 0.0077636405651186954 0.017011333503230544 0 0.0045031854574767317 0.014793826263747584 0 0.0075416191208470601 0.019807997439886826 0 0.0077636405651186954 0.017011333503230544 0 0.0085383892063819761 0.013641227404190775 0 0.01034944096895272 0.01973823524380134 0 0.0077636405651186954 0.017011333503230544 0 0.0075416191208470601 0.019807997439886826 0 0.01034944096895272 0.01973823524380134 0 0.0077636405651186954 0.017011333503230544 0 0.0085383892063819761 0.013641227404190775 0 0.0045031854574767317 0.014793826263747584 0 -0.0018265975824869887 0.018976485617710804 0 0.0045031854574767317 0.014793826263747584 0 0.0075416191208470601 0.019807997439886826 0 -0.0018265975824869887 0.018976485617710804 0 0.0045031854574767317 0.014793826263747584 0 0.00046512118452024536 0.011133401518857356 0 0.00046512118452024536 0.011133401518857356 0 0.0051307435100814642 0.0094190754614660484 0 0.0018436032499268829 0.0042593012257972854 0 0.0051307435100814642 0.0094190754614660484 0 0.0069579880537147904 0.0052981753074739313 0 0.0018436032499268829 0.0042593012257972854 0 0.0085383892063819761 0.013641227404190775 0 0.0045031854574767317 0.014793826263747584 0 0.0051307435100814642 0.0094190754614660484 0 0.0045031854574767317 0.014793826263747584 0 0.00046512118452024536 0.011133401518857356 0 0.0051307435100814642 0.0094190754614660484 0 0.0085383892063819761 0.013641227404190775 0 0.0051307435100814642 0.0094190754614660484 0 0.011312512430371366 0.0079839270623254504 0 0.0051307435100814642 0.0094190754614660484 0 0.011312512430371366 0.0079839270623254504 0 0.0069579880537147904 0.0052981753074739313 0 0.011312512430371366 0.0079839270623254504 0 0.010118340448916801 -0.00033867995641636769 0 0.0069579880537147904 0.0052981753074739313 0 0.01041837391900266 -0.00036508211720122699 0 0.00076747525812495294 0.0029527656560706652 0 0.0079430973647884283 0.010623616915685127 0 0.0055742300698301689 -0.00045455754548841108 0 0.011312512430371366 0.0079839270623254504 0 0.010118340448916801 -0.00033867995641636769 0 0.011569662292974511 -0.0039482229748055457 0 0.010118340448916801 -0.00033867995641636769 0 0.0034023098861344901 0.0016351053030284717 0 0.006832954718340941 -0.0014625975234372037 0 0.010118340448916801 -0.00033867995641636769 0 0.0069579880537147904 0.0052981753074739313 0 0.0018436032499268829 0.0042593012257972854 0 0.0034023098861344901 0.0016351053030284717 0 0.0043293929796097671 -0.0022051464458482536 0 0.006832954718340941 -0.0014625975234372037 0 0.0034023098861344901 0.0016351053030284717 0 0.0043293929796097671 -0.0022051464458482536 0 0.0013915188199849103 -0.002126090330171743 0 0.0044103226426000048 -0.0047729610465244762 0 0.0043293929796097671 -0.0022051464458482536 0 0.0013915188199849103 -0.002126090330171743 0 -0.0026015743479037103 -0.0081712288360587925 0 -0.0026742872794124815 -0.0082908447391486177 0 -0.00280148302370165 -0.007881998102769459 0 -0.0026015743479037103 -0.0081712288360587925 0 -0.0020340421282263555 -0.0088285295530922542 0 -0.0013375651406361631 -0.0088724956226712663 0 -0.0026015743479037103 -0.0081712288360587925 0 -0.0026742872794124815 -0.0082908447391486177 0 -0.0020340421282263555 -0.0088285295530922542 0 0.0043293929796097671 -0.0022051464458482536 0 0.006465251483216773 -0.002906038426412118 0 0.006832954718340941 -0.0014625975234372037 0 0.0044103226426000048 -0.0047729610465244762 0 0.0043293929796097671 -0.0022051464458482536 0 0.006465251483216773 -0.002906038426412118 0 0.0044103226426000048 -0.0047729610465244762 0 0.006465251483216773 -0.002906038426412118 0 0.0086047702409023288 -0.0031931850680016354 0 0.001441653871301905 -0.0067704029284713745 0 0.002022303265345153 -0.00077670007524053783 0 0.0044103226426000048 -0.0047729610465244762 0 0.0086047702409023288 -0.0031931850680016354 0 0.011263449678478567 -0.0031142691220158092 0 -0.0026015743479037103 -0.0081712288360587925 0 -0.0013375651406361631 -0.0088724956226712663 0 -0.00036300343971899422 -0.0081129575303325978 0 0.010118340448916801 -0.00033867995641636769 0 0.006832954718340941 -0.0014625975234372037 0 0.0088990069048408039 -0.0018925309034901301 0 0.006832954718340941 -0.0014625975234372037 0 0.0088990069048408039 -0.0018925309034901301 0 0.007875820897074946 -0.002485301478971946 0 0.006465251483216773 -0.002906038426412118 0 0.006832954718340941 -0.0014625975234372037 0 0.007875820897074946 -0.002485301478971946 0 0.0088990069048408039 -0.0018925309034901301 0 0.0088282175546413426 -0.0025721966955053258 0 0.007875820897074946 -0.002485301478971946 0 0.0088282175546413426 -0.0025721966955053258 0 0.0086047702409023288 -0.0031931850680016354 0 0.007875820897074946 -0.002485301478971946 0 0.0088282175546413426 -0.0025721966955053258 0 0.0086047702409023288 -0.0031931850680016354 0 0.0094665564353997884 -0.0028329312373793561 0 0.006465251483216773 -0.002906038426412118 0 0.0086047702409023288 -0.0031931850680016354 0 0.007875820897074946 -0.002485301478971946 0 -0.0020340421282263555 -0.0088285295530922542 0 -0.0013375651406361631 -0.0088724956226712663 0 -0.0015952600103622311 -0.009186650629119027 0 -0.0013375651406361631 -0.0088724956226712663 0 -0.00026569535265059371 -0.0098782231474654879 0 -0.00036300343971899422 -0.0081129575303325978 0 0.010118340448916801 -0.00033867995641636769 0 0.011569662292974511 -0.0039482229748055457 0 0.010352672029002155 -0.0018709442145579207 0 0.010779472932664021 -0.0026782558304638019 0 0.010016242232175952 -0.0029443473904889666 0 0.011263449678478567 -0.0031142691220158092 0 0.010779472932664021 -0.0026782558304638019 0 0.010269158309748269 -0.0024429410931871369 0 0.010352672029002155 -0.0018709442145579207 0 0.0055742300698301689 -0.00045455754548841108 0 0.002022303265345153 -0.00077670007524053783 0 0.0086047702409023288 -0.0031931850680016354 0 0.010016242232175952 -0.0029443473904889666 0 0.011263449678478567 -0.0031142691220158092 0 0.0055742300698301689 -0.00045455754548841108 0 0.0079361072437789566 -0.0025097173514445621 0 0.010779472932664021 -0.0026782558304638019 0 0.010269158309748269 -0.0024429410931871369 0 0.010016242232175952 -0.0029443473904889666 0 0.0086047702409023288 -0.0031931850680016354 0 0.010016242232175952 -0.0029443473904889666 0 0.0094665564353997884 -0.0028329312373793561 0 0.010016242232175952 -0.0029443473904889666 0 0.0094665564353997884 -0.0028329312373793561 0 0.0096179165349796463 -0.0024537540406837349 0 0.0088990069048408039 -0.0018925309034901301 0 0.0088282175546413426 -0.0025721966955053258 0 0.0096179165349796463 -0.0024537540406837349 0 0.0088282175546413426 -0.0025721966955053258 0 0.0094665564353997884 -0.0028329312373793561 0 0.0096179165349796463 -0.0024537540406837349 0 0.010269158309748269 -0.0024429410931871369 0 0.010016242232175952 -0.0029443473904889666 0 0.0096179165349796463 -0.0024537540406837349 0 0.0088990069048408039 -0.0018925309034901301 0 0.0096179165349796463 -0.0024537540406837349 0 0.010352672029002155 -0.0018709442145579207 0 0.010118340448916801 -0.00033867995641636769 0 0.0088990069048408039 -0.0018925309034901301 0 0.010352672029002155 -0.0018709442145579207 0 0.010269158309748269 -0.0024429410931871369 0 0.0096179165349796463 -0.0024537540406837349 0 0.010352672029002155 -0.0018709442145579207 0 0.0062054297052211854 0.011067854842565743 0 0.0035126871915894349 -1.8383963963683707e-05 0 0.014443683559564192 0.0039579082346583245 0 0.014285543631844897 0.0039732373006591513 0 0.014348465484024167 0.0039734956234483663 0 -0.006093029514365465 -0.0013189656023333983 0 -0.0016703243374105096 7.68744695643134e-05 0 -0.0037638990298256626 -0.0059668108293865901 0 -0.0033813821536064609 0.0046347533427472777 0 -0.006093029514365465 -0.0013189656023333983 0 -0.0016703243374105096 7.68744695643134e-05 0 -0.0033813821536064609 0.0046347533427472777 0 0.0034023098861344901 0.0016351053030284717 0 -0.0016703243374105096 7.68744695643134e-05 0 0.0034023098861344901 0.0016351053030284717 0 -0.0016703243374105096 7.68744695643134e-05 0 0.0013915188199849103 -0.002126090330171743 0 0.0044103226426000048 -0.0047729610465244762 0 0.0013915188199849103 -0.002126090330171743 0 -0.0037638990298256626 -0.0059668108293865901 0 -0.0026015743479037103 -0.0081712288360587925 0 -0.0037638990298256626 -0.0059668108293865901 0 -0.00280148302370165 -0.007881998102769459 0 0.001441653871301905 -0.0067704029284713745 0 -0.0039245114482190915 -0.0060471412925974834 0 -0.0016703243374105096 7.68744695643134e-05 0 0.0013915188199849103 -0.002126090330171743 0 -0.0037638990298256626 -0.0059668108293865901 0 0.0068279760558977096 -0.0003842966874195146 0 0.0035126871915894349 -1.8383963963683707e-05 0 -0.0075536544887020883 -0.006541656262080006 0 -0.006093029514365465 -0.0013189656023333983 0 -0.0037638990298256626 -0.0059668108293865901 0 0.014457664634520077 0.0039845956889943794 0 0.014389238836536764 0.004094522442419494 0 0.014348465484024167 0.0039734956234483663 0 0.006304091761264112 -0.0088756477025019008 0 0.0060019908601552131 -0.0093812757114410707 0 0.0050898849709903439 -0.0088884878693567867 0 0.0068279760558977096 -0.0003842966874195146 0 0.0061528151287691367 -0.017032845988279543 0 -0.0075536544887020883 -0.006541656262080006 0 -0.0037638990298256626 -0.0059668108293865901 0 -0.0031531010244082651 -0.00880032066664224 0 0.01218735370567444 -0.014232232776015954 0 0.0061528151287691367 -0.017032845988279543 0 0.011226155688439852 -0.025751638760616275 0 0.012635536109164519 -0.026985639632179256 0 0.014667025855762126 -0.025561902216223596 0 0.012635536109164519 -0.026985639632179256 0 0.01482535331974533 -0.027638541756668109 0 0.013418344565521849 -0.02900940388769362 0 0.012635536109164519 -0.026985639632179256 0 0.01482535331974533 -0.027638541756668109 0 0.014667025855762126 -0.025561902216223596 0 0.01482535331974533 -0.027638541756668109 0 0.017566469439549072 -0.027241527792090461 0 0.01596711188134297 -0.029454565897138914 0 0.01482535331974533 -0.027638541756668109 0 0.014667025855762126 -0.025561902216223596 0 0.017566469439549072 -0.027241527792090461 0 0.0061528151287691367 -0.017032845988279543 0 0.0055836839614919606 -0.022837096642897185 0 -0.0037638990298256626 -0.0059668108293865901 0 -0.0031531010244082651 -0.00880032066664224 0 -0.00280148302370165 -0.007881998102769459 0 -0.0031531010244082651 -0.00880032066664224 0 -0.00280148302370165 -0.007881998102769459 0 -0.0023108269537206196 -0.0084652952319832098 0 0.0061528151287691367 -0.017032845988279543 0 -0.00081641015001630542 -0.013620670300499889 0 -0.0026334190234815588 -0.0074493770115209518 0 -0.00081641015001630542 -0.013620670300499889 0 -0.0026742872794124815 -0.0082908447391486177 0 -0.00280148302370165 -0.007881998102769459 0 -0.0023108269537206196 -0.0084652952319832098 0 -0.0021498404269718403 -0.0094458835298623783 0 -0.0028777662095608551 -0.010292682711421379 0 -0.0014975088185178174 -0.010003175586131903 0 -0.0026742872794124815 -0.0082908447391486177 0 -0.0020340421282263555 -0.0088285295530922542 0 -0.0021498404269718403 -0.0094458835298623783 0 -0.0026742872794124815 -0.0082908447391486177 0 -0.0021498404269718403 -0.0094458835298623783 0 -0.0028777662095608551 -0.010292682711421379 0 -0.00081641015001630542 -0.013620670300499889 0 -0.0022275979746452933 -0.011204747001516271 0 -0.007526452810349837 -0.01200042747249387 0 -0.0043793060545048159 -0.013782953040381313 0 -0.0002498680261990472 -0.011849357908623225 0 -0.0028777662095608551 -0.010292682711421379 0 -0.0014975088185178174 -0.010003175586131903 0 -0.0002498680261990472 -0.011849357908623225 0 -0.00080369364325644905 -0.0098136244068350344 0 -0.0002498680261990472 -0.011849357908623225 0 -0.00026569535265059371 -0.0098782231474654879 0 -0.0013375651406361631 -0.0088724956226712663 0 -0.00080369364325644905 -0.0098136244068350344 0 -0.00026569535265059371 -0.0098782231474654879 0 -0.00080369364325644905 -0.0098136244068350344 0 -0.0014975088185178174 -0.010003175586131903 0 -0.0002498680261990472 -0.011849357908623225 0 -0.0013375651406361631 -0.0088724956226712663 0 -0.00080369364325644905 -0.0098136244068350344 0 -0.0013124990403434512 -0.0094703519535675497 0 -0.00080369364325644905 -0.0098136244068350344 0 -0.0014975088185178174 -0.010003175586131903 0 -0.0013124990403434512 -0.0094703519535675497 0 -0.0014975088185178174 -0.010003175586131903 0 -0.0013124990403434512 -0.0094703519535675497 0 -0.0015952600103622311 -0.009186650629119027 0 -0.0013375651406361631 -0.0088724956226712663 0 -0.0013124990403434512 -0.0094703519535675497 0 -0.0015952600103622311 -0.009186650629119027 0 -0.0020340421282263555 -0.0088285295530922542 0 -0.0021498404269718403 -0.0094458835298623783 0 -0.0015952600103622311 -0.009186650629119027 0 -0.0021498404269718403 -0.0094458835298623783 0 -0.0014975088185178174 -0.010003175586131903 0 -0.0015952600103622311 -0.009186650629119027 0 -0.0027377612736599545 -0.015329147519163902 0 -0.0068622321514939261 -0.015792305623044251 0 -0.0014652345619386169 -0.019288299909708047 0 -0.0043793060545048159 -0.013782953040381313 0 -0.0027377612736599545 -0.015329147519163902 0 -0.0002498680261990472 -0.011849357908623225 0 -0.0043793060545048159 -0.013782953040381313 0 -0.0027377612736599545 -0.015329147519163902 0 -0.0068622321514939261 -0.015792305623044251 0 -0.0027377612736599545 -0.015329147519163902 0 -0.0014652345619386169 -0.019288299909708047 0 2.5000343859050135e-05 -0.01536533148086631 0 0.0065430245264101348 -0.021482434986867679 0 0.0076074205431612288 -0.021451537922440377 0 0.0077805574566647299 -0.02222700644322299 0 -0.007526452810349837 -0.01200042747249387 0 -0.0043793060545048159 -0.013782953040381313 0 -0.0068622321514939261 -0.015792305623044251 0 -0.00081641015001630542 -0.013620670300499889 0 0.0055836839614919606 -0.022837096642897185 0 0.0055836839614919606 -0.022837096642897185 0 0.0089893067973016803 -0.027353250488251355 0 0.017566469439549072 -0.027241527792090461 0 0.01831361614620353 -0.030579823100262811 0 0.01596711188134297 -0.029454565897138914 0 -0.0011603390861048442 -0.020747869748707525 0 0.0010077904347928425 -0.022076612518977776 0 -0.00085726896880048602 -0.023482242172666659 0 0.0055836839614919606 -0.022837096642897185 0 -0.0021964809321206591 -0.019568377473056654 0 0.0010077904347928425 -0.022076612518977776 0 -0.00085726896880048602 -0.023482242172666659 0 0.0015003509663743201 -0.023660251584714555 0 0.00041482475151934166 -0.024847370348907129 0 -0.00085726896880048602 -0.023482242172666659 0 0.0015003509663743201 -0.023660251584714555 0 -0.00072458060435416172 -0.026644418817148897 0 0.00041482475151934166 -0.024847370348907129 0 -0.00085726896880048602 -0.023482242172666659 0 0.0089460622748413141 -0.030330249388787273 0 0.0089893067973016803 -0.027353250488251355 0 0.016784645503643603 -0.032742442987487311 0 0.018710956555420311 -0.034150451355594323 0 0.01831361614620353 -0.030579823100262811 0 0.016784645503643603 -0.032742442987487311 0 0.01831361614620353 -0.030579823100262811 0 0.01596711188134297 -0.029454565897138914 0 0.016784645503643603 -0.032742442987487311 0 0.014667425136293591 -0.03158641447200107 0 0.01596711188134297 -0.029454565897138914 0 0.011853846365928787 -0.032226094318018997 0 0.014667425136293591 -0.03158641447200107 0 0.013418344565521849 -0.02900940388769362 0 0.011238927733988172 -0.028820105137765936 0 0.012635536109164519 -0.026985639632179256 0 0.013418344565521849 -0.02900940388769362 0 0.014667425136293591 -0.03158641447200107 0 0.013418344565521849 -0.02900940388769362 0 0.01596711188134297 -0.029454565897138914 0 0.01482535331974533 -0.027638541756668109 0 0.013418344565521849 -0.02900940388769362 0 0.01596711188134297 -0.029454565897138914 0 0.0060979320180876134 -0.022438030445193224 0 0.0062015882121532863 -0.01386929926686214 0 0.0060609618816431128 -0.021541233111559865 0 0.0037437651439969437 -0.018900638578503312 0 0.0081609346435222961 -0.016602349455797642 0 0.0062863703284697092 -0.023419048629251444 0 0.0046530567549368934 -0.019145409803261057 0 0.0060609618816431128 -0.021541233111559865 0 0.0074785995989800885 -0.022343086477178236 0 0.00630568290671341 -0.020083665561465212 0 0.0060609618816431128 -0.021541233111559865 0 0.0063120394365687414 -0.023829714229689724 0 0.0037437651439969437 -0.018900638578503312 0 0.0086865672353284226 -0.02149738218344394 0 0.0074785995989800885 -0.022343086477178236 0 0.00630568290671341 -0.020083665561465212 0 0.0052886083700760585 -0.014418137342672064 0 0.0062015882121532863 -0.01386929926686214 0 0.0086434571600598649 -0.024231119513687272 0 0.0074785995989800885 -0.022343086477178236 0 0.0063120394365687414 -0.023829714229689724 0 0.0063120394365687414 -0.023829714229689724 0 0.0045701750733381551 -0.024221545951878965 0 0.0054387070018723106 -0.019405953326576138 0 0.0060609618816431128 -0.021541233111559865 0 0.0074785995989800885 -0.022343086477178236 0 0.0063120394365687414 -0.023829714229689724 0 0.0045701750733381551 -0.024221545951878965 0 0.0032937721842096392 -0.022838370608295588 0 0.0054387070018723106 -0.019405953326576138 0 0.0045701750733381551 -0.024221545951878965 0 0.0029430582614433124 -0.024656493931540582 0 0.0032937721842096392 -0.022838370608295588 0 0.0029430582614433124 -0.024656493931540582 0 0.0032937721842096392 -0.022838370608295588 0 0.0015003509663743201 -0.023660251584714555 0 0.0017825567593490912 -0.025741059165246234 0 0.0029430582614433124 -0.024656493931540582 0 0.0015003509663743201 -0.023660251584714555 0 0.0017825567593490912 -0.025741059165246234 0 0.00041482475151934166 -0.024847370348907129 0 0.0015003509663743201 -0.023660251584714555 0 0.0010077904347928425 -0.022076612518977776 0 0.0032937721842096392 -0.022838370608295588 0 0.0015003509663743201 -0.023660251584714555 0 -0.0021964809321206591 -0.019568377473056654 0 0.0039193349210903013 -0.023223513978992305 0 -0.0014652345619386169 -0.019288299909708047 0 0.0032937721842096392 -0.022838370608295588 0 0.0020372742937013531 -0.01745616672409224 0 0.0032937721842096392 -0.022838370608295588 0 0.0054387070018723106 -0.019405953326576138 0 0.0020372742937013531 -0.01745616672409224 0 0.0037437651439969437 -0.018900638578503312 0 0.0026203712078243205 -0.012670353759546853 0 -0.0018034839266798518 -0.0095286249147574775 0 0.0046530567549368934 -0.019145409803261057 0 -0.0007292408823720523 -0.011009249139556218 0 0.0054387070018723106 -0.019405953326576138 0 0.0020372742937013531 -0.01745616672409224 0 0.0025383564150147702 -0.012593784623208053 0 0.0026203712078243205 -0.012670353759546853 0 0.0041297137183239985 -0.0068309844139461421 0 0.0080779423930660687 -0.010115508157948721 0 2.5000343859050135e-05 -0.01536533148086631 0 0.0020372742937013531 -0.01745616672409224 0 0.0025383564150147702 -0.012593784623208053 0 -0.0014652345619386169 -0.019288299909708047 0 2.5000343859050135e-05 -0.01536533148086631 0 0.0020372742937013531 -0.01745616672409224 0 2.5000343859050135e-05 -0.01536533148086631 0 -0.0002498680261990472 -0.011849357908623225 0 0.0025383564150147702 -0.012593784623208053 0 -0.0027377612736599545 -0.015329147519163902 0 2.5000343859050135e-05 -0.01536533148086631 0 -0.0002498680261990472 -0.011849357908623225 0 -0.0007292408823720523 -0.011009249139556218 0 0.002022303265345153 -0.00077670007524053783 0 0.0025383564150147702 -0.012593784623208053 0 -0.00026569535265059371 -0.0098782231474654879 0 -0.00036300343971899422 -0.0081129575303325978 0 -0.0018034839266798518 -0.0095286249147574775 0 -0.0031040829538164843 -0.0014007688135480715 0 -0.010546324713094881 0.0031778589933281758 0 -0.0002498680261990472 -0.011849357908623225 0 0.0025383564150147702 -0.012593784623208053 0 -0.00026569535265059371 -0.0098782231474654879 0 -0.0018034839266798518 -0.0095286249147574775 0 -0.0031040829538164843 -0.0014007688135480715 0 0.00019845100226752665 -0.0028481684559870696 0 0.0026203712078243205 -0.012670353759546853 0 -0.0018034839266798518 -0.0095286249147574775 0 0.0041297137183239985 -0.0068309844139461421 0 -0.0018034839266798518 -0.0095286249147574775 0 0.0041297137183239985 -0.0068309844139461421 0 0.00019845100226752665 -0.0028481684559870696 0 0.00098940833059443854 -0.0025680793865488168 0 0.010161407035549424 -0.00065910402160322028 0 0.0041297137183239985 -0.0068309844139461421 0 0.00019845100226752665 -0.0028481684559870696 0 0.0071855775596215178 -0.0022032657619043498 0 0.00019845100226752665 -0.0028481684559870696 0 0.011328028343298716 -3.5457406728702092e-05 0 0.0059907086350981008 0.0015642518906442478 0 0.0041297137183239985 -0.0068309844139461421 0 0.0094535862634550164 -0.0057431653751655234 0 0.0071855775596215178 -0.0022032657619043498 0 0.0094535862634550164 -0.0057431653751655234 0 0.0071855775596215178 -0.0022032657619043498 0 0.014576457174800534 -0.0010106268580741887 0 0.0094535862634550164 -0.0057431653751655234 0 0.013375413855497157 -0.0086239887072587802 0 0.014576457174800534 -0.0010106268580741887 0 0.0072608399358968416 -0.007666441978942725 0 0.0058628114349867583 0.0046907778301047837 0 0.0094535862634550164 -0.0057431653751655234 0 0.013375413855497157 -0.0086239887072587802 0 0.0080779423930660687 -0.010115508157948721 0 0.0041297137183239985 -0.0068309844139461421 0 0.0094535862634550164 -0.0057431653751655234 0 0.0080779423930660687 -0.010115508157948721 0 0.0046614913084643749 -0.013812414788594612 0 0.0062015882121532863 -0.01386929926686214 0 0.0037437651439969437 -0.018900638578503312 0 0.0026203712078243205 -0.012670353759546853 0 0.0081609346435222961 -0.016602349455797642 0 0.0026203712078243205 -0.012670353759546853 0 0.0080779423930660687 -0.010115508157948721 0 0.012137695330513306 -0.016508396900246792 0 0.013375413855497157 -0.0086239887072587802 0 0.0080779423930660687 -0.010115508157948721 0 0.012137695330513306 -0.016508396900246792 0 0.0072608399358968416 -0.007666441978942725 0 0.0062015882121532863 -0.01386929926686214 0 0.0036333239036460963 -0.0079170535249005834 0 0.001399704154607635 -0.0069355084914586342 0 0.0028656387884439145 -0.0062244901240585127 0 0.0016402039967622433 -0.0054169324863065204 0 0.001399704154607635 -0.0069355084914586342 0 0.0028656387884439145 -0.0062244901240585127 0 0.0016402039967622433 -0.0054169324863065204 0 0.0032081013473766969 -0.0049485360419769444 0 0.001908138074980862 -0.0038731341277456585 0 0.0016402039967622433 -0.0054169324863065204 0 0.0028656387884439145 -0.0062244901240585127 0 0.0032081013473766969 -0.0049485360419769444 0 0.0040470303372025299 -0.0036624534818686166 0 0.0032081013473766969 -0.0049485360419769444 0 0.001908138074980862 -0.0038731341277456585 0 -0.0032699218886165391 0.016951835626146498 0 -0.0037905479561250923 0.016689449250510788 0 -0.0034948382708985919 0.017900735130634275 0 -0.0031165799387732644 0.016861916628864711 0 -0.0032699218886165391 0.016951835626146498 0 -0.0037905479561250923 0.016689449250510788 0 -0.00082523100693381458 0.0066140264787031711 0 0.0058628114349867583 0.0046907778301047837 0 0.010161407035549424 -0.00065910402160322028 0 0.0058628114349867583 0.0046907778301047837 0 0.011328028343298716 -3.5457406728702092e-05 0 0.017530937308292589 0.0023582964436582275 0 0.012134422243999781 0.0047190519678044773 0 0.012134422243999781 0.0047190519678044773 0 0.014944883178562225 0.0072261206716228822 0 0.012494426867824015 0.0080245092503782155 0 0.017530937308292589 0.0023582964436582275 0 0.012134422243999781 0.0047190519678044773 0 0.014944883178562225 0.0072261206716228822 0 0.014944883178562225 0.0072261206716228822 0 0.014507944504032269 0.0098984572951772674 0 0.017880556255564332 0.011463939553997523 0 0.014944883178562225 0.0072261206716228822 0 0.012494426867824015 0.0080245092503782155 0 0.014507944504032269 0.0098984572951772674 0 0.012633353848448721 0.010526365924926546 0 0.014507944504032269 0.0098984572951772674 0 0.013247381721568002 0.012901063126098686 0 0.012494426867824015 0.0080245092503782155 0 0.012633353848448721 0.010526365924926546 0 0.014507944504032269 0.0098984572951772674 0 0.014507944504032269 0.0098984572951772674 0 0.017880556255564332 0.011463939553997523 0 0.015262924531970602 0.012959159321612327 0 0.0058628114349867583 0.0046907778301047837 0 0.0074020124740902726 0.015707062082553465 0 -0.0032699218886165391 0.016951835626146498 0 -0.0026416445643861275 0.018153666384701221 0 -0.0034948382708985919 0.017900735130634275 0 0.017530937308292589 0.0023582964436582275 0 0.014944883178562225 0.0072261206716228822 0 0.017880556255564332 0.011463939553997523 0 0.0049225299949140124 0.004638945013218064 0 0.0068623102600179169 0.0066733411950783642 0 0.0087806644913325273 0.0052316182031215156 0 -0.0031040829538164843 -0.0014007688135480715 0 -0.010546324713094881 0.0031778589933281758 0 3.1025353361873825e-06 0.0042145192409631374 0 0.002022303265345153 -0.00077670007524053783 0 0.0038200658972462587 0.0045149628389162307 0 0.0045169938864610603 0.0052043119056974212 0 0.0049225299949140124 0.004638945013218064 0 0.0068623102600179169 0.0066733411950783642 0 0.0068623102600179169 0.0066733411950783642 0 0.0087806644913325273 0.0052316182031215156 0 0.0088218525554927731 0.0084982991195823743 0 0.011488737813084873 0.0047783002911541087 0 0.0038200658972462587 0.0045149628389162307 0 0.012134422243999781 0.0047190519678044773 0 0.0087806644913325273 0.0052316182031215156 0 0.01049450611420181 0.0071296422147254348 0 0.012134422243999781 0.0047190519678044773 0 3.1025353361873825e-06 0.0042145192409631374 0 0.0059907086350981008 0.0015642518906442478 0 0.0087806644913325273 0.0052316182031215156 0 0.01049450611420181 0.0071296422147254348 0 0.0088218525554927731 0.0084982991195823743 0 -0.0031040829538164843 -0.0014007688135480715 0 0.00019845100226752665 -0.0028481684559870696 0 3.1025353361873825e-06 0.0042145192409631374 0 0.00019845100226752665 -0.0028481684559870696 0 3.1025353361873825e-06 0.0042145192409631374 0 0.0059907086350981008 0.0015642518906442478 0 0.011328028343298716 -3.5457406728702092e-05 0 0.012134422243999781 0.0047190519678044773 0 0.0059907086350981008 0.0015642518906442478 0 0.012134422243999781 0.0047190519678044773 0 0.012494426867824015 0.0080245092503782155 0 0.01049450611420181 0.0071296422147254348 0 0.012494426867824015 0.0080245092503782155 0 0.01049450611420181 0.0071296422147254348 0 0.010680274514592693 0.010158725702555656 0 0.012633353848448721 0.010526365924926546 0 0.010680274514592693 0.010158725702555656 0 0.010839356655792972 0.013347410166744473 0 0.012494426867824015 0.0080245092503782155 0 0.012633353848448721 0.010526365924926546 0 0.010680274514592693 0.010158725702555656 0 0.010680274514592693 0.010158725702555656 0 0.0088218525554927731 0.0084982991195823743 0 0.0091822469933401946 0.011698462856310968 0 0.01049450611420181 0.0071296422147254348 0 0.010680274514592693 0.010158725702555656 0 0.0088218525554927731 0.0084982991195823743 0 0.0039439205181745693 0.012810108073974711 0 0.0068623102600179169 0.0066733411950783642 0 0.0073359325738788245 0.010763600163581771 0 0.0039439205181745693 0.012810108073974711 0 0.0045169938864610603 0.0052043119056974212 0 0.0068623102600179169 0.0066733411950783642 0 0.0068623102600179169 0.0066733411950783642 0 0.0088218525554927731 0.0084982991195823743 0 0.0073359325738788245 0.010763600163581771 0 0.0088218525554927731 0.0084982991195823743 0 0.0073359325738788245 0.010763600163581771 0 0.0091822469933401946 0.011698462856310968 0 0.0039439205181745693 0.012810108073974711 0 0.0079628591523073691 0.014176685139343012 0 0.0062763670475241085 0.017004728046892556 0 0.0039439205181745693 0.012810108073974711 0 0.0073359325738788245 0.010763600163581771 0 0.0079628591523073691 0.014176685139343012 0 0.0073359325738788245 0.010763600163581771 0 0.0079628591523073691 0.014176685139343012 0 0.0091822469933401946 0.011698462856310968 0 0.0079628591523073691 0.014176685139343012 0 0.010839356655792972 0.013347410166744473 0 0.0092040683836350189 0.016404294569895898 0 0.010680274514592693 0.010158725702555656 0 0.0091822469933401946 0.011698462856310968 0 0.010839356655792972 0.013347410166744473 0 0.0079628591523073691 0.014176685139343012 0 0.0091822469933401946 0.011698462856310968 0 0.010839356655792972 0.013347410166744473 0 0.012633353848448721 0.010526365924926546 0 0.010839356655792972 0.013347410166744473 0 0.013247381721568002 0.012901063126098686 0 0.010839356655792972 0.013347410166744473 0 0.012006162951109667 0.015901777864945933 0 0.013247381721568002 0.012901063126098686 0 0.010839356655792972 0.013347410166744473 0 0.012006162951109667 0.015901777864945933 0 0.0092040683836350189 0.016404294569895898 0 0.012006162951109667 0.015901777864945933 0 0.010632549659946521 0.018070038247908371 0 0.012370280727428301 0.017853440887203278 0 0.012999194937222215 0.01955881649213604 0 0.012370280727428301 0.017853440887203278 0 0.011115756186037181 0.020515114082692916 0 0.010632549659946521 0.018070038247908371 0 0.012370280727428301 0.017853440887203278 0 0.011115756186037181 0.020515114082692916 0 0.010632549659946521 0.018070038247908371 0 0.0081877201724708613 0.01871238117243296 0 0.0095185818939971106 0.020089149811363286 0 0.010632549659946521 0.018070038247908371 0 0.0092040683836350189 0.016404294569895898 0 0.0081877201724708613 0.01871238117243296 0 0.012006162951109667 0.015901777864945933 0 0.010632549659946521 0.018070038247908371 0 0.0092040683836350189 0.016404294569895898 0 0.0092040683836350189 0.016404294569895898 0 0.0081877201724708613 0.01871238117243296 0 0.0062763670475241085 0.017004728046892556 0 0.0079628591523073691 0.014176685139343012 0 0.0092040683836350189 0.016404294569895898 0 0.0062763670475241085 0.017004728046892556 0 0.0081877201724708613 0.01871238117243296 0 0.0065187372241035822 0.019448006526912368 0 0.0062763670475241085 0.017004728046892556 0 0.0065187372241035822 0.019448006526912368 0 0.0062763670475241085 0.017004728046892556 0 0.0044630071766004267 0.019810111073744124 0 -0.0026416445643861275 0.018153666384701221 0 -0.0034948382708985919 0.017900735130634275 0 -0.0030117557973426048 0.020089213534202361 0 0.017880556255564332 0.011463939553997523 0 0.015943823034943849 0.015439052279898745 0 0.01788717455924713 0.018413778502994665 0 0.017880556255564332 0.011463939553997523 0 0.015943823034943849 0.015439052279898745 0 0.015262924531970602 0.012959159321612327 0 0.0074020124740902726 0.015707062082553465 0 0.0073102446915651138 0.018912074935739036 0 0.014507944504032269 0.0098984572951772674 0 0.015262924531970602 0.012959159321612327 0 0.013247381721568002 0.012901063126098686 0 0.015262924531970602 0.012959159321612327 0 0.013247381721568002 0.012901063126098686 0 0.014107433526301972 0.014927774249728574 0 0.012006162951109667 0.015901777864945933 0 0.013247381721568002 0.012901063126098686 0 0.014107433526301972 0.014927774249728574 0 0.015943823034943849 0.015439052279898745 0 0.015262924531970602 0.012959159321612327 0 0.014107433526301972 0.014927774249728574 0 0.015943823034943849 0.015439052279898745 0 0.014109592878287919 0.017310431094206921 0 0.0159358716932676 0.017984098491687566 0 0.015943823034943849 0.015439052279898745 0 0.014107433526301972 0.014927774249728574 0 0.014109592878287919 0.017310431094206921 0 0.012006162951109667 0.015901777864945933 0 0.014109592878287919 0.017310431094206921 0 0.012370280727428301 0.017853440887203278 0 0.012006162951109667 0.015901777864945933 0 0.014107433526301972 0.014927774249728574 0 0.014109592878287919 0.017310431094206921 0 0.014109592878287919 0.017310431094206921 0 0.012999194937222215 0.01955881649213604 0 0.012370280727428301 0.017853440887203278 0 0.014109592878287919 0.017310431094206921 0 0.012999194937222215 0.01955881649213604 0 0.01503150251669229 0.01918221754103477 0 0.014109592878287919 0.017310431094206921 0 0.01503150251669229 0.01918221754103477 0 0.0159358716932676 0.017984098491687566 0 0.01503150251669229 0.01918221754103477 0 0.016326652215459814 0.019387752614195512 0 0.0159358716932676 0.017984098491687566 0 0.016326652215459814 0.019387752614195512 0 0.0159358716932676 0.017984098491687566 0 0.01788717455924713 0.018413778502994665 0 0.015943823034943849 0.015439052279898745 0 0.0159358716932676 0.017984098491687566 0 0.01788717455924713 0.018413778502994665 0 0.016326652215459814 0.019387752614195512 0 0.01788717455924713 0.018413778502994665 0 0.017036421181693948 0.020669094254540239 0 0.01788717455924713 0.018413778502994665 0 0.017036421181693948 0.020669094254540239 0 0.017422136607205305 0.024198122667609376 0 0.017036421181693948 0.020669094254540239 0 0.017422136607205305 0.024198122667609376 0 0.016770730238899103 0.02295792989912239 0 0.0073102446915651138 0.018912074935739036 0 0.0079866742166342774 0.023733307217373673 0 -0.0020865260604897369 0.020275877364761424 0 -0.0030117557973426048 0.020089213534202361 0 -0.0023455689093534551 0.023093854002795861 0 0.017036421181693948 0.020669094254540239 0 0.016770730238899103 0.02295792989912239 0 0.016252510595790758 0.022892881923801834 0 0.015075359633504749 0.021843970783416572 0 0.014669146566241255 0.023279691323329577 0 0.016252510595790758 0.022892881923801834 0 0.017036421181693948 0.020669094254540239 0 0.016030813051927096 0.021504774347371212 0 0.016252510595790758 0.022892881923801834 0 0.016030813051927096 0.021504774347371212 0 0.015075359633504749 0.021843970783416572 0 0.016252510595790758 0.022892881923801834 0 0.016030813051927096 0.021504774347371212 0 0.015700605978849071 0.020572686094027216 0 0.015075359633504749 0.021843970783416572 0 0.017036421181693948 0.020669094254540239 0 0.016030813051927096 0.021504774347371212 0 0.015700605978849071 0.020572686094027216 0 0.016326652215459814 0.019387752614195512 0 0.017036421181693948 0.020669094254540239 0 0.015700605978849071 0.020572686094027216 0 0.01503150251669229 0.01918221754103477 0 0.016326652215459814 0.019387752614195512 0 0.015700605978849071 0.020572686094027216 0 0.01503150251669229 0.01918221754103477 0 0.015700605978849071 0.020572686094027216 0 0.014319957436233073 0.020681099384945754 0 0.012999194937222215 0.01955881649213604 0 0.01503150251669229 0.01918221754103477 0 0.014319957436233073 0.020681099384945754 0 0.015700605978849071 0.020572686094027216 0 0.014319957436233073 0.020681099384945754 0 0.015075359633504749 0.021843970783416572 0 0.012999194937222215 0.01955881649213604 0 0.013169037233410126 0.021364265313709465 0 0.01209367902144518 0.021344955610379256 0 0.012999194937222215 0.01955881649213604 0 0.014319957436233073 0.020681099384945754 0 0.013169037233410126 0.021364265313709465 0 0.013169037233410126 0.021364265313709465 0 0.012689538023170282 0.022554029755673392 0 0.01209367902144518 0.021344955610379256 0 0.013169037233410126 0.021364265313709465 0 0.012689538023170282 0.022554029755673392 0 0.013909486750693097 0.022287209552573847 0 0.012689538023170282 0.022554029755673392 0 0.013909486750693097 0.022287209552573847 0 0.01336235266096799 0.023619859726399128 0 0.014319957436233073 0.020681099384945754 0 0.013169037233410126 0.021364265313709465 0 0.013909486750693097 0.022287209552573847 0 0.014319957436233073 0.020681099384945754 0 0.015075359633504749 0.021843970783416572 0 0.013909486750693097 0.022287209552573847 0 0.015075359633504749 0.021843970783416572 0 0.013909486750693097 0.022287209552573847 0 0.014669146566241255 0.023279691323329577 0 0.014669146566241255 0.023279691323329577 0 0.014086761911037153 0.024853649646689738 0 0.015317991907358466 0.024413395326047763 0 0.014669146566241255 0.023279691323329577 0 0.01336235266096799 0.023619859726399128 0 0.014086761911037153 0.024853649646689738 0 0.013909486750693097 0.022287209552573847 0 0.014669146566241255 0.023279691323329577 0 0.01336235266096799 0.023619859726399128 0 0.01336235266096799 0.023619859726399128 0 0.012769871401708904 0.02522745552869321 0 0.012116797488833037 0.023918357739617899 0 0.012689538023170282 0.022554029755673392 0 0.01336235266096799 0.023619859726399128 0 0.012116797488833037 0.023918357739617899 0 0.01336235266096799 0.023619859726399128 0 0.012769871401708904 0.02522745552869321 0 0.014086761911037153 0.024853649646689738 0 0.014086761911037153 0.024853649646689738 0 0.014887060561235321 0.025921783464713806 0 0.013515449516474397 0.026452167799780747 0 0.012769871401708904 0.02522745552869321 0 0.014086761911037153 0.024853649646689738 0 0.013515449516474397 0.026452167799780747 0 0.014086761911037153 0.024853649646689738 0 0.015317991907358466 0.024413395326047763 0 0.014887060561235321 0.025921783464713806 0 0.015317991907358466 0.024413395326047763 0 0.015967258041433129 0.025147178923154077 0 0.014887060561235321 0.025921783464713806 0 0.015317991907358466 0.024413395326047763 0 0.015967258041433129 0.025147178923154077 0 0.016397359021916542 0.024022190788036926 0 0.015967258041433129 0.025147178923154077 0 0.017422136607205305 0.024198122667609376 0 0.015881258499486316 0.026781514583015052 0 0.015967258041433129 0.025147178923154077 0 0.016397359021916542 0.024022190788036926 0 0.017422136607205305 0.024198122667609376 0 0.016397359021916542 0.024022190788036926 0 0.017422136607205305 0.024198122667609376 0 0.016770730238899103 0.02295792989912239 0 0.016397359021916542 0.024022190788036926 0 0.016770730238899103 0.02295792989912239 0 0.016252510595790758 0.022892881923801834 0 0.014669146566241255 0.023279691323329577 0 0.015317991907358466 0.024413395326047763 0 0.016252510595790758 0.022892881923801834 0 0.015317991907358466 0.024413395326047763 0 0.016397359021916542 0.024022190788036926 0 0.016252510595790758 0.022892881923801834 0 0.0066257645935199087 0.022654643530651063 0 0.0076678900279741396 0.020997474621563782 0 0.0081030308420380181 0.023242459071217518 0 0.0066257645935199087 0.022654643530651063 0 0.0061668824586254781 0.020803896137854556 0 0.0076678900279741396 0.020997474621563782 0 0.0081877201724708613 0.01871238117243296 0 0.0065187372241035822 0.019448006526912368 0 0.0076678900279741396 0.020997474621563782 0 0.0065187372241035822 0.019448006526912368 0 0.0061668824586254781 0.020803896137854556 0 0.0076678900279741396 0.020997474621563782 0 0.0076678900279741396 0.020997474621563782 0 0.009479806209062221 0.021761230551935969 0 0.0095185818939971106 0.020089149811363286 0 0.0081877201724708613 0.01871238117243296 0 0.0076678900279741396 0.020997474621563782 0 0.0095185818939971106 0.020089149811363286 0 0.0076678900279741396 0.020997474621563782 0 0.009479806209062221 0.021761230551935969 0 0.0081030308420380181 0.023242459071217518 0 0.009479806209062221 0.021761230551935969 0 0.0099020824091130607 0.023965874514788571 0 0.0081030308420380181 0.023242459071217518 0 0.009479806209062221 0.021761230551935969 0 0.010411951365391277 0.022662144123795032 0 0.011115756186037181 0.020515114082692916 0 0.009479806209062221 0.021761230551935969 0 0.010411951365391277 0.022662144123795032 0 0.0099020824091130607 0.023965874514788571 0 0.009479806209062221 0.021761230551935969 0 0.0095185818939971106 0.020089149811363286 0 0.011115756186037181 0.020515114082692916 0 0.010632549659946521 0.018070038247908371 0 0.0095185818939971106 0.020089149811363286 0 0.011115756186037181 0.020515114082692916 0 0.012999194937222215 0.01955881649213604 0 0.011115756186037181 0.020515114082692916 0 0.01209367902144518 0.021344955610379256 0 0.010411951365391277 0.022662144123795032 0 0.011115756186037181 0.020515114082692916 0 0.011515308228480983 0.022555729911442109 0 0.011115756186037181 0.020515114082692916 0 0.01209367902144518 0.021344955610379256 0 0.011515308228480983 0.022555729911442109 0 0.012689538023170282 0.022554029755673392 0 0.01209367902144518 0.021344955610379256 0 0.011515308228480983 0.022555729911442109 0 0.011036931270761221 0.023744831822082441 0 0.012116797488833037 0.023918357739617899 0 0.011239642339556577 0.025498267843144722 0 0.012689538023170282 0.022554029755673392 0 0.011515308228480983 0.022555729911442109 0 0.012116797488833037 0.023918357739617899 0 0.011515308228480983 0.022555729911442109 0 0.011036931270761221 0.023744831822082441 0 0.012116797488833037 0.023918357739617899 0 0.010411951365391277 0.022662144123795032 0 0.011515308228480983 0.022555729911442109 0 0.011036931270761221 0.023744831822082441 0 0.012769871401708904 0.02522745552869321 0 0.012116797488833037 0.023918357739617899 0 0.011239642339556577 0.025498267843144722 0 0.011239642339556577 0.025498267843144722 0 0.0098559007695404842 0.025757788569444672 0 0.0099020824091130607 0.023965874514788571 0 0.011036931270761221 0.023744831822082441 0 0.011239642339556577 0.025498267843144722 0 0.0099020824091130607 0.023965874514788571 0 0.010411951365391277 0.022662144123795032 0 0.011036931270761221 0.023744831822082441 0 0.0099020824091130607 0.023965874514788571 0 0.0099020824091130607 0.023965874514788571 0 0.0081030308420380181 0.023242459071217518 0 0.0088671453222501292 0.024859083147546975 0 0.0098559007695404842 0.025757788569444672 0 0.0088671453222501292 0.024859083147546975 0 0.0088498739602562819 0.026490028036050453 0 0.0098559007695404842 0.025757788569444672 0 0.0099020824091130607 0.023965874514788571 0 0.0088671453222501292 0.024859083147546975 0 0.0088671453222501292 0.024859083147546975 0 0.0075375255222950074 0.025155404886199474 0 0.0088498739602562819 0.026490028036050453 0 0.0066257645935199087 0.022654643530651063 0 0.0081030308420380181 0.023242459071217518 0 0.0075375255222950074 0.025155404886199474 0 0.0081030308420380181 0.023242459071217518 0 0.0088671453222501292 0.024859083147546975 0 0.0075375255222950074 0.025155404886199474 0 0.009105122253011062 0.027920836868634644 0 0.0092616040155658556 0.029482783789964676 0 0.0079958575211390888 0.027799511267193905 0 0.0088498739602562819 0.026490028036050453 0 0.009105122253011062 0.027920836868634644 0 0.0079958575211390888 0.027799511267193905 0 0.0075375255222950074 0.025155404886199474 0 0.0088498739602562819 0.026490028036050453 0 0.0079958575211390888 0.027799511267193905 0 0.0098559007695404842 0.025757788569444672 0 0.0088498739602562819 0.026490028036050453 0 0.010378087472611151 0.027793678215711715 0 0.0088498739602562819 0.026490028036050453 0 0.009105122253011062 0.027920836868634644 0 0.010378087472611151 0.027793678215711715 0 0.010378087472611151 0.027793678215711715 0 0.012033716706853506 0.026928702660567055 0 0.012520699672229806 0.028619062961846468 0 0.011239642339556577 0.025498267843144722 0 0.0098559007695404842 0.025757788569444672 0 0.010378087472611151 0.027793678215711715 0 0.011239642339556577 0.025498267843144722 0 0.010378087472611151 0.027793678215711715 0 0.012033716706853506 0.026928702660567055 0 0.012769871401708904 0.02522745552869321 0 0.011239642339556577 0.025498267843144722 0 0.012033716706853506 0.026928702660567055 0 0.010378087472611151 0.027793678215711715 0 0.011033656751129132 0.029867892740461473 0 0.0092616040155658556 0.029482783789964676 0 0.010378087472611151 0.027793678215711715 0 0.011033656751129132 0.029867892740461473 0 0.012520699672229806 0.028619062961846468 0 0.009105122253011062 0.027920836868634644 0 0.010378087472611151 0.027793678215711715 0 0.0092616040155658556 0.029482783789964676 0 0.017422136607205305 0.024198122667609376 0 0.015881258499486316 0.026781514583015052 0 0.016846147302848932 0.028910871849978249 0 0.014440878607993665 0.027466940901682394 0 0.015881258499486316 0.026781514583015052 0 0.01480023175954117 0.028877817329599959 0 0.015881258499486316 0.026781514583015052 0 0.01480023175954117 0.028877817329599959 0 0.016846147302848932 0.028910871849978249 0 0.015967258041433129 0.025147178923154077 0 0.015881258499486316 0.026781514583015052 0 0.014887060561235321 0.025921783464713806 0 0.014440878607993665 0.027466940901682394 0 0.015881258499486316 0.026781514583015052 0 0.014887060561235321 0.025921783464713806 0 0.014440878607993665 0.027466940901682394 0 0.014887060561235321 0.025921783464713806 0 0.013515449516474397 0.026452167799780747 0 0.012769871401708904 0.02522745552869321 0 0.012033716706853506 0.026928702660567055 0 0.013515449516474397 0.026452167799780747 0 0.012033716706853506 0.026928702660567055 0 0.013515449516474397 0.026452167799780747 0 0.012520699672229806 0.028619062961846468 0 0.014440878607993665 0.027466940901682394 0 0.013515449516474397 0.026452167799780747 0 0.012520699672229806 0.028619062961846468 0 0.011033656751129132 0.029867892740461473 0 0.012520699672229806 0.028619062961846468 0 0.013658577610695347 0.030600991633899795 0 0.012520699672229806 0.028619062961846468 0 0.01480023175954117 0.028877817329599959 0 0.013658577610695347 0.030600991633899795 0 0.014440878607993665 0.027466940901682394 0 0.012520699672229806 0.028619062961846468 0 0.01480023175954117 0.028877817329599959 0 0.010452002149015057 0.031704885746370787 0 0.0042734793986959731 0.02735819785188974 0 0.01480023175954117 0.028877817329599959 0 0.013658577610695347 0.030600991633899795 0 0.016846147302848932 0.028910871849978249 0 0.004520400022198722 0.0325191960346745 0 0.0052210634507050286 0.032683013405735387 0 0.004715103154865936 0.032697176715469518 0 0.004520400022198722 0.0325191960346745 0 0.0052210634507050286 0.032683013405735387 0 0.0044683425610897824 0.032113742335350123 0 0.0052210634507050286 0.032683013405735387 0 0.0044683425610897824 0.032113742335350123 0 0.0049179661672090966 0.03137358422924183 0 0.0044683425610897824 0.032113742335350123 0 0.0049179661672090966 0.03137358422924183 0 0.0019971420105685546 0.030731800084725931 0 0.0049179661672090966 0.03137358422924183 0 0.0068925812560523868 0.032224686625235782 0 0.0066978021677442292 0.030221853988068613 0 0.011033656751129132 0.029867892740461473 0 0.013658577610695347 0.030600991633899795 0 0.011033400415031987 0.031331587881995436 0 0.010452002149015057 0.031704885746370787 0 0.0088913942867511753 0.031712021867248384 0 0.0052210634507050286 0.032683013405735387 0 0.0049179661672090966 0.03137358422924183 0 0.0068925812560523868 0.032224686625235782 0 0.011033656751129132 0.029867892740461473 0 0.0099299080374228039 0.030740990761923461 0 0.011033400415031987 0.031331587881995436 0 0.0092616040155658556 0.029482783789964676 0 0.0099299080374228039 0.030740990761923461 0 0.00926844720623499 0.030751206226231342 0 0.011033656751129132 0.029867892740461473 0 0.0092616040155658556 0.029482783789964676 0 0.0099299080374228039 0.030740990761923461 0 0.0099299080374228039 0.030740990761923461 0 0.0093412989619504668 0.031005833287731117 0 0.00926844720623499 0.030751206226231342 0 0.0093412989619504668 0.031005833287731117 0 0.0068925812560523868 0.032224686625235782 0 0.0066978021677442292 0.030221853988068613 0 0.0094717384623258533 0.0310315384715181 0 0.0088913942867511753 0.031712021867248384 0 0.0099299080374228039 0.030740990761923461 0 0.0093412989619504668 0.031005833287731117 0 0.011033400415031987 0.031331587881995436 0 0.0093412989619504668 0.031005833287731117 0 0.0086931066034014286 0.02917285606771217 0 0.0066978021677442292 0.030221853988068613 0 0.0093412989619504668 0.031005833287731117 0 0.0086931066034014286 0.02917285606771217 0 0.011035860570341966 0.029791282417565047 0 0.0086931066034014286 0.02917285606771217 0 0.010235254195454161 0.028379762411855143 0 0.0085252886075746839 0.027340517708699705 0 0.0086931066034014286 0.02917285606771217 0 0.010235254195454161 0.028379762411855143 0 0.011035860570341966 0.029791282417565047 0 0.0086931066034014286 0.02917285606771217 0 0.0061375497698547702 0.028012433697108898 0 0.0066978021677442292 0.030221853988068613 0 0.0086931066034014286 0.02917285606771217 0 0.0061375497698547702 0.028012433697108898 0 0.0085252886075746839 0.027340517708699705 0 0.0061375497698547702 0.028012433697108898 0 0.0038283985893231799 0.029157768586488574 0 0.0066978021677442292 0.030221853988068613 0 0.0061375497698547702 0.028012433697108898 0 0.0038283985893231799 0.029157768586488574 0 0.0034834561401123165 0.025982155933115605 0 0.0049179661672090966 0.03137358422924183 0 0.0038283985893231799 0.029157768586488574 0 0.0019971420105685546 0.030731800084725931 0 0.0049179661672090966 0.03137358422924183 0 0.0038283985893231799 0.029157768586488574 0 0.0066978021677442292 0.030221853988068613 0 0.010856725682562822 0.028622744492792462 0 0.012481024333989173 0.029814325529454701 0 0.010247825644393053 0.030074107408806564 0 0.012481024333989173 0.029814325529454701 0 0.013759945370958369 0.028151570745440245 0 0.016301475729215881 0.027198715567823255 0 0.017285641676711309 0.028426616433834623 0 0.016301475729215881 0.027198715567823255 0 0.017623769659670892 0.028288489136193608 0 0.01497167974375482 0.028891325832273784 0 0.01621941522378461 0.027118550639937029 0 0.010856725682562822 0.028622744492792462 0 0.012481024333989173 0.029814325529454701 0 0.013759945370958369 0.028151570745440245 0 0.012446878843241367 0.029395063694421887 0 0.015872044578441897 0.027644505179235852 0 0.013921917656553958 0.030102684283801265 0 0.01633016132039285 0.028476380323278712 0 0.01502510655837151 0.02858990049259328 0 0.010856725682562822 0.028622744492792462 0 0.013759945370958369 0.028151570745440245 0 0.015660232253212173 0.026771111889769793 0 0.013759945370958369 0.028151570745440245 0 0.015660232253212173 0.026771111889769793 0 0.016301475729215881 0.027198715567823255 0 0.01633016132039285 0.028476380323278712 0 0.01502510655837151 0.02858990049259328 0 0.015612275738571409 0.027654961475854105 0 0.01502510655837151 0.02858990049259328 0 0.014700067468645259 0.028068229902059511 0 0.015612275738571409 0.027654961475854105 0 0.01502510655837151 0.02858990049259328 0 0.01418368762869332 0.028691668215777288 0 0.014700067468645259 0.028068229902059511 0 0.01418368762869332 0.028691668215777288 0 0.013858097508039196 0.028046523541268135 0 0.014700067468645259 0.028068229902059511 0 0.013921917656553958 0.030102684283801265 0 0.01502510655837151 0.02858990049259328 0 0.01418368762869332 0.028691668215777288 0 0.013921917656553958 0.030102684283801265 0 0.01418368762869332 0.028691668215777288 0 0.012848961151146509 0.02884766750906221 0 0.01418368762869332 0.028691668215777288 0 0.012848961151146509 0.02884766750906221 0 0.013858097508039196 0.028046523541268135 0 0.012848961151146509 0.02884766750906221 0 0.011035860570341966 0.029791282417565047 0 0.011803926205645125 0.027808220638355058 0 0.012848961151146509 0.02884766750906221 0 0.011035860570341966 0.029791282417565047 0 0.012231264049046918 0.029984101566282555 0 0.010235254195454161 0.028379762411855143 0 0.011035860570341966 0.029791282417565047 0 0.011803926205645125 0.027808220638355058 0 0.0093412989619504668 0.031005833287731117 0 0.011035860570341966 0.029791282417565047 0 0.011273162179719387 0.031099778457005605 0 0.013921917656553958 0.030102684283801265 0 0.012231264049046918 0.029984101566282555 0 0.011273162179719387 0.031099778457005605 0 0.011035860570341966 0.029791282417565047 0 0.012231264049046918 0.029984101566282555 0 0.011273162179719387 0.031099778457005605 0 0.012446878843241367 0.029395063694421887 0 0.01030270635005247 0.03049478469429498 0 0.013921917656553958 0.030102684283801265 0 0.012848961151146509 0.02884766750906221 0 0.012231264049046918 0.029984101566282555 0 0.0091750062114733886 0.030073728430465713 0 0.0089884542879784882 0.030354284671222188 0 0.010247825644393053 0.030074107408806564 0 0.01030270635005247 0.03049478469429498 0 0.0094458867693238205 0.030729698396938541 0 0.0093412989619504668 0.031005833287731117 0 0.011273162179719387 0.031099778457005605 0 0.00926844720623499 0.030751206226231342 0 0.00926844720623499 0.030751206226231342 0 0.0089884542879784882 0.030354284671222188 0 0.0084094869229507808 0.029927191867118993 0 0.0091750062114733886 0.030073728430465713 0 0.00926844720623499 0.030751206226231342 0 0.0089884542879784882 0.030354284671222188 0 0.0089884542879784882 0.030354284671222188 0 0.0098922437814202534 0.030547890474342233 0 0.010247825644393053 0.030074107408806564 0 0.010856725682562822 0.028622744492792462 0 0.0091750062114733886 0.030073728430465713 0 0.010247825644393053 0.030074107408806564 0 0.012481024333989173 0.029814325529454701 0 0.0098922437814202534 0.030547890474342233 0 0.010247825644393053 0.030074107408806564 0 0.01497167974375482 0.028891325832273784 0 0.013807717509403078 0.029438836737049258 0 0.017285641676711309 0.028426616433834623 0 0.017771726246583588 0.028464925088136164 0 0.017713528685333463 0.02853846317298582 0 0.017771726246583588 0.028464925088136164 0 0.017713528685333463 0.02853846317298582 0 0.017926454168932116 0.028421689122683308 0 0.017771726246583588 0.028464925088136164 0 0.01790636516649452 0.028288540938492267 0 0.017926454168932116 0.028421689122683308 0 0.0089884542879784882 0.030354284671222188 0 0.0098922437814202534 0.030547890474342233 0 0.0085387825233937814 0.029844801558047713 0 0.017771726246583588 0.028464925088136164 0 0.01790636516649452 0.028288540938492267 0 0.017979206207804497 0.028266263353822017 0 0.013807717509403078 0.029438836737049258 0 0.013877580788083051 0.028969001162445718 0 0.01790636516649452 0.028288540938492267 0 0.017979206207804497 0.028266263353822017 0 0.017955912346212171 0.028108634160648852 0 0.017979206207804497 0.028266263353822017 0 0.018038028519759251 0.02806047900613106 0 0.017955912346212171 0.028108634160648852 0 0.01790636516649452 0.028288540938492267 0 0.017932431378094651 0.028121468681028074 0 0.017955912346212171 0.028108634160648852 0 0.0092616040155658556 0.029482783789964676 0 0.00926844720623499 0.030751206226231342 0 0.0084094869229507808 0.029927191867118993 0 0.0092616040155658556 0.029482783789964676 0 0.0084094869229507808 0.029927191867118993 0 0.0079958575211390888 0.027799511267193905 0 0.0089884542879784882 0.030354284671222188 0 0.0085387825233937814 0.029844801558047713 0 0.0084094869229507808 0.029927191867118993 0 0.0085387825233937814 0.029844801558047713 0 0.0084094869229507808 0.029927191867118993 0 0.008420725027603956 0.029188566257736536 0 0.013877580788083051 0.028969001162445718 0 0.0086476143604448039 0.027926990772232135 0 0.0085387825233937814 0.029844801558047713 0 0.008420725027603956 0.029188566257736536 0 0.0083374681315111568 0.028987064378269256 0 0.0082334157606250135 0.029605754766854214 0 0.0076323454170199962 0.026654980694655883 0 0.0084094869229507808 0.029927191867118993 0 0.008420725027603956 0.029188566257736536 0 0.0092848159674377307 0.028032620162367655 0 0.0084094869229507808 0.029927191867118993 0 0.0079958575211390888 0.027799511267193905 0 0.0058309709676291066 0.025641967318532424 0 0.0075375255222950074 0.025155404886199474 0 0.0079958575211390888 0.027799511267193905 0 0.0058309709676291066 0.025641967318532424 0 0.0066257645935199087 0.022654643530651063 0 0.0075375255222950074 0.025155404886199474 0 0.0058309709676291066 0.025641967318532424 0 0.0092848159674377307 0.028032620162367655 0 0.0059764793469437756 0.026928614064597647 0 0.008240974612579232 0.023807467890414991 0 0.0080480965833206724 0.028785594024350668 0 0.0086476143604448039 0.027926990772232135 0 0.008420725027603956 0.029188566257736536 0 0.0092848159674377307 0.028032620162367655 0 0.0059764793469437756 0.026928614064597647 0 0.0085643174832262699 0.025016079043598097 0 0.0086476143604448039 0.027926990772232135 0 0.0059764793469437756 0.026928614064597647 0 0.008240974612579232 0.023807467890414991 0 0.0075416191208470601 0.019807997439886826 0 0.0086476143604448039 0.027926990772232135 0 0.0065496083986493056 0.020701042052341464 0 -0.0018265975824869887 0.018976485617710804 0 0.0035272567400103723 0.02976386127481024 0 0.0075416191208470601 0.019807997439886826 0 0.0076323454170199962 0.026654980694655883 0 0.0073860763118177956 0.01960857112908812 0 0.0066257645935199087 0.022654643530651063 0 0.0058309709676291066 0.025641967318532424 0 0.0044630071766004267 0.019810111073744124 0 0.0092848159674377307 0.028032620162367655 0 0.008240974612579232 0.023807467890414991 0 0.01034944096895272 0.01973823524380134 0 0.008240974612579232 0.023807467890414991 0 0.0075416191208470601 0.019807997439886826 0 0.01034944096895272 0.01973823524380134 0 0.0066257645935199087 0.022654643530651063 0 0.0061668824586254781 0.020803896137854556 0 0.0044630071766004267 0.019810111073744124 0 0.0065187372241035822 0.019448006526912368 0 0.0061668824586254781 0.020803896137854556 0 0.0044630071766004267 0.019810111073744124 0 0.017932431378094651 0.028121468681028074 0 0.017955912346212171 0.028108634160648852 0 0.017918599215919734 0.027946092568259816 0 0.017955912346212171 0.028108634160648852 0 0.017969721840797318 0.027986119904678915 0 0.017918599215919734 0.027946092568259816 0 0.018038028519759251 0.02806047900613106 0 0.017955912346212171 0.028108634160648852 0 0.017969721840797318 0.027986119904678915 0 0.017980391823992966 0.027831145979630909 0 0.018038028519759251 0.02806047900613106 0 0.017969721840797318 0.027986119904678915 0 0.017980391823992966 0.027831145979630909 0 0.017969721840797318 0.027986119904678915 0 0.017918599215919734 0.027946092568259816 0 0.017899357433365248 0.027877031507553926 0 0.017896985520572933 0.027791566418977686 0 0.017918599215919734 0.027946092568259816 0 0.017896985520572933 0.027791566418977686 0 0.017980391823992966 0.027831145979630909 0 0.017918599215919734 0.027946092568259816 0 0.017900491468464293 0.027881281099692842 0 0.017899357433365248 0.027877031507553926 0 0.017919291449977535 0.027938743750694585 0 0.017899357433365248 0.027877031507553926 0 0.017918599215919734 0.027946092568259816 0 0.017919291449977535 0.027938743750694585 0 0.017919291449977535 0.027938743750694585 0 0.017969241476303834 0.027971613234432244 0 0.017933988367315058 0.027915305888602318 0 0.017900491468464293 0.027881281099692842 0 0.017919291449977535 0.027938743750694585 0 0.017933988367315058 0.027915305888602318 0 0.017919291449977535 0.027938743750694585 0 0.01793531649669031 0.028027871386068881 0 0.017969241476303834 0.027971613234432244 0 0.017918599215919734 0.027946092568259816 0 0.017919291449977535 0.027938743750694585 0 0.01793531649669031 0.028027871386068881 0 0.017932431378094651 0.028121468681028074 0 0.017918599215919734 0.027946092568259816 0 0.01793531649669031 0.028027871386068881 0 0.017932431378094651 0.028121468681028074 0 0.01793531649669031 0.028027871386068881 0 0.017967923340194026 0.028134598437445594 0 0.01793531649669031 0.028027871386068881 0 0.018026272077003986 0.02805376909437933 0 0.017967923340194026 0.028134598437445594 0 0.01793531649669031 0.028027871386068881 0 0.018026272077003986 0.02805376909437933 0 0.017969241476303834 0.027971613234432244 0 0.018026272077003986 0.02805376909437933 0 0.017969241476303834 0.027971613234432244 0 0.018028980833281121 0.027967761526037641 0 0.017969241476303834 0.027971613234432244 0 0.017987639768386618 0.027941761110754831 0 0.018028980833281121 0.027967761526037641 0 0.017969241476303834 0.027971613234432244 0 0.017933988367315058 0.027915305888602318 0 0.017987639768386618 0.027941761110754831 0 0.018063618911645346 0.027959871064557017 0 0.017987639768386618 0.027941761110754831 0 0.018028980833281121 0.027967761526037641 0 0.018063618911645346 0.027959871064557017 0 0.018028980833281121 0.027967761526037641 0 0.018136775620090823 0.027941281446038326 0 0.018731899144139329 0.026762371841570806 0 0.019538523083764629 0.026943007137083131 0 0.01821571411852959 0.027692338394495912 0 0.018063618911645346 0.027959871064557017 0 0.01821571411852959 0.027692338394495912 0 0.018136775620090823 0.027941281446038326 0 0.01890745718091176 0.028059020461965872 0 0.018236311964026575 0.027547090745399815 0 0.018731899144139329 0.026762371841570806 0 0.01821571411852959 0.027692338394495912 0 0.017961227234682044 0.027285098632842366 0 0.01821571411852959 0.027692338394495912 0 0.018195786402155151 0.028007438941177961 0 0.018136775620090823 0.027941281446038326 0 0.018195786402155151 0.028007438941177961 0 0.018136775620090823 0.027941281446038326 0 0.018151680210388189 0.028150252179244394 0 0.018026272077003986 0.02805376909437933 0 0.018136775620090823 0.027941281446038326 0 0.018151680210388189 0.028150252179244394 0 0.018026272077003986 0.02805376909437933 0 0.018028980833281121 0.027967761526037641 0 0.018136775620090823 0.027941281446038326 0 0.018026272077003986 0.02805376909437933 0 0.018151680210388189 0.028150252179244394 0 0.018019510823890215 0.028228997071592592 0 0.018195786402155151 0.028007438941177961 0 0.018151680210388189 0.028150252179244394 0 0.018262512553815915 0.028180489073802387 0 0.018151680210388189 0.028150252179244394 0 0.018262512553815915 0.028180489073802387 0 0.018271237934484586 0.028266296416378719 0 0.018151680210388189 0.028150252179244394 0 0.018271237934484586 0.028266296416378719 0 0.018133455088042576 0.028311141606985762 0 0.018151680210388189 0.028150252179244394 0 0.018019510823890215 0.028228997071592592 0 0.018133455088042576 0.028311141606985762 0 0.018019510823890215 0.028228997071592592 0 0.017926454168932116 0.028421689122683308 0 0.018133455088042576 0.028311141606985762 0 0.018019510823890215 0.028228997071592592 0 0.017946277529951357 0.028270397550829295 0 0.017926454168932116 0.028421689122683308 0 0.01790636516649452 0.028288540938492267 0 0.017946277529951357 0.028270397550829295 0 0.017926454168932116 0.028421689122683308 0 0.01790636516649452 0.028288540938492267 0 0.017932431378094651 0.028121468681028074 0 0.017946277529951357 0.028270397550829295 0 0.017932431378094651 0.028121468681028074 0 0.017946277529951357 0.028270397550829295 0 0.017967923340194026 0.028134598437445594 0 0.018019510823890215 0.028228997071592592 0 0.017946277529951357 0.028270397550829295 0 0.017967923340194026 0.028134598437445594 0 0.018026272077003986 0.02805376909437933 0 0.018019510823890215 0.028228997071592592 0 0.017967923340194026 0.028134598437445594 0 0.0275269327453379 0.020773806093378592 0 0.027535019961112954 0.021107548812737912 0 0.027341115728869367 0.021018441311431213 0 0.0275269327453379 0.020773806093378592 0 0.027205601759867481 0.020636436508778014 0 0.027341115728869367 0.021018441311431213 0 0.027390888090492522 0.020548751590436794 0 0.0275269327453379 0.020773806093378592 0 0.027205601759867481 0.020636436508778014 0 0.027010576355607441 0.020019132882490121 0 0.027390888090492522 0.020548751590436794 0 0.027205601759867481 0.020636436508778014 0 0.027531914448727594 0.020233013879213176 0 0.027390888090492522 0.020548751590436794 0 0.0275269327453379 0.020773806093378592 0 0.027531914448727594 0.020233013879213176 0 0.0275269327453379 0.020773806093378592 0 0.027642288196909559 0.020595749639723548 0 0.0275269327453379 0.020773806093378592 0 0.027733094966152946 0.021029437754310463 0 0.027535019961112954 0.021107548812737912 0 0.027733094966152946 0.021029437754310463 0 0.027642288196909559 0.020595749639723548 0 0.027821356919082097 0.020609881224933901 0 0.0275269327453379 0.020773806093378592 0 0.027733094966152946 0.021029437754310463 0 0.027642288196909559 0.020595749639723548 0 0.022952525123398185 0.024193048663555792 0 0.023175319361477546 0.025268768440538589 0 0.01821571411852959 0.027692338394495912 0 0.018130766786509836 0.027952041164405798 0 0.017961227234682044 0.027285098632842366 0 0.01821571411852959 0.027692338394495912 0 0.018195786402155151 0.028007438941177961 0 0.018130766786509836 0.027952041164405798 0 0.018195786402155151 0.028007438941177961 0 0.018130766786509836 0.027952041164405798 0 0.018262512553815915 0.028180489073802387 0 0.022984516389259208 0.024818440657622509 0 0.023426649383741182 0.024606593887110215 0 0.018262512553815915 0.028180489073802387 0 0.018381889545770677 0.028193709646198994 0 0.018479878215344622 0.028242818928352321 0 0.018130766786509836 0.027952041164405798 0 0.018262512553815915 0.028180489073802387 0 0.018381889545770677 0.028193709646198994 0 0.022952525123398185 0.024193048663555792 0 0.022984516389259208 0.024818440657622509 0 0.027733094966152946 0.021029437754310463 0 0.027648165142290092 0.021273089743731117 0 0.027535019961112954 0.021107548812737912 0 0.027648165142290092 0.021273089743731117 0 0.027563029743152053 0.021294522668724482 0 0.027615324571330886 0.02142660555908435 0 0.027648165142290092 0.021273089743731117 0 0.027535019961112954 0.021107548812737912 0 0.027563029743152053 0.021294522668724482 0 0.027535019961112954 0.021107548812737912 0 0.027563029743152053 0.021294522668724482 0 0.027468035701939082 0.021274935224269338 0 0.027535019961112954 0.021107548812737912 0 0.027468035701939082 0.021274935224269338 0 0.027341115728869367 0.021018441311431213 0 0.053656782566595777 0.013147455751608396 0 0.053471901648058165 0.017043271686148595 0 0.053137080597144531 0.014615516670709124 0 0.040911628680066772 0.01642489182749414 0 0.036482619713015529 0.024102848971091016 0 0.027558530498517378 0.021450911129115582 0 0.027615324571330886 0.02142660555908435 0 0.027624296059775025 0.021569478809529908 0 0.027563029743152053 0.021294522668724482 0 0.027468035701939082 0.021274935224269338 0 0.027558530498517378 0.021450911129115582 0 0.040472181705359871 0.017730870582306397 0 0.040911628680066772 0.01642489182749414 0 0.027563029743152053 0.021294522668724482 0 0.027558530498517378 0.021450911129115582 0 0.027615324571330886 0.02142660555908435 0 0.018829439788201084 0.028231351346192833 0 0.018937830604400706 0.028005484770971752 0 0.01952272555971514 0.027831152436573716 0 0.023426649383741182 0.024606593887110215 0 0.022344938303989682 0.025371679048567287 0 0.018937830604400706 0.028005484770971752 0 0.018442883787173542 0.028098342856618195 0 0.018702701331466672 0.027822372177338236 0 0.018937830604400706 0.028005484770971752 0 0.018479878215344622 0.028242818928352321 0 0.018442883787173542 0.028098342856618195 0 0.018381889545770677 0.028193709646198994 0 0.018829439788201084 0.028231351346192833 0 0.018479878215344622 0.028242818928352321 0 0.018829439788201084 0.028231351346192833 0 0.018937830604400706 0.028005484770971752 0 0.018479878215344622 0.028242818928352321 0 0.018262512553815915 0.028180489073802387 0 0.018479878215344622 0.028242818928352321 0 0.018271237934484586 0.028266296416378719 0 0.018479878215344622 0.028242818928352321 0 0.018271237934484586 0.028266296416378719 0 0.018442883787173542 0.028098342856618195 0 0.018442883787173542 0.028098342856618195 0 0.018448213857622294 0.02766986334225046 0 0.018702701331466672 0.027822372177338236 0 0.018442883787173542 0.028098342856618195 0 0.018448213857622294 0.02766986334225046 0 0.018175493909431507 0.028166882979605051 0 0.024078656829394536 0.029987171467294248 0 0.022251953479792086 0.027291220129502552 0 0.025413743316129882 0.025684765025158065 0 0.029779070801902566 0.029576472082269212 0 0.031753938201882236 0.027707563487394136 0 0.025413743316129882 0.025684765025158065 0 0.021337766455484825 0.028797976088815319 0 0.024817765932434364 0.028209555935507176 0 0.024078656829394536 0.029987171467294248 0 0.029779070801902566 0.029576472082269212 0 0.025413743316129882 0.025684765025158065 0 0.018448213857622294 0.02766986334225046 0 0.018702701331466672 0.027822372177338236 0 0.019103506986290614 0.027065943766079226 0 0.018702701331466672 0.027822372177338236 0 0.01911100686312367 0.027600599529460125 0 0.019103506986290614 0.027065943766079226 0 0.018937830604400706 0.028005484770971752 0 0.018702701331466672 0.027822372177338236 0 0.01911100686312367 0.027600599529460125 0 0.018937830604400706 0.028005484770971752 0 0.019325593724214267 0.027710395067641971 0 0.01911100686312367 0.027600599529460125 0 0.018937830604400706 0.028005484770971752 0 0.01952272555971514 0.027831152436573716 0 0.019325593724214267 0.027710395067641971 0 0.01952272555971514 0.027831152436573716 0 0.019525289712618531 0.027744474043576831 0 0.019325593724214267 0.027710395067641971 0 0.022344938303989682 0.025371679048567287 0 0.021889761668426981 0.026143689932849792 0 0.01952272555971514 0.027831152436573716 0 0.019525289712618531 0.027744474043576831 0 0.019681647158249198 0.027749268606381303 0 0.019325593724214267 0.027710395067641971 0 0.019594201731124628 0.027561944094183864 0 0.019351641487789221 0.027510724910220281 0 0.019525289712618531 0.027744474043576831 0 0.019594201731124628 0.027561944094183864 0 0.019681647158249198 0.027749268606381303 0 0.019525289712618531 0.027744474043576831 0 0.019325593724214267 0.027710395067641971 0 0.019594201731124628 0.027561944094183864 0 0.019594201731124628 0.027561944094183864 0 0.019485450149323975 0.027326750778961652 0 0.019730754147496615 0.02728589072947225 0 0.019351641487789221 0.027510724910220281 0 0.019282024379014183 0.027335994171910519 0 0.019485450149323975 0.027326750778961652 0 0.019594201731124628 0.027561944094183864 0 0.019351641487789221 0.027510724910220281 0 0.019485450149323975 0.027326750778961652 0 0.019351641487789221 0.027510724910220281 0 0.01911100686312367 0.027600599529460125 0 0.019282024379014183 0.027335994171910519 0 0.019325593724214267 0.027710395067641971 0 0.019351641487789221 0.027510724910220281 0 0.01911100686312367 0.027600599529460125 0 0.024817765932434364 0.028209555935507176 0 0.027980382957135279 0.026982847054738718 0 0.029779070801902566 0.029576472082269212 0 0.038051075016237432 0.027666349383489143 0 0.034881839362355421 0.027597589115474306 0 0.019103506986290614 0.027065943766079226 0 0.019874677909108879 0.026793490241115905 0 0.020345047662545052 0.026395745154415399 0 0.01911100686312367 0.027600599529460125 0 0.019282024379014183 0.027335994171910519 0 0.019103506986290614 0.027065943766079226 0 0.019282024379014183 0.027335994171910519 0 0.019103506986290614 0.027065943766079226 0 0.019418370830208618 0.027160948289968439 0 0.029779070801902566 0.029576472082269212 0 0.031753938201882236 0.027707563487394136 0 0.034881839362355421 0.027597589115474306 0 0.019103506986290614 0.027065943766079226 0 0.019633239742757307 0.027014616152869059 0 0.019874677909108879 0.026793490241115905 0 0.019103506986290614 0.027065943766079226 0 0.019633239742757307 0.027014616152869059 0 0.019418370830208618 0.027160948289968439 0 0.019633239742757307 0.027014616152869059 0 0.019619054944353464 0.027152254634986484 0 0.019418370830208618 0.027160948289968439 0 0.019633239742757307 0.027014616152869059 0 0.019619054944353464 0.027152254634986484 0 0.01981718719300618 0.027075388180479398 0 0.019282024379014183 0.027335994171910519 0 0.019418370830208618 0.027160948289968439 0 0.019485450149323975 0.027326750778961652 0 0.019619054944353464 0.027152254634986484 0 0.019418370830208618 0.027160948289968439 0 0.019485450149323975 0.027326750778961652 0 0.019619054944353464 0.027152254634986484 0 0.019730754147496615 0.02728589072947225 0 0.01981718719300618 0.027075388180479398 0 0.019619054944353464 0.027152254634986484 0 0.019485450149323975 0.027326750778961652 0 0.019730754147496615 0.02728589072947225 0 0.019974812780212788 0.027274111763547122 0 0.020070629565846855 0.027070828699955935 0 0.01981718719300618 0.027075388180479398 0 0.039585241501360592 0.029207114936455232 0 0.039930353468034738 0.033108953607131411 0 0.038051075016237432 0.027666349383489143 0 0.020224194465024114 0.026878614459816735 0 0.020461903652798312 0.027567516101496863 0 0.020345047662545052 0.026395745154415399 0 0.036482619713015529 0.024102848971091016 0 0.027980382957135279 0.026982847054738718 0 0.019974812780212788 0.027274111763547122 0 0.020070629565846855 0.027070828699955935 0 0.020461903652798312 0.027567516101496863 0 0.019730754147496615 0.02728589072947225 0 0.019974812780212788 0.027274111763547122 0 0.01981718719300618 0.027075388180479398 0 0.020070629565846855 0.027070828699955935 0 0.019890667232325365 0.026952065089830675 0 0.020069693171153469 0.026812239216461767 0 0.020070629565846855 0.027070828699955935 0 0.020069693171153469 0.026812239216461767 0 0.020224194465024114 0.026878614459816735 0 0.020070629565846855 0.027070828699955935 0 0.01981718719300618 0.027075388180479398 0 0.019890667232325365 0.026952065089830675 0 0.019633239742757307 0.027014616152869059 0 0.01981718719300618 0.027075388180479398 0 0.019890667232325365 0.026952065089830675 0 0.019633239742757307 0.027014616152869059 0 0.019890667232325365 0.026952065089830675 0 0.019874677909108879 0.026793490241115905 0 0.019874677909108879 0.026793490241115905 0 0.02017477757555302 0.026631896784521016 0 0.020345047662545052 0.026395745154415399 0 0.019890667232325365 0.026952065089830675 0 0.019874677909108879 0.026793490241115905 0 0.020069693171153469 0.026812239216461767 0 0.019874677909108879 0.026793490241115905 0 0.020069693171153469 0.026812239216461767 0 0.02017477757555302 0.026631896784521016 0 0.020069693171153469 0.026812239216461767 0 0.02017477757555302 0.026631896784521016 0 0.020224194465024114 0.026878614459816735 0 0.02017477757555302 0.026631896784521016 0 0.020224194465024114 0.026878614459816735 0 0.020345047662545052 0.026395745154415399 0 0.039585241501360592 0.029207114936455232 0 0.040146795597399476 0.028010145143073428 0 0.040968799768610752 0.029320872301652166 0 0.039585241501360592 0.029207114936455232 0 0.038051075016237432 0.027666349383489143 0 0.039093860210264467 0.027899719103395518 0 0.039585241501360592 0.029207114936455232 0 0.039093860210264467 0.027899719103395518 0 0.040146795597399476 0.028010145143073428 0 0.020070629565846855 0.027070828699955935 0 0.020224194465024114 0.026878614459816735 0 0.020461903652798312 0.027567516101496863 0 0.039585241501360592 0.029207114936455232 0 0.039930353468034738 0.033108953607131411 0 0.040968799768610752 0.029320872301652166 0 0.027558530498517378 0.021450911129115582 0 0.027624296059775025 0.021569478809529908 0 0.027625568781030316 0.021600264687003615 0 0.019974812780212788 0.027274111763547122 0 0.020461903652798312 0.027567516101496863 0 0.01987951674072113 0.027470690866591339 0 0.020461903652798312 0.027567516101496863 0 0.01987951674072113 0.027470690866591339 0 0.019681647158249198 0.027749268606381303 0 0.019730754147496615 0.02728589072947225 0 0.019974812780212788 0.027274111763547122 0 0.01987951674072113 0.027470690866591339 0 0.019594201731124628 0.027561944094183864 0 0.019730754147496615 0.02728589072947225 0 0.01987951674072113 0.027470690866591339 0 0.019594201731124628 0.027561944094183864 0 0.01987951674072113 0.027470690866591339 0 0.019681647158249198 0.027749268606381303 0 0.019611360321383817 0.027898480835603926 0 0.020461903652798312 0.027567516101496863 0 0.019681647158249198 0.027749268606381303 0 0.022344938303989682 0.025371679048567287 0 0.036482619713015529 0.024102848971091016 0 0.017285641676711309 0.028426616433834623 0 0.017713528685333463 0.02853846317298582 0 0.017623769659670892 0.028288489136193608 0 0.018335918448604348 0.028755621975567709 0 0.017713528685333463 0.02853846317298582 0 0.017623769659670892 0.028288489136193608 0 0.018335918448604348 0.028755621975567709 0 0.017713528685333463 0.02853846317298582 0 0.017926454168932116 0.028421689122683308 0 0.018335918448604348 0.028755621975567709 0 0.017926454168932116 0.028421689122683308 0 0.018133455088042576 0.028311141606985762 0 0.018271237934484586 0.028266296416378719 0 0.018133455088042576 0.028311141606985762 0 0.018166821116958908 0.028352391351815831 0 0.018442883787173542 0.028098342856618195 0 0.018166821116958908 0.028352391351815831 0 0.018175493909431507 0.028166882979605051 0 0.018271237934484586 0.028266296416378719 0 0.018442883787173542 0.028098342856618195 0 0.018166821116958908 0.028352391351815831 0 0.018335918448604348 0.028755621975567709 0 0.018133455088042576 0.028311141606985762 0 0.018166821116958908 0.028352391351815831 0 0.018335918448604348 0.028755621975567709 0 0.018166821116958908 0.028352391351815831 0 0.018175493909431507 0.028166882979605051 0 0.018335918448604348 0.028755621975567709 0 0.020538787062699893 0.029570144177229283 0 0.018493693569000016 0.027831347770932956 0 0.018516049202719646 0.028785068016521816 0 0.01948057126313165 0.028828728367181845 0 0.021337766455484825 0.028797976088815319 0 0.01948057126313165 0.028828728367181845 0 0.020538787062699893 0.029570144177229283 0 0.022251953479792086 0.027291220129502552 0 0.020077965390129866 0.027427468555181102 0 0.024078656829394536 0.029987171467294248 0 0.020538787062699893 0.029570144177229283 0 0.022251953479792086 0.027291220129502552 0 0.020077965390129866 0.027427468555181102 0 0.018493693569000016 0.027831347770932956 0 0.019058544353921302 0.026524811600192027 0 0.020538787062699893 0.029570144177229283 0 0.020077965390129866 0.027427468555181102 0 0.018493693569000016 0.027831347770932956 0 0.018493693569000016 0.027831347770932956 0 0.017789129091655483 0.027016948843288063 0 0.019058544353921302 0.026524811600192027 0 0.018493693569000016 0.027831347770932956 0 0.017578216517985752 0.027626361950277688 0 0.017789129091655483 0.027016948843288063 0 0.018335918448604348 0.028755621975567709 0 0.018493693569000016 0.027831347770932956 0 0.017623769659670892 0.028288489136193608 0 0.018493693569000016 0.027831347770932956 0 0.017623769659670892 0.028288489136193608 0 0.017578216517985752 0.027626361950277688 0 0.015660232253212173 0.026771111889769793 0 0.016301475729215881 0.027198715567823255 0 0.017789129091655483 0.027016948843288063 0 0.016301475729215881 0.027198715567823255 0 0.017623769659670892 0.028288489136193608 0 0.017578216517985752 0.027626361950277688 0 0.016301475729215881 0.027198715567823255 0 0.017578216517985752 0.027626361950277688 0 0.017789129091655483 0.027016948843288063 0 0.015660232253212173 0.026771111889769793 0 0.017789129091655483 0.027016948843288063 0 0.018150878340779619 0.026250314014098143 0 0.015872044578441897 0.027644505179235852 0 0.017947384538133906 0.02634954258459906 0 0.01633016132039285 0.028476380323278712 0 0.018150878340779619 0.026250314014098143 0 0.01648990601493305 0.026914341696600133 0 0.018150878340779619 0.026250314014098143 0 0.017280179725741727 0.026006425413475347 0 0.01648990601493305 0.026914341696600133 0 0.017280179725741727 0.026006425413475347 0 0.018569021776073912 0.025105754543872694 0 0.016816115632959826 0.02536087968429521 0 0.018150878340779619 0.026250314014098143 0 0.017280179725741727 0.026006425413475347 0 0.018569021776073912 0.025105754543872694 0 0.020236846141983053 0.025148834858300564 0 0.018677340052541153 0.025014263442120942 0 0.018150878340779619 0.026250314014098143 0 0.019490393395512253 0.025183324668762979 0 0.018569021776073912 0.025105754543872694 0 0.018150878340779619 0.026250314014098143 0 0.019058544353921302 0.026524811600192027 0 0.019490393395512253 0.025183324668762979 0 0.017789129091655483 0.027016948843288063 0 0.018150878340779619 0.026250314014098143 0 0.019058544353921302 0.026524811600192027 0 0.019058544353921302 0.026524811600192027 0 0.020373869617216264 0.026213738255934989 0 0.019490393395512253 0.025183324668762979 0 0.020077965390129866 0.027427468555181102 0 0.019058544353921302 0.026524811600192027 0 0.020373869617216264 0.026213738255934989 0 0.022251953479792086 0.027291220129502552 0 0.020077965390129866 0.027427468555181102 0 0.020373869617216264 0.026213738255934989 0 0.022251953479792086 0.027291220129502552 0 0.020373869617216264 0.026213738255934989 0 0.02166745224676252 0.025142895901776846 0 0.022380148014834719 0.025279275889254656 0 0.021052952750838554 0.025113010980704717 0 0.022177079039835276 0.023847647477523569 0 0.022101860488911617 0.025219647229556625 0 0.020236846141983053 0.025148834858300564 0 0.020373869617216264 0.026213738255934989 0 0.02166745224676252 0.025142895901776846 0 0.019490393395512253 0.025183324668762979 0 0.021052952750838554 0.025113010980704717 0 0.021581025124398103 0.024122360753619468 0 0.022177079039835276 0.023847647477523569 0 0.021052952750838554 0.025113010980704717 0 0.021581025124398103 0.024122360753619468 0 0.020188881618049645 0.024188737216010947 0 0.022177079039835276 0.023847647477523569 0 0.021821078743398229 0.024136767726962164 0 0.021752455363964453 0.024106146873651226 0 0.021581025124398103 0.024122360753619468 0 0.022177079039835276 0.023847647477523569 0 0.021821078743398229 0.024136767726962164 0 0.021581025124398103 0.024122360753619468 0 0.021821078743398229 0.024136767726962164 0 0.022443370773311037 0.024903046926184263 0 0.021821078743398229 0.024136767726962164 0 0.021209424743372878 0.024440155312146938 0 0.022443370773311037 0.024903046926184263 0 0.021581025124398103 0.024122360753619468 0 0.020164268390366617 0.023220829394671537 0 0.022443370773311037 0.024903046926184263 0 0.021218008656944964 0.024114142238270277 0 0.022231652846006263 0.024724244161944253 0 0.022463002083823794 0.024831390413929143 0 0.020248825543198252 0.023896440194413341 0 0.022877440261072378 0.024643681100113595 0 0.021581025124398103 0.024122360753619468 0 0.020164268390366617 0.023220829394671537 0 0.020188881618049645 0.024188737216010947 0 0.020164268390366617 0.023220829394671537 0 0.018709041961923811 0.024125642165126658 0 0.020188881618049645 0.024188737216010947 0 0.021218008656944964 0.024114142238270277 0 0.017886155569164071 0.024257571086036968 0 0.022463002083823794 0.024831390413929143 0 0.020248825543198252 0.023896440194413341 0 0.018774945524654044 0.024998957117222526 0 0.020164268390366617 0.023220829394671537 0 0.018709041961923811 0.024125642165126658 0 0.016901977225341168 0.023484469859331548 0 0.017533203673787894 0.024571054967321603 0 0.018569021776073912 0.025105754543872694 0 0.016816115632959826 0.02536087968429521 0 0.018709041961923811 0.024125642165126658 0 0.017533203673787894 0.024571054967321603 0 0.016901977225341168 0.023484469859331548 0 0.018709041961923811 0.024125642165126658 0 0.017533203673787894 0.024571054967321603 0 0.018569021776073912 0.025105754543872694 0 0.021052952750838554 0.025113010980704717 0 0.018569021776073912 0.025105754543872694 0 0.020188881618049645 0.024188737216010947 0 0.018709041961923811 0.024125642165126658 0 0.018569021776073912 0.025105754543872694 0 0.020188881618049645 0.024188737216010947 0 0.035709617659004086 0.022024313739072449 0 0.032101079286389285 0.021204807713171361 0 0.040609720771834897 0.021811349248973887 0 0.035261053440768311 0.041831312268800415 0 0.038237871712104417 0.04022860059920625 0 0.039792296838376096 0.042504227698445307 0 0.030852912539157933 0.028649503979646891 0 0.042439658473898814 0.03238710007574705 0 0.040079416179710059 0.041827123742049922 0 0.042439658473898814 0.03238710007574705 0 0.035709617659004086 0.022024313739072449 0 0.034932906764007426 0.022903140383596799 0 0.033953324669807362 0.022743068585826458 0 0.035709617659004086 0.022024313739072449 0 0.034932906764007426 0.022903140383596799 0 0.035772640011394727 0.02277240890330931 0 0.034932906764007426 0.022903140383596799 0 0.035772640011394727 0.02277240890330931 0 0.035429704331977341 0.023493319985909915 0 0.034932906764007426 0.022903140383596799 0 0.035429704331977341 0.023493319985909915 0 0.034101131487029777 0.02362562256143003 0 0.035709617659004086 0.022024313739072449 0 0.036439600468305008 0.022593065898979529 0 0.037847043063925188 0.022199292877522234 0 0.035709617659004086 0.022024313739072449 0 0.036439600468305008 0.022593065898979529 0 0.035772640011394727 0.02277240890330931 0 0.036439600468305008 0.022593065898979529 0 0.035772640011394727 0.02277240890330931 0 0.036300270161546772 0.023088974286339239 0 0.035772640011394727 0.02277240890330931 0 0.036300270161546772 0.023088974286339239 0 0.035429704331977341 0.023493319985909915 0 0.036300270161546772 0.023088974286339239 0 0.037216882726011952 0.022826380622819678 0 0.03692775475571683 0.023370118791734267 0 0.036439600468305008 0.022593065898979529 0 0.036300270161546772 0.023088974286339239 0 0.037216882726011952 0.022826380622819678 0 0.035709617659004086 0.022024313739072449 0 0.038767101366292148 0.022130780481979164 0 0.040609720771834897 0.021811349248973887 0 0.035709617659004086 0.022024313739072449 0 0.037847043063925188 0.022199292877522234 0 0.038767101366292148 0.022130780481979164 0 0.036439600468305008 0.022593065898979529 0 0.037216882726011952 0.022826380622819678 0 0.037847043063925188 0.022199292877522234 0 0.037216882726011952 0.022826380622819678 0 0.037687892432310299 0.023519678063279509 0 0.03692775475571683 0.023370118791734267 0 0.037216882726011952 0.022826380622819678 0 0.038137030673858062 0.022819729766033345 0 0.037687892432310299 0.023519678063279509 0 0.037216882726011952 0.022826380622819678 0 0.038137030673858062 0.022819729766033345 0 0.037847043063925188 0.022199292877522234 0 0.038137030673858062 0.022819729766033345 0 0.037847043063925188 0.022199292877522234 0 0.038767101366292148 0.022130780481979164 0 0.039364789846500846 0.02252941041761752 0 0.038767101366292148 0.022130780481979164 0 0.040609720771834897 0.021811349248973887 0 0.039364789846500846 0.02252941041761752 0 0.038767101366292148 0.022130780481979164 0 0.038858298941488713 0.022992675608498655 0 0.038137030673858062 0.022819729766033345 0 0.038767101366292148 0.022130780481979164 0 0.038858298941488713 0.022992675608498655 0 0.038137030673858062 0.022819729766033345 0 0.038858298941488713 0.022992675608498655 0 0.038503545375109846 0.023653208354384756 0 0.039364789846500846 0.02252941041761752 0 0.038858298941488713 0.022992675608498655 0 0.039585648633141471 0.023216217830980074 0 0.039364789846500846 0.02252941041761752 0 0.039585648633141471 0.023216217830980074 0 0.039894510480107483 0.022691188799033923 0 0.038858298941488713 0.022992675608498655 0 0.039585648633141471 0.023216217830980074 0 0.039250291462006329 0.023853501032643925 0 0.039585648633141471 0.023216217830980074 0 0.039250291462006329 0.023853501032643925 0 0.040143154246195044 0.023854685904302179 0 0.038858298941488713 0.022992675608498655 0 0.038503545375109846 0.023653208354384756 0 0.039250291462006329 0.023853501032643925 0 0.038503545375109846 0.023653208354384756 0 0.038206966639434771 0.024273979342488948 0 0.038917198549320235 0.024462007654634611 0 0.038503545375109846 0.023653208354384756 0 0.039250291462006329 0.023853501032643925 0 0.038917198549320235 0.024462007654634611 0 0.039250291462006329 0.023853501032643925 0 0.040143154246195044 0.023854685904302179 0 0.040015896031355511 0.024849395106205856 0 0.037687892432310299 0.023519678063279509 0 0.036872590779813273 0.023924347717533115 0 0.03692775475571683 0.023370118791734267 0 0.038503545375109846 0.023653208354384756 0 0.037687892432310299 0.023519678063279509 0 0.038206966639434771 0.024273979342488948 0 0.038137030673858062 0.022819729766033345 0 0.038503545375109846 0.023653208354384756 0 0.037687892432310299 0.023519678063279509 0 0.037687892432310299 0.023519678063279509 0 0.038206966639434771 0.024273979342488948 0 0.037458422410636599 0.024302169299314634 0 0.037687892432310299 0.023519678063279509 0 0.037458422410636599 0.024302169299314634 0 0.036872590779813273 0.023924347717533115 0 0.037458422410636599 0.024302169299314634 0 0.03728714639187658 0.02480935585934383 0 0.036630878683469523 0.02459218296638864 0 0.037458422410636599 0.024302169299314634 0 0.03728714639187658 0.02480935585934383 0 0.037976106983560291 0.024919833610119554 0 0.038206966639434771 0.024273979342488948 0 0.037458422410636599 0.024302169299314634 0 0.037976106983560291 0.024919833610119554 0 0.038206966639434771 0.024273979342488948 0 0.037976106983560291 0.024919833610119554 0 0.038741243262302952 0.025078963271196627 0 0.037976106983560291 0.024919833610119554 0 0.038741243262302952 0.025078963271196627 0 0.038458145230676199 0.025664694088180753 0 0.037976106983560291 0.024919833610119554 0 0.037680483991447557 0.025496947773623546 0 0.038458145230676199 0.025664694088180753 0 0.03728714639187658 0.02480935585934383 0 0.037680483991447557 0.025496947773623546 0 0.036969864952517299 0.025342024909893419 0 0.03728714639187658 0.02480935585934383 0 0.037976106983560291 0.024919833610119554 0 0.037680483991447557 0.025496947773623546 0 0.038917198549320235 0.024462007654634611 0 0.038741243262302952 0.025078963271196627 0 0.040015896031355511 0.024849395106205856 0 0.039250291462006329 0.023853501032643925 0 0.038917198549320235 0.024462007654634611 0 0.040015896031355511 0.024849395106205856 0 0.038206966639434771 0.024273979342488948 0 0.038917198549320235 0.024462007654634611 0 0.038741243262302952 0.025078963271196627 0 0.038741243262302952 0.025078963271196627 0 0.039175156032309894 0.025884442454807661 0 0.038458145230676199 0.025664694088180753 0 0.038741243262302952 0.025078963271196627 0 0.039175156032309894 0.025884442454807661 0 0.040015896031355511 0.024849395106205856 0 0.039175156032309894 0.025884442454807661 0 0.040015896031355511 0.024849395106205856 0 0.040171868648273427 0.026623745567729302 0 0.038927719981419792 0.026703937816321514 0 0.039175156032309894 0.025884442454807661 0 0.040171868648273427 0.026623745567729302 0 0.038927719981419792 0.026703937816321514 0 0.039175156032309894 0.025884442454807661 0 0.03828658831983988 0.026286828282598575 0 0.039175156032309894 0.025884442454807661 0 0.038458145230676199 0.025664694088180753 0 0.03828658831983988 0.026286828282598575 0 0.038458145230676199 0.025664694088180753 0 0.037435597732730072 0.026187406017763794 0 0.03828658831983988 0.026286828282598575 0 0.037680483991447557 0.025496947773623546 0 0.037435597732730072 0.026187406017763794 0 0.036778106847320337 0.025939465161673236 0 0.037680483991447557 0.025496947773623546 0 0.038458145230676199 0.025664694088180753 0 0.037435597732730072 0.026187406017763794 0 0.037435597732730072 0.026187406017763794 0 0.038108653382950386 0.026939483992076171 0 0.03732944623260686 0.026786678030470551 0 0.038927719981419792 0.026703937816321514 0 0.03828658831983988 0.026286828282598575 0 0.038108653382950386 0.026939483992076171 0 0.037435597732730072 0.026187406017763794 0 0.03828658831983988 0.026286828282598575 0 0.038108653382950386 0.026939483992076171 0 0.038927719981419792 0.026703937816321514 0 0.038108653382950386 0.026939483992076171 0 0.038051075016237432 0.027666349383489143 0 0.038108653382950386 0.026939483992076171 0 0.03732944623260686 0.026786678030470551 0 0.038051075016237432 0.027666349383489143 0 0.03732944623260686 0.026786678030470551 0 0.038051075016237432 0.027666349383489143 0 0.036707732359276928 0.02710570196432547 0 0.038051075016237432 0.027666349383489143 0 0.039093860210264467 0.027899719103395518 0 0.039269386699520771 0.027242634045823267 0 0.039269386699520771 0.027242634045823267 0 0.040146795597399476 0.028010145143073428 0 0.040171868648273427 0.026623745567729302 0 0.039093860210264467 0.027899719103395518 0 0.039269386699520771 0.027242634045823267 0 0.040146795597399476 0.028010145143073428 0 0.038927719981419792 0.026703937816321514 0 0.039269386699520771 0.027242634045823267 0 0.040171868648273427 0.026623745567729302 0 0.038927719981419792 0.026703937816321514 0 0.038051075016237432 0.027666349383489143 0 0.039269386699520771 0.027242634045823267 0 0.038051075016237432 0.027666349383489143 0 0.034881839362355421 0.027597589115474306 0 0.036707732359276928 0.02710570196432547 0 0.035716763533487343 0.026823900969445345 0 0.034881839362355421 0.027597589115474306 0 0.036707732359276928 0.02710570196432547 0 0.035716763533487343 0.026823900969445345 0 0.034881839362355421 0.027597589115474306 0 0.034734531603231561 0.026683541022616355 0 0.03732944623260686 0.026786678030470551 0 0.036707732359276928 0.02710570196432547 0 0.036651157192283249 0.026517337864945763 0 0.035716763533487343 0.026823900969445345 0 0.036707732359276928 0.02710570196432547 0 0.036651157192283249 0.026517337864945763 0 0.035716763533487343 0.026823900969445345 0 0.036651157192283249 0.026517337864945763 0 0.035692474512167477 0.025932559370899097 0 0.037435597732730072 0.026187406017763794 0 0.036651157192283249 0.026517337864945763 0 0.036778106847320337 0.025939465161673236 0 0.037435597732730072 0.026187406017763794 0 0.03732944623260686 0.026786678030470551 0 0.036651157192283249 0.026517337864945763 0 0.037680483991447557 0.025496947773623546 0 0.036778106847320337 0.025939465161673236 0 0.036969864952517299 0.025342024909893419 0 0.036651157192283249 0.026517337864945763 0 0.036778106847320337 0.025939465161673236 0 0.035692474512167477 0.025932559370899097 0 0.036778106847320337 0.025939465161673236 0 0.035692474512167477 0.025932559370899097 0 0.036120291775005239 0.025110570628552532 0 0.035692474512167477 0.025932559370899097 0 0.034734531603231561 0.026683541022616355 0 0.033928934699159474 0.025815180307597652 0 0.035716763533487343 0.026823900969445345 0 0.035692474512167477 0.025932559370899097 0 0.034734531603231561 0.026683541022616355 0 0.035226377724251551 0.024981000336233336 0 0.034324171825962507 0.02464535241596914 0 0.033928934699159474 0.025815180307597652 0 0.035692474512167477 0.025932559370899097 0 0.035226377724251551 0.024981000336233336 0 0.033928934699159474 0.025815180307597652 0 0.035692474512167477 0.025932559370899097 0 0.035226377724251551 0.024981000336233336 0 0.036120291775005239 0.025110570628552532 0 0.035226377724251551 0.024981000336233336 0 0.035037730242726446 0.024218582401792737 0 0.034324171825962507 0.02464535241596914 0 0.036778106847320337 0.025939465161673236 0 0.036969864952517299 0.025342024909893419 0 0.036120291775005239 0.025110570628552532 0 0.035226377724251551 0.024981000336233336 0 0.036120291775005239 0.025110570628552532 0 0.0358862934562513 0.024314259423008563 0 0.036120291775005239 0.025110570628552532 0 0.036630878683469523 0.02459218296638864 0 0.0358862934562513 0.024314259423008563 0 0.03728714639187658 0.02480935585934383 0 0.036969864952517299 0.025342024909893419 0 0.036630878683469523 0.02459218296638864 0 0.036969864952517299 0.025342024909893419 0 0.036120291775005239 0.025110570628552532 0 0.036630878683469523 0.02459218296638864 0 0.036630878683469523 0.02459218296638864 0 0.036872590779813273 0.023924347717533115 0 0.0358862934562513 0.024314259423008563 0 0.037458422410636599 0.024302169299314634 0 0.036630878683469523 0.02459218296638864 0 0.036872590779813273 0.023924347717533115 0 0.036872590779813273 0.023924347717533115 0 0.0358862934562513 0.024314259423008563 0 0.036213230926243151 0.02370493559029465 0 0.0358862934562513 0.024314259423008563 0 0.036213230926243151 0.02370493559029465 0 0.035429704331977341 0.023493319985909915 0 0.036300270161546772 0.023088974286339239 0 0.036213230926243151 0.02370493559029465 0 0.035429704331977341 0.023493319985909915 0 0.036300270161546772 0.023088974286339239 0 0.036213230926243151 0.02370493559029465 0 0.03692775475571683 0.023370118791734267 0 0.036872590779813273 0.023924347717533115 0 0.036213230926243151 0.02370493559029465 0 0.03692775475571683 0.023370118791734267 0 0.035037730242726446 0.024218582401792737 0 0.034101131487029777 0.02362562256143003 0 0.034324171825962507 0.02464535241596914 0 0.035226377724251551 0.024981000336233336 0 0.0358862934562513 0.024314259423008563 0 0.035037730242726446 0.024218582401792737 0 0.0358862934562513 0.024314259423008563 0 0.035037730242726446 0.024218582401792737 0 0.035429704331977341 0.023493319985909915 0 0.035037730242726446 0.024218582401792737 0 0.035429704331977341 0.023493319985909915 0 0.034101131487029777 0.02362562256143003 0 0.034101131487029777 0.02362562256143003 0 0.033115029467949725 0.024286041378146554 0 0.032510550217370725 0.023440613171626372 0 0.031753938201882236 0.027707563487394136 0 0.03180803680311748 0.025257978141141758 0 0.026497756400640469 0.026204930923061993 0 0.034101131487029777 0.02362562256143003 0 0.033115029467949725 0.024286041378146554 0 0.034324171825962507 0.02464535241596914 0 0.033115029467949725 0.024286041378146554 0 0.03180803680311748 0.025257978141141758 0 0.032510550217370725 0.023440613171626372 0 0.033115029467949725 0.024286041378146554 0 0.03180803680311748 0.025257978141141758 0 0.034324171825962507 0.02464535241596914 0 0.03180803680311748 0.025257978141141758 0 0.034324171825962507 0.02464535241596914 0 0.033928934699159474 0.025815180307597652 0 0.031753938201882236 0.027707563487394136 0 0.03180803680311748 0.025257978141141758 0 0.032756624860111321 0.02639577037914172 0 0.031753938201882236 0.027707563487394136 0 0.034881839362355421 0.027597589115474306 0 0.033561433875380478 0.026798934421014067 0 0.034734531603231561 0.026683541022616355 0 0.033928934699159474 0.025815180307597652 0 0.033561433875380478 0.026798934421014067 0 0.033928934699159474 0.025815180307597652 0 0.032756624860111321 0.02639577037914172 0 0.033561433875380478 0.026798934421014067 0 0.03180803680311748 0.025257978141141758 0 0.033928934699159474 0.025815180307597652 0 0.032756624860111321 0.02639577037914172 0 0.031753938201882236 0.027707563487394136 0 0.032756624860111321 0.02639577037914172 0 0.033561433875380478 0.026798934421014067 0 0.034881839362355421 0.027597589115474306 0 0.034734531603231561 0.026683541022616355 0 0.033561433875380478 0.026798934421014067 0 0.03180803680311748 0.025257978141141758 0 0.030367169657607853 0.023575156418944209 0 0.032510550217370725 0.023440613171626372 0 0.030367169657607853 0.023575156418944209 0 0.031973760036601039 0.022665989265533731 0 0.032146894077893902 0.021670997953225121 0 0.030367169657607853 0.023575156418944209 0 0.032510550217370725 0.023440613171626372 0 0.031973760036601039 0.022665989265533731 0 0.035709617659004086 0.022024313739072449 0 0.032972841756889117 0.021978784458831099 0 0.032101079286389285 0.021204807713171361 0 0.035709617659004086 0.022024313739072449 0 0.033953324669807362 0.022743068585826458 0 0.032972841756889117 0.021978784458831099 0 0.034101131487029777 0.02362562256143003 0 0.032510550217370725 0.023440613171626372 0 0.033953324669807362 0.022743068585826458 0 0.032510550217370725 0.023440613171626372 0 0.033953324669807362 0.022743068585826458 0 0.032972841756889117 0.021978784458831099 0 0.034932906764007426 0.022903140383596799 0 0.034101131487029777 0.02362562256143003 0 0.033953324669807362 0.022743068585826458 0 0.032510550217370725 0.023440613171626372 0 0.032972841756889117 0.021978784458831099 0 0.031973760036601039 0.022665989265533731 0 0.032972841756889117 0.021978784458831099 0 0.031973760036601039 0.022665989265533731 0 0.032146894077893902 0.021670997953225121 0 0.030443183624341112 0.027237413246056823 0 0.030852912539157933 0.028649503979646891 0 0.030367169657607853 0.023575156418944209 0 0.032146894077893902 0.021670997953225121 0 0.026314572037877081 0.022387141749627318 0 0.030367169657607853 0.023575156418944209 0 0.026314572037877081 0.022387141749627318 0 0.026497756400640469 0.026204930923061993 0 0.030852912539157933 0.028649503979646891 0 0.023357766579655565 0.022763684137209264 0 0.03180803680311748 0.025257978141141758 0 0.030367169657607853 0.023575156418944209 0 0.026497756400640469 0.026204930923061993 0 0.031301071600455144 0.027627871714812329 0 0.026084790593944442 0.026021211043669227 0 0.022101860488911617 0.025219647229556625 0 0.026084790593944442 0.026021211043669227 0 0.022251953479792086 0.027291220129502552 0 0.02166745224676252 0.025142895901776846 0 0.025413743316129882 0.025684765025158065 0 0.022380148014834719 0.025279275889254656 0 0.022177079039835276 0.023847647477523569 0 0.026314572037877081 0.022387141749627318 0 0.022380148014834719 0.025279275889254656 0 0.026314572037877081 0.022387141749627318 0 0.026497756400640469 0.026204930923061993 0 0.022834488775667711 0.023850956653761208 0 0.023357766579655565 0.022763684137209264 0 0.022177079039835276 0.023847647477523569 0 0.021848563807560433 0.024246914700184787 0 0.021752455363964453 0.024106146873651226 0 0.021848563807560433 0.024246914700184787 0 0.021752455363964453 0.024106146873651226 0 0.021908980197381724 0.024054222645366725 0 0.024305002982891961 0.02972525919858042 0 0.026555844883811994 0.032153869535534951 0 0.021752455363964453 0.024106146873651226 0 0.021209424743372878 0.024440155312146938 0 0.021908980197381724 0.024054222645366725 0 0.027180705436214394 0.035213044139464356 0 0.03125748337460784 0.03582739721852124 0 0.03151631601431476 0.038870527723487466 0 0.021821078743398229 0.024136767726962164 0 0.021752455363964453 0.024106146873651226 0 0.021209424743372878 0.024440155312146938 0 0.03125748337460784 0.03582739721852124 0 0.03151631601431476 0.038870527723487466 0 0.03351418769336998 0.036862568869262854 0 0.03125748337460784 0.03582739721852124 0 0.03351418769336998 0.036862568869262854 0 0.033163750185135926 0.034240904450351557 0 0.022571590539512128 0.024469063673711357 0 0.021848563807560433 0.024246914700184787 0 0.021908980197381724 0.024054222645366725 0 0.030852912539157933 0.028649503979646891 0 0.026555844883811994 0.032153869535534951 0 0.035261053440768311 0.041831312268800415 0 0.035313580463978922 0.038635832072151426 0 0.038237871712104417 0.04022860059920625 0 0.035261053440768311 0.041831312268800415 0 0.03151631601431476 0.038870527723487466 0 0.035313580463978922 0.038635832072151426 0 0.03151631601431476 0.038870527723487466 0 0.035313580463978922 0.038635832072151426 0 0.03351418769336998 0.036862568869262854 0 0.035313580463978922 0.038635832072151426 0 0.03351418769336998 0.036862568869262854 0 0.036554345777433363 0.035965940687505894 0 0.03351418769336998 0.036862568869262854 0 0.036554345777433363 0.035965940687505894 0 0.033163750185135926 0.034240904450351557 0 0.036554345777433363 0.035965940687505894 0 0.039818563609373997 0.037293021099909285 0 0.039714110519431245 0.034529111879002594 0 0.035313580463978922 0.038635832072151426 0 0.036554345777433363 0.035965940687505894 0 0.037571449874440402 0.038145863477987665 0 0.036554345777433363 0.035965940687505894 0 0.037571449874440402 0.038145863477987665 0 0.039818563609373997 0.037293021099909285 0 0.037571449874440402 0.038145863477987665 0 0.038237871712104417 0.04022860059920625 0 0.039818563609373997 0.037293021099909285 0 0.035313580463978922 0.038635832072151426 0 0.037571449874440402 0.038145863477987665 0 0.038237871712104417 0.04022860059920625 0 0.035907078602966651 0.031703412596763306 0 0.039714110519431245 0.034529111879002594 0 0.0389328550778184 0.030584658169690967 0 0.036554345777433363 0.035965940687505894 0 0.035907078602966651 0.031703412596763306 0 0.039714110519431245 0.034529111879002594 0 0.036554345777433363 0.035965940687505894 0 0.035907078602966651 0.031703412596763306 0 0.033163750185135926 0.034240904450351557 0 0.035907078602966651 0.031703412596763306 0 0.031487234213859634 0.031362248256270688 0 0.033163750185135926 0.034240904450351557 0 0.035907078602966651 0.031703412596763306 0 0.031487234213859634 0.031362248256270688 0 0.032760257620682853 0.029911302436600406 0 0.031487234213859634 0.031362248256270688 0 0.030543458424481865 0.033535035404523419 0 0.028471212205487002 0.031604783211338229 0 0.031487234213859634 0.031362248256270688 0 0.033163750185135926 0.034240904450351557 0 0.030543458424481865 0.033535035404523419 0 0.03125748337460784 0.03582739721852124 0 0.033163750185135926 0.034240904450351557 0 0.030543458424481865 0.033535035404523419 0 0.027180705436214394 0.035213044139464356 0 0.030543458424481865 0.033535035404523419 0 0.028471212205487002 0.031604783211338229 0 0.027180705436214394 0.035213044139464356 0 0.028471212205487002 0.031604783211338229 0 0.024702935697121328 0.029169278353125036 0 0.027180705436214394 0.035213044139464356 0 0.03125748337460784 0.03582739721852124 0 0.030543458424481865 0.033535035404523419 0 0.028471212205487002 0.031604783211338229 0 0.026856858042053997 0.029764998801998635 0 0.027818486708477114 0.029222867669763109 0 0.031487234213859634 0.031362248256270688 0 0.028471212205487002 0.031604783211338229 0 0.027818486708477114 0.029222867669763109 0 0.028471212205487002 0.031604783211338229 0 0.026856858042053997 0.029764998801998635 0 0.024702935697121328 0.029169278353125036 0 0.027818486708477114 0.029222867669763109 0 0.027419286307126062 0.02803737858606441 0 0.029969171898435697 0.028960146179192008 0 0.027419286307126062 0.02803737858606441 0 0.029560580479728288 0.027858043542395114 0 0.029969171898435697 0.028960146179192008 0 0.027419286307126062 0.02803737858606441 0 0.028043058405461927 0.027406800161143587 0 0.027126643575332347 0.026811642921618854 0 0.027419286307126062 0.02803737858606441 0 0.028043058405461927 0.027406800161143587 0 0.029560580479728288 0.027858043542395114 0 0.028043058405461927 0.027406800161143587 0 0.029560580479728288 0.027858043542395114 0 0.028169839027316748 0.026737737121199069 0 0.029560580479728288 0.027858043542395114 0 0.031742902279650188 0.028239593379122144 0 0.029969171898435697 0.028960146179192008 0 0.031742902279650188 0.028239593379122144 0 0.029969171898435697 0.028960146179192008 0 0.032760257620682853 0.029911302436600406 0 0.029560580479728288 0.027858043542395114 0 0.031742902279650188 0.028239593379122144 0 0.029824577406426789 0.026901883629680427 0 0.031487234213859634 0.031362248256270688 0 0.029969171898435697 0.028960146179192008 0 0.032760257620682853 0.029911302436600406 0 0.031487234213859634 0.031362248256270688 0 0.027818486708477114 0.029222867669763109 0 0.029969171898435697 0.028960146179192008 0 0.035907078602966651 0.031703412596763306 0 0.034552592303806959 0.029448997186470798 0 0.037598815811384204 0.02927618651490746 0 0.035907078602966651 0.031703412596763306 0 0.032760257620682853 0.029911302436600406 0 0.034552592303806959 0.029448997186470798 0 0.034002437703218438 0.028107583306539907 0 0.037598815811384204 0.02927618651490746 0 0.036055442113176378 0.027406485240675904 0 0.031742902279650188 0.028239593379122144 0 0.032760257620682853 0.029911302436600406 0 0.034552592303806959 0.029448997186470798 0 0.031742902279650188 0.028239593379122144 0 0.034002437703218438 0.028107583306539907 0 0.034552592303806959 0.029448997186470798 0 0.034002437703218438 0.028107583306539907 0 0.034552592303806959 0.029448997186470798 0 0.037598815811384204 0.02927618651490746 0 0.037598815811384204 0.02927618651490746 0 0.039828830864615118 0.028147732291295788 0 0.040615857577311933 0.028269620046172592 0 0.035907078602966651 0.031703412596763306 0 0.037598815811384204 0.02927618651490746 0 0.0389328550778184 0.030584658169690967 0 0.023061110095054248 0.02569389231165814 0 0.022997617569477293 0.026982651122105072 0 0.023992243291202791 0.026254889061124973 0 0.022997617569477293 0.026982651122105072 0 0.023992243291202791 0.026254889061124973 0 0.023403636461169514 0.027719192153931642 0 0.023061110095054248 0.02569389231165814 0 0.023043536453023268 0.026415628469827514 0 0.022997617569477293 0.026982651122105072 0 0.023061110095054248 0.02569389231165814 0 0.023043536453023268 0.026415628469827514 0 0.023053615030850679 0.02613293224537706 0 0.023075221605169952 0.026851075459255108 0 0.023043536453023268 0.026415628469827514 0 0.023053615030850679 0.02613293224537706 0 0.023075221605169952 0.026851075459255108 0 0.023043536453023268 0.026415628469827514 0 0.022997617569477293 0.026982651122105072 0 0.023075221605169952 0.026851075459255108 0 0.022997617569477293 0.026982651122105072 0 0.022945058386752058 0.027835127066954738 0 0.021922606860361894 0.024244954131528367 0 0.022063347824777736 0.024801482900694991 0 0.020627965310950146 0.023685747343922037 0 0.021999506373726413 0.026014017994741085 0 0.021625686914388976 0.023501737227152809 0 0.022862331209011662 0.025800610344878429 0 0.021999506373726413 0.026014017994741085 0 0.023061110095054248 0.02569389231165814 0 0.021922606860361894 0.024244954131528367 0 0.022063347824777736 0.024801482900694991 0 0.023061110095054248 0.02569389231165814 0 0.022063347824777736 0.024801482900694991 0 0.022695350546818042 0.025626823344493611 0 0.021585823053770208 0.025829257063135696 0 0.022063347824777736 0.024801482900694991 0 0.022695350546818042 0.025626823344493611 0 0.021585823053770208 0.025829257063135696 0 0.022063347824777736 0.024801482900694991 0 0.020627965310950146 0.023685747343922037 0 0.021585823053770208 0.025829257063135696 0 0.019195355286197421 0.024640318322317046 0 0.020627965310950146 0.023685747343922037 0 0.021585823053770208 0.025829257063135696 0 0.022695350546818042 0.025626823344493611 0 0.023303308335261074 0.026247344720942072 0 0.020865293321621958 0.02487017205381279 0 0.02294333760323463 0.025558857908692924 0 0.023061110095054248 0.02569389231165814 0 0.022695350546818042 0.025626823344493611 0 0.023053615030850679 0.02613293224537706 0 0.022695350546818042 0.025626823344493611 0 0.023053615030850679 0.02613293224537706 0 0.023303308335261074 0.026247344720942072 0 0.023075221605169952 0.026851075459255108 0 0.023053615030850679 0.02613293224537706 0 0.023303308335261074 0.026247344720942072 0 0.022463002083823794 0.024831390413929143 0 0.022877440261072378 0.024643681100113595 0 0.022443370773311037 0.024903046926184263 0 0.022877440261072378 0.024643681100113595 0 0.022443370773311037 0.024903046926184263 0 0.02267509266449565 0.027225229220222677 0 0.02294333760323463 0.025558857908692924 0 0.022563309495078815 0.026887247531872917 0 0.023303308335261074 0.026247344720942072 0 0.02267509266449565 0.027225229220222677 0 0.023163071191129998 0.027509321417103261 0 0.023075221605169952 0.026851075459255108 0 0.023303308335261074 0.026247344720942072 0 0.023163071191129998 0.027509321417103261 0 0.021209424743372878 0.024440155312146938 0 0.022443370773311037 0.024903046926184263 0 0.02267509266449565 0.027225229220222677 0 0.027180705436214394 0.035213044139464356 0 0.024702935697121328 0.029169278353125036 0 0.023081962664863943 0.028467533880232324 0 0.021209424743372878 0.024440155312146938 0 0.02267509266449565 0.027225229220222677 0 0.023081962664863943 0.028467533880232324 0 0.024305002982891961 0.02972525919858042 0 0.023253998797225454 0.028733090381909576 0 0.026856858042053997 0.029764998801998635 0 0.024702935697121328 0.029169278353125036 0 0.025938409840537219 0.028328101936242543 0 0.024702935697121328 0.029169278353125036 0 0.022945058386752058 0.027835127066954738 0 0.022824926521772943 0.027562297624708819 0 0.023075221605169952 0.026851075459255108 0 0.023163071191129998 0.027509321417103261 0 0.022945058386752058 0.027835127066954738 0 0.024702935697121328 0.029169278353125036 0 0.023081962664863943 0.028467533880232324 0 0.022945058386752058 0.027835127066954738 0 0.02267509266449565 0.027225229220222677 0 0.023163071191129998 0.027509321417103261 0 0.023081962664863943 0.028467533880232324 0 0.023163071191129998 0.027509321417103261 0 0.023081962664863943 0.028467533880232324 0 0.022945058386752058 0.027835127066954738 0 0.022997617569477293 0.026982651122105072 0 0.022945058386752058 0.027835127066954738 0 0.022824926521772943 0.027562297624708819 0 0.022824926521772943 0.027562297624708819 0 0.022755302210304747 0.027688386289929947 0 0.023444306451200689 0.028666785821527863 0 0.024702935697121328 0.029169278353125036 0 0.022824926521772943 0.027562297624708819 0 0.022755302210304747 0.027688386289929947 0 0.026856858042053997 0.029764998801998635 0 0.027818486708477114 0.029222867669763109 0 0.025938409840537219 0.028328101936242543 0 0.024680975513030015 0.029251335607694051 0 0.024338199783437972 0.028179148211723588 0 0.027818486708477114 0.029222867669763109 0 0.027419286307126062 0.02803737858606441 0 0.025938409840537219 0.028328101936242543 0 0.024338199783437972 0.028179148211723588 0 0.023899647369248704 0.028561723287434667 0 0.025938409840537219 0.028328101936242543 0 0.026358079943019651 0.02706074084688349 0 0.025605805297638794 0.026416823254288485 0 0.027419286307126062 0.02803737858606441 0 0.025938409840537219 0.028328101936242543 0 0.026358079943019651 0.02706074084688349 0 0.027419286307126062 0.02803737858606441 0 0.026358079943019651 0.02706074084688349 0 0.027126643575332347 0.026811642921618854 0 0.022755302210304747 0.027688386289929947 0 0.023444306451200689 0.028666785821527863 0 0.022147230992752152 0.0307081964185579 0 0.022531224982399022 0.031432563037823283 0 0.022486157195868287 0.031454252718794436 0 0.022618108989775777 0.031709666335213528 0 0.02292493480203682 0.030037234323541242 0 0.022916900141293009 0.030187312910401585 0 0.022486157195868287 0.031454252718794436 0 0.022618108989775777 0.031709666335213528 0 0.022334384191401224 0.031542727189948834 0 0.022997617569477293 0.026982651122105072 0 0.022824926521772943 0.027562297624708819 0 0.023403636461169514 0.027719192153931642 0 0.022824926521772943 0.027562297624708819 0 0.023444306451200689 0.028666785821527863 0 0.023403636461169514 0.027719192153931642 0 0.022455263932146925 0.032539376058772614 0 0.022618108989775777 0.031709666335213528 0 0.021993363641887774 0.031723452840771597 0 0.022618108989775777 0.031709666335213528 0 0.022334384191401224 0.031542727189948834 0 0.021993363641887774 0.031723452840771597 0 0.021999506373726413 0.026014017994741085 0 0.022916900141293009 0.030187312910401585 0 0.022334384191401224 0.031542727189948834 0 0.022387866863814127 0.031606664953953451 0 0.021993363641887774 0.031723452840771597 0 0.021359255592448584 0.03071992084600652 0 0.021992276271404678 0.03167347756440915 0 0.020335476167926369 0.02975374709038283 0 0.020338021893433901 0.032283141203720001 0 0.018265908381598504 0.029644463295048638 0 0.020335476167926369 0.02975374709038283 0 0.020338021893433901 0.032283141203720001 0 0.021993363641887774 0.031723452840771597 0 0.022330915675942253 0.020991972417990147 0 0.018337639976812408 0.021711928461932397 0 0.020627965310950146 0.023685747343922037 0 0.022455263932146925 0.032539376058772614 0 0.020338021893433901 0.032283141203720001 0 0.021993363641887774 0.031723452840771597 0 0.022330915675942253 0.020991972417990147 0 0.016603943210983879 0.018787076933506199 0 0.018337639976812408 0.021711928461932397 0 0.021999506373726413 0.026014017994741085 0 0.01856681949624309 0.025648143172959999 0 0.016603943210983879 0.018787076933506199 0 0.01583062180323128 0.02132138324085401 0 0.013420578711336782 0.019957259063809258 0 0.016603943210983879 0.018787076933506199 0 0.018337639976812408 0.021711928461932397 0 0.01583062180323128 0.02132138324085401 0 0.01583062180323128 0.02132138324085401 0 0.017093972915256179 0.02329873520292193 0 0.014220406898203908 0.02214713231767966 0 0.017093972915256179 0.02329873520292193 0 0.014220406898203908 0.02214713231767966 0 0.014969817399513771 0.024015060866691623 0 0.018337639976812408 0.021711928461932397 0 0.01583062180323128 0.02132138324085401 0 0.017093972915256179 0.02329873520292193 0 0.017093972915256179 0.02329873520292193 0 0.019195355286197421 0.024640318322317046 0 0.020627965310950146 0.023685747343922037 0 0.018337639976812408 0.021711928461932397 0 0.017093972915256179 0.02329873520292193 0 0.020627965310950146 0.023685747343922037 0 0.01174791068234092 0.021254777184202045 0 0.013000826732877209 0.023451507093543742 0 0.01110773607179073 0.022889902572317929 0 0.01174791068234092 0.021254777184202045 0 0.0091878419134806544 0.02136117505447644 0 0.01110773607179073 0.022889902572317929 0 0.01174791068234092 0.021254777184202045 0 0.014220406898203908 0.02214713231767966 0 0.013420578711336782 0.019957259063809258 0 0.01174791068234092 0.021254777184202045 0 0.014220406898203908 0.02214713231767966 0 0.013000826732877209 0.023451507093543742 0 0.014220406898203908 0.02214713231767966 0 0.014969817399513771 0.024015060866691623 0 0.013000826732877209 0.023451507093543742 0 0.01583062180323128 0.02132138324085401 0 0.014220406898203908 0.02214713231767966 0 0.013420578711336782 0.019957259063809258 0 0.01174791068234092 0.021254777184202045 0 0.013420578711336782 0.019957259063809258 0 0.010463857141670464 0.018907773979444955 0 0.01174791068234092 0.021254777184202045 0 0.010463857141670464 0.018907773979444955 0 0.0091878419134806544 0.02136117505447644 0 0.010463857141670464 0.018907773979444955 0 0.012595900568225375 0.017439505990931872 0 0.0092596943583287683 0.016368980184967356 0 0.013420578711336782 0.019957259063809258 0 0.010463857141670464 0.018907773979444955 0 0.012595900568225375 0.017439505990931872 0 0.020338021893433901 0.032283141203720001 0 0.0174632492732789 0.031434471632217298 0 0.018265908381598504 0.029644463295048638 0 0.01856681949624309 0.025648143172959999 0 0.01502258285324122 0.024420454985904241 0 0.016603943210983879 0.018787076933506199 0 0.013420578711336782 0.019957259063809258 0 0.012595900568225375 0.017439505990931872 0 0.0174632492732789 0.031434471632217298 0 0.018265908381598504 0.029644463295048638 0 0.016443177106811525 0.028802757273951419 0 0.0174632492732789 0.031434471632217298 0 0.014803087385342006 0.030541337755872134 0 0.016443177106811525 0.028802757273951419 0 0.01502258285324122 0.024420454985904241 0 0.012006798865335575 0.023446494739076559 0 0.012006798865335575 0.023446494739076559 0 0.009395162037775729 0.022793710004921655 0 0.0092596943583287683 0.016368980184967356 0 0.0072342856052485397 0.01715472148534539 0 0.0064075754577987837 0.015605654622812749 0 0.014803087385342006 0.030541337755872134 0 0.012084845664577173 0.02971722333050263 0 0.014187479007024079 0.028594657823199227 0 0.0072342856052485397 0.01715472148534539 0 0.0053622509211054123 0.017784801805282836 0 0.0080599817784351591 0.018926915889668758 0 0.0092596943583287683 0.016368980184967356 0 0.0072342856052485397 0.01715472148534539 0 0.0080599817784351591 0.018926915889668758 0 0.010463857141670464 0.018907773979444955 0 0.0092596943583287683 0.016368980184967356 0 0.0080599817784351591 0.018926915889668758 0 0.0053622509211054123 0.017784801805282836 0 0.0047676178558283848 0.015309315643198209 0 0.0037788906147917965 0.016355290513287258 0 0.0064075754577987837 0.015605654622812749 0 0.0053622509211054123 0.017784801805282836 0 0.0047676178558283848 0.015309315643198209 0 0.0072342856052485397 0.01715472148534539 0 0.0064075754577987837 0.015605654622812749 0 0.0053622509211054123 0.017784801805282836 0 0.0052217079705244749 0.017614525899247328 0 0.0032795181611275756 0.015951343922796079 0 0.0053622509211054123 0.017784801805282836 0 0.0040815795912538142 0.02083429431268654 0 0.0024075459556421011 0.019036110002040963 0 0.0053622509211054123 0.017784801805282836 0 0.0064456229577145073 0.020835798202511722 0 0.0080599817784351591 0.018926915889668758 0 0.0053622509211054123 0.017784801805282836 0 0.0064456229577145073 0.020835798202511722 0 0.0040815795912538142 0.02083429431268654 0 0.010463857141670464 0.018907773979444955 0 0.0080599817784351591 0.018926915889668758 0 0.0091878419134806544 0.02136117505447644 0 0.0064456229577145073 0.020835798202511722 0 0.0080599817784351591 0.018926915889668758 0 0.0091878419134806544 0.02136117505447644 0 0.0064456229577145073 0.020835798202511722 0 0.0091878419134806544 0.02136117505447644 0 0.007685313471880461 0.022718326376346035 0 0.0091878419134806544 0.02136117505447644 0 0.0097041361174628523 0.023781804257070494 0 0.01110773607179073 0.022889902572317929 0 0.0091878419134806544 0.02136117505447644 0 0.007685313471880461 0.022718326376346035 0 0.0097041361174628523 0.023781804257070494 0 0.007685313471880461 0.022718326376346035 0 0.0078056562565198741 0.024355876725264958 0 0.0053724738752172702 0.023208081645624764 0 0.007685313471880461 0.022718326376346035 0 0.0078056562565198741 0.024355876725264958 0 0.0097041361174628523 0.023781804257070494 0 0.0078056562565198741 0.024355876725264958 0 0.0097041361174628523 0.023781804257070494 0 0.0094486862104075399 0.025640267868299777 0 0.0097041361174628523 0.023781804257070494 0 0.0094486862104075399 0.025640267868299777 0 0.011147271496817764 0.025087294090319175 0 0.0040815795912538142 0.02083429431268654 0 0.0053724738752172702 0.023208081645624764 0 0.002766816219025115 0.022575476681107008 0 0.0051489181722794656 0.023066393208559473 0 0.0022292176313458063 0.021635152403136456 0 0.0064456229577145073 0.020835798202511722 0 0.0040815795912538142 0.02083429431268654 0 0.0053724738752172702 0.023208081645624764 0 0.0064456229577145073 0.020835798202511722 0 0.007685313471880461 0.022718326376346035 0 0.0053724738752172702 0.023208081645624764 0 0.0078056562565198741 0.024355876725264958 0 0.0053724738752172702 0.023208081645624764 0 0.0066249735760255763 0.025655720482059406 0 0.0053724738752172702 0.023208081645624764 0 0.0017322250004235531 0.020622210800199742 0 0.001929711474720113 0.023434327180214917 0 0.0053724738752172702 0.023208081645624764 0 0.0034834561401123165 0.025982155933115605 0 0.001929711474720113 0.023434327180214917 0 0.0053724738752172702 0.023208081645624764 0 0.0066249735760255763 0.025655720482059406 0 0.0034834561401123165 0.025982155933115605 0 0.0061375497698547702 0.028012433697108898 0 0.0066249735760255763 0.025655720482059406 0 0.0034834561401123165 0.025982155933115605 0 0.0078056562565198741 0.024355876725264958 0 0.0066249735760255763 0.025655720482059406 0 0.0094486862104075399 0.025640267868299777 0 0.0066249735760255763 0.025655720482059406 0 0.0094486862104075399 0.025640267868299777 0 0.0085252886075746839 0.027340517708699705 0 0.0061375497698547702 0.028012433697108898 0 0.0066249735760255763 0.025655720482059406 0 0.0085252886075746839 0.027340517708699705 0 0.0094486862104075399 0.025640267868299777 0 0.0085252886075746839 0.027340517708699705 0 0.010247831835223254 0.027054640086718963 0 0.010235254195454161 0.028379762411855143 0 0.0085252886075746839 0.027340517708699705 0 0.010247831835223254 0.027054640086718963 0 0.010247831835223254 0.027054640086718963 0 0.011355457167453453 0.0261704739315314 0 0.011803926205645125 0.027808220638355058 0 0.010235254195454161 0.028379762411855143 0 0.010247831835223254 0.027054640086718963 0 0.011803926205645125 0.027808220638355058 0 0.0094486862104075399 0.025640267868299777 0 0.011355457167453453 0.0261704739315314 0 0.011147271496817764 0.025087294090319175 0 0.0094486862104075399 0.025640267868299777 0 0.010247831835223254 0.027054640086718963 0 0.011355457167453453 0.0261704739315314 0 0.011355457167453453 0.0261704739315314 0 0.011147271496817764 0.025087294090319175 0 0.012662510884905356 0.025290009288871367 0 0.013515034679454647 0.025750248947367858 0 0.01275041584681166 0.02642146766857964 0 0.012662510884905356 0.025290009288871367 0 0.011355457167453453 0.0261704739315314 0 0.01275041584681166 0.02642146766857964 0 0.012662510884905356 0.025290009288871367 0 0.013515034679454647 0.025750248947367858 0 0.01275041584681166 0.02642146766857964 0 0.013791608371776612 0.026468580230978266 0 0.01275041584681166 0.02642146766857964 0 0.013157788876233451 0.027424588344862985 0 0.013791608371776612 0.026468580230978266 0 0.01275041584681166 0.02642146766857964 0 0.011803926205645125 0.027808220638355058 0 0.013157788876233451 0.027424588344862985 0 0.011355457167453453 0.0261704739315314 0 0.01275041584681166 0.02642146766857964 0 0.011803926205645125 0.027808220638355058 0 0.012848961151146509 0.02884766750906221 0 0.011803926205645125 0.027808220638355058 0 0.013157788876233451 0.027424588344862985 0 0.012848961151146509 0.02884766750906221 0 0.013157788876233451 0.027424588344862985 0 0.013858097508039196 0.028046523541268135 0 0.013157788876233451 0.027424588344862985 0 0.013858097508039196 0.028046523541268135 0 0.014079256621516876 0.02714785141474247 0 0.014831677505779302 0.027370078296045885 0 0.014700067468645259 0.028068229902059511 0 0.015612275738571409 0.027654961475854105 0 0.013858097508039196 0.028046523541268135 0 0.014831677505779302 0.027370078296045885 0 0.014700067468645259 0.028068229902059511 0 0.013858097508039196 0.028046523541268135 0 0.014831677505779302 0.027370078296045885 0 0.014079256621516876 0.02714785141474247 0 0.014831677505779302 0.027370078296045885 0 0.014079256621516876 0.02714785141474247 0 0.014765985543451982 0.026473558055901424 0 0.014831677505779302 0.027370078296045885 0 0.015554118645406548 0.026843548904825591 0 0.014765985543451982 0.026473558055901424 0 0.013157788876233451 0.027424588344862985 0 0.014079256621516876 0.02714785141474247 0 0.013791608371776612 0.026468580230978266 0 0.014079256621516876 0.02714785141474247 0 0.013791608371776612 0.026468580230978266 0 0.014765985543451982 0.026473558055901424 0 0.01633016132039285 0.028476380323278712 0 0.015612275738571409 0.027654961475854105 0 0.01648990601493305 0.026914341696600133 0 0.015554118645406548 0.026843548904825591 0 0.01648990601493305 0.026914341696600133 0 0.015962830773255617 0.02613829671518185 0 0.015612275738571409 0.027654961475854105 0 0.015554118645406548 0.026843548904825591 0 0.01648990601493305 0.026914341696600133 0 0.014831677505779302 0.027370078296045885 0 0.015612275738571409 0.027654961475854105 0 0.015554118645406548 0.026843548904825591 0 0.017280179725741727 0.026006425413475347 0 0.01648990601493305 0.026914341696600133 0 0.015962830773255617 0.02613829671518185 0 0.015962830773255617 0.02613829671518185 0 0.015494672747512542 0.025579426078333124 0 0.014765985543451982 0.026473558055901424 0 0.015554118645406548 0.026843548904825591 0 0.015962830773255617 0.02613829671518185 0 0.014765985543451982 0.026473558055901424 0 0.015962830773255617 0.02613829671518185 0 0.015494672747512542 0.025579426078333124 0 0.016816115632959826 0.02536087968429521 0 0.017280179725741727 0.026006425413475347 0 0.015962830773255617 0.02613829671518185 0 0.016816115632959826 0.02536087968429521 0 0.013791608371776612 0.026468580230978266 0 0.014765985543451982 0.026473558055901424 0 0.014407654651611965 0.02570943133787993 0 0.015494672747512542 0.025579426078333124 0 0.014765985543451982 0.026473558055901424 0 0.014407654651611965 0.02570943133787993 0 0.015494672747512542 0.025579426078333124 0 0.014407654651611965 0.02570943133787993 0 0.014885569507807513 0.025207541454861818 0 0.013515034679454647 0.025750248947367858 0 0.014407654651611965 0.02570943133787993 0 0.01386218810831699 0.025213169575967538 0 0.013515034679454647 0.025750248947367858 0 0.013791608371776612 0.026468580230978266 0 0.014407654651611965 0.02570943133787993 0 0.014407654651611965 0.02570943133787993 0 0.014885569507807513 0.025207541454861818 0 0.01386218810831699 0.025213169575967538 0 0.014587118558202973 0.02485243721322208 0 0.016485016835432 0.023999851985392513 0 0.013516000338493605 0.024748791951096603 0 0.014885569507807513 0.025207541454861818 0 0.014587118558202973 0.02485243721322208 0 0.01386218810831699 0.025213169575967538 0 0.014885569507807513 0.025207541454861818 0 0.014587118558202973 0.02485243721322208 0 0.015941952165013987 0.024816929643909524 0 0.014587118558202973 0.02485243721322208 0 0.01386218810831699 0.025213169575967538 0 0.013516000338493605 0.024748791951096603 0 0.014894701257475277 0.024823460114002369 0 0.017886155569164071 0.024257571086036968 0 0.014587118558202973 0.02485243721322208 0 0.015941952165013987 0.024816929643909524 0 0.016901977225341168 0.023484469859331548 0 0.017533203673787894 0.024571054967321603 0 0.016816115632959826 0.02536087968429521 0 0.015941952165013987 0.024816929643909524 0 0.015494672747512542 0.025579426078333124 0 0.016816115632959826 0.02536087968429521 0 0.015941952165013987 0.024816929643909524 0 0.015494672747512542 0.025579426078333124 0 0.014885569507807513 0.025207541454861818 0 0.015941952165013987 0.024816929643909524 0 0.017533203673787894 0.024571054967321603 0 0.015941952165013987 0.024816929643909524 0 0.016901977225341168 0.023484469859331548 0 0.017093972915256179 0.02329873520292193 0 0.019195355286197421 0.024640318322317046 0 0.017361793492211033 0.025748651028379813 0 0.021585823053770208 0.025829257063135696 0 0.019195355286197421 0.024640318322317046 0 0.017361793492211033 0.025748651028379813 0 0.020865293321621958 0.02487017205381279 0 0.016965160998218019 0.024843683334586881 0 0.020248825543198252 0.023896440194413341 0 0.016485016835432 0.023999851985392513 0 0.018774945524654044 0.024998957117222526 0 0.014587118558202973 0.02485243721322208 0 0.016485016835432 0.023999851985392513 0 0.018774945524654044 0.024998957117222526 0 0.017093972915256179 0.02329873520292193 0 0.017361793492211033 0.025748651028379813 0 0.014969817399513771 0.024015060866691623 0 0.016965160998218019 0.024843683334586881 0 0.013942407182706177 0.024906573137638211 0 0.017361793492211033 0.025748651028379813 0 0.014969817399513771 0.024015060866691623 0 0.013516000338493605 0.024748791951096603 0 0.014969817399513771 0.024015060866691623 0 0.013000826732877209 0.023451507093543742 0 0.013516000338493605 0.024748791951096603 0 0.013000826732877209 0.023451507093543742 0 0.012239049655640244 0.024302740777334558 0 0.013516000338493605 0.024748791951096603 0 0.0097041361174628523 0.023781804257070494 0 0.01110773607179073 0.022889902572317929 0 0.012239049655640244 0.024302740777334558 0 0.013000826732877209 0.023451507093543742 0 0.01110773607179073 0.022889902572317929 0 0.012239049655640244 0.024302740777334558 0 0.0097041361174628523 0.023781804257070494 0 0.012239049655640244 0.024302740777334558 0 0.011147271496817764 0.025087294090319175 0 0.012239049655640244 0.024302740777334558 0 0.011147271496817764 0.025087294090319175 0 0.012662510884905356 0.025290009288871367 0 0.013515034679454647 0.025750248947367858 0 0.012662510884905356 0.025290009288871367 0 0.01386218810831699 0.025213169575967538 0 0.012662510884905356 0.025290009288871367 0 0.01386218810831699 0.025213169575967538 0 0.013516000338493605 0.024748791951096603 0 0.012239049655640244 0.024302740777334558 0 0.012662510884905356 0.025290009288871367 0 0.013516000338493605 0.024748791951096603 0 0.054297639689986646 0.012734652769230999 0 0.05552871611163504 0.012926998496328466 0 0.05493835522038671 0.012019914035162612 0 0.054297639689986646 0.012734652769230999 0 0.054874260798548409 0.013548752990599398 0 0.05552871611163504 0.012926998496328466 0 0.055000119479122943 0.011691792574119826 0 0.056453006971897826 0.010659316373118196 0 0.05603350055179844 0.013303532345940483 0 0.055000119479122943 0.011691792574119826 0 0.056453006971897826 0.010659316373118196 0 0.054999427531882146 0.0084966796210571103 0 0.055000119479122943 0.011691792574119826 0 0.05603350055179844 0.013303532345940483 0 0.054999399801204107 0.014887211868550123 0 0.055360869961535011 0.0116610190065446 0 0.055361175423712869 0.013742181652942661 0 0.054297639689986646 0.012734652769230999 0 0.054678691988512586 0.014201717006256923 0 0.054874260798548409 0.013548752990599398 0 0.054874260798548409 0.013548752990599398 0 0.055329685228600579 0.014302672228896132 0 0.05552871611163504 0.012926998496328466 0 0.054678691988512586 0.014201717006256923 0 0.054874260798548409 0.013548752990599398 0 0.055329685228600579 0.014302672228896132 0 0.054826669570581937 0.015692949026266459 0 0.055001584341475146 0.013896869133828494 0 0.054232550916297681 0.017096107575925595 0 0.054350202202204156 0.014953908611569309 0 0.054976609119517669 0.017503066280693085 0 0.05558680248092962 0.017106215127831042 0 0.054350202202204156 0.014953908611569309 0 0.054976609119517669 0.017503066280693085 0 0.05558680248092962 0.017106215127831042 0 0.056236749583051783 0.014722307105997466 0 0.056399952484511434 0.017139281135473507 0 0.05558680248092962 0.017106215127831042 0 0.056236749583051783 0.014722307105997466 0 0.054350202202204156 0.014953908611569309 0 0.056236749583051783 0.014722307105997466 0 0.054350202202204156 0.014953908611569309 0 0.055808878940527842 0.011742228712489543 0 0.055808878940527842 0.011742228712489543 0 0.055642842198805324 0.0098044491854107386 0 0.05493835522038671 0.012019914035162612 0 0.05552871611163504 0.012926998496328466 0 0.055808878940527842 0.011742228712489543 0 0.05493835522038671 0.012019914035162612 0 0.055001584341475146 0.013896869133828494 0 0.055778936473419902 0.011925751508429255 0 0.056236749583051783 0.014722307105997466 0 0.055808878940527842 0.011742228712489543 0 0.056787050890646208 0.011481738503689892 0 0.055808878940527842 0.011742228712489543 0 0.05659621037137675 0.0088892559935501228 0 0.056787050890646208 0.011481738503689892 0 0.05659621037137675 0.0088892559935501228 0 0.057339436132351831 0.010007899182444649 0 0.056787050890646208 0.011481738503689892 0 0.055808878940527842 0.011742228712489543 0 0.055642842198805324 0.0098044491854107386 0 0.05659621037137675 0.0088892559935501228 0 0.055642842198805324 0.0098044491854107386 0 0.054077953912839642 0.010632694582543139 0 0.05493835522038671 0.012019914035162612 0 0.056472255439160297 0.0080135823388060492 0 0.05564958213269787 0.0070665144820301123 0 0.055445970338119169 0.006942551831152213 0 0.055295423559554795 0.0093375910421538578 0 0.055455835634861159 0.0072253719482239555 0 0.055642842198805324 0.0098044491854107386 0 0.054077953912839642 0.010632694582543139 0 0.055445970338119169 0.006942551831152213 0 0.054297639689986646 0.012734652769230999 0 0.054077953912839642 0.010632694582543139 0 0.05493835522038671 0.012019914035162612 0 0.055360869961535011 0.0116610190065446 0 0.055295423559554795 0.0093375910421538578 0 0.056453006971897826 0.010659316373118196 0 0.056472255439160297 0.0080135823388060492 0 0.054999427531882146 0.0084966796210571103 0 0.056472255439160297 0.0080135823388060492 0 0.054999427531882146 0.0084966796210571103 0 0.05564958213269787 0.0070665144820301123 0 0.054999427531882146 0.0084966796210571103 0 0.05564958213269787 0.0070665144820301123 0 0.054999224055002002 0.0053022940773372555 0 0.05564958213269787 0.0070665144820301123 0 0.054999224055002002 0.0053022940773372555 0 0.055445970338119169 0.006942551831152213 0 0.055445970338119169 0.006942551831152213 0 0.055445371852378363 0.0047436805201548976 0 0.056135982369763984 0.00543863262737932 0 0.054999224055002002 0.0053022940773372555 0 0.055445371852378363 0.0047436805201548976 0 0.054998949548659783 0.0021130500497571225 0 0.054999224055002002 0.0053022940773372555 0 0.055445970338119169 0.006942551831152213 0 0.055445371852378363 0.0047436805201548976 0 0.055445371852378363 0.0047436805201548976 0 0.054998949548659783 0.0021130500497571225 0 0.055665588048219319 0.0039352369055692584 0 0.055445371852378363 0.0047436805201548976 0 0.055665588048219319 0.0039352369055692584 0 0.056135982369763984 0.00543863262737932 0 0.055665588048219319 0.0039352369055692584 0 0.055440856257666343 0.0033437303321696126 0 0.056084692558321901 0.0035346785273535166 0 0.055000126770628092 0.002107254263931812 0 0.056219004516395943 0.0019593390118662134 0 0.054998949548659783 0.0021130500497571225 0 0.055665588048219319 0.0039352369055692584 0 0.055440856257666343 0.0033437303321696126 0 0.054999980017445826 -0.00083324985311681785 0 0.054999988885070267 0.0021070390704671818 0 0.056979990134929694 0.00039132291082033896 0 0.05422648368631014 0.0019278464694093109 0 0.055661392784577872 0.0033573442415908679 0 0.056189600892517871 0.0031346187516636558 0 0.055174043916730316 0.0016343356592720306 0 0.055551714629022995 0.002929869134994757 0 0.056776579782470832 0.0041878670356428329 0 0.056568958737554347 0.0037885990402043014 0 0.056359870556424718 0.0041334328736220213 0 0.056776579782470832 0.0041878670356428329 0 0.057111324671811924 0.003956567931894135 0 0.056568958737554347 0.0037885990402043014 0 0.056776579782470832 0.0041878670356428329 0 0.057111324671811924 0.003956567931894135 0 0.057033867215628552 0.0045581613178846819 0 0.056497714853318087 0.0031652095678159067 0 0.057111324671811924 0.003956567931894135 0 0.056568958737554347 0.0037885990402043014 0 0.055174043916730316 0.0016343356592720306 0 0.056488682861521061 0.0037715015689307537 0 0.055665588048219319 0.0039352369055692584 0 0.056084692558321901 0.0035346785273535166 0 0.056359870556424718 0.0041334328736220213 0 0.056497714853318087 0.0031652095678159067 0 0.056568958737554347 0.0037885990402043014 0 0.056084692558321901 0.0035346785273535166 0 0.056568958737554347 0.0037885990402043014 0 0.056084692558321901 0.0035346785273535166 0 0.056359870556424718 0.0041334328736220213 0 0.055665588048219319 0.0039352369055692584 0 0.056359870556424718 0.0041334328736220213 0 0.056135982369763984 0.00543863262737932 0 0.056359870556424718 0.0041334328736220213 0 0.056728414870498421 0.0046695237427478962 0 0.056135982369763984 0.00543863262737932 0 0.056728414870498421 0.0046695237427478962 0 0.05703946427379139 0.0052186672187581207 0 0.056135982369763984 0.00543863262737932 0 0.056776579782470832 0.0041878670356428329 0 0.056359870556424718 0.0041334328736220213 0 0.056728414870498421 0.0046695237427478962 0 0.056776579782470832 0.0041878670356428329 0 0.056728414870498421 0.0046695237427478962 0 0.057033867215628552 0.0045581613178846819 0 0.056728414870498421 0.0046695237427478962 0 0.057033867215628552 0.0045581613178846819 0 0.05703946427379139 0.0052186672187581207 0 0.057202990828054377 0.0074180910629934715 0 0.056135982369763984 0.00543863262737932 0 0.05659621037137675 0.0088892559935501228 0 0.057030885802324537 0.0062903594277761458 0 0.05606340389088775 0.0055826468196376088 0 0.057202990828054377 0.0074180910629934715 0 0.05659621037137675 0.0088892559935501228 0 0.057574473854445418 0.0087697943452040988 0 0.055445970338119169 0.006942551831152213 0 0.056135982369763984 0.00543863262737932 0 0.05659621037137675 0.0088892559935501228 0 0.055642842198805324 0.0098044491854107386 0 0.055445970338119169 0.006942551831152213 0 0.05659621037137675 0.0088892559935501228 0 0.05659621037137675 0.0088892559935501228 0 0.057574473854445418 0.0087697943452040988 0 0.057339436132351831 0.010007899182444649 0 0.057574473854445418 0.0087697943452040988 0 0.057339436132351831 0.010007899182444649 0 0.058228912709144723 0.0097645414048642427 0 0.057574473854445418 0.0087697943452040988 0 0.058228912709144723 0.0097645414048642427 0 0.05816301424266522 0.0086309085992229383 0 0.057202990828054377 0.0074180910629934715 0 0.057574473854445418 0.0087697943452040988 0 0.05816301424266522 0.0086309085992229383 0 0.057030885802324537 0.0062903594277761458 0 0.058132915302681804 0.0071222265940904935 0 0.05703946427379139 0.0052186672187581207 0 0.058098007289226108 0.0056853461303591367 0 0.057435902313175705 0.0046738964235147262 0 0.057033867215628552 0.0045581613178846819 0 0.05703946427379139 0.0052186672187581207 0 0.057435902313175705 0.0046738964235147262 0 0.057111324671811924 0.003956567931894135 0 0.057033867215628552 0.0045581613178846819 0 0.057435902313175705 0.0046738964235147262 0 0.058098007289226108 0.0056853461303591367 0 0.058373180014475966 0.0044354375106221734 0 0.058920981080707036 0.0052119880155210348 0 0.058098007289226108 0.0056853461303591367 0 0.057435902313175705 0.0046738964235147262 0 0.058373180014475966 0.0044354375106221734 0 0.057435902313175705 0.0046738964235147262 0 0.058373180014475966 0.0044354375106221734 0 0.05749248558307872 0.0033244694944061523 0 0.058373180014475966 0.0044354375106221734 0 0.058700942629059047 0.0028442801031068792 0 0.05749248558307872 0.0033244694944061523 0 0.057593553853080202 0.0018801796150364047 0 0.058700942629059047 0.0028442801031068792 0 0.05749248558307872 0.0033244694944061523 0 0.05749248558307872 0.0033244694944061523 0 0.056933362431135934 0.0025769038978059829 0 0.056189600892517871 0.0031346187516636558 0 0.057435902313175705 0.0046738964235147262 0 0.05749248558307872 0.0033244694944061523 0 0.056189600892517871 0.0031346187516636558 0 0.055661392784577872 0.0033573442415908679 0 0.057435902313175705 0.0046738964235147262 0 0.056189600892517871 0.0031346187516636558 0 0.057593553853080202 0.0018801796150364047 0 0.05749248558307872 0.0033244694944061523 0 0.056933362431135934 0.0025769038978059829 0 0.05646913115412993 0.0017831130272074089 0 0.056933362431135934 0.0025769038978059829 0 0.056189600892517871 0.0031346187516636558 0 0.056488682861521061 0.0037715015689307537 0 0.057266912547718644 0.0045103877286358559 0 0.060103307586456177 0.0024239193255707267 0 0.059626255205586565 0.0045554904763675441 0 0.060798865912060011 0.0043663395458954741 0 0.058137828622748133 0.0022666386232024975 0 0.059137597260712875 0.0041209883777370395 0 0.060103307586456177 0.0024239193255707267 0 0.058700942629059047 0.0028442801031068792 0 0.059626255205586565 0.0045554904763675441 0 0.058373180014475966 0.0044354375106221734 0 0.058700942629059047 0.0028442801031068792 0 0.059626255205586565 0.0045554904763675441 0 0.059626255205586565 0.0045554904763675441 0 0.058920981080707036 0.0052119880155210348 0 0.059590338794026365 0.0061554852304162482 0 0.058373180014475966 0.0044354375106221734 0 0.059626255205586565 0.0045554904763675441 0 0.058920981080707036 0.0052119880155210348 0 0.059626255205586565 0.0045554904763675441 0 0.060312462632082613 0.0055692972941639544 0 0.060798865912060011 0.0043663395458954741 0 0.059626255205586565 0.0045554904763675441 0 0.059590338794026365 0.0061554852304162482 0 0.060312462632082613 0.0055692972941639544 0 0.059383260850769372 0.0076370397750071583 0 0.060264071555713131 0.007939899281877336 0 0.059590338794026365 0.0061554852304162482 0 0.06049279881698786 0.0067941783696853818 0 0.060312462632082613 0.0055692972941639544 0 0.058132915302681804 0.0071222265940904935 0 0.059383260850769372 0.0076370397750071583 0 0.058228912709144723 0.0097645414048642427 0 0.05816301424266522 0.0086309085992229383 0 0.059203075362497054 0.0091393899832201073 0 0.058098007289226108 0.0056853461303591367 0 0.058920981080707036 0.0052119880155210348 0 0.059590338794026365 0.0061554852304162482 0 0.058228912709144723 0.0097645414048642427 0 0.059203075362497054 0.0091393899832201073 0 0.059155029479223881 0.010188558168103977 0 0.059203075362497054 0.0091393899832201073 0 0.059155029479223881 0.010188558168103977 0 0.059664512458834112 0.00987416083354304 0 0.059203075362497054 0.0091393899832201073 0 0.059664512458834112 0.00987416083354304 0 0.059839848761713756 0.009082121112565943 0 0.059155029479223881 0.010188558168103977 0 0.059502933847903595 0.010628159227637509 0 0.059664512458834112 0.00987416083354304 0 0.059228241589320163 0.013005622388768946 0 0.058724230077139894 0.013476915973091219 0 0.059365719568805764 0.014326525751694238 0 0.058724230077139894 0.013476915973091219 0 0.058465863549957975 0.011554465524479767 0 0.057900873457394142 0.014431363156770235 0 0.059228241589320163 0.013005622388768946 0 0.058724230077139894 0.013476915973091219 0 0.058465863549957975 0.011554465524479767 0 0.059277574834105083 0.011791327547612222 0 0.058378850767904743 0.011580713922234937 0 0.058228912709144723 0.0097645414048642427 0 0.059155029479223881 0.010188558168103977 0 0.058465863549957975 0.011554465524479767 0 0.059155029479223881 0.010188558168103977 0 0.059502933847903595 0.010628159227637509 0 0.058465863549957975 0.011554465524479767 0 0.057339436132351831 0.010007899182444649 0 0.058228912709144723 0.0097645414048642427 0 0.058465863549957975 0.011554465524479767 0 0.057339436132351831 0.010007899182444649 0 0.058465863549957975 0.011554465524479767 0 0.057238146885504187 0.013045216557691574 0 0.057339436132351831 0.010007899182444649 0 0.056787050890646208 0.011481738503689892 0 0.057238146885504187 0.013045216557691574 0 0.056236749583051783 0.014722307105997466 0 0.056787050890646208 0.011481738503689892 0 0.057238146885504187 0.013045216557691574 0 0.058465863549957975 0.011554465524479767 0 0.057238146885504187 0.013045216557691574 0 0.057900873457394142 0.014431363156770235 0 0.057238146885504187 0.013045216557691574 0 0.056996289621920902 0.016040888700872759 0 0.057900873457394142 0.014431363156770235 0 0.056236749583051783 0.014722307105997466 0 0.057238146885504187 0.013045216557691574 0 0.056996289621920902 0.016040888700872759 0 0.056236749583051783 0.014722307105997466 0 0.056399952484511434 0.017139281135473507 0 0.056996289621920902 0.016040888700872759 0 0.056399952484511434 0.017139281135473507 0 0.056996289621920902 0.016040888700872759 0 0.0568723453631335 0.018487045410860749 0 0.056996289621920902 0.016040888700872759 0 0.057432774862070587 0.017001743058379631 0 0.057900873457394142 0.014431363156770235 0 0.056996289621920902 0.016040888700872759 0 0.057432774862070587 0.017001743058379631 0 0.0568723453631335 0.018487045410860749 0 0.057432774862070587 0.017001743058379631 0 0.058358823832585602 0.015360161628241905 0 0.057962545921292713 0.017502627091977009 0 0.058358823832585602 0.015360161628241905 0 0.059172390491231283 0.016410867674187164 0 0.057962545921292713 0.017502627091977009 0 0.058358823832585602 0.015360161628241905 0 0.059172390491231283 0.016410867674187164 0 0.059365719568805764 0.014326525751694238 0 0.058724230077139894 0.013476915973091219 0 0.058358823832585602 0.015360161628241905 0 0.059365719568805764 0.014326525751694238 0 0.058724230077139894 0.013476915973091219 0 0.058358823832585602 0.015360161628241905 0 0.057900873457394142 0.014431363156770235 0 0.057432774862070587 0.017001743058379631 0 0.058358823832585602 0.015360161628241905 0 0.057900873457394142 0.014431363156770235 0 0.060595894264266099 0.015004211115981504 0 0.059172390491231283 0.016410867674187164 0 0.059365719568805764 0.014326525751694238 0 0.059172390491231283 0.016410867674187164 0 0.060251720027235729 0.016742862415545283 0 0.059559406855401682 0.018319818678363305 0 0.060595894264266099 0.015004211115981504 0 0.059172390491231283 0.016410867674187164 0 0.060251720027235729 0.016742862415545283 0 0.060595894264266099 0.015004211115981504 0 0.060251720027235729 0.016742862415545283 0 0.061485697221496959 0.016673426823923938 0 0.060251720027235729 0.016742862415545283 0 0.061485697221496959 0.016673426823923938 0 0.060990146765329739 0.017689873118246685 0 0.061485697221496959 0.016673426823923938 0 0.062578897378286535 0.016584976263453646 0 0.061921859239008566 0.015043178357767426 0 0.061485697221496959 0.016673426823923938 0 0.062578897378286535 0.016584976263453646 0 0.061993053977617105 0.01766335680354969 0 0.062578897378286535 0.016584976263453646 0 0.063099625353898042 0.015517662811215579 0 0.061921859239008566 0.015043178357767426 0 0.063554611869978461 0.016503288613374557 0 0.062578897378286535 0.016584976263453646 0 0.063205009704370305 0.01774434654506496 0 0.063554611869978461 0.016503288613374557 0 0.062578897378286535 0.016584976263453646 0 0.063099625353898042 0.015517662811215579 0 0.063099625353898042 0.015517662811215579 0 0.061921859239008566 0.015043178357767426 0 0.062714676768047165 0.014116831788527176 0 0.063099625353898042 0.015517662811215579 0 0.062714676768047165 0.014116831788527176 0 0.063797912208617746 0.014583852649264591 0 0.060595894264266099 0.015004211115981504 0 0.061921859239008566 0.015043178357767426 0 0.061795276503456523 0.013260988403146268 0 0.060595894264266099 0.015004211115981504 0 0.061485697221496959 0.016673426823923938 0 0.061921859239008566 0.015043178357767426 0 0.061921859239008566 0.015043178357767426 0 0.061795276503456523 0.013260988403146268 0 0.062714676768047165 0.014116831788527176 0 0.061795276503456523 0.013260988403146268 0 0.062714676768047165 0.014116831788527176 0 0.063589069297584011 0.012668404939182839 0 0.061697671560745043 0.012320332491502025 0 0.06355179695816876 0.012638822238449188 0 0.062714676768047165 0.014116831788527176 0 0.063589069297584011 0.012668404939182839 0 0.063797912208617746 0.014583852649264591 0 0.061362379786279668 0.011362308688432844 0 0.062614126025025613 0.0099236281614121669 0 0.063589069297584011 0.012668404939182839 0 0.061362379786279668 0.011362308688432844 0 0.062614126025025613 0.0099236281614121669 0 0.0611389547044566 0.0098234256279144793 0 0.061362379786279668 0.011362308688432844 0 0.0611389547044566 0.0098234256279144793 0 0.06008253293232281 0.010637281331964144 0 0.0611389547044566 0.0098234256279144793 0 0.06008253293232281 0.010637281331964144 0 0.060263764593691635 0.0095797462179219375 0 0.060595894264266099 0.015004211115981504 0 0.061795276503456523 0.013260988403146268 0 0.060304024350815243 0.013303797592564942 0 0.061697671560745043 0.012320332491502025 0 0.060224590670933102 0.01198908592863232 0 0.060595894264266099 0.015004211115981504 0 0.060304024350815243 0.013303797592564942 0 0.059365719568805764 0.014326525751694238 0 0.059228241589320163 0.013005622388768946 0 0.060304024350815243 0.013303797592564942 0 0.059365719568805764 0.014326525751694238 0 0.06008253293232281 0.010637281331964144 0 0.059664512458834112 0.00987416083354304 0 0.060263764593691635 0.0095797462179219375 0 0.059502933847903595 0.010628159227637509 0 0.06008253293232281 0.010637281331964144 0 0.059664512458834112 0.00987416083354304 0 0.059277574834105083 0.011791327547612222 0 0.060224590670933102 0.01198908592863232 0 0.059664512458834112 0.00987416083354304 0 0.060263764593691635 0.0095797462179219375 0 0.059839848761713756 0.009082121112565943 0 0.060263764593691635 0.0095797462179219375 0 0.059839848761713756 0.009082121112565943 0 0.061010237722543936 0.0081088545887265853 0 0.0611389547044566 0.0098234256279144793 0 0.060263764593691635 0.0095797462179219375 0 0.061010237722543936 0.0081088545887265853 0 0.060264071555713131 0.007939899281877336 0 0.061090087547404547 0.008109977946187388 0 0.06049279881698786 0.0067941783696853818 0 0.061157017327371166 0.0060491946007485619 0 0.061010237722543936 0.0081088545887265853 0 0.06049279881698786 0.0067941783696853818 0 0.060312462632082613 0.0055692972941639544 0 0.061157017327371166 0.0060491946007485619 0 0.060312462632082613 0.0055692972941639544 0 0.061157017327371166 0.0060491946007485619 0 0.060798865912060011 0.0043663395458954741 0 0.060133815415295902 0.0058353178663330665 0 0.059137597260712875 0.0041209883777370395 0 0.058475843144143141 0.0026208712027901374 0 0.059003161959244488 0.0039298602401723164 0 0.05753915623417423 0.0039324948764454812 0 0.059093423270598501 0.0056507049314699067 0 0.059003161959244488 0.0039298602401723164 0 0.060335997914636577 0.0042088915549831274 0 0.059093423270598501 0.0056507049314699067 0 0.059003161959244488 0.0039298602401723164 0 0.05753915623417423 0.0039324948764454812 0 0.06119591920365236 0.0045475600186203483 0 0.060335997914636577 0.0042088915549831274 0 0.061066658829147913 0.005568698688144089 0 0.06119591920365236 0.0045475600186203483 0 0.061831291836245077 0.005417958897558894 0 0.06128531621737409 0.0044530300959487274 0 0.06119591920365236 0.0045475600186203483 0 0.061195270895654609 0.0040962156755925527 0 0.06128531621737409 0.0044530300959487274 0 0.061195270895654609 0.0040962156755925527 0 0.061206582825552816 0.0042840672713613031 0 0.06128531621737409 0.0044530300959487274 0 0.06119591920365236 0.0045475600186203483 0 0.060947676334709898 0.0038483716860488347 0 0.060335997914636577 0.0042088915549831274 0 0.06119591920365236 0.0045475600186203483 0 0.061195270895654609 0.0040962156755925527 0 0.060947676334709898 0.0038483716860488347 0 0.059631123676197766 0.00328371543769502 0 0.059003161959244488 0.0039298602401723164 0 0.060335997914636577 0.0042088915549831274 0 0.059631123676197766 0.00328371543769502 0 0.060364226484974762 0.0033441256610977255 0 0.060335997914636577 0.0042088915549831274 0 0.060364226484974762 0.0033441256610977255 0 0.060947676334709898 0.0038483716860488347 0 0.060335997914636577 0.0042088915549831274 0 0.059093423270598501 0.0056507049314699067 0 0.061066658829147913 0.005568698688144089 0 0.061500997871580566 0.0075099448615675978 0 0.059093423270598501 0.0056507049314699067 0 0.060335997914636577 0.0042088915549831274 0 0.061066658829147913 0.005568698688144089 0 0.061066658829147913 0.005568698688144089 0 0.061831291836245077 0.005417958897558894 0 0.062087894088352913 0.0065632001428549795 0 0.06119591920365236 0.0045475600186203483 0 0.061066658829147913 0.005568698688144089 0 0.061831291836245077 0.005417958897558894 0 0.061831291836245077 0.005417958897558894 0 0.062087894088352913 0.0065632001428549795 0 0.063583455368560929 0.0063718007375235348 0 0.061066658829147913 0.005568698688144089 0 0.062087894088352913 0.0065632001428549795 0 0.061500997871580566 0.0075099448615675978 0 0.062087894088352913 0.0065632001428549795 0 0.062644658969272946 0.0079955510915694084 0 0.063583455368560929 0.0063718007375235348 0 0.062087894088352913 0.0065632001428549795 0 0.061500997871580566 0.0075099448615675978 0 0.062644658969272946 0.0079955510915694084 0 0.061500997871580566 0.0075099448615675978 0 0.062644658969272946 0.0079955510915694084 0 0.061694129184757605 0.0086580777146702832 0 0.060133815415295902 0.0058353178663330665 0 0.061412071662834529 0.00733187914974303 0 0.061157017327371166 0.0060491946007485619 0 0.061500997871580566 0.0075099448615675978 0 0.061010237722543936 0.0081088545887265853 0 0.061500997871580566 0.0075099448615675978 0 0.061010237722543936 0.0081088545887265853 0 0.061694129184757605 0.0086580777146702832 0 0.0611389547044566 0.0098234256279144793 0 0.061010237722543936 0.0081088545887265853 0 0.061694129184757605 0.0086580777146702832 0 0.062614126025025613 0.0099236281614121669 0 0.062644658969272946 0.0079955510915694084 0 0.061694129184757605 0.0086580777146702832 0 0.062614126025025613 0.0099236281614121669 0 0.0611389547044566 0.0098234256279144793 0 0.061694129184757605 0.0086580777146702832 0 0.062614126025025613 0.0099236281614121669 0 0.062644658969272946 0.0079955510915694084 0 0.064954890116381905 0.0090607605515725317 0 0.057651146109290598 0.0075017749437677247 0 0.059178527449557483 0.0065059480729385173 0 0.058517732066754181 0.0078412584302984915 0 0.057651146109290598 0.0075017749437677247 0 0.058517732066754181 0.0078412584302984915 0 0.05794434529472979 0.0090018503122421475 0 0.057651146109290598 0.0075017749437677247 0 0.058882600371621213 0.0055025773107958923 0 0.059158119523656551 0.0056832200377437275 0 0.057651146109290598 0.0075017749437677247 0 0.059158119523656551 0.0056832200377437275 0 0.059178527449557483 0.0065059480729385173 0 0.061332486314073634 0.0084513689506469092 0 0.061279094341761355 0.0060788420734628115 0 0.062644658969272946 0.0079955510915694084 0 0.064954890116381905 0.0090607605515725317 0 0.063583455368560929 0.0063718007375235348 0 0.061831291836245077 0.005417958897558894 0 0.063583455368560929 0.0063718007375235348 0 0.06128531621737409 0.0044530300959487274 0 0.061279094341761355 0.0060788420734628115 0 0.061289563608739578 0.0047760439032948484 0 0.058882600371621213 0.0055025773107958923 0 0.059743716872759846 0.0050095542303668795 0 0.06128531621737409 0.0044530300959487274 0 0.058882600371621213 0.0055025773107958923 0 0.059158119523656551 0.0056832200377437275 0 0.059743716872759846 0.0050095542303668795 0 0.059158119523656551 0.0056832200377437275 0 0.059743716872759846 0.0050095542303668795 0 0.059603469979630751 0.0052338109035918196 0 0.059743716872759846 0.0050095542303668795 0 0.059884812139307096 0.0050943516048679765 0 0.060257627492960944 0.0049109930435487104 0 0.059743716872759846 0.0050095542303668795 0 0.059603469979630751 0.0052338109035918196 0 0.059884812139307096 0.0050943516048679765 0 0.059603469979630751 0.0052338109035918196 0 0.059884812139307096 0.0050943516048679765 0 0.059703659203446439 0.0052511300624948675 0 0.059877678777370262 0.0054053538167249835 0 0.059884812139307096 0.0050943516048679765 0 0.059703659203446439 0.0052511300624948675 0 0.059884812139307096 0.0050943516048679765 0 0.060257627492960944 0.0049109930435487104 0 0.06022187248294892 0.0051342384136262922 0 0.060257627492960944 0.0049109930435487104 0 0.06022187248294892 0.0051342384136262922 0 0.06089921675406202 0.0047598110174629808 0 0.059743716872759846 0.0050095542303668795 0 0.060257627492960944 0.0049109930435487104 0 0.06128531621737409 0.0044530300959487274 0 0.060257627492960944 0.0049109930435487104 0 0.06128531621737409 0.0044530300959487274 0 0.06089921675406202 0.0047598110174629808 0 0.061353672806833764 0.0036663908337868584 0 0.061206582825552816 0.0042840672713613031 0 0.06089921675406202 0.0047598110174629808 0 0.061206582825552816 0.0042840672713613031 0 0.06128531621737409 0.0044530300959487274 0 0.06089921675406202 0.0047598110174629808 0 0.059607679394109568 0.0054026072207857224 0 0.059712126076689152 0.0053531998806598509 0 0.059679912728331279 0.0053285005224068321 0 0.059607679394109568 0.0054026072207857224 0 0.059703659203446439 0.0052511300624948675 0 0.059679912728331279 0.0053285005224068321 0 0.059603469979630751 0.0052338109035918196 0 0.059703659203446439 0.0052511300624948675 0 0.059679912728331279 0.0053285005224068321 0 0.059679912728331279 0.0053285005224068321 0 0.059562903706137323 0.0056525714677962708 0 0.059831808948770417 0.0056129589841462536 0 0.059603469979630751 0.0052338109035918196 0 0.059679912728331279 0.0053285005224068321 0 0.059562903706137323 0.0056525714677962708 0 0.059158119523656551 0.0056832200377437275 0 0.059603469979630751 0.0052338109035918196 0 0.059562903706137323 0.0056525714677962708 0 0.059562903706137323 0.0056525714677962708 0 0.059831808948770417 0.0056129589841462536 0 0.05973350123577903 0.0060647727567094767 0 0.059712126076689152 0.0053531998806598509 0 0.059831808948770417 0.0056129589841462536 0 0.06022686269411532 0.0059397375966331488 0 0.059712126076689152 0.0053531998806598509 0 0.059679912728331279 0.0053285005224068321 0 0.059831808948770417 0.0056129589841462536 0 0.052964064275788078 0.014558174451912601 0 0.053314866759076492 0.014376428392009701 0 0.053248870235839366 0.014376785759125774 0 0.059831808948770417 0.0056129589841462536 0 0.06022686269411532 0.0059397375966331488 0 0.05973350123577903 0.0060647727567094767 0 0.045494091673616378 0.013475781183199328 0 0.039818672031093946 0.018497964986339741 0 0.045494091673616378 0.013475781183199328 0 0.057791504202463422 0.0092526496032947873 0 0.06022686269411532 0.0059397375966331488 0 0.059753227606909064 0.0067351723283478587 0 0.060308662379222 0.0078183529967654451 0 0.053314866759076492 0.014376428392009701 0 0.053248870235839366 0.014376785759125774 0 0.053633568244412323 0.014081288000962517 0 0.040472181705359871 0.017730870582306397 0 0.039818672031093946 0.018497964986339741 0 0.057791504202463422 0.0092526496032947873 0 0.056807389540384237 0.011179593145157122 0 0.06022686269411532 0.0059397375966331488 0 0.05973350123577903 0.0060647727567094767 0 0.059753227606909064 0.0067351723283478587 0 0.059158119523656551 0.0056832200377437275 0 0.059562903706137323 0.0056525714677962708 0 0.059178527449557483 0.0065059480729385173 0 0.059562903706137323 0.0056525714677962708 0 0.05973350123577903 0.0060647727567094767 0 0.059178527449557483 0.0065059480729385173 0 0.059753227606909064 0.0067351723283478587 0 0.059178527449557483 0.0065059480729385173 0 0.059216507332564922 0.0076017064547027101 0 0.05973350123577903 0.0060647727567094767 0 0.059753227606909064 0.0067351723283478587 0 0.059178527449557483 0.0065059480729385173 0 0.059178527449557483 0.0065059480729385173 0 0.059216507332564922 0.0076017064547027101 0 0.058517732066754181 0.0078412584302984915 0 0.059753227606909064 0.0067351723283478587 0 0.059216507332564922 0.0076017064547027101 0 0.060308662379222 0.0078183529967654451 0 0.059216507332564922 0.0076017064547027101 0 0.059293325991941176 0.0084716143741905871 0 0.060308662379222 0.0078183529967654451 0 0.059216507332564922 0.0076017064547027101 0 0.059293325991941176 0.0084716143741905871 0 0.058636428182114432 0.0088571026005897866 0 0.058517732066754181 0.0078412584302984915 0 0.058636428182114432 0.0088571026005897866 0 0.05794434529472979 0.0090018503122421475 0 0.059216507332564922 0.0076017064547027101 0 0.058517732066754181 0.0078412584302984915 0 0.058636428182114432 0.0088571026005897866 0 0.053438337137337144 0.014159691599887591 0 0.053248870235839366 0.014376785759125774 0 0.053633568244412323 0.014081288000962517 0 0.059293325991941176 0.0084716143741905871 0 0.060308662379222 0.0078183529967654451 0 0.059085434065833643 0.0093385902742623428 0 0.053438337137337144 0.014159691599887591 0 0.053633568244412323 0.014081288000962517 0 0.053727297734855461 0.013876596740031678 0 0.056807389540384237 0.011179593145157122 0 0.056587229622945379 0.012116069937537563 0 0.053438337137337144 0.014159691599887591 0 0.053656782566595777 0.013147455751608396 0 0.053727297734855461 0.013876596740031678 0 0.060308662379222 0.0078183529967654451 0 0.059236442234487707 0.010685337621861815 0 0.059085434065833643 0.0093385902742623428 0 0.053633568244412323 0.014081288000962517 0 0.053727297734855461 0.013876596740031678 0 0.053916905303447858 0.01402303500874299 0 0.053656782566595777 0.013147455751608396 0 0.053727297734855461 0.013876596740031678 0 0.053916905303447858 0.01402303500874299 0 0.056587229622945379 0.012116069937537563 0 0.056219616666910818 0.012468049633418797 0 0.053656782566595777 0.013147455751608396 0 0.053916905303447858 0.01402303500874299 0 0.053826920666305678 0.013965032772103876 0 0.053916905303447858 0.01402303500874299 0 0.053826920666305678 0.013965032772103876 0 0.056075341477177382 0.012742793627380409 0 0.053656782566595777 0.013147455751608396 0 0.053137080597144531 0.014615516670709124 0 0.053826920666305678 0.013965032772103876 0 0.059236442234487707 0.010685337621861815 0 0.057053067366600929 0.012250289261553459 0 0.056075341477177382 0.012742793627380409 0 0.057562542301023562 0.011480703788665624 0 0.05742256227934598 0.011244960019624004 0 0.057297320201514665 0.012159867204707469 0 0.059236442234487707 0.010685337621861815 0 0.057562542301023562 0.011480703788665624 0 0.057053067366600929 0.012250289261553459 0 0.059236442234487707 0.010685337621861815 0 0.057562542301023562 0.011480703788665624 0 0.058023254275134342 0.010293981178907641 0 0.057562542301023562 0.011480703788665624 0 0.05742256227934598 0.011244960019624004 0 0.058023254275134342 0.010293981178907641 0 0.059236442234487707 0.010685337621861815 0 0.058023254275134342 0.010293981178907641 0 0.059085434065833643 0.0093385902742623428 0 0.058023254275134342 0.010293981178907641 0 0.059085434065833643 0.0093385902742623428 0 0.058636428182114432 0.0088571026005897866 0 0.059293325991941176 0.0084716143741905871 0 0.059085434065833643 0.0093385902742623428 0 0.058636428182114432 0.0088571026005897866 0 0.058023254275134342 0.010293981178907641 0 0.058636428182114432 0.0088571026005897866 0 0.05794434529472979 0.0090018503122421475 0 0.064954890116381905 0.0090607605515725317 0 0.064477966052525773 0.01091389895369012 0 0.066053478341891458 0.012090477605024571 0 0.061332486314073634 0.0084513689506469092 0 0.06172396739355418 0.011036559812844716 0 0.057651146109290598 0.0075017749437677247 0 0.05794434529472979 0.0090018503122421475 0 0.05711407150793632 0.010563748654901875 0 0.064477966052525773 0.01091389895369012 0 0.064790284530271483 0.012521769546230363 0 0.066053478341891458 0.012090477605024571 0 0.058023254275134342 0.010293981178907641 0 0.05794434529472979 0.0090018503122421475 0 0.05711407150793632 0.010563748654901875 0 0.062614126025025613 0.0099236281614121669 0 0.064954890116381905 0.0090607605515725317 0 0.064477966052525773 0.01091389895369012 0 0.062614126025025613 0.0099236281614121669 0 0.064477966052525773 0.01091389895369012 0 0.063589069297584011 0.012668404939182839 0 0.064477966052525773 0.01091389895369012 0 0.063589069297584011 0.012668404939182839 0 0.064790284530271483 0.012521769546230363 0 0.063589069297584011 0.012668404939182839 0 0.064790284530271483 0.012521769546230363 0 0.064808422037758801 0.013926320965257801 0 0.063589069297584011 0.012668404939182839 0 0.064808422037758801 0.013926320965257801 0 0.063797912208617746 0.014583852649264591 0 0.066053478341891458 0.012090477605024571 0 0.065803923016049218 0.013336048961083915 0 0.066817013847315157 0.01519424518981409 0 0.05742256227934598 0.011244960019624004 0 0.05711407150793632 0.010563748654901875 0 0.057297320201514665 0.012159867204707469 0 0.06172396739355418 0.011036559812844716 0 0.060792763985209351 0.015295266649671242 0 0.05742256227934598 0.011244960019624004 0 0.058023254275134342 0.010293981178907641 0 0.05711407150793632 0.010563748654901875 0 0.064790284530271483 0.012521769546230363 0 0.066053478341891458 0.012090477605024571 0 0.065803923016049218 0.013336048961083915 0 0.064790284530271483 0.012521769546230363 0 0.064808422037758801 0.013926320965257801 0 0.065803923016049218 0.013336048961083915 0 0.064808422037758801 0.013926320965257801 0 0.065803923016049218 0.013336048961083915 0 0.065509289171917659 0.014643461872583733 0 0.065803923016049218 0.013336048961083915 0 0.065509289171917659 0.014643461872583733 0 0.0664233081670908 0.015053919422059062 0 0.066361081004460434 0.01440831333425217 0 0.060792763985209351 0.015295266649671242 0 0.064808422037758801 0.013926320965257801 0 0.065509289171917659 0.014643461872583733 0 0.064833570866871928 0.015127326065880681 0 0.065561474337813078 0.015607198356923582 0 0.064833570866871928 0.015127326065880681 0 0.064806438075886291 0.015839626663286331 0 0.065509289171917659 0.014643461872583733 0 0.065561474337813078 0.015607198356923582 0 0.064833570866871928 0.015127326065880681 0 0.065561474337813078 0.015607198356923582 0 0.0664233081670908 0.015053919422059062 0 0.066484441278222853 0.01573809123985323 0 0.065509289171917659 0.014643461872583733 0 0.065561474337813078 0.015607198356923582 0 0.0664233081670908 0.015053919422059062 0 0.064808422037758801 0.013926320965257801 0 0.063797912208617746 0.014583852649264591 0 0.064833570866871928 0.015127326065880681 0 0.063797912208617746 0.014583852649264591 0 0.064833570866871928 0.015127326065880681 0 0.064152866557553201 0.015884467170435238 0 0.064833570866871928 0.015127326065880681 0 0.064152866557553201 0.015884467170435238 0 0.064806438075886291 0.015839626663286331 0 0.063099625353898042 0.015517662811215579 0 0.063797912208617746 0.014583852649264591 0 0.064152866557553201 0.015884467170435238 0 0.063554611869978461 0.016503288613374557 0 0.064684615590940991 0.016713033549171016 0 0.063205009704370305 0.01774434654506496 0 0.063554611869978461 0.016503288613374557 0 0.064152866557553201 0.015884467170435238 0 0.064684615590940991 0.016713033549171016 0 0.063554611869978461 0.016503288613374557 0 0.063099625353898042 0.015517662811215579 0 0.064152866557553201 0.015884467170435238 0 0.064152866557553201 0.015884467170435238 0 0.064806438075886291 0.015839626663286331 0 0.064684615590940991 0.016713033549171016 0 0.058487545569323493 0.022655542369852948 0 0.056870339689856185 0.022738735908207477 0 0.057249370867500378 0.023256625576695895 0 0.065561474337813078 0.015607198356923582 0 0.064684615590940991 0.016713033549171016 0 0.066484441278222853 0.01573809123985323 0 0.062252226767035693 0.019648963432063505 0 0.057884455178375233 0.018070085888004132 0 0.058487545569323493 0.022655542369852948 0 0.056870339689856185 0.022738735908207477 0 0.058352146727844577 0.021944680293182046 0 0.065561474337813078 0.015607198356923582 0 0.064806438075886291 0.015839626663286331 0 0.064684615590940991 0.016713033549171016 0 0.050319014173082224 0.03080719967175163 0 0.050289054696845151 0.030776355128331268 0 0.050385187775214772 0.03067727646474936 0 0.053237109528831275 0.025562149246213951 0 0.053257567588127892 0.026177765404897951 0 0.053237109528831275 0.025562149246213951 0 0.057884455178375233 0.018070085888004132 0 0.055356838582154552 0.023839912709394749 0 0.052021408555461814 0.02012222661741064 0 0.0527136916293304 0.019742605979336494 0 0.053572744611560245 0.024789908053153287 0 0.055356838582154552 0.023839912709394749 0 0.052021408555461814 0.02012222661741064 0 0.043941432057342945 0.023737139457111277 0 0.048086446279916387 0.018546593071133641 0 0.041373387171025643 0.019183810722284929 0 0.049677752255398742 0.025931518333131221 0 0.054312023599006512 0.018190599018830654 0 0.049677752255398742 0.025931518333131221 0 0.046741708268052982 0.028181031883865698 0 0.050197132631222642 0.030872789053812903 0 0.050289054696845151 0.030776355128331268 0 0.050155885750587471 0.030619340154123195 0 0.050304215968611295 0.03081823879817152 0 0.050197132631222642 0.030872789053812903 0 0.050289054696845151 0.030776355128331268 0 0.053237109528831275 0.025562149246213951 0 0.049677752255398742 0.025931518333131221 0 0.053471901648058165 0.017043271686148595 0 0.043941432057342945 0.023737139457111277 0 0.048086446279916387 0.018546593071133641 0 0.046514041874327131 0.029649131183948529 0 0.043704098544234085 0.028559554137931549 0 0.04371662222321903 0.026122931017964483 0 0.046514041874327131 0.029649131183948529 0 0.043704098544234085 0.028559554137931549 0 0.042265577552961862 0.030156352126206411 0 0.039930353468034738 0.033108953607131411 0 0.046514041874327131 0.029649131183948529 0 0.042265577552961862 0.030156352126206411 0 0.036482619713015529 0.024102848971091016 0 0.049677752255398742 0.025931518333131221 0 0.040146795597399476 0.028010145143073428 0 0.040968799768610752 0.029320872301652166 0 0.041788785935709616 0.027633559047353318 0 0.043704098544234085 0.028559554137931549 0 0.042190411320225052 0.028920847436315737 0 0.041788785935709616 0.027633559047353318 0 0.042190411320225052 0.028920847436315737 0 0.040968799768610752 0.029320872301652166 0 0.041788785935709616 0.027633559047353318 0 0.043704098544234085 0.028559554137931549 0 0.042190411320225052 0.028920847436315737 0 0.042265577552961862 0.030156352126206411 0 0.042190411320225052 0.028920847436315737 0 0.040968799768610752 0.029320872301652166 0 0.042265577552961862 0.030156352126206411 0 0.039930353468034738 0.033108953607131411 0 0.040968799768610752 0.029320872301652166 0 0.042265577552961862 0.030156352126206411 0 0.053137080597144531 0.014615516670709124 0 0.053826920666305678 0.013965032772103876 0 0.056075341477177382 0.012742793627380409 0 0.053137080597144531 0.014615516670709124 0 0.048086446279916387 0.018546593071133641 0 0.041373387171025643 0.019183810722284929 0 0.051112233520764258 0.013966626410195249 0 0.054312023599006512 0.018190599018830654 0 0.053137080597144531 0.014615516670709124 0 0.057529372102050218 0.011417741399113241 0 0.056075341477177382 0.012742793627380409 0 0.053471901648058165 0.017043271686148595 0 0.053137080597144531 0.014615516670709124 0 0.048086446279916387 0.018546593071133641 0 0.057562542301023562 0.011480703788665624 0 0.057053067366600929 0.012250289261553459 0 0.057297320201514665 0.012159867204707469 0 0.057053067366600929 0.012250289261553459 0 0.057297320201514665 0.012159867204707469 0 0.057529372102050218 0.011417741399113241 0 0.060792763985209351 0.015295266649671242 0 0.057884455178375233 0.018070085888004132 0 0.060792763985209351 0.015295266649671242 0 0.054312023599006512 0.018190599018830654 0 0.058321133437161277 0.015828750192529027 0 0.059141602110673937 0.018316318859384922 0 0.059717512213828344 0.01800053227613153 0 0.057884455178375233 0.018070085888004132 0 0.054312023599006512 0.018190599018830654 0 0.057053067366600929 0.012250289261553459 0 0.057529372102050218 0.011417741399113241 0 0.056075341477177382 0.012742793627380409 0 0.047755032726809442 0.030625199875261241 0 0.04945903633274093 0.029611306595223777 0 0.048889897999348994 0.028243033452068175 0 0.047755032726809442 0.030625199875261241 0 0.050464215523546747 0.030513120812203559 0 0.04945903633274093 0.029611306595223777 0 0.047755032726809442 0.030625199875261241 0 0.045017496804967437 0.030233414525643234 0 0.048889897999348994 0.028243033452068175 0 0.042439658473898814 0.03238710007574705 0 0.046124991534054478 0.034336803009232718 0 0.040209868512147549 0.040264870064078154 0 0.039836518279674951 0.042019906126088309 0 0.043830992282774844 0.039137485832502719 0 0.049772447641827776 0.030546834350239162 0 0.042439658473898814 0.03238710007574705 0 0.038237871712104417 0.04022860059920625 0 0.040209868512147549 0.040264870064078154 0 0.039836518279674951 0.042019906126088309 0 0.040592539525847834 0.021972163656305319 0 0.039894510480107483 0.022691188799033923 0 0.040311120744079547 0.023266662555051474 0 0.039585648633141471 0.023216217830980074 0 0.039894510480107483 0.022691188799033923 0 0.040311120744079547 0.023266662555051474 0 0.039364789846500846 0.02252941041761752 0 0.040609720771834897 0.021811349248973887 0 0.039894510480107483 0.022691188799033923 0 0.042439658473898814 0.03238710007574705 0 0.043077976295499164 0.030534543980402697 0 0.050167622038584346 0.030323519544933151 0 0.049554076700735854 0.030189598182985965 0 0.049902859159459641 0.03059092289123096 0 0.042439658473898814 0.03238710007574705 0 0.046741708268052982 0.028181031883865698 0 0.040592539525847834 0.021972163656305319 0 0.041235769705590293 0.024329594284722776 0 0.04371662222321903 0.026122931017964483 0 0.040592539525847834 0.021972163656305319 0 0.040311120744079547 0.023266662555051474 0 0.041235769705590293 0.024329594284722776 0 0.039585648633141471 0.023216217830980074 0 0.040143154246195044 0.023854685904302179 0 0.040311120744079547 0.023266662555051474 0 0.040143154246195044 0.023854685904302179 0 0.040311120744079547 0.023266662555051474 0 0.041235769705590293 0.024329594284722776 0 0.041235769705590293 0.024329594284722776 0 0.040015896031355511 0.024849395106205856 0 0.041622137564773426 0.026089688582988175 0 0.040143154246195044 0.023854685904302179 0 0.041235769705590293 0.024329594284722776 0 0.040015896031355511 0.024849395106205856 0 0.040015896031355511 0.024849395106205856 0 0.040171868648273427 0.026623745567729302 0 0.041622137564773426 0.026089688582988175 0 0.041622137564773426 0.026089688582988175 0 0.041788785935709616 0.027633559047353318 0 0.04371662222321903 0.026122931017964483 0 0.041235769705590293 0.024329594284722776 0 0.041622137564773426 0.026089688582988175 0 0.04371662222321903 0.026122931017964483 0 0.040171868648273427 0.026623745567729302 0 0.041622137564773426 0.026089688582988175 0 0.041788785935709616 0.027633559047353318 0 0.040146795597399476 0.028010145143073428 0 0.040171868648273427 0.026623745567729302 0 0.041788785935709616 0.027633559047353318 0 0.043704098544234085 0.028559554137931549 0 0.041788785935709616 0.027633559047353318 0 0.04371662222321903 0.026122931017964483 0 0.050197132631222642 0.030872789053812903 0 0.049902859159459641 0.03059092289123096 0 0.050155885750587471 0.030619340154123195 0 0.049772447641827776 0.030546834350239162 0 0.049947072741773117 0.030498438394909146 0 0.050167622038584346 0.030323519544933151 0 0.050365470779200207 0.03053377200704253 0 0.050464215523546747 0.030513120812203559 0 0.050167622038584346 0.030323519544933151 0 0.049902859159459641 0.03059092289123096 0 0.050155885750587471 0.030619340154123195 0 0.050167622038584346 0.030323519544933151 0 0.050155885750587471 0.030619340154123195 0 0.050365470779200207 0.03053377200704253 0 0.050155885750587471 0.030619340154123195 0 0.050365470779200207 0.03053377200704253 0 0.050385187775214772 0.03067727646474936 0 0.050289054696845151 0.030776355128331268 0 0.050155885750587471 0.030619340154123195 0 0.050385187775214772 0.03067727646474936 0 0.053237109528831275 0.025562149246213951 0 0.054839726979955504 0.026469272133901371 0 0.050319014173082224 0.03080719967175163 0 0.050385187775214772 0.03067727646474936 0 0.051221357371450831 0.030748656424371159 0 0.050365470779200207 0.03053377200704253 0 0.050385187775214772 0.03067727646474936 0 0.051221357371450831 0.030748656424371159 0 0.050365470779200207 0.03053377200704253 0 0.050464215523546747 0.030513120812203559 0 0.051221357371450831 0.030748656424371159 0 0.050464215523546747 0.030513120812203559 0 0.051221357371450831 0.030748656424371159 0 0.051527125065701243 0.029736935541119856 0 0.058352146727844577 0.021944680293182046 0 0.06011275176224589 0.021202352251499506 0 0.059956370059730507 0.021913244632934103 0 0.054839726979955504 0.026469272133901371 0 0.056825526016820671 0.025310451344712721 0 0.051221357371450831 0.030748656424371159 0 0.051527125065701243 0.029736935541119856 0 0.053631800848199504 0.029403251224365858 0 0.062252226767035693 0.019648963432063505 0 0.061442832608865246 0.019881309922619866 0 0.058487545569323493 0.022655542369852948 0 0.058352146727844577 0.021944680293182046 0 0.059956370059730507 0.021913244632934103 0 0.051527125065701243 0.029736935541119856 0 0.051950631974874199 0.028825678269282791 0 0.053631800848199504 0.029403251224365858 0 0.051950631974874199 0.028825678269282791 0 0.05290522451009759 0.028169285667166082 0 0.053631800848199504 0.029403251224365858 0 0.051527125065701243 0.029736935541119856 0 0.051950631974874199 0.028825678269282791 0 0.050535785063992415 0.029081836886565737 0 0.050464215523546747 0.030513120812203559 0 0.04945903633274093 0.029611306595223777 0 0.050535785063992415 0.029081836886565737 0 0.050464215523546747 0.030513120812203559 0 0.051527125065701243 0.029736935541119856 0 0.050535785063992415 0.029081836886565737 0 0.04945903633274093 0.029611306595223777 0 0.050535785063992415 0.029081836886565737 0 0.048889897999348994 0.028243033452068175 0 0.046219183654865152 0.036867792955180771 0 0.043437122325230608 0.035653983387350062 0 0.046203227529004257 0.034224641216137913 0 0.04916507671575529 0.031885104642443901 0 0.046124991534054478 0.034336803009232718 0 0.050535785063992415 0.029081836886565737 0 0.052017804399997251 0.026954471628752436 0 0.048889897999348994 0.028243033452068175 0 0.051950631974874199 0.028825678269282791 0 0.050535785063992415 0.029081836886565737 0 0.052017804399997251 0.026954471628752436 0 0.051950631974874199 0.028825678269282791 0 0.052017804399997251 0.026954471628752436 0 0.05290522451009759 0.028169285667166082 0 0.046219183654865152 0.036867792955180771 0 0.043437122325230608 0.035653983387350062 0 0.043830992282774844 0.039137485832502719 0 0.040209868512147549 0.040264870064078154 0 0.043830992282774844 0.039137485832502719 0 0.041780542339798145 0.038348129827897551 0 0.043437122325230608 0.035653983387350062 0 0.043830992282774844 0.039137485832502719 0 0.041780542339798145 0.038348129827897551 0 0.040209868512147549 0.040264870064078154 0 0.041780542339798145 0.038348129827897551 0 0.039818563609373997 0.037293021099909285 0 0.038237871712104417 0.04022860059920625 0 0.040209868512147549 0.040264870064078154 0 0.039818563609373997 0.037293021099909285 0 0.043437122325230608 0.035653983387350062 0 0.039818563609373997 0.037293021099909285 0 0.039714110519431245 0.034529111879002594 0 0.043437122325230608 0.035653983387350062 0 0.041780542339798145 0.038348129827897551 0 0.039818563609373997 0.037293021099909285 0 0.043437122325230608 0.035653983387350062 0 0.039714110519431245 0.034529111879002594 0 0.042663333968066236 0.033615421197763624 0 0.043437122325230608 0.035653983387350062 0 0.042663333968066236 0.033615421197763624 0 0.044305609631653392 0.033320426564675688 0 0.042663333968066236 0.033615421197763624 0 0.043421938126841073 0.033005570087899595 0 0.044305609631653392 0.033320426564675688 0 0.03983369943262869 0.0345870660724047 0 0.040795925958660904 0.031916321316766194 0 0.039714110519431245 0.034529111879002594 0 0.042663333968066236 0.033615421197763624 0 0.042678023535248626 0.032907986566951819 0 0.042678023535248626 0.032907986566951819 0 0.043421938126841073 0.033005570087899595 0 0.043687293238804895 0.033842132530575629 0 0.042663333968066236 0.033615421197763624 0 0.042678023535248626 0.032907986566951819 0 0.043421938126841073 0.033005570087899595 0 0.043421938126841073 0.033005570087899595 0 0.043687293238804895 0.033842132530575629 0 0.043520129565856699 0.033201445073057161 0 0.040795925958660904 0.031916321316766194 0 0.042242735414374961 0.031431861400352389 0 0.042678023535248626 0.032907986566951819 0 0.043687293238804895 0.033842132530575629 0 0.044495951404999269 0.034437341914748808 0 0.037598815811384204 0.02927618651490746 0 0.0389328550778184 0.030584658169690967 0 0.039828830864615118 0.028147732291295788 0 0.043347037404006396 0.032646933172615494 0 0.044242661340003056 0.032683392144841297 0 0.046622103318686194 0.032312834191822001 0 0.043347037404006396 0.032646933172615494 0 0.043520129565856699 0.033201445073057161 0 0.044242661340003056 0.032683392144841297 0 0.043421938126841073 0.033005570087899595 0 0.043520129565856699 0.033201445073057161 0 0.044242661340003056 0.032683392144841297 0 0.043421938126841073 0.033005570087899595 0 0.044242661340003056 0.032683392144841297 0 0.044305609631653392 0.033320426564675688 0 0.044242661340003056 0.032683392144841297 0 0.044305609631653392 0.033320426564675688 0 0.046622103318686194 0.032312834191822001 0 0.043437122325230608 0.035653983387350062 0 0.044305609631653392 0.033320426564675688 0 0.046203227529004257 0.034224641216137913 0 0.044305609631653392 0.033320426564675688 0 0.046203227529004257 0.034224641216137913 0 0.046622103318686194 0.032312834191822001 0 0.046219183654865152 0.036867792955180771 0 0.046203227529004257 0.034224641216137913 0 0.048556819962621629 0.035228128001271307 0 0.046203227529004257 0.034224641216137913 0 0.048556819962621629 0.035228128001271307 0 0.049431586889378668 0.031886380490552084 0 0.048556819962621629 0.035228128001271307 0 0.049431586889378668 0.031886380490552084 0 0.052871115097194332 0.030697219962601399 0 0.051674335174464979 0.031103634720616502 0 0.052680012738421864 0.030778184772299162 0 0.046203227529004257 0.034224641216137913 0 0.049431586889378668 0.031886380490552084 0 0.046622103318686194 0.032312834191822001 0 0.049431586889378668 0.031886380490552084 0 0.046622103318686194 0.032312834191822001 0 0.049691083911624176 0.030628078242281771 0 0.046622103318686194 0.032312834191822001 0 0.049691083911624176 0.030628078242281771 0 0.047730723474120572 0.029769503430483697 0 0.049691083911624176 0.030628078242281771 0 0.050187013521133667 0.029060780326621766 0 0.047730723474120572 0.029769503430483697 0 0.043347037404006396 0.032646933172615494 0 0.046622103318686194 0.032312834191822001 0 0.047730723474120572 0.029769503430483697 0 0.051200218439850051 0.030220478020473604 0 0.051249919776240063 0.029682554579790688 0 0.050187013521133667 0.029060780326621766 0 0.051200218439850051 0.030220478020473604 0 0.05157372773228118 0.029915627447157096 0 0.051249919776240063 0.029682554579790688 0 0.05157372773228118 0.029915627447157096 0 0.051249919776240063 0.029682554579790688 0 0.051681465019325808 0.029683714564542024 0 0.049691083911624176 0.030628078242281771 0 0.051200218439850051 0.030220478020473604 0 0.050187013521133667 0.029060780326621766 0 0.049691083911624176 0.030628078242281771 0 0.051200218439850051 0.030220478020473604 0 0.051682000938086219 0.030689622630187808 0 0.049431586889378668 0.031886380490552084 0 0.049691083911624176 0.030628078242281771 0 0.051682000938086219 0.030689622630187808 0 0.051200218439850051 0.030220478020473604 0 0.051682000938086219 0.030689622630187808 0 0.05176875876788907 0.030160324301020766 0 0.051200218439850051 0.030220478020473604 0 0.05157372773228118 0.029915627447157096 0 0.05176875876788907 0.030160324301020766 0 0.051682000938086219 0.030689622630187808 0 0.052278785913430693 0.030099676738877604 0 0.052871115097194332 0.030697219962601399 0 0.051682000938086219 0.030689622630187808 0 0.05176875876788907 0.030160324301020766 0 0.052278785913430693 0.030099676738877604 0 0.049431586889378668 0.031886380490552084 0 0.051682000938086219 0.030689622630187808 0 0.052871115097194332 0.030697219962601399 0 0.055119069069520694 0.026846550069112594 0 0.052871115097194332 0.030697219962601399 0 0.053981822369167952 0.027844765651049583 0 0.052278785913430693 0.030099676738877604 0 0.052871115097194332 0.030697219962601399 0 0.053981822369167952 0.027844765651049583 0 0.052278785913430693 0.030099676738877604 0 0.053300026986320116 0.027871082232626888 0 0.053981822369167952 0.027844765651049583 0 0.053300026986320116 0.027871082232626888 0 0.054979918597507817 0.026229692686870969 0 0.053981822369167952 0.027844765651049583 0 0.055389074888797907 0.024624399837544764 0 0.055501811143474043 0.025572918525011656 0 0.054979918597507817 0.026229692686870969 0 0.053300026986320116 0.027871082232626888 0 0.055389074888797907 0.024624399837544764 0 0.054979918597507817 0.026229692686870969 0 0.057107524066060782 0.022362180126087119 0 0.058516123208986248 0.021258749585777378 0 0.056951420548788045 0.021401355289076256 0 0.055389074888797907 0.024624399837544764 0 0.056333853643598303 0.023084660732948049 0 0.056495792753339859 0.022436295609969088 0 0.056333853643598303 0.023084660732948049 0 0.056086392639108223 0.024294682273063639 0 0.057107524066060782 0.022362180126087119 0 0.055389074888797907 0.024624399837544764 0 0.056333853643598303 0.023084660732948049 0 0.056086392639108223 0.024294682273063639 0 0.055389074888797907 0.024624399837544764 0 0.056086392639108223 0.024294682273063639 0 0.055501811143474043 0.025572918525011656 0 0.056086392639108223 0.024294682273063639 0 0.057107524066060782 0.022362180126087119 0 0.058516123208986248 0.021258749585777378 0 0.056333853643598303 0.023084660732948049 0 0.057107524066060782 0.022362180126087119 0 0.056951420548788045 0.021401355289076256 0 0.056086392639108223 0.024294682273063639 0 0.060582731453465995 0.02167287033805243 0 0.058516123208986248 0.021258749585777378 0 0.055501811143474043 0.025572918525011656 0 0.055127396622721495 0.026273157987365112 0 0.055127559533178466 0.027668681139939953 0 0.056168646372026225 0.024518908466491188 0 0.057628406464587251 0.024654056725516689 0 0.056086392639108223 0.024294682273063639 0 0.055501811143474043 0.025572918525011656 0 0.055127559533178466 0.027668681139939953 0 0.055119069069520694 0.026846550069112594 0 0.055127396622721495 0.026273157987365112 0 0.053981822369167952 0.027844765651049583 0 0.055501811143474043 0.025572918525011656 0 0.055127396622721495 0.026273157987365112 0 0.054979918597507817 0.026229692686870969 0 0.055127396622721495 0.026273157987365112 0 0.054979918597507817 0.026229692686870969 0 0.053981822369167952 0.027844765651049583 0 0.055119069069520694 0.026846550069112594 0 0.054018135363493688 0.027487649137362929 0 0.054782635138992369 0.026983013928909019 0 0.055119069069520694 0.026846550069112594 0 0.055127396622721495 0.026273157987365112 0 0.054782635138992369 0.026983013928909019 0 0.052017804399997251 0.026954471628752436 0 0.055119069069520694 0.026846550069112594 0 0.054018135363493688 0.027487649137362929 0 0.04916507671575529 0.031885104642443901 0 0.051674335174464979 0.031103634720616502 0 0.052017804399997251 0.026954471628752436 0 0.054018135363493688 0.027487649137362929 0 0.05290522451009759 0.028169285667166082 0 0.054018135363493688 0.027487649137362929 0 0.05290522451009759 0.028169285667166082 0 0.053631800848199504 0.029403251224365858 0 0.054018135363493688 0.027487649137362929 0 0.055127559533178466 0.027668681139939953 0 0.054782635138992369 0.026983013928909019 0 0.055127396622721495 0.026273157987365112 0 0.055127559533178466 0.027668681139939953 0 0.054782635138992369 0.026983013928909019 0 0.057628406464587251 0.024654056725516689 0 0.056825526016820671 0.025310451344712721 0 0.054018135363493688 0.027487649137362929 0 0.055127559533178466 0.027668681139939953 0 0.053631800848199504 0.029403251224365858 0 0.060582731453465995 0.02167287033805243 0 0.060637948579135237 0.021193677386091393 0 0.06011275176224589 0.021202352251499506 0 0.060637948579135237 0.021193677386091393 0 0.06011275176224589 0.021202352251499506 0 0.059956370059730507 0.021913244632934103 0 0.062578897378286535 0.016584976263453646 0 0.063205009704370305 0.01774434654506496 0 0.061993053977617105 0.01766335680354969 0 0.061577340314441315 0.019269226530787206 0 0.063205009704370305 0.01774434654506496 0 0.061993053977617105 0.01766335680354969 0 0.060950112067481327 0.02025333095620073 0 0.061442832608865246 0.019881309922619866 0 0.061577340314441315 0.019269226530787206 0 0.061993053977617105 0.01766335680354969 0 0.060990146765329739 0.017689873118246685 0 0.061485697221496959 0.016673426823923938 0 0.061993053977617105 0.01766335680354969 0 0.060990146765329739 0.017689873118246685 0 0.061577340314441315 0.019269226530787206 0 0.060990146765329739 0.017689873118246685 0 0.059559406855401682 0.018319818678363305 0 0.060251720027235729 0.016742862415545283 0 0.060990146765329739 0.017689873118246685 0 0.059559406855401682 0.018319818678363305 0 0.059172390491231283 0.016410867674187164 0 0.059559406855401682 0.018319818678363305 0 0.058012092487286344 0.018945775916293425 0 0.058012092487286344 0.018945775916293425 0 0.058516123208986248 0.021258749585777378 0 0.056951420548788045 0.021401355289076256 0 0.059559406855401682 0.018319818678363305 0 0.058012092487286344 0.018945775916293425 0 0.058516123208986248 0.021258749585777378 0 0.060582731453465995 0.02167287033805243 0 0.060637948579135237 0.021193677386091393 0 0.058516123208986248 0.021258749585777378 0 0.060950112067481327 0.02025333095620073 0 0.058684371150605409 0.021262671937413522 0 0.061577340314441315 0.019269226530787206 0 0.059559406855401682 0.018319818678363305 0 0.058516123208986248 0.021258749585777378 0 0.05708736191378648 0.019777624780644584 0 0.056853749392714252 0.019850830030462618 0 0.056840500182433612 0.021056644362819 0 0.05708736191378648 0.019777624780644584 0 0.0568723453631335 0.018487045410860749 0 0.056853749392714252 0.019850830030462618 0 0.058012092487286344 0.018945775916293425 0 0.05708736191378648 0.019777624780644584 0 0.056951420548788045 0.021401355289076256 0 0.059172390491231283 0.016410867674187164 0 0.058012092487286344 0.018945775916293425 0 0.057962545921292713 0.017502627091977009 0 0.058012092487286344 0.018945775916293425 0 0.05708736191378648 0.019777624780644584 0 0.057962545921292713 0.017502627091977009 0 0.057432774862070587 0.017001743058379631 0 0.05708736191378648 0.019777624780644584 0 0.057962545921292713 0.017502627091977009 0 0.057432774862070587 0.017001743058379631 0 0.05708736191378648 0.019777624780644584 0 0.0568723453631335 0.018487045410860749 0 0.056399952484511434 0.017139281135473507 0 0.0568723453631335 0.018487045410860749 0 0.05627226850836628 0.018710824406473432 0 0.0568723453631335 0.018487045410860749 0 0.056660401962129306 0.020081492156787902 0 0.05627226850836628 0.018710824406473432 0 0.0568723453631335 0.018487045410860749 0 0.056853749392714252 0.019850830030462618 0 0.056660401962129306 0.020081492156787902 0 0.056660401962129306 0.020081492156787902 0 0.056742270502585214 0.021146998001368673 0 0.056840500182433612 0.021056644362819 0 0.056853749392714252 0.019850830030462618 0 0.056660401962129306 0.020081492156787902 0 0.056840500182433612 0.021056644362819 0 0.056660401962129306 0.020081492156787902 0 0.056611488905769475 0.019867699394138565 0 0.05627226850836628 0.018710824406473432 0 0.056660401962129306 0.020081492156787902 0 0.056611488905769475 0.019867699394138565 0 0.057506804782133041 0.020833609706136836 0 0.056652841454847405 0.020428522591981052 0 0.056966627184238838 0.020614772659149287 0 0.056611488905769475 0.019867699394138565 0 0.057506804782133041 0.020833609706136836 0 0.056594814715468025 0.020328744164126705 0 0.056144513653602873 0.0213070589740165 0 0.056742270502585214 0.021146998001368673 0 0.056669310918137844 0.021626761270362831 0 0.056660401962129306 0.020081492156787902 0 0.056144513653602873 0.0213070589740165 0 0.056742270502585214 0.021146998001368673 0 0.056840500182433612 0.021056644362819 0 0.056495792753339859 0.022436295609969088 0 0.056844847235579136 0.021490077051007743 0 0.056742270502585214 0.021146998001368673 0 0.056840500182433612 0.021056644362819 0 0.056844847235579136 0.021490077051007743 0 0.056742270502585214 0.021146998001368673 0 0.056844847235579136 0.021490077051007743 0 0.056669310918137844 0.021626761270362831 0 0.05708736191378648 0.019777624780644584 0 0.056840500182433612 0.021056644362819 0 0.056495792753339859 0.022436295609969088 0 0.05708736191378648 0.019777624780644584 0 0.056951420548788045 0.021401355289076256 0 0.056495792753339859 0.022436295609969088 0 0.056333853643598303 0.023084660732948049 0 0.056951420548788045 0.021401355289076256 0 0.056495792753339859 0.022436295609969088 0 0.055389074888797907 0.024624399837544764 0 0.056495792753339859 0.022436295609969088 0 0.056844847235579136 0.021490077051007743 0 0.053300026986320116 0.027871082232626888 0 0.055389074888797907 0.024624399837544764 0 0.051517706553396408 0.028093368555414774 0 0.055410826409070531 0.024490343775722564 0 0.05443006505478671 0.024811156681812583 0 0.053300026986320116 0.027871082232626888 0 0.051517706553396408 0.028093368555414774 0 0.051644903559142051 0.029387804541982594 0 0.052278785913430693 0.030099676738877604 0 0.053300026986320116 0.027871082232626888 0 0.051644903559142051 0.029387804541982594 0 0.05443006505478671 0.024811156681812583 0 0.054292170935170345 0.025842241329955707 0 0.051644903559142051 0.029387804541982594 0 0.05197186817056975 0.029262950309433083 0 0.052077663033441926 0.029855693331659175 0 0.051517706553396408 0.028093368555414774 0 0.051644903559142051 0.029387804541982594 0 0.052077663033441926 0.029855693331659175 0 0.051644903559142051 0.029387804541982594 0 0.051828583322336357 0.029600915162219684 0 0.05197186817056975 0.029262950309433083 0 0.051828583322336357 0.029600915162219684 0 0.05197186817056975 0.029262950309433083 0 0.051956636392336449 0.029273871838019733 0 0.052278785913430693 0.030099676738877604 0 0.051828583322336357 0.029600915162219684 0 0.051890341468926952 0.029897125559670962 0 0.052278785913430693 0.030099676738877604 0 0.051644903559142051 0.029387804541982594 0 0.051828583322336357 0.029600915162219684 0 0.05176875876788907 0.030160324301020766 0 0.052278785913430693 0.030099676738877604 0 0.051890341468926952 0.029897125559670962 0 0.05157372773228118 0.029915627447157096 0 0.05176875876788907 0.030160324301020766 0 0.051802400236451676 0.02977886261977862 0 0.05176875876788907 0.030160324301020766 0 0.051890341468926952 0.029897125559670962 0 0.051802400236451676 0.02977886261977862 0 0.051890341468926952 0.029897125559670962 0 0.051888404391111656 0.029596493800586363 0 0.051802400236451676 0.02977886261977862 0 0.051828583322336357 0.029600915162219684 0 0.051890341468926952 0.029897125559670962 0 0.051888404391111656 0.029596493800586363 0 0.051956636392336449 0.029273871838019733 0 0.051772725474773247 0.029616042899412848 0 0.052493960686667861 0.028549733879025992 0 0.051828583322336357 0.029600915162219684 0 0.051956636392336449 0.029273871838019733 0 0.051888404391111656 0.029596493800586363 0 0.05197186817056975 0.029262950309433083 0 0.051956636392336449 0.029273871838019733 0 0.052493960686667861 0.028549733879025992 0 0.051956636392336449 0.029273871838019733 0 0.051766561516602395 0.029642663289609412 0 0.051772725474773247 0.029616042899412848 0 0.051956636392336449 0.029273871838019733 0 0.051888404391111656 0.029596493800586363 0 0.051766561516602395 0.029642663289609412 0 0.051999328252695515 0.028012361724460019 0 0.051256780136920532 0.027194669095693916 0 0.051840150464253824 0.029668470209711358 0 0.051766561516602395 0.029642663289609412 0 0.051819120187840025 0.029659645849926572 0 0.051766561516602395 0.029642663289609412 0 0.051011108724881203 0.03015725999150751 0 0.05107507661024055 0.030112014149973085 0 0.051766561516602395 0.029642663289609412 0 0.051772725474773247 0.029616042899412848 0 0.051011108724881203 0.03015725999150751 0 0.051888404391111656 0.029596493800586363 0 0.051840150464253824 0.029668470209711358 0 0.051766561516602395 0.029642663289609412 0 0.052052950698648973 0.026039825109586249 0 0.051958842437958751 0.025140739856019702 0 0.051673461083100072 0.024768295676869483 0 0.052052950698648973 0.026039825109586249 0 0.05246245235491398 0.025787585022744981 0 0.052790888454392108 0.026833842564857963 0 0.052052950698648973 0.026039825109586249 0 0.05246245235491398 0.025787585022744981 0 0.052181626021187331 0.025600204114883597 0 0.052052950698648973 0.026039825109586249 0 0.052181626021187331 0.025600204114883597 0 0.051958842437958751 0.025140739856019702 0 0.05246245235491398 0.025787585022744981 0 0.052181626021187331 0.025600204114883597 0 0.052275837710610507 0.025442441847436496 0 0.05246245235491398 0.025787585022744981 0 0.052275837710610507 0.025442441847436496 0 0.05266189054911536 0.025287196395868114 0 0.052275837710610507 0.025442441847436496 0 0.051958842437958751 0.025140739856019702 0 0.052304025643239535 0.025119627059485301 0 0.052181626021187331 0.025600204114883597 0 0.052275837710610507 0.025442441847436496 0 0.051958842437958751 0.025140739856019702 0 0.052275837710610507 0.025442441847436496 0 0.05266189054911536 0.025287196395868114 0 0.052304025643239535 0.025119627059485301 0 0.051654869402261112 0.029696975045903892 0 0.051339194707431146 0.029680544673227529 0 0.051766561516602395 0.029642663289609412 0 0.051819120187840025 0.029659645849926572 0 0.051846687973493732 0.029571160392250766 0 0.051819120187840025 0.029659645849926572 0 0.05175131856695063 0.029624007664188705 0 0.051846687973493732 0.029571160392250766 0 0.051819120187840025 0.029659645849926572 0 0.05175131856695063 0.029624007664188705 0 0.051681465019325808 0.029683714564542024 0 0.051249919776240063 0.029682554579790688 0 0.051681465019325808 0.029683714564542024 0 0.051398951661000232 0.029446190902801487 0 0.05175131856695063 0.029624007664188705 0 0.051681465019325808 0.029683714564542024 0 0.051598688893092458 0.02950216397968327 0 0.05157372773228118 0.029915627447157096 0 0.051681465019325808 0.029683714564542024 0 0.051802400236451676 0.02977886261977862 0 0.051819120187840025 0.029659645849926572 0 0.051681465019325808 0.029683714564542024 0 0.051802400236451676 0.02977886261977862 0 0.051888404391111656 0.029596493800586363 0 0.051840150464253824 0.029668470209711358 0 0.051802400236451676 0.02977886261977862 0 0.051840150464253824 0.029668470209711358 0 0.051819120187840025 0.029659645849926572 0 0.051802400236451676 0.02977886261977862 0 0.055058069035532058 0.025359141832188271 0 0.053752970930811515 0.02562441015022271 0 0.05456190894178771 0.027417487263605114 0 0.055058069035532058 0.025359141832188271 0 0.055561821112431423 0.024765251295700265 0 0.05463932569930427 0.024717689636899194 0 0.055058069035532058 0.025359141832188271 0 0.056386840766826207 0.025379990560651759 0 0.055561821112431423 0.024765251295700265 0 0.055058069035532058 0.025359141832188271 0 0.053752970930811515 0.02562441015022271 0 0.05463932569930427 0.024717689636899194 0 0.053752970930811515 0.02562441015022271 0 0.053251926354009417 0.024954486735695253 0 0.05463932569930427 0.024717689636899194 0 0.052972390888489304 0.025631980757129497 0 0.053752970930811515 0.02562441015022271 0 0.053251926354009417 0.024954486735695253 0 0.05266189054911536 0.025287196395868114 0 0.052972390888489304 0.025631980757129497 0 0.053251926354009417 0.024954486735695253 0 0.05246245235491398 0.025787585022744981 0 0.05266189054911536 0.025287196395868114 0 0.052972390888489304 0.025631980757129497 0 0.05246245235491398 0.025787585022744981 0 0.052972390888489304 0.025631980757129497 0 0.052790888454392108 0.026833842564857963 0 0.052972390888489304 0.025631980757129497 0 0.053752970930811515 0.02562441015022271 0 0.052790888454392108 0.026833842564857963 0 0.051999328252695515 0.028012361724460019 0 0.052490112865666114 0.028586637021600195 0 0.052052950698648973 0.026039825109586249 0 0.052790888454392108 0.026833842564857963 0 0.052493960686667861 0.028549733879025992 0 0.052790888454392108 0.026833842564857963 0 0.052493960686667861 0.028549733879025992 0 0.05456190894178771 0.027417487263605114 0 0.053752970930811515 0.02562441015022271 0 0.052790888454392108 0.026833842564857963 0 0.05456190894178771 0.027417487263605114 0 0.052493960686667861 0.028549733879025992 0 0.05456190894178771 0.027417487263605114 0 0.05394770783485385 0.028725483951928713 0 0.05456190894178771 0.027417487263605114 0 0.054965026166068152 0.029683454476586622 0 0.056386840766826207 0.025379990560651759 0 0.05593413965384867 0.02464332379691234 0 0.056519296405436063 0.026013937022384737 0 0.055058069035532058 0.025359141832188271 0 0.05456190894178771 0.027417487263605114 0 0.056386840766826207 0.025379990560651759 0 0.05456190894178771 0.027417487263605114 0 0.05394770783485385 0.028725483951928713 0 0.054965026166068152 0.029683454476586622 0 0.05394770783485385 0.028725483951928713 0 0.054965026166068152 0.029683454476586622 0 0.053012438307622062 0.029239237715672342 0 0.057539335243065683 0.022592480256661752 0 0.057814251076289208 0.02274215041805271 0 0.057328094118722632 0.022168438052987575 0 0.05593413965384867 0.02464332379691234 0 0.056364359927162544 0.024364896201301771 0 0.057539335243065683 0.022592480256661752 0 0.057814251076289208 0.02274215041805271 0 0.057666557700535651 0.022899161677694922 0 0.054965026166068152 0.029683454476586622 0 0.053012438307622062 0.029239237715672342 0 0.052077663033441926 0.029855693331659175 0 0.05197186817056975 0.029262950309433083 0 0.052493960686667861 0.028549733879025992 0 0.053012438307622062 0.029239237715672342 0 0.052493960686667861 0.028549733879025992 0 0.05394770783485385 0.028725483951928713 0 0.053012438307622062 0.029239237715672342 0 0.05197186817056975 0.029262950309433083 0 0.053012438307622062 0.029239237715672342 0 0.052077663033441926 0.029855693331659175 0 0.057506804782133041 0.020833609706136836 0 0.057814251076289208 0.02274215041805271 0 0.057328094118722632 0.022168438052987575 0 0.05593413965384867 0.02464332379691234 0 0.054292170935170345 0.025842241329955707 0 0.056966627184238838 0.020614772659149287 0 0.05593413965384867 0.02464332379691234 0 0.056144513653602873 0.0213070589740165 0 0.055943178085151105 0.022080563009563136 0 0.056669310918137844 0.021626761270362831 0 0.057506804782133041 0.020833609706136836 0 0.056951431271797089 0.021223764357777668 0 0.057328094118722632 0.022168438052987575 0 0.056951431271797089 0.021223764357777668 0 0.056717684797032854 0.022123378560710252 0 0.056495450911934725 0.020955408678351928 0 0.056717684797032854 0.022123378560710252 0 0.057328094118722632 0.022168438052987575 0 0.057067440784530202 0.022746148516030695 0 0.056951431271797089 0.021223764357777668 0 0.056717684797032854 0.022123378560710252 0 0.057328094118722632 0.022168438052987575 0 0.056717684797032854 0.022123378560710252 0 0.056233751706920444 0.021357257480155 0 0.056598953383929312 0.023365626695509352 0 0.056717684797032854 0.022123378560710252 0 0.056233751706920444 0.021357257480155 0 0.056495450911934725 0.020955408678351928 0 0.056598953383929312 0.023365626695509352 0 0.056778362802603982 0.023094460371966684 0 0.056749427724481938 0.024081622708715555 0 0.056717684797032854 0.022123378560710252 0 0.056598953383929312 0.023365626695509352 0 0.056778362802603982 0.023094460371966684 0 0.057067440784530202 0.022746148516030695 0 0.057087150716210622 0.023081492225885059 0 0.057345662977466981 0.022588999023485868 0 0.057666557700535651 0.022899161677694922 0 0.057087150716210622 0.023081492225885059 0 0.057345662977466981 0.022588999023485868 0 0.057539335243065683 0.022592480256661752 0 0.057328094118722632 0.022168438052987575 0 0.057345662977466981 0.022588999023485868 0 0.057328094118722632 0.022168438052987575 0 0.057067440784530202 0.022746148516030695 0 0.057345662977466981 0.022588999023485868 0 0.057539335243065683 0.022592480256661752 0 0.057666557700535651 0.022899161677694922 0 0.057345662977466981 0.022588999023485868 0 0.056717684797032854 0.022123378560710252 0 0.057067440784530202 0.022746148516030695 0 0.056778362802603982 0.023094460371966684 0 0.057067440784530202 0.022746148516030695 0 0.057087150716210622 0.023081492225885059 0 0.056778362802603982 0.023094460371966684 0 0.057087150716210622 0.023081492225885059 0 0.056778362802603982 0.023094460371966684 0 0.056749427724481938 0.024081622708715555 0 0.057666557700535651 0.022899161677694922 0 0.057087150716210622 0.023081492225885059 0 0.056749427724481938 0.024081622708715555 0 0.05792942440117331 0.022804630944229156 0 0.057666557700535651 0.022899161677694922 0 0.056749427724481938 0.024081622708715555 0 0.05792942440117331 0.022804630944229156 0 0.056749427724481938 0.024081622708715555 0 0.056386840766826207 0.025379990560651759 0 0.056749427724481938 0.024081622708715555 0 0.056208235399490908 0.025005111981025684 0 0.056386840766826207 0.025379990560651759 0 0.056640588715069724 0.023478777572786425 0 0.057430630505171575 0.025905346458017401 0 0.056598953383929312 0.023365626695509352 0 0.056749427724481938 0.024081622708715555 0 0.056208235399490908 0.025005111981025684 0 0.056208235399490908 0.025005111981025684 0 0.056386840766826207 0.025379990560651759 0 0.056054938631762495 0.024828918658436561 0 0.056386840766826207 0.025379990560651759 0 0.055561821112431423 0.024765251295700265 0 0.056054938631762495 0.024828918658436561 0 0.054999602098898891 0.027069522158789334 0 0.056599836441951566 0.026841250498523796 0 0.056175730669454152 0.024778072620038123 0 0.058352180383997573 0.026292340843943857 0 0.056599836441951566 0.026841250498523796 0 0.056175730669454152 0.024778072620038123 0 0.058352180383997573 0.026292340843943857 0 0.056599836441951566 0.026841250498523796 0 0.057697557470593387 0.028126166752366105 0 0.056598953383929312 0.023365626695509352 0 0.058352180383997573 0.026292340843943857 0 0.056175730669454152 0.024778072620038123 0 0.054999602098898891 0.027069522158789334 0 0.056175730669454152 0.024778072620038123 0 0.054999350190743514 0.024073741143937562 0 0.054999350190743514 0.024073741143937562 0 0.05582133030617379 0.022325284418057242 0 0.05499922260259666 0.021077205350248342 0 0.056175730669454152 0.024778072620038123 0 0.054999350190743514 0.024073741143937562 0 0.05582133030617379 0.022325284418057242 0 0.056598953383929312 0.023365626695509352 0 0.056175730669454152 0.024778072620038123 0 0.05582133030617379 0.022325284418057242 0 0.056233751706920444 0.021357257480155 0 0.05582133030617379 0.022325284418057242 0 0.055517978229306042 0.019866884042287987 0 0.056233751706920444 0.021357257480155 0 0.056598953383929312 0.023365626695509352 0 0.05582133030617379 0.022325284418057242 0 0.05582133030617379 0.022325284418057242 0 0.05499922260259666 0.021077205350248342 0 0.055517978229306042 0.019866884042287987 0 0.05499922260259666 0.021077205350248342 0 0.054998775491035927 0.018086244450617951 0 0.055517978229306042 0.019866884042287987 0 0.054998775491035927 0.018086244450617951 0 0.055016806312554546 0.01857821381278129 0 0.055517978229306042 0.019866884042287987 0 0.055382281036159789 0.019105558899912958 0 0.055517978229306042 0.019866884042287987 0 0.05595894219741647 0.019935982815942437 0 0.055016806312554546 0.01857821381278129 0 0.055382281036159789 0.019105558899912958 0 0.055517978229306042 0.019866884042287987 0 0.055382281036159789 0.019105558899912958 0 0.055575246627593215 0.019100323441189098 0 0.055065380516290514 0.018632332251398601 0 0.055016806312554546 0.01857821381278129 0 0.055382281036159789 0.019105558899912958 0 0.055065380516290514 0.018632332251398601 0 0.056233751706920444 0.021357257480155 0 0.055517978229306042 0.019866884042287987 0 0.05595894219741647 0.019935982815942437 0 0.056495450911934725 0.020955408678351928 0 0.056594814715468025 0.020328744164126705 0 0.05595894219741647 0.019935982815942437 0 0.056233751706920444 0.021357257480155 0 0.056495450911934725 0.020955408678351928 0 0.05595894219741647 0.019935982815942437 0 0.057506804782133041 0.020833609706136836 0 0.056951431271797089 0.021223764357777668 0 0.056594814715468025 0.020328744164126705 0 0.056951431271797089 0.021223764357777668 0 0.056495450911934725 0.020955408678351928 0 0.056594814715468025 0.020328744164126705 0 0.056611488905769475 0.019867699394138565 0 0.056594814715468025 0.020328744164126705 0 0.056055503539147088 0.019387508360307958 0 0.056594814715468025 0.020328744164126705 0 0.056055503539147088 0.019387508360307958 0 0.05595894219741647 0.019935982815942437 0 0.056055503539147088 0.019387508360307958 0 0.05595894219741647 0.019935982815942437 0 0.055575246627593215 0.019100323441189098 0 0.055382281036159789 0.019105558899912958 0 0.05595894219741647 0.019935982815942437 0 0.055575246627593215 0.019100323441189098 0 0.055575246627593215 0.019100323441189098 0 0.055398672353329667 0.018450554985559267 0 0.055065380516290514 0.018632332251398601 0 0.056055503539147088 0.019387508360307958 0 0.055575246627593215 0.019100323441189098 0 0.055398672353329667 0.018450554985559267 0 0.056611488905769475 0.019867699394138565 0 0.056055503539147088 0.019387508360307958 0 0.05627226850836628 0.018710824406473432 0 0.056055503539147088 0.019387508360307958 0 0.055398672353329667 0.018450554985559267 0 0.05627226850836628 0.018710824406473432 0 0.05558680248092962 0.017106215127831042 0 0.056399952484511434 0.017139281135473507 0 0.05627226850836628 0.018710824406473432 0 0.05558680248092962 0.017106215127831042 0 0.055398672353329667 0.018450554985559267 0 0.05627226850836628 0.018710824406473432 0 0.05558680248092962 0.017106215127831042 0 0.055398672353329667 0.018450554985559267 0 0.054976609119517669 0.017503066280693085 0 0.055398672353329667 0.018450554985559267 0 0.054976609119517669 0.017503066280693085 0 0.054791636791194191 0.018054957274610837 0 0.054826669570581937 0.015692949026266459 0 0.055104003776164652 0.017078680395300961 0 0.054232550916297681 0.017096107575925595 0 0.054976609119517669 0.017503066280693085 0 0.054791636791194191 0.018054957274610837 0 0.054232550916297681 0.017096107575925595 0 0.054791636791194191 0.018054957274610837 0 0.054704172682450848 0.018459011954494491 0 0.05603350055179844 0.013303532345940483 0 0.054999399801204107 0.014887211868550123 0 0.055266889096404169 0.015826696497431576 0 0.055361175423712869 0.013742181652942661 0 0.055235134464252329 0.015607788392973384 0 0.054678691988512586 0.014201717006256923 0 0.055329685228600579 0.014302672228896132 0 0.055659087457618779 0.015741038453566055 0 0.054678691988512586 0.014201717006256923 0 0.055266889096404169 0.015826696497431576 0 0.055659087457618779 0.015741038453566055 0 0.054999948704574975 0.018081809965770128 0 0.055104003776164652 0.017078680395300961 0 0.054998775491035927 0.018086244450617951 0 0.055016806312554546 0.01857821381278129 0 0.054704172682450848 0.018459011954494491 0 0.055000043517953935 0.018081302663680302 0 0.054999399801204107 0.014887211868550123 0 0.055266889096404169 0.015826696497431576 0 0.055000043517953935 0.018081302663680302 0 0.055266889096404169 0.015826696497431576 0 0.055659087457618779 0.015741038453566055 0 0.055016806312554546 0.01857821381278129 0 0.054704172682450848 0.018459011954494491 0 0.055065380516290514 0.018632332251398601 0 0.055398672353329667 0.018450554985559267 0 0.054791636791194191 0.018054957274610837 0 0.055065380516290514 0.018632332251398601 0 0.054791636791194191 0.018054957274610837 0 0.054704172682450848 0.018459011954494491 0 0.055065380516290514 0.018632332251398601 0 0.053599357367381667 0.043220879207364178 0 0.054247786523563733 0.040870856271410419 0 0.054549077939714086 0.039001531561969061 0 0.054997623824027717 0.039350771551835008 0 0.053599357367381667 0.043220879207364178 0 0.054549077939714086 0.039001531561969061 0 0.054997623824027717 0.039350771551835008 0 0.053599357367381667 0.043220879207364178 0 0.054997666309348631 0.042643703626429726 0 0.053599357367381667 0.043220879207364178 0 0.054513143049661587 0.042291092825975408 0 0.051032060825664798 0.047593296584151644 0 0.051702975932118589 0.045965409615191417 0 0.051163938774458254 0.047297371730209092 0 0.053599357367381667 0.043220879207364178 0 0.054513143049661587 0.042291092825975408 0 0.054247786523563733 0.040870856271410419 0 0.054247786523563733 0.040870856271410419 0 0.055150947925657216 0.039471678033522216 0 0.054366514327272783 0.039136333607937904 0 0.049126791137068603 0.050415754560444712 0 0.047876214501160641 0.050416708667242315 0 0.047957145263769152 0.05067151479014368 0 0.054513143049661587 0.042291092825975408 0 0.054247786523563733 0.040870856271410419 0 0.055150947925657216 0.039471678033522216 0 0.051702975932118589 0.045965409615191417 0 0.05134347562639649 0.045814926079564632 0 0.054678793988233963 0.038886402482415421 0 0.054336148194977077 0.038594368928429809 0 0.054366514327272783 0.039136333607937904 0 0.055150947925657216 0.039471678033522216 0 0.054678793988233963 0.038886402482415421 0 0.054366514327272783 0.039136333607937904 0 0.054336148194977077 0.038594368928429809 0 0.054366514327272783 0.039136333607937904 0 0.054479493731192888 0.03792221413335032 0 0.054336148194977077 0.038594368928429809 0 0.054479493731192888 0.03792221413335032 0 0.054614252217833288 0.038549666966438065 0 0.054247786523563733 0.040870856271410419 0 0.054366514327272783 0.039136333607937904 0 0.054549077939714086 0.039001531561969061 0 0.054366514327272783 0.039136333607937904 0 0.054549077939714086 0.039001531561969061 0 0.054479493731192888 0.03792221413335032 0 0.054997623824027717 0.039350771551835008 0 0.054549077939714086 0.039001531561969061 0 0.054998763675628851 0.036066620411409359 0 0.054549077939714086 0.039001531561969061 0 0.054998763675628851 0.036066620411409359 0 0.054479493731192888 0.03792221413335032 0 0.054998763675628851 0.036066620411409359 0 0.054479493731192888 0.03792221413335032 0 0.054614252217833288 0.038549666966438065 0 0.05500001974631407 0.036057973544247758 0 0.056196293776816737 0.034295176451382393 0 0.054999895818072395 0.033061770970800979 0 0.055000389079792787 0.036057851622934046 0 0.055090943087995489 0.036902800623464009 0 0.056196293776816737 0.034295176451382393 0 0.05741721839385814 0.032491251025149874 0 0.05591795173351724 0.0325715015430426 0 0.056196293776816737 0.034295176451382393 0 0.054999895818072395 0.033061770970800979 0 0.05591795173351724 0.0325715015430426 0 0.054336148194977077 0.038594368928429809 0 0.054614252217833288 0.038549666966438065 0 0.054400840765904512 0.038618197648944974 0 0.055090943087995489 0.036902800623464009 0 0.055541633592541544 0.031479025624756851 0 0.054614252217833288 0.038549666966438065 0 0.054400840765904512 0.038618197648944974 0 0.054462599474731435 0.038666612770998733 0 0.057245950261541223 0.032403452961210451 0 0.05591795173351724 0.0325715015430426 0 0.056702228376592348 0.030741051238668774 0 0.055541633592541544 0.031479025624756851 0 0.056560944101414462 0.032327887504944502 0 0.055541633592541544 0.031479025624756851 0 0.057370862058892413 0.026874884272342515 0 0.057245950261541223 0.032403452961210451 0 0.056702228376592348 0.030741051238668774 0 0.058198709036374696 0.030874039023498633 0 0.054999895818072395 0.033061770970800979 0 0.05591795173351724 0.0325715015430426 0 0.054999832783128685 0.030065782746309475 0 0.05591795173351724 0.0325715015430426 0 0.054999832783128685 0.030065782746309475 0 0.056702228376592348 0.030741051238668774 0 0.054999832783128685 0.030065782746309475 0 0.056702228376592348 0.030741051238668774 0 0.056581152200745229 0.02872115902929824 0 0.056702228376592348 0.030741051238668774 0 0.057732764831451427 0.029561813613290234 0 0.056581152200745229 0.02872115902929824 0 0.056702228376592348 0.030741051238668774 0 0.057732764831451427 0.029561813613290234 0 0.058198709036374696 0.030874039023498633 0 0.056599836441951566 0.026841250498523796 0 0.056581152200745229 0.02872115902929824 0 0.057697557470593387 0.028126166752366105 0 0.057732764831451427 0.029561813613290234 0 0.056581152200745229 0.02872115902929824 0 0.057697557470593387 0.028126166752366105 0 0.054999602098898891 0.027069522158789334 0 0.056599836441951566 0.026841250498523796 0 0.056581152200745229 0.02872115902929824 0 0.054999602098898891 0.027069522158789334 0 0.054999832783128685 0.030065782746309475 0 0.056581152200745229 0.02872115902929824 0 0.055787175280424324 0.024326495969134981 0 0.056152191046168642 0.024370903345884744 0 0.0559825089315132 0.023996600447219511 0 0.055787175280424324 0.024326495969134981 0 0.056054938631762495 0.024828918658436561 0 0.056152191046168642 0.024370903345884744 0 0.055787175280424324 0.024326495969134981 0 0.055561821112431423 0.024765251295700265 0 0.055134663617340623 0.024122306709653707 0 0.055787175280424324 0.024326495969134981 0 0.05565824281359822 0.023885637809164091 0 0.055134663617340623 0.024122306709653707 0 0.055787175280424324 0.024326495969134981 0 0.055561821112431423 0.024765251295700265 0 0.056054938631762495 0.024828918658436561 0 0.058352180383997573 0.026292340843943857 0 0.057697557470593387 0.028126166752366105 0 0.059193560786522381 0.029325862687099188 0 0.057430630505171575 0.025905346458017401 0 0.056670310468416432 0.025680141298056756 0 0.056208235399490908 0.025005111981025684 0 0.056054938631762495 0.024828918658436561 0 0.056152191046168642 0.024370903345884744 0 0.056208235399490908 0.025005111981025684 0 0.056152191046168642 0.024370903345884744 0 0.056298360619445195 0.02419959472928913 0 0.057732764831451427 0.029561813613290234 0 0.057697557470593387 0.028126166752366105 0 0.059193560786522381 0.029325862687099188 0 0.056708758375734983 0.02477908541215058 0 0.056670310468416432 0.025680141298056756 0 0.056253493102794372 0.023891225743502623 0 0.056020274574335137 0.023666550395916586 0 0.0559825089315132 0.023996600447219511 0 0.056670310468416432 0.025680141298056756 0 0.055832676383595688 0.022941985553410885 0 0.056253493102794372 0.023891225743502623 0 0.056020274574335137 0.023666550395916586 0 0.055967583030379867 0.023653974463454078 0 0.055946345825345092 0.023745544772788431 0 0.055967583030379867 0.023653974463454078 0 0.055952023987320743 0.023702689671319534 0 0.056152191046168642 0.024370903345884744 0 0.056253493102794372 0.023891225743502623 0 0.0559825089315132 0.023996600447219511 0 0.057732764831451427 0.029561813613290234 0 0.059193560786522381 0.029325862687099188 0 0.058198709036374696 0.030874039023498633 0 0.056670310468416432 0.025680141298056756 0 0.057370862058892413 0.026874884272342515 0 0.056020274574335137 0.023666550395916586 0 0.0559825089315132 0.023996600447219511 0 0.05565824281359822 0.023885637809164091 0 0.055787175280424324 0.024326495969134981 0 0.0559825089315132 0.023996600447219511 0 0.05565824281359822 0.023885637809164091 0 0.05565824281359822 0.023885637809164091 0 0.055146561001557709 0.023316998801950213 0 0.055134663617340623 0.024122306709653707 0 0.056020274574335137 0.023666550395916586 0 0.05565824281359822 0.023885637809164091 0 0.055146561001557709 0.023316998801950213 0 0.056020274574335137 0.023666550395916586 0 0.055582460535055174 0.022974115715837774 0 0.055146561001557709 0.023316998801950213 0 0.055669601564117169 0.020897037279283933 0 0.054305016307091426 0.031534724073645146 0 0.056020274574335137 0.023666550395916586 0 0.055582460535055174 0.022974115715837774 0 0.05590504528656174 0.022433685429930621 0 0.055582460535055174 0.022974115715837774 0 0.055315972091434788 0.0224717981590839 0 0.055146561001557709 0.023316998801950213 0 0.056020274574335137 0.023666550395916586 0 0.055976050602391796 0.023670107107452515 0 0.055967583030379867 0.023653974463454078 0 0.056147508300089508 0.035867562001686865 0 0.055967211520171131 0.034344858017212598 0 0.050724070242307961 0.036154547048177346 0 0.054305016307091426 0.031534724073645146 0 0.052946855246138867 0.039992821353525602 0 0.052946855246138867 0.039992821353525602 0 0.051661974500639182 0.036570452118178373 0 0.055582460535055174 0.022974115715837774 0 0.05590504528656174 0.022433685429930621 0 0.055315972091434788 0.0224717981590839 0 0.054305016307091426 0.031534724073645146 0 0.051661974500639182 0.036570452118178373 0 0.055901785840860967 0.023800210319306424 0 0.055967583030379867 0.023653974463454078 0 0.055952023987320743 0.023702689671319534 0 0.055901785840860967 0.023800210319306424 0 0.055976050602391796 0.023670107107452515 0 0.055967583030379867 0.023653974463454078 0 0.055541633592541544 0.031479025624756851 0 0.054305016307091426 0.031534724073645146 0 0.054678793988233963 0.038886402482415421 0 0.054336148194977077 0.038594368928429809 0 0.054400840765904512 0.038618197648944974 0 0.055127700168914898 0.038217883443456037 0 0.052946855246138867 0.039992821353525602 0 0.054400840765904512 0.038618197648944974 0 0.054462599474731435 0.038666612770998733 0 0.054228877128709468 0.038612781288491521 0 0.054678793988233963 0.038886402482415421 0 0.054400840765904512 0.038618197648944974 0 0.054965358830919409 0.038553853821157863 0 0.054400840765904512 0.038618197648944974 0 0.054228877128709468 0.038612781288491521 0 0.054226690619787792 0.038600213449307683 0 0.055150947925657216 0.039471678033522216 0 0.054678793988233963 0.038886402482415421 0 0.054965358830919409 0.038553853821157863 0 0.05134347562639649 0.045814926079564632 0 0.052946855246138867 0.039992821353525602 0 0.047876214501160641 0.050416708667242315 0 0.047569239950390377 0.049476282811374679 0 0.047861508847430699 0.049932807674215582 0 0.047569239950390377 0.049476282811374679 0 0.047821445433314611 0.049504276593564621 0 0.047861508847430699 0.049932807674215582 0 0.047821445433314611 0.049504276593564621 0 0.048067273773974101 0.050075259248310404 0 0.048320984305747688 0.049607055346147289 0 0.047821445433314611 0.049504276593564621 0 0.047861508847430699 0.049932807674215582 0 0.048067273773974101 0.050075259248310404 0 0.048067273773974101 0.050075259248310404 0 0.048320984305747688 0.049607055346147289 0 0.048589865729895966 0.050041087371254928 0 0.050249427945451335 0.037381014403853739 0 0.050705618543109815 0.037658107487586745 0 0.049607792426600301 0.038034611166073901 0 0.052986482753297877 0.029544053700312042 0 0.050636075190544222 0.030838787741684692 0 0.051828290446453595 0.037250865187090171 0 0.050249427945451335 0.037381014403853739 0 0.050705618543109815 0.037658107487586745 0 0.055315972091434788 0.0224717981590839 0 0.053940574564949786 0.022723386502382873 0 0.055146561001557709 0.023316998801950213 0 0.051661974500639182 0.036570452118178373 0 0.049256935456100874 0.044170258627666194 0 0.051661974500639182 0.036570452118178373 0 0.052986482753297877 0.029544053700312042 0 0.053940574564949786 0.022723386502382873 0 0.055146561001557709 0.023316998801950213 0 0.054284255728633567 0.02374694932401062 0 0.055146561001557709 0.023316998801950213 0 0.054284255728633567 0.02374694932401062 0 0.055134663617340623 0.024122306709653707 0 0.054284255728633567 0.02374694932401062 0 0.055134663617340623 0.024122306709653707 0 0.054449448327399147 0.024233361584305033 0 0.053940574564949786 0.022723386502382873 0 0.053244139639312141 0.023732559323664248 0 0.052355935650747448 0.023109200567319198 0 0.053940574564949786 0.022723386502382873 0 0.054284255728633567 0.02374694932401062 0 0.053244139639312141 0.023732559323664248 0 0.054284255728633567 0.02374694932401062 0 0.053244139639312141 0.023732559323664248 0 0.053680674639227481 0.02434446176780217 0 0.053244139639312141 0.023732559323664248 0 0.053680674639227481 0.02434446176780217 0 0.052863183455941196 0.024444778088337324 0 0.053680674639227481 0.02434446176780217 0 0.052863183455941196 0.024444778088337324 0 0.053251926354009417 0.024954486735695253 0 0.052863183455941196 0.024444778088337324 0 0.053251926354009417 0.024954486735695253 0 0.052596357582702126 0.02489269306559808 0 0.05266189054911536 0.025287196395868114 0 0.053251926354009417 0.024954486735695253 0 0.052596357582702126 0.02489269306559808 0 0.053680674639227481 0.02434446176780217 0 0.053251926354009417 0.024954486735695253 0 0.05463932569930427 0.024717689636899194 0 0.055561821112431423 0.024765251295700265 0 0.05463932569930427 0.024717689636899194 0 0.055134663617340623 0.024122306709653707 0 0.05463932569930427 0.024717689636899194 0 0.055134663617340623 0.024122306709653707 0 0.054449448327399147 0.024233361584305033 0 0.053680674639227481 0.02434446176780217 0 0.05463932569930427 0.024717689636899194 0 0.054449448327399147 0.024233361584305033 0 0.054284255728633567 0.02374694932401062 0 0.053680674639227481 0.02434446176780217 0 0.054449448327399147 0.024233361584305033 0 0.05066332416828212 0.030371007496338073 0 0.051011108724881203 0.03015725999150751 0 0.050498445794165972 0.030452912713358812 0 0.051256780136920532 0.027194669095693916 0 0.050468230614278096 0.02912032310932158 0 0.051673461083100072 0.024768295676869483 0 0.051575603279911626 0.024031563841789637 0 0.050913693831906498 0.023645341756938432 0 0.048457622192557677 0.032635633355221648 0 0.051339194707431146 0.029680544673227529 0 0.05066332416828212 0.030371007496338073 0 0.050642517517247944 0.030385210206756202 0 0.05107507661024055 0.030112014149973085 0 0.049279163057376105 0.032280639799271503 0 0.048457622192557677 0.032635633355221648 0 0.051248464562033878 0.02903965805843611 0 0.051598688893092458 0.02950216397968327 0 0.051846687973493732 0.029571160392250766 0 0.051681465019325808 0.029683714564542024 0 0.051398951661000232 0.029446190902801487 0 0.051598688893092458 0.02950216397968327 0 0.051248464562033878 0.02903965805843611 0 0.051398951661000232 0.029446190902801487 0 0.051598688893092458 0.02950216397968327 0 0.05175131856695063 0.029624007664188705 0 0.051598688893092458 0.02950216397968327 0 0.051846687973493732 0.029571160392250766 0 0.05066332416828212 0.030371007496338073 0 0.051011108724881203 0.03015725999150751 0 0.05107507661024055 0.030112014149973085 0 0.051958842437958751 0.025140739856019702 0 0.051673461083100072 0.024768295676869483 0 0.051936637261983346 0.024763193870753954 0 0.051936637261983346 0.024763193870753954 0 0.052199289117409231 0.024671432489363831 0 0.0519308010465174 0.024478915666176479 0 0.051958842437958751 0.025140739856019702 0 0.051936637261983346 0.024763193870753954 0 0.052199289117409231 0.024671432489363831 0 0.051673461083100072 0.024768295676869483 0 0.051936637261983346 0.024763193870753954 0 0.0519308010465174 0.024478915666176479 0 0.052863183455941196 0.024444778088337324 0 0.052596357582702126 0.02489269306559808 0 0.052199289117409231 0.024671432489363831 0 0.05266189054911536 0.025287196395868114 0 0.052596357582702126 0.02489269306559808 0 0.052304025643239535 0.025119627059485301 0 0.052596357582702126 0.02489269306559808 0 0.052304025643239535 0.025119627059485301 0 0.052199289117409231 0.024671432489363831 0 0.051958842437958751 0.025140739856019702 0 0.052304025643239535 0.025119627059485301 0 0.052199289117409231 0.024671432489363831 0 0.053244139639312141 0.023732559323664248 0 0.052863183455941196 0.024444778088337324 0 0.052296960694141276 0.024060329721300587 0 0.052863183455941196 0.024444778088337324 0 0.052199289117409231 0.024671432489363831 0 0.052296960694141276 0.024060329721300587 0 0.051673461083100072 0.024768295676869483 0 0.0519308010465174 0.024478915666176479 0 0.051575603279911626 0.024031563841789637 0 0.0519308010465174 0.024478915666176479 0 0.052296960694141276 0.024060329721300587 0 0.051575603279911626 0.024031563841789637 0 0.052199289117409231 0.024671432489363831 0 0.0519308010465174 0.024478915666176479 0 0.052296960694141276 0.024060329721300587 0 0.052296960694141276 0.024060329721300587 0 0.052355935650747448 0.023109200567319198 0 0.051575603279911626 0.024031563841789637 0 0.053244139639312141 0.023732559323664248 0 0.052296960694141276 0.024060329721300587 0 0.052355935650747448 0.023109200567319198 0 0.050636075190544222 0.030838787741684692 0 0.050468230614278096 0.02912032310932158 0 0.052355935650747448 0.023109200567319198 0 0.051575603279911626 0.024031563841789637 0 0.050913693831906498 0.023645341756938432 0 0.049607792426600301 0.038034611166073901 0 0.048576481560580385 0.038338840179021123 0 0.049086391433256646 0.037911414239655106 0 0.05066332416828212 0.030371007496338073 0 0.050572805815835876 0.030435135855574006 0 0.050498445794165972 0.030452912713358812 0 0.048576481560580385 0.038338840179021123 0 0.048566897790122951 0.037867852900013974 0 0.049086391433256646 0.037911414239655106 0 0.048576481560580385 0.038338840179021123 0 0.048566897790122951 0.037867852900013974 0 0.048112862886560109 0.037651275531960945 0 0.048566897790122951 0.037867852900013974 0 0.048705821314155115 0.037648145713364695 0 0.048112862886560109 0.037651275531960945 0 0.049538867349929169 0.038955052751794193 0 0.046993564901874459 0.045297140987209945 0 0.048566897790122951 0.037867852900013974 0 0.049086391433256646 0.037911414239655106 0 0.04875364327807194 0.037522272396768246 0 0.046993564901874459 0.045297140987209945 0 0.045156805928351106 0.042996470230359664 0 0.050249427945451335 0.037381014403853739 0 0.049607792426600301 0.038034611166073901 0 0.049086391433256646 0.037911414239655106 0 0.050249427945451335 0.037381014403853739 0 0.049086391433256646 0.037911414239655106 0 0.04875364327807194 0.037522272396768246 0 0.049256935456100874 0.044170258627666194 0 0.046993564901874459 0.045297140987209945 0 0.048320984305747688 0.049607055346147289 0 0.048842728528862109 0.0495596435938786 0 0.048589865729895966 0.050041087371254928 0 0.042575365277048541 0.051877965998395441 0 0.043395468786966054 0.05096384894320944 0 0.042299555826172661 0.050729107037891068 0 0.046993564901874459 0.045297140987209945 0 0.045592351910252911 0.051576217640182165 0 0.042575365277048541 0.051877965998395441 0 0.042299555826172661 0.050729107037891068 0 0.041849530414257596 0.051329206122129115 0 0.042299555826172661 0.050729107037891068 0 0.043096959411387185 0.050488201188510141 0 0.041615849831238769 0.04990130760483915 0 0.043395468786966054 0.05096384894320944 0 0.042299555826172661 0.050729107037891068 0 0.043096959411387185 0.050488201188510141 0 0.043096959411387185 0.050488201188510141 0 0.04339329072316904 0.050113059714410955 0 0.041615849831238769 0.04990130760483915 0 0.044724138849711249 0.050963273417042182 0 0.04339329072316904 0.050113059714410955 0 0.044859261061252383 0.050510461626854269 0 0.043096959411387185 0.050488201188510141 0 0.044724138849711249 0.050963273417042182 0 0.04339329072316904 0.050113059714410955 0 0.043395468786966054 0.05096384894320944 0 0.043096959411387185 0.050488201188510141 0 0.044724138849711249 0.050963273417042182 0 0.045592351910252911 0.051576217640182165 0 0.046652096850987416 0.050427139253728243 0 0.048067273773974101 0.050075259248310404 0 0.047957145263769152 0.05067151479014368 0 0.048197108458069675 0.05056393096632969 0 0.048067273773974101 0.050075259248310404 0 0.048589865729895966 0.050041087371254928 0 0.048197108458069675 0.05056393096632969 0 0.047876214501160641 0.050416708667242315 0 0.047861508847430699 0.049932807674215582 0 0.048067273773974101 0.050075259248310404 0 0.047876214501160641 0.050416708667242315 0 0.048067273773974101 0.050075259248310404 0 0.047957145263769152 0.05067151479014368 0 0.046652096850987416 0.050427139253728243 0 0.047091248878377907 0.050569709595012058 0 0.047957145263769152 0.05067151479014368 0 0.048197108458069675 0.05056393096632969 0 0.047179200951837613 0.05063942506932724 0 0.044724138849711249 0.050963273417042182 0 0.047179200951837613 0.05063942506932724 0 0.044859261061252383 0.050510461626854269 0 0.049126791137068603 0.050415754560444712 0 0.047957145263769152 0.05067151479014368 0 0.047179200951837613 0.05063942506932724 0 0.047179200951837613 0.05063942506932724 0 0.047079110002568321 0.049319434159149536 0 0.051032060825664798 0.047593296584151644 0 0.049126791137068603 0.050415754560444712 0 0.047179200951837613 0.05063942506932724 0 0.051032060825664798 0.047593296584151644 0 0.047179200951837613 0.05063942506932724 0 0.044462605504785736 0.05033169721790532 0 0.047079110002568321 0.049319434159149536 0 0.044119339107868756 0.050344354630570513 0 0.042114356933461654 0.050559755514951066 0 0.044462605504785736 0.05033169721790532 0 0.042548456307879262 0.052277462578040432 0 0.043109866942548591 0.051424126552899026 0 0.044462605504785736 0.05033169721790532 0 0.04339329072316904 0.050113059714410955 0 0.041829892228973833 0.04876901035407092 0 0.044462605504785736 0.05033169721790532 0 0.04339329072316904 0.050113059714410955 0 0.044859261061252383 0.050510461626854269 0 0.047179200951837613 0.05063942506932724 0 0.044462605504785736 0.05033169721790532 0 0.044859261061252383 0.050510461626854269 0 0.040156071991391727 0.050695807453712848 0 0.042114356933461654 0.050559755514951066 0 0.039500150093963127 0.049052527598415233 0 0.040854529267550177 0.049312538551892549 0 0.041829892228973833 0.04876901035407092 0 0.04339329072316904 0.050113059714410955 0 0.040854529267550177 0.049312538551892549 0 0.041829892228973833 0.04876901035407092 0 0.040550040817018747 0.052482351011133133 0 0.042548456307879262 0.052277462578040432 0 0.041214829222173198 0.052147646545524153 0 0.040550040817018747 0.052482351011133133 0 0.040050079029946832 0.052183062567432326 0 0.041214829222173198 0.052147646545524153 0 0.040050079029946832 0.052183062567432326 0 0.039893682842979256 0.052234663843086657 0 0.039478937660097704 0.050348074374032131 0 0.040050079029946832 0.052183062567432326 0 0.039893682842979256 0.052234663843086657 0 0.040327627979940571 0.052759900510026152 0 0.039893682842979256 0.052234663843086657 0 0.039478937660097704 0.050348074374032131 0 0.040174313741607716 0.051141041533129677 0 0.039500150093963127 0.049052527598415233 0 0.039478937660097704 0.050348074374032131 0 0.03889365338159257 0.048683070332861005 0 0.040550040817018747 0.052482351011133133 0 0.040050079029946832 0.052183062567432326 0 0.039478937660097704 0.050348074374032131 0 0.040156071991391727 0.050695807453712848 0 0.039709885655142919 0.050405642565698815 0 0.039500150093963127 0.049052527598415233 0 0.03889365338159257 0.048683070332861005 0 0.039540716104736258 0.049027499569097181 0 0.039478937660097704 0.050348074374032131 0 0.03889365338159257 0.048683070332861005 0 0.039947050566883989 0.046881194414983021 0 0.03889365338159257 0.048683070332861005 0 0.038046541555982437 0.04800114793943254 0 0.039947050566883989 0.046881194414983021 0 0.03889365338159257 0.048683070332861005 0 0.039540716104736258 0.049027499569097181 0 0.038046541555982437 0.04800114793943254 0 0.039540716104736258 0.049027499569097181 0 0.04088185138533601 0.049920892477841462 0 0.038046541555982437 0.04800114793943254 0 0.039500150093963127 0.049052527598415233 0 0.040854529267550177 0.049312538551892549 0 0.039540716104736258 0.049027499569097181 0 0.04339329072316904 0.050113059714410955 0 0.040854529267550177 0.049312538551892549 0 0.041615849831238769 0.04990130760483915 0 0.040854529267550177 0.049312538551892549 0 0.039540716104736258 0.049027499569097181 0 0.041615849831238769 0.04990130760483915 0 0.039540716104736258 0.049027499569097181 0 0.041615849831238769 0.04990130760483915 0 0.04088185138533601 0.049920892477841462 0 0.042299555826172661 0.050729107037891068 0 0.041615849831238769 0.04990130760483915 0 0.04088185138533601 0.049920892477841462 0 0.042299555826172661 0.050729107037891068 0 0.04088185138533601 0.049920892477841462 0 0.041849530414257596 0.051329206122129115 0 0.04088185138533601 0.049920892477841462 0 0.040968995903412735 0.051162118057704355 0 0.041849530414257596 0.051329206122129115 0 0.04088185138533601 0.049920892477841462 0 0.040968995903412735 0.051162118057704355 0 0.038046541555982437 0.04800114793943254 0 0.041230770486524987 0.040725488927563287 0 0.037241580384163746 0.050569442183532369 0 0.040968995903412735 0.051162118057704355 0 0.040299427567992284 0.052659615738094606 0 0.038046541555982437 0.04800114793943254 0 0.041201016905966059 0.035689331571058927 0 0.040814352528281458 0.036191929364265601 0 0.040313596920043056 0.036968363205142421 0 0.050468230614278096 0.02912032310932158 0 0.045156805928351106 0.042996470230359664 0 0.042575365277048541 0.051877965998395441 0 0.041849530414257596 0.051329206122129115 0 0.041521896199864988 0.051963076595401503 0 0.040968995903412735 0.051162118057704355 0 0.041849530414257596 0.051329206122129115 0 0.041521896199864988 0.051963076595401503 0 0.040968995903412735 0.051162118057704355 0 0.040299427567992284 0.052659615738094606 0 0.041968884107949363 0.052545274069563615 0 0.041230770486524987 0.040725488927563287 0 0.045156805928351106 0.042996470230359664 0 0.043866524657363307 0.050687619477917736 0 0.045156805928351106 0.042996470230359664 0 0.049858957616515605 0.030479301813664986 0 0.050086506926780121 0.030430376215883317 0 0.050206232588109009 0.030516892307802787 0 0.041230770486524987 0.040725488927563287 0 0.045634188784920038 0.032936408127941748 0 0.043099013516990629 0.036602946226817847 0 0.041994483120726574 0.035943759972760732 0 0.041081885657187088 0.036664248497744523 0 0.050498445794165972 0.030452912713358812 0 0.050086506926780121 0.030430376215883317 0 0.050206232588109009 0.030516892307802787 0 0.050572805815835876 0.030435135855574006 0 0.050498445794165972 0.030452912713358812 0 0.050206232588109009 0.030516892307802787 0 0.048457622192557677 0.032635633355221648 0 0.045634188784920038 0.032936408127941748 0 0.041994483120726574 0.035943759972760732 0 0.040814352528281458 0.036191929364265601 0 0.041081885657187088 0.036664248497744523 0 0.040814352528281458 0.036191929364265601 0 0.041081885657187088 0.036664248497744523 0 0.040361472686448491 0.036295551491200624 0 0.041201016905966059 0.035689331571058927 0 0.041994483120726574 0.035943759972760732 0 0.040814352528281458 0.036191929364265601 0 0.051248464562033878 0.02903965805843611 0 0.051398951661000232 0.029446190902801487 0 0.050187013521133667 0.029060780326621766 0 0.048457622192557677 0.032635633355221648 0 0.045373312356097505 0.032869551061753342 0 0.051249919776240063 0.029682554579790688 0 0.051398951661000232 0.029446190902801487 0 0.050187013521133667 0.029060780326621766 0 0.043347037404006396 0.032646933172615494 0 0.040164555620315665 0.035421358796322314 0 0.04101163044897102 0.03649786760440215 0 0.043562313837635765 0.032604233866200781 0 0.044188232483191835 0.032602852069896271 0 0.040164555620315665 0.035421358796322314 0 0.040361472686448491 0.036295551491200624 0 0.04101163044897102 0.03649786760440215 0 0.045373312356097505 0.032869551061753342 0 0.044188232483191835 0.032602852069896271 0 0.041081885657187088 0.036664248497744523 0 0.040164555620315665 0.035421358796322314 0 0.040361472686448491 0.036295551491200624 0 0.040814352528281458 0.036191929364265601 0 0.040361472686448491 0.036295551491200624 0 0.040313596920043056 0.036968363205142421 0 0.040361472686448491 0.036295551491200624 0 0.04101163044897102 0.03649786760440215 0 0.040313596920043056 0.036968363205142421 0 0.04101163044897102 0.03649786760440215 0 0.040313596920043056 0.036968363205142421 0 0.041417302080167487 0.039611456967763775 0 0.038632272883420027 0.043084081869968809 0 0.039833453262866358 0.043942542576289607 0 0.041417302080167487 0.039611456967763775 0 0.038830626660304617 0.039817992960347284 0 0.041985860097603113 0.039694600509041472 0 0.041230770486524987 0.040725488927563287 0 0.038830626660304617 0.039817992960347284 0 0.034284153471929833 0.043652269846048204 0 0.038632272883420027 0.043084081869968809 0 0.038046541555982437 0.04800114793943254 0 0.038632272883420027 0.043084081869968809 0 0.038046541555982437 0.04800114793943254 0 0.039833453262866358 0.043942542576289607 0 0.038046541555982437 0.04800114793943254 0 0.039833453262866358 0.043942542576289607 0 0.039947050566883989 0.046881194414983021 0 0.039833453262866358 0.043942542576289607 0 0.041619230291270112 0.043719755205012659 0 0.039947050566883989 0.046881194414983021 0 0.039833453262866358 0.043942542576289607 0 0.041619230291270112 0.043719755205012659 0 0.041417302080167487 0.039611456967763775 0 0.041619230291270112 0.043719755205012659 0 0.041417302080167487 0.039611456967763775 0 0.042966579603162323 0.038925611670858382 0 0.04101163044897102 0.03649786760440215 0 0.041417302080167487 0.039611456967763775 0 0.04311535965840569 0.03566561814558953 0 0.041417302080167487 0.039611456967763775 0 0.04311535965840569 0.03566561814558953 0 0.042966579603162323 0.038925611670858382 0 0.043687293238804895 0.033842132530575629 0 0.043520129565856699 0.033201445073057161 0 0.04311535965840569 0.03566561814558953 0 0.043347037404006396 0.032646933172615494 0 0.043520129565856699 0.033201445073057161 0 0.04311535965840569 0.03566561814558953 0 0.043347037404006396 0.032646933172615494 0 0.04101163044897102 0.03649786760440215 0 0.04311535965840569 0.03566561814558953 0 0.039828830864615118 0.028147732291295788 0 0.043644091256110719 0.033242574484751576 0 0.040615857577311933 0.028269620046172592 0 0.043687293238804895 0.033842132530575629 0 0.04311535965840569 0.03566561814558953 0 0.043604174846299477 0.03605397289027943 0 0.043687293238804895 0.033842132530575629 0 0.044495951404999269 0.034437341914748808 0 0.043604174846299477 0.03605397289027943 0 0.043604174846299477 0.03605397289027943 0 0.043546133333796026 0.037869520451538595 0 0.042966579603162323 0.038925611670858382 0 0.04311535965840569 0.03566561814558953 0 0.043604174846299477 0.03605397289027943 0 0.042966579603162323 0.038925611670858382 0 0.042242735414374961 0.031431861400352389 0 0.043284882557208283 0.037192919766586729 0 0.039828830864615118 0.028147732291295788 0 0.043546133333796026 0.037869520451538595 0 0.043644091256110719 0.033242574484751576 0 0.044495951404999269 0.034437341914748808 0 0.043604174846299477 0.03605397289027943 0 0.043546133333796026 0.037869520451538595 0 0.043546133333796026 0.037869520451538595 0 0.043338024480021518 0.041959030921716829 0 0.045509501488344171 0.04169073710743687 0 0.043546133333796026 0.037869520451538595 0 0.042966579603162323 0.038925611670858382 0 0.043338024480021518 0.041959030921716829 0 0.041619230291270112 0.043719755205012659 0 0.043338024480021518 0.041959030921716829 0 0.042550778465552032 0.045809306356511391 0 0.041619230291270112 0.043719755205012659 0 0.042966579603162323 0.038925611670858382 0 0.043338024480021518 0.041959030921716829 0 0.045509501488344171 0.04169073710743687 0 0.044598897782032874 0.045092495284259737 0 0.046690432108853389 0.04441209887108083 0 0.043338024480021518 0.041959030921716829 0 0.045509501488344171 0.04169073710743687 0 0.044598897782032874 0.045092495284259737 0 0.044598897782032874 0.045092495284259737 0 0.045941511148439217 0.046247405712224889 0 0.046690432108853389 0.04441209887108083 0 0.044598897782032874 0.045092495284259737 0 0.04482428263291293 0.04740089371270706 0 0.045941511148439217 0.046247405712224889 0 0.04482428263291293 0.04740089371270706 0 0.045941972902169684 0.048140006194499207 0 0.045941511148439217 0.046247405712224889 0 0.044598897782032874 0.045092495284259737 0 0.04482428263291293 0.04740089371270706 0 0.043475773701798975 0.04764439385062591 0 0.04482428263291293 0.04740089371270706 0 0.043475773701798975 0.04764439385062591 0 0.044524350783652737 0.049234494766297425 0 0.04482428263291293 0.04740089371270706 0 0.044524350783652737 0.049234494766297425 0 0.045941972902169684 0.048140006194499207 0 0.045436263688173321 0.049427572073737672 0 0.044524350783652737 0.049234494766297425 0 0.045941972902169684 0.048140006194499207 0 0.043475773701798975 0.04764439385062591 0 0.04189914379013239 0.048557973377335202 0 0.0429669011543597 0.050295951076071578 0 0.043475773701798975 0.04764439385062591 0 0.042550778465552032 0.045809306356511391 0 0.04189914379013239 0.048557973377335202 0 0.043338024480021518 0.041959030921716829 0 0.044598897782032874 0.045092495284259737 0 0.042550778465552032 0.045809306356511391 0 0.044598897782032874 0.045092495284259737 0 0.043475773701798975 0.04764439385062591 0 0.042550778465552032 0.045809306356511391 0 0.041619230291270112 0.043719755205012659 0 0.042550778465552032 0.045809306356511391 0 0.041209411109017532 0.046826714844055102 0 0.041619230291270112 0.043719755205012659 0 0.041209411109017532 0.046826714844055102 0 0.039947050566883989 0.046881194414983021 0 0.039478937660097704 0.050348074374032131 0 0.039947050566883989 0.046881194414983021 0 0.040563557158757618 0.049115602258116092 0 0.041209411109017532 0.046826714844055102 0 0.039947050566883989 0.046881194414983021 0 0.040563557158757618 0.049115602258116092 0 0.042550778465552032 0.045809306356511391 0 0.041209411109017532 0.046826714844055102 0 0.04189914379013239 0.048557973377335202 0 0.041209411109017532 0.046826714844055102 0 0.040563557158757618 0.049115602258116092 0 0.04189914379013239 0.048557973377335202 0 0.040563557158757618 0.049115602258116092 0 0.04189914379013239 0.048557973377335202 0 0.041016389899108781 0.051313803230277573 0 0.040563557158757618 0.049115602258116092 0 0.040174313741607716 0.051141041533129677 0 0.041016389899108781 0.051313803230277573 0 0.039478937660097704 0.050348074374032131 0 0.040563557158757618 0.049115602258116092 0 0.040174313741607716 0.051141041533129677 0 0.039893682842979256 0.052234663843086657 0 0.040174313741607716 0.051141041533129677 0 0.040125646326098517 0.052700521593289369 0 0.040174313741607716 0.051141041533129677 0 0.040125646326098517 0.052700521593289369 0 0.041016389899108781 0.051313803230277573 0 0.040125646326098517 0.052700521593289369 0 0.041016389899108781 0.051313803230277573 0 0.040553122625869735 0.053190954586264147 0 0.041016389899108781 0.051313803230277573 0 0.042063948687100082 0.052208167869407414 0 0.0429669011543597 0.050295951076071578 0 0.041016389899108781 0.051313803230277573 0 0.042063948687100082 0.052208167869407414 0 0.040553122625869735 0.053190954586264147 0 0.042063948687100082 0.052208167869407414 0 0.041262981516484415 0.053722793573023439 0 0.040553122625869735 0.053190954586264147 0 0.042063948687100082 0.052208167869407414 0 0.043527232724175385 0.051755733905846375 0 0.0429669011543597 0.050295951076071578 0 0.042063948687100082 0.052208167869407414 0 0.043527232724175385 0.051755733905846375 0 0.04263915935868412 0.05319380537853205 0 0.042063948687100082 0.052208167869407414 0 0.04263915935868412 0.05319380537853205 0 0.041262981516484415 0.053722793573023439 0 0.044785016643153645 0.052610149004377368 0 0.043527232724175385 0.051755733905846375 0 0.04263915935868412 0.05319380537853205 0 0.044785016643153645 0.052610149004377368 0 0.043527232724175385 0.051755733905846375 0 0.044696911502035599 0.050623204281214883 0 0.043475773701798975 0.04764439385062591 0 0.044524350783652737 0.049234494766297425 0 0.0429669011543597 0.050295951076071578 0 0.043527232724175385 0.051755733905846375 0 0.044696911502035599 0.050623204281214883 0 0.0429669011543597 0.050295951076071578 0 0.044696911502035599 0.050623204281214883 0 0.045436263688173321 0.049427572073737672 0 0.044524350783652737 0.049234494766297425 0 0.044696911502035599 0.050623204281214883 0 0.044524350783652737 0.049234494766297425 0 0.0429669011543597 0.050295951076071578 0 0.04189914379013239 0.048557973377335202 0 0.041016389899108781 0.051313803230277573 0 0.0429669011543597 0.050295951076071578 0 0.03775655375237786 0.05675634037047813 0 0.034813278922130923 0.057380652392093348 0 0.034865872117743446 0.060046550465771564 0 0.03775655375237786 0.05675634037047813 0 0.042686913047153906 0.054709324577087624 0 0.040253875202483705 0.054991975554999996 0 0.038008411900564816 0.056977227162005921 0 0.039299140145930236 0.056588415350677698 0 0.039144927214623711 0.055498504772493268 0 0.040253875202483705 0.054991975554999996 0 0.039954611011233751 0.054532185720564556 0 0.039144927214623711 0.055498504772493268 0 0.03775655375237786 0.05675634037047813 0 0.040253875202483705 0.054991975554999996 0 0.039144927214623711 0.055498504772493268 0 0.03775655375237786 0.05675634037047813 0 0.039406593656870686 0.055166208183250798 0 0.034813278922130923 0.057380652392093348 0 0.032606649044139624 0.058051883587000946 0 0.032377064142098892 0.058946359603116852 0 0.034813278922130923 0.057380652392093348 0 0.034865872117743446 0.060046550465771564 0 0.034627632283585195 0.059975683872512113 0 0.034813278922130923 0.057380652392093348 0 0.032377064142098892 0.058946359603116852 0 0.032053450159203453 0.06057099094110642 0 0.034684323223140169 0.057384726761921981 0 0.033131169975380584 0.060469008782030848 0 0.034813278922130923 0.057380652392093348 0 0.032606649044139624 0.058051883587000946 0 0.032606922641896637 0.057103111782627794 0 0.032606649044139624 0.058051883587000946 0 0.032606922641896637 0.057103111782627794 0 0.031419318794314054 0.058824431714414781 0 0.032606649044139624 0.058051883587000946 0 0.032377064142098892 0.058946359603116852 0 0.031419318794314054 0.058824431714414781 0 0.032377064142098892 0.058946359603116852 0 0.031445659862473128 0.059838014286214672 0 0.031419318794314054 0.058824431714414781 0 0.032377064142098892 0.058946359603116852 0 0.031445659862473128 0.059838014286214672 0 0.032053450159203453 0.06057099094110642 0 0.034763703220652448 0.059347064561031192 0 0.034865872117743446 0.060046550465771564 0 0.034627632283585195 0.059975683872512113 0 0.044785016643153645 0.052610149004377368 0 0.042686913047153906 0.054709324577087624 0 0.04263915935868412 0.05319380537853205 0 0.029748179016123893 0.060551284640725386 0 0.032053450159203453 0.06057099094110642 0 0.03098276173576836 0.060526758380338073 0 0.034462404248993182 0.056778303206031173 0 0.039299140145930236 0.056588415350677698 0 0.034462404248993182 0.056778303206031173 0 0.033131169975380584 0.060469008782030848 0 0.031445659862473128 0.059838014286214672 0 0.032053450159203453 0.06057099094110642 0 0.03098276173576836 0.060526758380338073 0 0.042686913047153906 0.054709324577087624 0 0.04263915935868412 0.05319380537853205 0 0.041664632380907028 0.054205116948159084 0 0.04263915935868412 0.05319380537853205 0 0.041262981516484415 0.053722793573023439 0 0.041664632380907028 0.054205116948159084 0 0.042686913047153906 0.054709324577087624 0 0.041664632380907028 0.054205116948159084 0 0.040253875202483705 0.054991975554999996 0 0.041262981516484415 0.053722793573023439 0 0.041664632380907028 0.054205116948159084 0 0.040253875202483705 0.054991975554999996 0 0.041262981516484415 0.053722793573023439 0 0.040253875202483705 0.054991975554999996 0 0.039954611011233751 0.054532185720564556 0 0.041262981516484415 0.053722793573023439 0 0.039954611011233751 0.054532185720564556 0 0.040553122625869735 0.053190954586264147 0 0.040125646326098517 0.052700521593289369 0 0.040553122625869735 0.053190954586264147 0 0.039831346141402484 0.054118085334487302 0 0.039954611011233751 0.054532185720564556 0 0.040553122625869735 0.053190954586264147 0 0.039831346141402484 0.054118085334487302 0 0.039893682842979256 0.052234663843086657 0 0.040125646326098517 0.052700521593289369 0 0.039981235291711284 0.053411161823330999 0 0.040125646326098517 0.052700521593289369 0 0.039831346141402484 0.054118085334487302 0 0.039981235291711284 0.053411161823330999 0 0.039981235291711284 0.053411161823330999 0 0.039861224377162177 0.054349171252493729 0 0.040320470197534507 0.053423556030965921 0 0.039831346141402484 0.054118085334487302 0 0.039981235291711284 0.053411161823330999 0 0.039861224377162177 0.054349171252493729 0 0.039831346141402484 0.054118085334487302 0 0.039861224377162177 0.054349171252493729 0 0.039406593656870686 0.055166208183250798 0 0.039954611011233751 0.054532185720564556 0 0.039831346141402484 0.054118085334487302 0 0.039406593656870686 0.055166208183250798 0 0.039144927214623711 0.055498504772493268 0 0.039954611011233751 0.054532185720564556 0 0.039406593656870686 0.055166208183250798 0 0.039861224377162177 0.054349171252493729 0 0.039406593656870686 0.055166208183250798 0 0.039140390135852812 0.054985721321046371 0 0.03775655375237786 0.05675634037047813 0 0.039406593656870686 0.055166208183250798 0 0.039140390135852812 0.054985721321046371 0 0.039140390135852812 0.054985721321046371 0 0.040254804243446997 0.053675051059039962 0 0.039349944310158889 0.053082317542434865 0 0.039861224377162177 0.054349171252493729 0 0.039140390135852812 0.054985721321046371 0 0.040254804243446997 0.053675051059039962 0 0.039861224377162177 0.054349171252493729 0 0.040254804243446997 0.053675051059039962 0 0.040320470197534507 0.053423556030965921 0 0.040254804243446997 0.053675051059039962 0 0.039349944310158889 0.053082317542434865 0 0.040482409950148047 0.053592149023804068 0 0.03639606782890744 0.055015410289873293 0 0.037735114782351989 0.0553143615683502 0 0.03639606782890744 0.055015410289873293 0 0.034804664944918462 0.055707959748980795 0 0.033445370799101461 0.056732824883358082 0 0.034688002506527364 0.055767781919750188 0 0.033382528874636941 0.056049943509270173 0 0.033445370799101461 0.056732824883358082 0 0.033382528874636941 0.056049943509270173 0 0.032896273781686552 0.056313455028133022 0 0.03775655375237786 0.05675634037047813 0 0.039140390135852812 0.054985721321046371 0 0.034688002506527364 0.055767781919750188 0 0.039140390135852812 0.054985721321046371 0 0.039349944310158889 0.053082317542434865 0 0.034688002506527364 0.055767781919750188 0 0.03775655375237786 0.05675634037047813 0 0.034813278922130923 0.057380652392093348 0 0.034688002506527364 0.055767781919750188 0 0.032606922641896637 0.057103111782627794 0 0.033382528874636941 0.056049943509270173 0 0.031672551198234894 0.056954166827455951 0 0.034688002506527364 0.055767781919750188 0 0.032606922641896637 0.057103111782627794 0 0.033382528874636941 0.056049943509270173 0 0.034813278922130923 0.057380652392093348 0 0.034688002506527364 0.055767781919750188 0 0.032606922641896637 0.057103111782627794 0 0.033382528874636941 0.056049943509270173 0 0.031672551198234894 0.056954166827455951 0 0.031047685329433434 0.055946285850390388 0 0.032334365162761516 0.055732022692859623 0 0.031548902393115245 0.054878563965378796 0 0.031047685329433434 0.055946285850390388 0 0.033382528874636941 0.056049943509270173 0 0.032334365162761516 0.055732022692859623 0 0.031047685329433434 0.055946285850390388 0 0.032334365162761516 0.055732022692859623 0 0.032896273781686552 0.056313455028133022 0 0.031854593733099915 0.055633710410193174 0 0.033382528874636941 0.056049943509270173 0 0.032334365162761516 0.055732022692859623 0 0.032896273781686552 0.056313455028133022 0 0.032896273781686552 0.056313455028133022 0 0.031854593733099915 0.055633710410193174 0 0.032923687971325076 0.055947127909597591 0 0.032334365162761516 0.055732022692859623 0 0.031854593733099915 0.055633710410193174 0 0.031548902393115245 0.054878563965378796 0 0.030691456642114621 0.055933551126178732 0 0.029296249857849149 0.056278359593880292 0 0.031854593733099915 0.055633710410193174 0 0.03077701778803825 0.055952554437395503 0 0.031548902393115245 0.054878563965378796 0 0.03077701778803825 0.055952554437395503 0 0.027139852211910082 0.05777382879732839 0 0.026211222450318181 0.056092288351538677 0 0.031854593733099915 0.055633710410193174 0 0.03077701778803825 0.055952554437395503 0 0.032923687971325076 0.055947127909597591 0 0.03077701778803825 0.055952554437395503 0 0.027958335773895306 0.054998893641891984 0 0.031207810757876684 0.054999286387453383 0 0.03077701778803825 0.055952554437395503 0 0.027958335773895306 0.054998893641891984 0 0.026211222450318181 0.056092288351538677 0 0.03077701778803825 0.055952554437395503 0 0.031207810757876684 0.054999286387453383 0 0.032801270204422882 0.055539684399149275 0 0.031207810757876684 0.054999286387453383 0 0.032801270204422882 0.055539684399149275 0 0.034455826374030336 0.054998319503580757 0 0.03077701778803825 0.055952554437395503 0 0.032801270204422882 0.055539684399149275 0 0.032923687971325076 0.055947127909597591 0 0.032801270204422882 0.055539684399149275 0 0.035123695323614069 0.055388285478413075 0 0.034455826374030336 0.054998319503580757 0 0.032801270204422882 0.055539684399149275 0 0.035123695323614069 0.055388285478413075 0 0.032923687971325076 0.055947127909597591 0 0.035123695323614069 0.055388285478413075 0 0.032923687971325076 0.055947127909597591 0 0.034968009846058523 0.057151744758235215 0 0.032896273781686552 0.056313455028133022 0 0.032923687971325076 0.055947127909597591 0 0.034968009846058523 0.057151744758235215 0 0.033445370799101461 0.056732824883358082 0 0.032896273781686552 0.056313455028133022 0 0.034968009846058523 0.057151744758235215 0 0.040482409950148047 0.053592149023804068 0 0.039059588113727575 0.055265962472448048 0 0.04038640420945401 0.053603304938484406 0 0.037735114782351989 0.0553143615683502 0 0.038926295358284534 0.055225277134602617 0 0.039059588113727575 0.055265962472448048 0 0.040611817952905638 0.054273549769472747 0 0.04038640420945401 0.053603304938484406 0 0.035123695323614069 0.055388285478413075 0 0.034968009846058523 0.057151744758235215 0 0.039059588113727575 0.055265962472448048 0 0.035123695323614069 0.055388285478413075 0 0.039059588113727575 0.055265962472448048 0 0.03713550421248521 0.055019650137975717 0 0.039059588113727575 0.055265962472448048 0 0.03713550421248521 0.055019650137975717 0 0.039707232175732313 0.054812431895837836 0 0.03713550421248521 0.055019650137975717 0 0.037705041276427813 0.05499842398313453 0 0.039707232175732313 0.054812431895837836 0 0.03713550421248521 0.055019650137975717 0 0.037705041276427813 0.05499842398313453 0 0.034455826374030336 0.054998319503580757 0 0.035123695323614069 0.055388285478413075 0 0.03713550421248521 0.055019650137975717 0 0.034455826374030336 0.054998319503580757 0 0.04095320023329703 0.054998121962469781 0 0.039707232175732313 0.054812431895837836 0 0.042784233978849749 0.054342889802029302 0 0.039707232175732313 0.054812431895837836 0 0.041931146116846917 0.053955057483442107 0 0.042784233978849749 0.054342889802029302 0 0.037705041276427813 0.05499842398313453 0 0.04095320023329703 0.054998121962469781 0 0.039707232175732313 0.054812431895837836 0 0.039707232175732313 0.054812431895837836 0 0.041931146116846917 0.053955057483442107 0 0.040611817952905638 0.054273549769472747 0 0.039059588113727575 0.055265962472448048 0 0.039707232175732313 0.054812431895837836 0 0.040611817952905638 0.054273549769472747 0 0.040611817952905638 0.054273549769472747 0 0.042156314051936206 0.052966673316657116 0 0.04038640420945401 0.053603304938484406 0 0.041931146116846917 0.053955057483442107 0 0.042156314051936206 0.052966673316657116 0 0.043872558071562019 0.053053648205326175 0 0.041931146116846917 0.053955057483442107 0 0.040611817952905638 0.054273549769472747 0 0.042156314051936206 0.052966673316657116 0 0.042156314051936206 0.052966673316657116 0 0.042765799350701558 0.052024111043023853 0 0.041253646552707149 0.052589392974932141 0 0.042156314051936206 0.052966673316657116 0 0.041253646552707149 0.052589392974932141 0 0.04038640420945401 0.053603304938484406 0 0.040254804243446997 0.053675051059039962 0 0.040482409950148047 0.053592149023804068 0 0.040535575451217554 0.053330839458689591 0 0.040482409950148047 0.053592149023804068 0 0.04038640420945401 0.053603304938484406 0 0.040535575451217554 0.053330839458689591 0 0.040254804243446997 0.053675051059039962 0 0.040535575451217554 0.053330839458689591 0 0.040320470197534507 0.053423556030965921 0 0.041253646552707149 0.052589392974932141 0 0.040535575451217554 0.053330839458689591 0 0.040320470197534507 0.053423556030965921 0 0.041253646552707149 0.052589392974932141 0 0.04038640420945401 0.053603304938484406 0 0.040535575451217554 0.053330839458689591 0 0.041253646552707149 0.052589392974932141 0 0.040320470197534507 0.053423556030965921 0 0.040327627979940571 0.052759900510026152 0 0.039981235291711284 0.053411161823330999 0 0.040320470197534507 0.053423556030965921 0 0.040327627979940571 0.052759900510026152 0 0.039893682842979256 0.052234663843086657 0 0.039981235291711284 0.053411161823330999 0 0.040327627979940571 0.052759900510026152 0 0.040050079029946832 0.052183062567432326 0 0.040327627979940571 0.052759900510026152 0 0.041214829222173198 0.052147646545524153 0 0.041253646552707149 0.052589392974932141 0 0.040327627979940571 0.052759900510026152 0 0.041214829222173198 0.052147646545524153 0 0.042548456307879262 0.052277462578040432 0 0.041214829222173198 0.052147646545524153 0 0.043109866942548591 0.051424126552899026 0 0.042765799350701558 0.052024111043023853 0 0.041253646552707149 0.052589392974932141 0 0.043109866942548591 0.051424126552899026 0 0.041253646552707149 0.052589392974932141 0 0.041214829222173198 0.052147646545524153 0 0.043109866942548591 0.051424126552899026 0 0.044601886190823913 0.050978845189490751 0 0.044955963193509793 0.050376621010999934 0 0.046286927792058057 0.049940430813786379 0 0.043109866942548591 0.051424126552899026 0 0.044601886190823913 0.050978845189490751 0 0.044955963193509793 0.050376621010999934 0 0.042765799350701558 0.052024111043023853 0 0.043109866942548591 0.051424126552899026 0 0.044601886190823913 0.050978845189490751 0 0.044462605504785736 0.05033169721790532 0 0.043109866942548591 0.051424126552899026 0 0.044955963193509793 0.050376621010999934 0 0.044462605504785736 0.05033169721790532 0 0.044955963193509793 0.050376621010999934 0 0.047079110002568321 0.049319434159149536 0 0.044955963193509793 0.050376621010999934 0 0.047079110002568321 0.049319434159149536 0 0.046286927792058057 0.049940430813786379 0 0.047079110002568321 0.049319434159149536 0 0.049146750534555313 0.048567782866767613 0 0.051032060825664798 0.047593296584151644 0 0.047079110002568321 0.049319434159149536 0 0.049146750534555313 0.048567782866767613 0 0.046286927792058057 0.049940430813786379 0 0.049146750534555313 0.048567782866767613 0 0.046286927792058057 0.049940430813786379 0 0.046317896632455419 0.050546505734320506 0 0.049146750534555313 0.048567782866767613 0 0.046317896632455419 0.050546505734320506 0 0.047986214356891252 0.050212969681807954 0 0.049146750534555313 0.048567782866767613 0 0.047986214356891252 0.050212969681807954 0 0.049966514955699107 0.048602576163340114 0 0.046317896632455419 0.050546505734320506 0 0.047986214356891252 0.050212969681807954 0 0.045877077133704022 0.051862359424098184 0 0.046317896632455419 0.050546505734320506 0 0.044502403244922877 0.051859909676468821 0 0.045877077133704022 0.051862359424098184 0 0.044601886190823913 0.050978845189490751 0 0.046286927792058057 0.049940430813786379 0 0.046317896632455419 0.050546505734320506 0 0.044601886190823913 0.050978845189490751 0 0.046317896632455419 0.050546505734320506 0 0.044502403244922877 0.051859909676468821 0 0.042765799350701558 0.052024111043023853 0 0.044601886190823913 0.050978845189490751 0 0.044502403244922877 0.051859909676468821 0 0.042156314051936206 0.052966673316657116 0 0.042765799350701558 0.052024111043023853 0 0.044502403244922877 0.051859909676468821 0 0.042156314051936206 0.052966673316657116 0 0.044502403244922877 0.051859909676468821 0 0.043872558071562019 0.053053648205326175 0 0.043872558071562019 0.053053648205326175 0 0.045284057121247751 0.053479566411739475 0 0.045877077133704022 0.051862359424098184 0 0.044502403244922877 0.051859909676468821 0 0.043872558071562019 0.053053648205326175 0 0.045877077133704022 0.051862359424098184 0 0.043872558071562019 0.053053648205326175 0 0.045284057121247751 0.053479566411739475 0 0.042784233978849749 0.054342889802029302 0 0.041931146116846917 0.053955057483442107 0 0.043872558071562019 0.053053648205326175 0 0.042784233978849749 0.054342889802029302 0 0.045284057121247751 0.053479566411739475 0 0.042784233978849749 0.054342889802029302 0 0.044201591451306831 0.054997835684185689 0 0.04095320023329703 0.054998121962469781 0 0.042784233978849749 0.054342889802029302 0 0.044201591451306831 0.054997835684185689 0 0.045284057121247751 0.053479566411739475 0 0.044201591451306831 0.054997835684185689 0 0.046854358887171835 0.053956568252371752 0 0.044201591451306831 0.054997835684185689 0 0.047449164868602213 0.054998514481007968 0 0.046854358887171835 0.053956568252371752 0 0.046854358887171835 0.053956568252371752 0 0.048145391800498219 0.052547846599575579 0 0.048287297207544003 0.05412208498997384 0 0.047449164868602213 0.054998514481007968 0 0.046854358887171835 0.053956568252371752 0 0.048287297207544003 0.05412208498997384 0 0.046854358887171835 0.053956568252371752 0 0.048145391800498219 0.052547846599575579 0 0.047032480827428273 0.052065856156576308 0 0.045284057121247751 0.053479566411739475 0 0.046854358887171835 0.053956568252371752 0 0.047032480827428273 0.052065856156576308 0 0.047986214356891252 0.050212969681807954 0 0.045877077133704022 0.051862359424098184 0 0.047032480827428273 0.052065856156576308 0 0.045284057121247751 0.053479566411739475 0 0.045877077133704022 0.051862359424098184 0 0.047032480827428273 0.052065856156576308 0 0.047986214356891252 0.050212969681807954 0 0.047032480827428273 0.052065856156576308 0 0.048195955537455717 0.051168238643789506 0 0.048145391800498219 0.052547846599575579 0 0.047032480827428273 0.052065856156576308 0 0.048195955537455717 0.051168238643789506 0 0.047986214356891252 0.050212969681807954 0 0.048195955537455717 0.051168238643789506 0 0.048959975916472602 0.049824547404078455 0 0.048195955537455717 0.051168238643789506 0 0.048959975916472602 0.049824547404078455 0 0.048706240785979585 0.051026159250945495 0 0.048959975916472602 0.049824547404078455 0 0.048706240785979585 0.051026159250945495 0 0.049767494472571117 0.048675037923841598 0 0.048145391800498219 0.052547846599575579 0 0.048195955537455717 0.051168238643789506 0 0.048706240785979585 0.051026159250945495 0 0.049767494472571117 0.048675037923841598 0 0.052242372739511392 0.046980155848612815 0 0.052215550096774609 0.048016481983676161 0 0.049666052676852604 0.048763645420868459 0 0.049251734886559123 0.049300439094527707 0 0.04858675934838759 0.050660582790329457 0 0.047057990225447648 0.051043462714870091 0 0.048181433125048224 0.051823038786043635 0 0.049767494472571117 0.048675037923841598 0 0.04858675934838759 0.050660582790329457 0 0.047057990225447648 0.051043462714870091 0 0.048706240785979585 0.051026159250945495 0 0.04858675934838759 0.050660582790329457 0 0.048181433125048224 0.051823038786043635 0 0.048706240785979585 0.051026159250945495 0 0.049767494472571117 0.048675037923841598 0 0.04858675934838759 0.050660582790329457 0 0.049767494472571117 0.048675037923841598 0 0.047057990225447648 0.051043462714870091 0 0.046541080392234285 0.051071466091385527 0 0.047057990225447648 0.051043462714870091 0 0.047245136372945327 0.052368816393262366 0 0.045883486635785731 0.053354364913559917 0 0.047245136372945327 0.052368816393262366 0 0.04808063715345693 0.053300896780515514 0 0.045883486635785731 0.053354364913559917 0 0.047057990225447648 0.051043462714870091 0 0.047245136372945327 0.052368816393262366 0 0.048181433125048224 0.051823038786043635 0 0.048181433125048224 0.051823038786043635 0 0.04808063715345693 0.053300896780515514 0 0.048336553445935772 0.052550584057478832 0 0.047245136372945327 0.052368816393262366 0 0.048181433125048224 0.051823038786043635 0 0.04808063715345693 0.053300896780515514 0 0.04808063715345693 0.053300896780515514 0 0.048336553445935772 0.052550584057478832 0 0.048287297207544003 0.05412208498997384 0 0.048145391800498219 0.052547846599575579 0 0.048706240785979585 0.051026159250945495 0 0.048336553445935772 0.052550584057478832 0 0.048706240785979585 0.051026159250945495 0 0.048181433125048224 0.051823038786043635 0 0.048336553445935772 0.052550584057478832 0 0.048145391800498219 0.052547846599575579 0 0.048336553445935772 0.052550584057478832 0 0.048287297207544003 0.05412208498997384 0 0.04808063715345693 0.053300896780515514 0 0.048287297207544003 0.05412208498997384 0 0.049057255066322691 0.055386430638447746 0 0.049057255066322691 0.055386430638447746 0 0.051163650803990456 0.055980143307741016 0 0.052067042222011563 0.058318358277746313 0 0.04890285461249004 0.055904702891288377 0 0.049755919472463828 0.054117801725669504 0 0.04808063715345693 0.053300896780515514 0 0.049057255066322691 0.055386430638447746 0 0.045883486635785731 0.053354364913559917 0 0.049057255066322691 0.055386430638447746 0 0.051163650803990456 0.055980143307741016 0 0.050695635759112012 0.054998558778137079 0 0.047449164868602213 0.054998514481007968 0 0.048287297207544003 0.05412208498997384 0 0.049057255066322691 0.055386430638447746 0 0.047449164868602213 0.054998514481007968 0 0.049057255066322691 0.055386430638447746 0 0.050695635759112012 0.054998558778137079 0 0.053946734142806048 0.054999789485853275 0 0.053966352943205696 0.055150445011996792 0 0.054647477607260929 0.054253018799870309 0 0.053950572602463394 0.05499871451051519 0 0.055040453907503187 0.05407273974910197 0 0.054647477607260929 0.054253018799870309 0 0.054998765139181005 0.053751424692484159 0 0.054807054280410369 0.053953724601882358 0 0.054647477607260929 0.054253018799870309 0 0.05499860642787649 0.05499895227927195 0 0.053950572602463394 0.05499871451051519 0 0.054647477607260929 0.054253018799870309 0 0.054998765139181005 0.053751424692484159 0 0.05499860642787649 0.05499895227927195 0 0.050695635759112012 0.054998558778137079 0 0.053946834212962778 0.055000124218954699 0 0.052862668486085979 0.056170953256902974 0 0.051163650803990456 0.055980143307741016 0 0.050695635759112012 0.054998558778137079 0 0.052862668486085979 0.056170953256902974 0 0.053966352943205696 0.055150445011996792 0 0.049755919472463828 0.054117801725669504 0 0.055040453907503187 0.05407273974910197 0 0.054807054280410369 0.053953724601882358 0 0.055124052426406528 0.05375536109295756 0 0.051163650803990456 0.055980143307741016 0 0.052862668486085979 0.056170953256902974 0 0.052067042222011563 0.058318358277746313 0 0.054807054280410369 0.053953724601882358 0 0.055124052426406528 0.05375536109295756 0 0.055013893733815385 0.053660304397938965 0 0.055000000161474723 0.053748031420714146 0 0.056090032586756267 0.052407048578534031 0 0.054999972469437691 0.051486083814298332 0 0.055504176704210886 0.052961076424500313 0 0.053008847021129381 0.05139247045649685 0 0.054647477607260929 0.054253018799870309 0 0.055040453907503187 0.05407273974910197 0 0.054807054280410369 0.053953724601882358 0 0.055000032232194476 0.053747974148238196 0 0.055504176704210886 0.052961076424500313 0 0.056090032586756267 0.052407048578534031 0 0.054999972469437691 0.051486083814298332 0 0.055813807709100167 0.051051556826404478 0 0.053008847021129381 0.05139247045649685 0 0.05500093538708075 0.049222227944504988 0 0.055813807709100167 0.051051556826404478 0 0.057164851194474703 0.051083763058631514 0 0.054999994539980585 0.049224178120769728 0 0.05343774034590338 0.046034813874717674 0 0.05499855992495966 0.0492167746769532 0 0.05381072384359304 0.047845097573190797 0 0.054999972469437691 0.051486083814298332 0 0.055813807709100167 0.051051556826404478 0 0.054999994539980585 0.049224178120769728 0 0.056090032586756267 0.052407048578534031 0 0.055813807709100167 0.051051556826404478 0 0.057164851194474703 0.051083763058631514 0 0.046453143987636829 0.051658643052526591 0 0.049755919472463828 0.054117801725669504 0 0.047057990225447648 0.051043462714870091 0 0.045506095079147567 0.054213876168140614 0 0.046541080392234285 0.051071466091385527 0 0.045506095079147567 0.054213876168140614 0 0.044648860072346558 0.053476482774309615 0 0.046541080392234285 0.051071466091385527 0 0.049755919472463828 0.054117801725669504 0 0.053008847021129381 0.05139247045649685 0 0.05343774034590338 0.046034813874717674 0 0.053146812346133644 0.047156414746085999 0 0.05381072384359304 0.047845097573190797 0 0.053008847021129381 0.05139247045649685 0 0.049251734886559123 0.049300439094527707 0 0.05343774034590338 0.046034813874717674 0 0.052242372739511392 0.046980155848612815 0 0.053146812346133644 0.047156414746085999 0 0.053089763755812439 0.047573623838015403 0 0.05381072384359304 0.047845097573190797 0 0.053851776571284662 0.04768668757790985 0 0.053089763755812439 0.047573623838015403 0 0.052242372739511392 0.046980155848612815 0 0.053146812346133644 0.047156414746085999 0 0.053089763755812439 0.047573623838015403 0 0.053146812346133644 0.047156414746085999 0 0.05381072384359304 0.047845097573190797 0 0.053089763755812439 0.047573623838015403 0 0.052242372739511392 0.046980155848612815 0 0.052215550096774609 0.048016481983676161 0 0.053089763755812439 0.047573623838015403 0 0.052215550096774609 0.048016481983676161 0 0.053851776571284662 0.04768668757790985 0 0.05499855992495966 0.0492167746769532 0 0.05381072384359304 0.047845097573190797 0 0.053851776571284662 0.04768668757790985 0 0.05499855992495966 0.0492167746769532 0 0.054997398427980772 0.045935509567460543 0 0.053851776571284662 0.04768668757790985 0 0.054997398427980772 0.045935509567460543 0 0.053662391637393204 0.046310173334370201 0 0.053851776571284662 0.04768668757790985 0 0.052215550096774609 0.048016481983676161 0 0.053851776571284662 0.04768668757790985 0 0.051862519519987327 0.047963338271039484 0 0.053662391637393204 0.046310173334370201 0 0.053851776571284662 0.04768668757790985 0 0.051862519519987327 0.047963338271039484 0 0.049767494472571117 0.048675037923841598 0 0.052215550096774609 0.048016481983676161 0 0.051862519519987327 0.047963338271039484 0 0.049767494472571117 0.048675037923841598 0 0.051862519519987327 0.047963338271039484 0 0.049966514955699107 0.048602576163340114 0 0.047986214356891252 0.050212969681807954 0 0.048959975916472602 0.049824547404078455 0 0.049966514955699107 0.048602576163340114 0 0.048959975916472602 0.049824547404078455 0 0.049767494472571117 0.048675037923841598 0 0.049966514955699107 0.048602576163340114 0 0.049146750534555313 0.048567782866767613 0 0.049966514955699107 0.048602576163340114 0 0.051630744382174326 0.047291530471039261 0 0.051862519519987327 0.047963338271039484 0 0.049966514955699107 0.048602576163340114 0 0.051630744382174326 0.047291530471039261 0 0.053662391637393204 0.046310173334370201 0 0.051862519519987327 0.047963338271039484 0 0.051630744382174326 0.047291530471039261 0 0.053599357367381667 0.043220879207364178 0 0.051032060825664798 0.047593296584151644 0 0.05327529406101713 0.045230311767149152 0 0.051630744382174326 0.047291530471039261 0 0.051032060825664798 0.047593296584151644 0 0.05327529406101713 0.045230311767149152 0 0.049146750534555313 0.048567782866767613 0 0.051630744382174326 0.047291530471039261 0 0.051032060825664798 0.047593296584151644 0 0.053599357367381667 0.043220879207364178 0 0.05327529406101713 0.045230311767149152 0 0.054997666309348631 0.042643703626429726 0 0.054997398427980772 0.045935509567460543 0 0.053662391637393204 0.046310173334370201 0 0.054997666309348631 0.042643703626429726 0 0.053662391637393204 0.046310173334370201 0 0.051630744382174326 0.047291530471039261 0 0.05327529406101713 0.045230311767149152 0 0.053662391637393204 0.046310173334370201 0 0.05327529406101713 0.045230311767149152 0 0.054997666309348631 0.042643703626429726 0 0.022450198637188005 0.031685474669936743 0 0.022261633444573953 0.031679685640898111 0 0.02239053783146399 0.031721923441513727 0 0.022322878595347893 0.031648302531251789 0 0.022450198637188005 0.031685474669936743 0 0.022261633444573953 0.031679685640898111 0 0.028241559568072949 0.039681226608259061 0 0.027975284187808432 0.038476130807747644 0 0.027838219257186981 0.040119822893339464 0 0.0266124818656816 0.035814334304043176 0 0.02489434456724433 0.034954014357163547 0 0.027975284187808432 0.038476130807747644 0 0.027390175381907678 0.039873889846285246 0 0.027838219257186981 0.040119822893339464 0 0.022261633444573953 0.031679685640898111 0 0.022272172826037794 0.031712360375442096 0 0.02239053783146399 0.031721923441513727 0 0.02489434456724433 0.034954014357163547 0 0.02464872212896833 0.034162773562734984 0 0.027975284187808432 0.038476130807747644 0 0.026509417729971646 0.038852494866394978 0 0.026725312256812024 0.036557921436380744 0 0.022450198637188005 0.031685474669936743 0 0.02239053783146399 0.031721923441513727 0 0.022534733412520963 0.031730201271847905 0 0.026509417729971646 0.038852494866394978 0 0.026725312256812024 0.036557921436380744 0 0.024648162338547604 0.037592043629196395 0 0.027975284187808432 0.038476130807747644 0 0.026509417729971646 0.038852494866394978 0 0.027390175381907678 0.039873889846285246 0 0.027390175381907678 0.039873889846285246 0 0.027553760170529133 0.041042969346715939 0 0.027838219257186981 0.040119822893339464 0 0.027390175381907678 0.039873889846285246 0 0.026526452668847404 0.041023218572357391 0 0.027553760170529133 0.041042969346715939 0 0.026509417729971646 0.038852494866394978 0 0.027390175381907678 0.039873889846285246 0 0.026526452668847404 0.041023218572357391 0 0.026509417729971646 0.038852494866394978 0 0.026526452668847404 0.041023218572357391 0 0.024927143597989108 0.040123932327359876 0 0.026526452668847404 0.041023218572357391 0 0.026049753740791607 0.043025790727685718 0 0.02434568195027817 0.043034575452020572 0 0.026526452668847404 0.041023218572357391 0 0.027046647718370148 0.04245639537577816 0 0.026049753740791607 0.043025790727685718 0 0.026526452668847404 0.041023218572357391 0 0.027046647718370148 0.04245639537577816 0 0.027553760170529133 0.041042969346715939 0 0.027046647718370148 0.04245639537577816 0 0.026049753740791607 0.043025790727685718 0 0.026954688444384828 0.04422831145110654 0 0.028095104796457666 0.039709290806986319 0 0.022472695748900023 0.046532071432646212 0 0.027553760170529133 0.041042969346715939 0 0.027290492017979631 0.040804813460353882 0 0.026833552768708049 0.040866067393011907 0 0.027046647718370148 0.04245639537577816 0 0.027553760170529133 0.041042969346715939 0 0.02796188773388637 0.044241291785931343 0 0.027290492017979631 0.040804813460353882 0 0.027556528030520618 0.040718114861753876 0 0.02757444884491668 0.04062777667187098 0 0.027556528030520618 0.040718114861753876 0 0.02757444884491668 0.04062777667187098 0 0.027867232311434009 0.040415712022787084 0 0.027553760170529133 0.041042969346715939 0 0.027290492017979631 0.040804813460353882 0 0.02757444884491668 0.04062777667187098 0 0.027553760170529133 0.041042969346715939 0 0.02757444884491668 0.04062777667187098 0 0.027838219257186981 0.040119822893339464 0 0.02757444884491668 0.04062777667187098 0 0.027838219257186981 0.040119822893339464 0 0.027867232311434009 0.040415712022787084 0 0.028241559568072949 0.039681226608259061 0 0.027867232311434009 0.040415712022787084 0 0.028163844229992137 0.040342144174246926 0 0.028241559568072949 0.039681226608259061 0 0.027838219257186981 0.040119822893339464 0 0.027867232311434009 0.040415712022787084 0 0.027867232311434009 0.040415712022787084 0 0.027885665699737806 0.040734679855536068 0 0.028163844229992137 0.040342144174246926 0 0.027556528030520618 0.040718114861753876 0 0.027867232311434009 0.040415712022787084 0 0.027885665699737806 0.040734679855536068 0 0.010846859103798529 0.042188499177390024 0 0.01073021995197194 0.042229980117033925 0 0.01077373025232598 0.04229428172372441 0 0.028163844229992137 0.040342144174246926 0 0.028313856156749286 0.040668457114162886 0 0.028429261273395713 0.040160225353798325 0 0.027885665699737806 0.040734679855536068 0 0.028163844229992137 0.040342144174246926 0 0.028313856156749286 0.040668457114162886 0 0.019889759559425502 0.040702523894456409 0 0.017933520918866207 0.037062987915085374 0 0.01073021995197194 0.042229980117033925 0 0.010686503293801761 0.042231137992459269 0 0.01077373025232598 0.04229428172372441 0 0.010846859103798529 0.042188499177390024 0 0.01073021995197194 0.042229980117033925 0 0.010534224489730067 0.042107907771879491 0 0.01073021995197194 0.042229980117033925 0 0.010534224489730067 0.042107907771879491 0 0.010289715813022602 0.042210400804900662 0 0.010289715813022602 0.042210400804900662 0 0.01007971787076452 0.042563160044794192 0 0.010053729679361821 0.042312093892743034 0 0.01073021995197194 0.042229980117033925 0 0.010289715813022602 0.042210400804900662 0 0.01007971787076452 0.042563160044794192 0 0.010534224489730067 0.042107907771879491 0 0.010289715813022602 0.042210400804900662 0 0.010225876111886726 0.041917296194420389 0 0.010289715813022602 0.042210400804900662 0 0.010056948094139812 0.042101163200172563 0 0.010053729679361821 0.042312093892743034 0 0.010528867007475828 0.041963766297381681 0 0.0090596840926643694 0.039291628237979923 0 0.0096712365562711955 0.032860073943480519 0 0.0097010660907461081 0.032836964640949824 0 0.0096775785100965735 0.032773270831030689 0 0.0090596840926643694 0.039291628237979923 0 0.017933520918866207 0.037062987915085374 0 0.0097021686904663774 0.032912639012092328 0 0.0096712365562711955 0.032860073943480519 0 0.0097010660907461081 0.032836964640949824 0 0.028241559568072949 0.039681226608259061 0 0.028163844229992137 0.040342144174246926 0 0.028429261273395713 0.040160225353798325 0 0.0266124818656816 0.035814334304043176 0 0.017933520918866207 0.037062987915085374 0 0.0091786172602282209 0.042176284499401417 0 0.0095088409973279851 0.042272067879559359 0 0.0093424566729935436 0.042814158391924831 0 0.0038609019455962024 0.043149925396291082 0 0.0052666085444909765 0.039264392214529757 0 -0.0013267360070100896 0.044017081322708686 0 -0.00093787706385486187 0.044544441182911641 0 -7.0342812648155012e-05 0.043486423457563567 0 0.0090596840926643694 0.039291628237979923 0 0.010443306292508716 0.037419559882761487 0 0.01007971787076452 0.042563160044794192 0 0.0097557030112289007 0.042431044089684282 0 0.0093424566729935436 0.042814158391924831 0 0.0095088409973279851 0.042272067879559359 0 0.0097557030112289007 0.042431044089684282 0 0.0093424566729935436 0.042814158391924831 0 0.0091786172602282209 0.042176284499401417 0 0.0095088409973279851 0.042272067879559359 0 0.0097560210449628027 0.041871136776661759 0 0.0095088409973279851 0.042272067879559359 0 0.0098362823512559532 0.042190169900869906 0 0.0097560210449628027 0.041871136776661759 0 0.0095088409973279851 0.042272067879559359 0 0.0098362823512559532 0.042190169900869906 0 0.0097557030112289007 0.042431044089684282 0 0.0098362823512559532 0.042190169900869906 0 0.010053729679361821 0.042312093892743034 0 0.0097557030112289007 0.042431044089684282 0 0.0098362823512559532 0.042190169900869906 0 0.010056948094139812 0.042101163200172563 0 0.010053729679361821 0.042312093892743034 0 0.01007971787076452 0.042563160044794192 0 0.010053729679361821 0.042312093892743034 0 0.0097557030112289007 0.042431044089684282 0 0.0097021686904663774 0.032912639012092328 0 0.0097010660907461081 0.032836964640949824 0 0.0097521949103465417 0.032859678232822868 0 0.0097010660907461081 0.032836964640949824 0 0.0097521949103465417 0.032859678232822868 0 0.0097220215508589652 0.032757586774418535 0 0.010443306292508716 0.037419559882761487 0 0.0052666085444909765 0.039264392214529757 0 0.0097521949103465417 0.032859678232822868 0 0.0097701769669867721 0.032749961303747646 0 0.0097220215508589652 0.032757586774418535 0 0.0097521949103465417 0.032859678232822868 0 0.0097701769669867721 0.032749961303747646 0 0.0097757826036439354 0.032817432035203903 0 0.0091786172602282209 0.042176284499401417 0 0.0093424566729935436 0.042814158391924831 0 0.0086399541632715439 0.043067402919920998 0 0.0097701769669867721 0.032749961303747646 0 0.0097220215508589652 0.032757586774418535 0 0.0097330494713618425 0.032591704579800582 0 0.0097220215508589652 0.032757586774418535 0 0.0097330494713618425 0.032591704579800582 0 0.0096774881683872674 0.032660738549310217 0 0.0097010660907461081 0.032836964640949824 0 0.0097220215508589652 0.032757586774418535 0 0.0096775785100965735 0.032773270831030689 0 0.0097220215508589652 0.032757586774418535 0 0.0096775785100965735 0.032773270831030689 0 0.0096774881683872674 0.032660738549310217 0 0.0097330494713618425 0.032591704579800582 0 0.0096039785524735834 0.032488817369370065 0 0.0096858771358365892 0.032450084743847828 0 0.0097701769669867721 0.032749961303747646 0 0.0097330494713618425 0.032591704579800582 0 0.0097755270285179944 0.03270124657455787 0 0.0097330494713618425 0.032591704579800582 0 0.0097911222465735699 0.032464344810558717 0 0.0097701151855151842 0.032402177966053471 0 0.0094734770972907442 0.032630051549032341 0 0.010417672955387914 0.032470786868664121 0 0.022165899963297975 0.031628861470391484 0 0.022155479469796416 0.031670504061526772 0 0.022261633444573953 0.031679685640898111 0 0.022322878595347893 0.031648302531251789 0 0.022165899963297975 0.031628861470391484 0 0.022261633444573953 0.031679685640898111 0 0.0096712365562711955 0.032860073943480519 0 0.0096775785100965735 0.032773270831030689 0 0.0096829031003546149 0.032732940802304017 0 0.017933520918866207 0.037062987915085374 0 0.01415098585620712 0.029869084628146525 0 0.0096775785100965735 0.032773270831030689 0 0.0096774881683872674 0.032660738549310217 0 0.0095899243915654516 0.032664477891315047 0 0.010853256826907317 0.031736310512496584 0 0.01415098585620712 0.029869084628146525 0 0.01415098585620712 0.029869084628146525 0 0.011692404806614199 0.028338795798794312 0 0.0096774881683872674 0.032660738549310217 0 0.0095899243915654516 0.032664477891315047 0 0.0096039785524735834 0.032488817369370065 0 0.0097330494713618425 0.032591704579800582 0 0.0096774881683872674 0.032660738549310217 0 0.0096039785524735834 0.032488817369370065 0 0.01415098585620712 0.029869084628146525 0 0.019298929714675579 0.027742683437673329 0 0.01408832925325243 0.022988345742695808 0 0.013847088723274089 0.024107110559438011 0 0.015295855321012401 0.02430344619591563 0 0.022155479469796416 0.031670504061526772 0 0.022261633444573953 0.031679685640898111 0 0.022272172826037794 0.031712360375442096 0 0.013847088723274089 0.024107110559438011 0 0.015295855321012401 0.02430344619591563 0 0.014270603712473153 0.024995659957192697 0 0.015295855321012401 0.02430344619591563 0 0.014270603712473153 0.024995659957192697 0 0.01504493720576229 0.025553809146989095 0 0.011692404806614199 0.028338795798794312 0 0.011656896970110889 0.02702428856473682 0 0.0096039785524735834 0.032488817369370065 0 0.0096321762929249804 0.032316803122949295 0 0.0096858771358365892 0.032450084743847828 0 0.013847088723274089 0.024107110559438011 0 0.014270603712473153 0.024995659957192697 0 0.013475551494360204 0.025337012664247892 0 0.014270603712473153 0.024995659957192697 0 0.013659962363068913 0.025375477738368072 0 0.013475551494360204 0.025337012664247892 0 0.014270603712473153 0.024995659957192697 0 0.013659962363068913 0.025375477738368072 0 0.014302899363261333 0.025488341710414225 0 0.011656896970110889 0.02702428856473682 0 0.013147578291018747 0.026844356388833399 0 0.013659962363068913 0.025375477738368072 0 0.013431789965082539 0.025314432101789023 0 0.013512209607129511 0.026715828242487014 0 0.013659962363068913 0.025375477738368072 0 0.014251134156868217 0.026034997840776026 0 0.014302899363261333 0.025488341710414225 0 0.012026889937168767 0.026971884246536373 0 0.011656896970110889 0.02702428856473682 0 0.013659962363068913 0.025375477738368072 0 0.014251134156868217 0.026034997840776026 0 0.013512209607129511 0.026715828242487014 0 0.014251134156868217 0.026034997840776026 0 0.015005047315057965 0.027023832699129897 0 0.013512209607129511 0.026715828242487014 0 0.014251134156868217 0.026034997840776026 0 0.01504493720576229 0.025553809146989095 0 0.015005047315057965 0.027023832699129897 0 0.01504493720576229 0.025553809146989095 0 0.015005047315057965 0.027023832699129897 0 0.016889039542123695 0.025917183389831271 0 0.014251134156868217 0.026034997840776026 0 0.01504493720576229 0.025553809146989095 0 0.014302899363261333 0.025488341710414225 0 0.014270603712473153 0.024995659957192697 0 0.01504493720576229 0.025553809146989095 0 0.014302899363261333 0.025488341710414225 0 0.0097911222465735699 0.032464344810558717 0 0.0097701151855151842 0.032402177966053471 0 0.0097717737032405709 0.032445860203956844 0 0.010300067313688054 0.028282809304312796 0 0.0093346533193468754 0.027976261896965466 0 0.01090505340686828 0.024037152713588392 0 0.0091380688133698065 0.025183519217499766 0 0.0086262923624682991 0.023500120173554993 0 0.0096321762929249804 0.032316803122949295 0 0.0096858771358365892 0.032450084743847828 0 0.0097701151855151842 0.032402177966053471 0 0.0097330494713618425 0.032591704579800582 0 0.0096858771358365892 0.032450084743847828 0 0.0097701151855151842 0.032402177966053471 0 0.011656896970110889 0.02702428856473682 0 0.010300067313688054 0.028282809304312796 0 0.013129682279328331 0.024570140104585414 0 0.01090505340686828 0.024037152713588392 0 0.011683407841527041 0.026025340403017447 0 0.01090505340686828 0.024037152713588392 0 0.011683407841527041 0.026025340403017447 0 0.010362732896105502 0.02648177845978588 0 0.013129682279328331 0.024570140104585414 0 0.011683407841527041 0.026025340403017447 0 0.012581175724658372 0.027884404619619295 0 0.0091380688133698065 0.025183519217499766 0 0.010362732896105502 0.02648177845978588 0 0.0085273213047348598 0.02683966331500914 0 0.01090505340686828 0.024037152713588392 0 0.0091380688133698065 0.025183519217499766 0 0.010362732896105502 0.02648177845978588 0 0.0096276259611583915 0.027607157623524739 0 0.0089895348274180564 0.028766119798676899 0 0.0085273213047348598 0.02683966331500914 0 0.0096276259611583915 0.027607157623524739 0 0.010362732896105502 0.02648177845978588 0 0.0085273213047348598 0.02683966331500914 0 0.0096276259611583915 0.027607157623524739 0 0.010362732896105502 0.02648177845978588 0 0.01082922711124526 0.028037233130527445 0 0.011683407841527041 0.026025340403017447 0 0.011446194360424168 0.027173725900393207 0 0.012581175724658372 0.027884404619619295 0 0.010362732896105502 0.02648177845978588 0 0.011446194360424168 0.027173725900393207 0 0.01082922711124526 0.028037233130527445 0 0.011446194360424168 0.027173725900393207 0 0.012581175724658372 0.027884404619619295 0 0.01082922711124526 0.028037233130527445 0 0.011683407841527041 0.026025340403017447 0 0.010362732896105502 0.02648177845978588 0 0.011446194360424168 0.027173725900393207 0 0.012084845664577173 0.02971722333050263 0 0.012581175724658372 0.027884404619619295 0 0.01082922711124526 0.028037233130527445 0 0.0047676178558283848 0.015309315643198209 0 0.0041614372134739864 0.01498341512365396 0 0.0037788906147917965 0.016355290513287258 0 0.009395162037775729 0.022793710004921655 0 0.0059970386010511486 0.021066187229448547 0 0.0064075754577987837 0.015605654622812749 0 0.0047676178558283848 0.015309315643198209 0 0.0041166514298368343 0.014988415328214634 0 0.012084845664577173 0.02971722333050263 0 0.01082922711124526 0.028037233130527445 0 0.0089895348274180564 0.028766119798676899 0 0.0096276259611583915 0.027607157623524739 0 0.01082922711124526 0.028037233130527445 0 0.0089895348274180564 0.028766119798676899 0 0.0034220346686086906 0.016914784688140758 0 0.0059970386010511486 0.021066187229448547 0 0.015005047315057965 0.027023832699129897 0 0.013512209607129511 0.026715828242487014 0 0.014187479007024079 0.028594657823199227 0 0.012581175724658372 0.027884404619619295 0 0.013512209607129511 0.026715828242487014 0 0.014187479007024079 0.028594657823199227 0 0.013431789965082539 0.025314432101789023 0 0.012581175724658372 0.027884404619619295 0 0.013512209607129511 0.026715828242487014 0 0.012084845664577173 0.02971722333050263 0 0.012581175724658372 0.027884404619619295 0 0.014187479007024079 0.028594657823199227 0 0.014803087385342006 0.030541337755872134 0 0.014187479007024079 0.028594657823199227 0 0.016443177106811525 0.028802757273951419 0 0.015005047315057965 0.027023832699129897 0 0.014187479007024079 0.028594657823199227 0 0.016443177106811525 0.028802757273951419 0 0.015005047315057965 0.027023832699129897 0 0.016443177106811525 0.028802757273951419 0 0.016889039542123695 0.025917183389831271 0 0.016443177106811525 0.028802757273951419 0 0.018576112351592226 0.027796503932809951 0 0.016889039542123695 0.025917183389831271 0 0.018265908381598504 0.029644463295048638 0 0.016443177106811525 0.028802757273951419 0 0.018576112351592226 0.027796503932809951 0 0.020531599417287674 0.029763564903879991 0 0.019574944622447073 0.02886921755215683 0 0.022465517005421445 0.031734383461317246 0 0.022386532875106072 0.031747220715337428 0 0.022484228180866286 0.031759034995727548 0 0.022386532875106072 0.031747220715337428 0 0.02239053783146399 0.031721923441513727 0 0.022484228180866286 0.031759034995727548 0 0.022272172826037794 0.031712360375442096 0 0.022386532875106072 0.031747220715337428 0 0.02239053783146399 0.031721923441513727 0 0.015295855321012401 0.02430344619591563 0 0.01504493720576229 0.025553809146989095 0 0.016889039542123695 0.025917183389831271 0 0.019298929714675579 0.027742683437673329 0 0.019574944622447073 0.02886921755215683 0 0.022484228180866286 0.031759034995727548 0 0.022512232888007827 0.031756991470297001 0 0.022609514895833571 0.031814255395712879 0 0.02239053783146399 0.031721923441513727 0 0.022534733412520963 0.031730201271847905 0 0.022484228180866286 0.031759034995727548 0 0.022534733412520963 0.031730201271847905 0 0.022484228180866286 0.031759034995727548 0 0.022609514895833571 0.031814255395712879 0 0.02464872212896833 0.034162773562734984 0 0.023745511287341897 0.033217250359750004 0 0.022465517005421445 0.031734383461317246 0 0.022484228180866286 0.031759034995727548 0 0.022512232888007827 0.031756991470297001 0 0.020335476167926369 0.02975374709038283 0 0.018265908381598504 0.029644463295048638 0 0.018576112351592226 0.027796503932809951 0 0.021359255592448584 0.03071992084600652 0 0.020531599417287674 0.029763564903879991 0 0.022387866863814127 0.031606664953953451 0 0.022465517005421445 0.031734383461317246 0 0.022512232888007827 0.031756991470297001 0 0.022334384191401224 0.031542727189948834 0 0.022387866863814127 0.031606664953953451 0 0.022488419525300424 0.031616196297512646 0 0.022387866863814127 0.031606664953953451 0 0.022512232888007827 0.031756991470297001 0 0.022488419525300424 0.031616196297512646 0 0.022486157195868287 0.031454252718794436 0 0.022334384191401224 0.031542727189948834 0 0.022488419525300424 0.031616196297512646 0 0.022488419525300424 0.031616196297512646 0 0.022641427478244613 0.031879840914082268 0 0.022548158113806119 0.031534354652943478 0 0.022512232888007827 0.031756991470297001 0 0.022488419525300424 0.031616196297512646 0 0.022641427478244613 0.031879840914082268 0 0.022641427478244613 0.031879840914082268 0 0.022614806468331819 0.031839231746346591 0 0.022732422877587248 0.032392183572168991 0 0.022614806468331819 0.031839231746346591 0 0.02243497158979579 0.032015024008320216 0 0.022732422877587248 0.032392183572168991 0 0.022641427478244613 0.031879840914082268 0 0.022614806468331819 0.031839231746346591 0 0.022548158113806119 0.031534354652943478 0 0.022614806468331819 0.031839231746346591 0 0.022548158113806119 0.031534354652943478 0 0.022377413030573785 0.031590253314176572 0 0.022486157195868287 0.031454252718794436 0 0.022548158113806119 0.031534354652943478 0 0.022406768187282069 0.031269429512162099 0 0.022486157195868287 0.031454252718794436 0 0.022488419525300424 0.031616196297512646 0 0.022548158113806119 0.031534354652943478 0 0.022548158113806119 0.031534354652943478 0 0.022406768187282069 0.031269429512162099 0 0.022377413030573785 0.031590253314176572 0 0.022531224982399022 0.031432563037823283 0 0.022486157195868287 0.031454252718794436 0 0.022406768187282069 0.031269429512162099 0 0.02292493480203682 0.030037234323541242 0 0.022218705721791094 0.030894031910109847 0 0.023444306451200689 0.028666785821527863 0 0.022168321367709354 0.030886112983344524 0 0.022147230992752152 0.0307081964185579 0 0.022531224982399022 0.031432563037823283 0 0.022168321367709354 0.030886112983344524 0 0.022406768187282069 0.031269429512162099 0 0.022168321367709354 0.030886112983344524 0 0.022406768187282069 0.031269429512162099 0 0.022239451044681946 0.031378235193535754 0 0.026358079943019651 0.02706074084688349 0 0.026423218123207713 0.026508729657533335 0 0.027126643575332347 0.026811642921618854 0 0.026358079943019651 0.02706074084688349 0 0.025934562851356927 0.026379536656342795 0 0.026423218123207713 0.026508729657533335 0 0.026358079943019651 0.02706074084688349 0 0.025605805297638794 0.026416823254288485 0 0.025934562851356927 0.026379536656342795 0 0.025605805297638794 0.026416823254288485 0 0.025934562851356927 0.026379536656342795 0 0.025757535974351219 0.026061866791603692 0 0.025934562851356927 0.026379536656342795 0 0.026160532202555094 0.026217276861187147 0 0.025757535974351219 0.026061866791603692 0 0.026423218123207713 0.026508729657533335 0 0.027126643575332347 0.026811642921618854 0 0.026595157096758325 0.026170032411080488 0 0.025934562851356927 0.026379536656342795 0 0.026423218123207713 0.026508729657533335 0 0.026160532202555094 0.026217276861187147 0 0.026423218123207713 0.026508729657533335 0 0.026160532202555094 0.026217276861187147 0 0.026595157096758325 0.026170032411080488 0 0.025757535974351219 0.026061866791603692 0 0.025707527733249906 0.025823186215812352 0 0.025651725200701605 0.025536046589461465 0 0.025605805297638794 0.026416823254288485 0 0.025757535974351219 0.026061866791603692 0 0.025651725200701605 0.025536046589461465 0 0.026178637008574437 0.025939233508438107 0 0.025836907632445491 0.025776549054048522 0 0.026445935820850641 0.025759624937689362 0 0.026160532202555094 0.026217276861187147 0 0.026178637008574437 0.025939233508438107 0 0.026595157096758325 0.026170032411080488 0 0.026160532202555094 0.026217276861187147 0 0.026178637008574437 0.025939233508438107 0 0.025933935985497859 0.025961253763337223 0 0.026178637008574437 0.025939233508438107 0 0.025933935985497859 0.025961253763337223 0 0.025836907632445491 0.025776549054048522 0 0.025933935985497859 0.025961253763337223 0 0.025707527733249906 0.025823186215812352 0 0.025836907632445491 0.025776549054048522 0 0.025933935985497859 0.025961253763337223 0 0.025757535974351219 0.026061866791603692 0 0.025707527733249906 0.025823186215812352 0 0.026160532202555094 0.026217276861187147 0 0.025933935985497859 0.025961253763337223 0 0.025757535974351219 0.026061866791603692 0 0.025534617461270104 0.025724730022754168 0 0.025707527733249906 0.025823186215812352 0 0.025651725200701605 0.025536046589461465 0 0.025534617461270104 0.025724730022754168 0 0.025707527733249906 0.025823186215812352 0 0.025836907632445491 0.025776549054048522 0 0.025534617461270104 0.025724730022754168 0 0.025836907632445491 0.025776549054048522 0 0.025549842325547429 0.025743422176809611 0 0.025836907632445491 0.025776549054048522 0 0.025549842325547429 0.025743422176809611 0 0.025906975513863121 0.025685864213572111 0 0.022168321367709354 0.030886112983344524 0 0.022239451044681946 0.031378235193535754 0 0.021607758748427134 0.032388711377720598 0 0.023899647369248704 0.028561723287434667 0 0.023671347084372085 0.029065106011997448 0 0.022168321367709354 0.030886112983344524 0 0.022147230992752152 0.0307081964185579 0 0.021607758748427134 0.032388711377720598 0 0.022377413030573785 0.031590253314176572 0 0.022239451044681946 0.031378235193535754 0 0.021607758748427134 0.032388711377720598 0 0.022406768187282069 0.031269429512162099 0 0.022377413030573785 0.031590253314176572 0 0.022239451044681946 0.031378235193535754 0 0.022377413030573785 0.031590253314176572 0 0.02243497158979579 0.032015024008320216 0 0.021607758748427134 0.032388711377720598 0 0.022614806468331819 0.031839231746346591 0 0.022377413030573785 0.031590253314176572 0 0.02243497158979579 0.032015024008320216 0 0.02243497158979579 0.032015024008320216 0 0.022732422877587248 0.032392183572168991 0 0.021607758748427134 0.032388711377720598 0 0.023671347084372085 0.029065106011997448 0 0.023765666584166244 0.032347022921625494 0 0.025651725200701605 0.025536046589461465 0 0.024690108232992773 0.026708641264089616 0 0.025738682204493896 0.029189593982947407 0 0.022732422877587248 0.032392183572168991 0 0.021607758748427134 0.032388711377720598 0 0.023099671355258391 0.034384137232194897 0 0.025549842325547429 0.025743422176809611 0 0.025186067379887728 0.025892038472064543 0 0.025414149437273593 0.025791360523206446 0 0.025186067379887728 0.025892038472064543 0 0.024863517103332098 0.026108291849806346 0 0.025414149437273593 0.025791360523206446 0 0.025549842325547429 0.025743422176809611 0 0.025906975513863121 0.025685864213572111 0 0.025414149437273593 0.025791360523206446 0 0.025534617461270104 0.025724730022754168 0 0.025549842325547429 0.025743422176809611 0 0.025186067379887728 0.025892038472064543 0 0.025534617461270104 0.025724730022754168 0 0.025651725200701605 0.025536046589461465 0 0.025186067379887728 0.025892038472064543 0 0.025651725200701605 0.025536046589461465 0 0.025186067379887728 0.025892038472064543 0 0.024690108232992773 0.026708641264089616 0 0.024690108232992773 0.026708641264089616 0 0.024288791698536538 0.026734811648592711 0 0.024863517103332098 0.026108291849806346 0 0.025186067379887728 0.025892038472064543 0 0.024690108232992773 0.026708641264089616 0 0.024863517103332098 0.026108291849806346 0 0.024288791698536538 0.026734811648592711 0 0.024863517103332098 0.026108291849806346 0 0.024534390690532908 0.026355303842409885 0 0.024690108232992773 0.026708641264089616 0 0.023393633266580258 0.027977655440232559 0 0.025738682204493896 0.029189593982947407 0 0.023393633266580258 0.027977655440232559 0 0.025738682204493896 0.029189593982947407 0 0.022561645847245817 0.032213005148106905 0 0.024690108232992773 0.026708641264089616 0 0.024288791698536538 0.026734811648592711 0 0.023393633266580258 0.027977655440232559 0 0.023843076363224483 0.026984143918306475 0 0.023393633266580258 0.027977655440232559 0 0.023385101046010149 0.027264498324274182 0 0.024288791698536538 0.026734811648592711 0 0.023843076363224483 0.026984143918306475 0 0.023393633266580258 0.027977655440232559 0 0.024288791698536538 0.026734811648592711 0 0.023843076363224483 0.026984143918306475 0 0.024534390690532908 0.026355303842409885 0 0.023393633266580258 0.027977655440232559 0 0.023385101046010149 0.027264498324274182 0 0.02270027971881023 0.027964799141427608 0 0.023393633266580258 0.027977655440232559 0 0.02270027971881023 0.027964799141427608 0 0.021221750604596315 0.029765645416332448 0 0.021607758748427134 0.032388711377720598 0 0.022103527449651446 0.035545914962442256 0 0.023099671355258391 0.034384137232194897 0 0.022103527449651446 0.035545914962442256 0 0.023099671355258391 0.034384137232194897 0 0.023492134783164996 0.036314799213774805 0 0.023099671355258391 0.034384137232194897 0 0.02503359145891141 0.034684228956938734 0 0.023492134783164996 0.036314799213774805 0 0.022512232888007827 0.031756991470297001 0 0.022641427478244613 0.031879840914082268 0 0.022609514895833571 0.031814255395712879 0 0.02274435201764784 0.032428073220939456 0 0.023745511287341897 0.033217250359750004 0 0.022732422877587248 0.032392183572168991 0 0.023099671355258391 0.034384137232194897 0 0.02503359145891141 0.034684228956938734 0 0.022641427478244613 0.031879840914082268 0 0.022732422877587248 0.032392183572168991 0 0.022609514895833571 0.031814255395712879 0 0.043546133333796026 0.037869520451538595 0 0.043644091256110719 0.033242574484751576 0 0.046918609439736074 0.038037992020684877 0 0.043644091256110719 0.033242574484751576 0 0.048417594179730378 0.033225951322529076 0 0.046918609439736074 0.038037992020684877 0 0.043644091256110719 0.033242574484751576 0 0.040615857577311933 0.028269620046172592 0 0.048417594179730378 0.033225951322529076 0 0.037598815811384204 0.02927618651490746 0 0.040615857577311933 0.028269620046172592 0 0.036055442113176378 0.027406485240675904 0 0.040615857577311933 0.028269620046172592 0 0.036055442113176378 0.027406485240675904 0 0.034913928771869975 0.024453602292486956 0 0.040811062273549338 0.028332648726661039 0 0.042037725142487027 0.029189893141791556 0 0.036055442113176378 0.027406485240675904 0 0.0318887447832178 0.02663807845828705 0 0.034913928771869975 0.024453602292486956 0 0.034002437703218438 0.028107583306539907 0 0.036055442113176378 0.027406485240675904 0 0.0318887447832178 0.02663807845828705 0 0.031742902279650188 0.028239593379122144 0 0.034002437703218438 0.028107583306539907 0 0.0318887447832178 0.02663807845828705 0 0.0318887447832178 0.02663807845828705 0 0.034913928771869975 0.024453602292486956 0 0.030735926344873724 0.02534967592484472 0 0.048417594179730378 0.033225951322529076 0 0.051928944170953173 0.037121364180090481 0 0.046918609439736074 0.038037992020684877 0 0.034913928771869975 0.024453602292486956 0 0.029754763932410874 0.024394850950290235 0 0.030439037106987241 0.022630742861640168 0 0.034913928771869975 0.024453602292486956 0 0.029754763932410874 0.024394850950290235 0 0.030735926344873724 0.02534967592484472 0 0.042037725142487027 0.029189893141791556 0 0.035670496438134566 0.032563139649157573 0 0.029754763932410874 0.024394850950290235 0 0.028169524862225199 0.024903072632849729 0 0.02862277704721149 0.025291778105366772 0 0.029754763932410874 0.024394850950290235 0 0.028169524862225199 0.024903072632849729 0 0.029101482059365545 0.02458850026977627 0 0.034334353580006909 0.026707341917360006 0 0.035670496438134566 0.032563139649157573 0 0.028169524862225199 0.024903072632849729 0 0.027559361840284194 0.025301590434615235 0 0.026659725128471846 0.025376975260407324 0 0.028169524862225199 0.024903072632849729 0 0.027559361840284194 0.025301590434615235 0 0.02862277704721149 0.025291778105366772 0 0.027559361840284194 0.025301590434615235 0 0.02862277704721149 0.025291778105366772 0 0.02738939635233479 0.025654844954690927 0 0.02862277704721149 0.025291778105366772 0 0.028409253160653632 0.026084310772489679 0 0.02738939635233479 0.025654844954690927 0 0.02862277704721149 0.025291778105366772 0 0.029758840908879973 0.026008521505037657 0 0.028409253160653632 0.026084310772489679 0 0.029754763932410874 0.024394850950290235 0 0.02862277704721149 0.025291778105366772 0 0.030735926344873724 0.02534967592484472 0 0.02862277704721149 0.025291778105366772 0 0.030735926344873724 0.02534967592484472 0 0.029758840908879973 0.026008521505037657 0 0.0318887447832178 0.02663807845828705 0 0.030735926344873724 0.02534967592484472 0 0.029758840908879973 0.026008521505037657 0 0.0318887447832178 0.02663807845828705 0 0.029758840908879973 0.026008521505037657 0 0.029824577406426789 0.026901883629680427 0 0.031742902279650188 0.028239593379122144 0 0.0318887447832178 0.02663807845828705 0 0.029824577406426789 0.026901883629680427 0 0.029560580479728288 0.027858043542395114 0 0.029824577406426789 0.026901883629680427 0 0.028169839027316748 0.026737737121199069 0 0.029824577406426789 0.026901883629680427 0 0.028409253160653632 0.026084310772489679 0 0.028169839027316748 0.026737737121199069 0 0.029758840908879973 0.026008521505037657 0 0.029824577406426789 0.026901883629680427 0 0.028409253160653632 0.026084310772489679 0 0.028409253160653632 0.026084310772489679 0 0.028169839027316748 0.026737737121199069 0 0.027292272625145872 0.026145432864319987 0 0.028043058405461927 0.027406800161143587 0 0.028169839027316748 0.026737737121199069 0 0.027126643575332347 0.026811642921618854 0 0.028169839027316748 0.026737737121199069 0 0.027126643575332347 0.026811642921618854 0 0.027292272625145872 0.026145432864319987 0 0.027126643575332347 0.026811642921618854 0 0.027292272625145872 0.026145432864319987 0 0.026595157096758325 0.026170032411080488 0 0.027292272625145872 0.026145432864319987 0 0.026595157096758325 0.026170032411080488 0 0.026445935820850641 0.025759624937689362 0 0.026178637008574437 0.025939233508438107 0 0.026595157096758325 0.026170032411080488 0 0.026445935820850641 0.025759624937689362 0 0.027292272625145872 0.026145432864319987 0 0.026445935820850641 0.025759624937689362 0 0.02738939635233479 0.025654844954690927 0 0.028409253160653632 0.026084310772489679 0 0.027292272625145872 0.026145432864319987 0 0.02738939635233479 0.025654844954690927 0 0.026445935820850641 0.025759624937689362 0 0.02738939635233479 0.025654844954690927 0 0.026595326758315961 0.025541564793794096 0 0.027559361840284194 0.025301590434615235 0 0.02738939635233479 0.025654844954690927 0 0.026595326758315961 0.025541564793794096 0 0.027559361840284194 0.025301590434615235 0 0.026595326758315961 0.025541564793794096 0 0.026659725128471846 0.025376975260407324 0 0.026595326758315961 0.025541564793794096 0 0.025906975513863121 0.025685864213572111 0 0.025880032546345161 0.025641857681237262 0 0.025836907632445491 0.025776549054048522 0 0.026445935820850641 0.025759624937689362 0 0.025906975513863121 0.025685864213572111 0 0.026445935820850641 0.025759624937689362 0 0.026595326758315961 0.025541564793794096 0 0.025906975513863121 0.025685864213572111 0 0.025880032546345161 0.025641857681237262 0 0.025725228190559637 0.025681321116999261 0 0.025165982129291276 0.025927391577841723 0 0.025414149437273593 0.025791360523206446 0 0.025880032546345161 0.025641857681237262 0 0.025165982129291276 0.025927391577841723 0 0.024863517103332098 0.026108291849806346 0 0.025414149437273593 0.025791360523206446 0 0.025165982129291276 0.025927391577841723 0 0.025906975513863121 0.025685864213572111 0 0.025414149437273593 0.025791360523206446 0 0.025880032546345161 0.025641857681237262 0 0.026595326758315961 0.025541564793794096 0 0.025880032546345161 0.025641857681237262 0 0.026659725128471846 0.025376975260407324 0 0.025880032546345161 0.025641857681237262 0 0.026659725128471846 0.025376975260407324 0 0.025725228190559637 0.025681321116999261 0 0.026659725128471846 0.025376975260407324 0 0.025725228190559637 0.025681321116999261 0 0.026418492855621676 0.025220981583364287 0 0.02487571769058514 0.026129325596461028 0 0.02398806914817337 0.026781381009715187 0 0.026418492855621676 0.025220981583364287 0 0.025725228190559637 0.025681321116999261 0 0.02487571769058514 0.026129325596461028 0 0.026418492855621676 0.025220981583364287 0 0.02487571769058514 0.026129325596461028 0 0.025165982129291276 0.025927391577841723 0 0.024534390690532908 0.026355303842409885 0 0.02487571769058514 0.026129325596461028 0 0.024534390690532908 0.026355303842409885 0 0.02398806914817337 0.026781381009715187 0 0.025725228190559637 0.025681321116999261 0 0.02487571769058514 0.026129325596461028 0 0.025165982129291276 0.025927391577841723 0 0.024863517103332098 0.026108291849806346 0 0.025165982129291276 0.025927391577841723 0 0.024534390690532908 0.026355303842409885 0 0.023843076363224483 0.026984143918306475 0 0.024534390690532908 0.026355303842409885 0 0.02398806914817337 0.026781381009715187 0 0.039300435635060062 0.045552644018476085 0 0.036239068748379476 0.042561813295756555 0 0.035339544950212624 0.046846332444709621 0 0.02398806914817337 0.026781381009715187 0 0.023385101046010149 0.027264498324274182 0 0.023172155918416041 0.027404614150886287 0 0.023843076363224483 0.026984143918306475 0 0.02398806914817337 0.026781381009715187 0 0.023385101046010149 0.027264498324274182 0 0.023385101046010149 0.027264498324274182 0 0.02270027971881023 0.027964799141427608 0 0.023172155918416041 0.027404614150886287 0 0.026916389669932012 0.036784900271263167 0 0.02120531338559465 0.030303949963658462 0 0.02270027971881023 0.027964799141427608 0 0.023172155918416041 0.027404614150886287 0 0.021221750604596315 0.029765645416332448 0 0.02398806914817337 0.026781381009715187 0 0.023172155918416041 0.027404614150886287 0 0.026418492855621676 0.025220981583364287 0 0.026916389669932012 0.036784900271263167 0 0.031373662884483768 0.034083984132246357 0 0.036239068748379476 0.042561813295756555 0 0.031241924844750947 0.044880876454104414 0 0.035339544950212624 0.046846332444709621 0 0.036239068748379476 0.042561813295756555 0 0.033143317121892231 0.039496606790504735 0 0.031241924844750947 0.044880876454104414 0 0.028169524862225199 0.024903072632849729 0 0.026659725128471846 0.025376975260407324 0 0.026418492855621676 0.025220981583364287 0 0.028169524862225199 0.024903072632849729 0 0.026418492855621676 0.025220981583364287 0 0.029101482059365545 0.02458850026977627 0 0.031373662884483768 0.034083984132246357 0 0.035670496438134566 0.032563139649157573 0 0.035670496438134566 0.032563139649157573 0 0.041053366978340271 0.044402831336006726 0 0.051928944170953173 0.037121364180090481 0 0.049812008558988624 0.04230498089871907 0 0.046918609439736074 0.038037992020684877 0 0.045509501488344171 0.04169073710743687 0 0.049812008558988624 0.04230498089871907 0 0.046690432108853389 0.04441209887108083 0 0.045509501488344171 0.04169073710743687 0 0.049812008558988624 0.04230498089871907 0 0.046918609439736074 0.038037992020684877 0 0.043546133333796026 0.037869520451538595 0 0.045509501488344171 0.04169073710743687 0 0.046918609439736074 0.038037992020684877 0 0.045941972902169684 0.048140006194499207 0 0.048155357962416316 0.0464311661698152 0 0.04647673657172708 0.049797519624528316 0 0.029572481513844714 0.050270704444453342 0 0.030729468201789251 0.052591571925332585 0 0.02893339973697431 0.053892079178361481 0 0.038822333797677744 0.048253117462519195 0 0.038020000837984333 0.051231156947173014 0 0.045941972902169684 0.048140006194499207 0 0.045941511148439217 0.046247405712224889 0 0.048155357962416316 0.0464311661698152 0 0.049812008558988624 0.04230498089871907 0 0.046690432108853389 0.04441209887108083 0 0.048155357962416316 0.0464311661698152 0 0.045941511148439217 0.046247405712224889 0 0.046690432108853389 0.04441209887108083 0 0.048155357962416316 0.0464311661698152 0 0.041053366978340271 0.044402831336006726 0 0.038822333797677744 0.048253117462519195 0 0.031241924844750947 0.044880876454104414 0 0.029572481513844714 0.050270704444453342 0 0.0330614540577438 0.049887631625109542 0 0.029572481513844714 0.050270704444453342 0 0.0330614540577438 0.049887631625109542 0 0.030729468201789251 0.052591571925332585 0 0.0330614540577438 0.049887631625109542 0 0.030729468201789251 0.052591571925332585 0 0.033926033419599426 0.05339147845961744 0 0.030729468201789251 0.052591571925332585 0 0.033926033419599426 0.05339147845961744 0 0.032315196945481704 0.055698402528722532 0 0.026941771244636637 0.043382052155812291 0 0.024498243404481666 0.048869311330306205 0 0.033926033419599426 0.05339147845961744 0 0.037466788660220414 0.051211711971912557 0 0.035369308635978966 0.056978322121433882 0 0.0330614540577438 0.049887631625109542 0 0.033926033419599426 0.05339147845961744 0 0.037466788660220414 0.051211711971912557 0 0.031241924844750947 0.044880876454104414 0 0.0330614540577438 0.049887631625109542 0 0.035339544950212624 0.046846332444709621 0 0.0330614540577438 0.049887631625109542 0 0.035339544950212624 0.046846332444709621 0 0.037466788660220414 0.051211711971912557 0 0.018809013776207667 0.027998200943554642 0 0.019629593077475041 0.032709543243768999 0 0.015862585913371127 0.035753448335787953 0 0.026916389669932012 0.036784900271263167 0 0.026941771244636637 0.043382052155812291 0 0.039300435635060062 0.045552644018476085 0 0.035339544950212624 0.046846332444709621 0 0.037466788660220414 0.051211711971912557 0 0.019629593077475041 0.032709543243768999 0 0.015862585913371127 0.035753448335787953 0 0.020408608273391724 0.035639085736987187 0 0.018809013776207667 0.027998200943554642 0 0.019629593077475041 0.032709543243768999 0 0.021221750604596315 0.029765645416332448 0 0.015862585913371127 0.035753448335787953 0 0.020408608273391724 0.035639085736987187 0 0.018598451110530281 0.03988786102186153 0 0.015862585913371127 0.035753448335787953 0 0.014088859234089705 0.040791784049954399 0 0.018598451110530281 0.03988786102186153 0 0.016686702590290651 0.043727819690979872 0 0.014088859234089705 0.040791784049954399 0 0.018598451110530281 0.03988786102186153 0 0.024498243404481666 0.048869311330306205 0 0.024702790870596885 0.053900962421571871 0 0.016686702590290651 0.043727819690979872 0 0.014088859234089705 0.040791784049954399 0 0.012857659705499297 0.044905163799418973 0 0.035369308635978966 0.056978322121433882 0 0.030709112394638142 0.06083457182231955 0 0.032865656429060433 0.062376539288860444 0 0.033926033419599426 0.05339147845961744 0 0.035369308635978966 0.056978322121433882 0 0.032315196945481704 0.055698402528722532 0 0.035369308635978966 0.056978322121433882 0 0.032315196945481704 0.055698402528722532 0 0.030875321366015687 0.05830554759017624 0 0.030729468201789251 0.052591571925332585 0 0.030575002345481349 0.056870160346825072 0 0.028827706849165 0.057736567697699678 0 0.030729468201789251 0.052591571925332585 0 0.032315196945481704 0.055698402528722532 0 0.030575002345481349 0.056870160346825072 0 0.032315196945481704 0.055698402528722532 0 0.030575002345481349 0.056870160346825072 0 0.030875321366015687 0.05830554759017624 0 0.030575002345481349 0.056870160346825072 0 0.030875321366015687 0.05830554759017624 0 0.029899845957237707 0.058496741942996047 0 0.035369308635978966 0.056978322121433882 0 0.030875321366015687 0.05830554759017624 0 0.030709112394638142 0.06083457182231955 0 0.031990026971858626 0.061066685153880571 0 0.024702790870596885 0.053900962421571871 0 0.030709112394638142 0.06083457182231955 0 0.029782501301791584 0.059961238140490425 0 0.03007436950397958 0.060798815050725707 0 0.030875321366015687 0.05830554759017624 0 0.030709112394638142 0.06083457182231955 0 0.029782501301791584 0.059961238140490425 0 0.030875321366015687 0.05830554759017624 0 0.029782501301791584 0.059961238140490425 0 0.029899845957237707 0.058496741942996047 0 0.029782501301791584 0.059961238140490425 0 0.028827706849165 0.057736567697699678 0 0.029899845957237707 0.058496741942996047 0 0.029748179016123893 0.060551284640725386 0 0.029782501301791584 0.059961238140490425 0 0.028827706849165 0.057736567697699678 0 0.034462404248993182 0.056778303206031173 0 0.028684467963358103 0.056548700817710483 0 0.029782501301791584 0.059961238140490425 0 0.030108421821585612 0.060654054667296856 0 0.03007436950397958 0.060798815050725707 0 0.029748179016123893 0.060551284640725386 0 0.029782501301791584 0.059961238140490425 0 0.030108421821585612 0.060654054667296856 0 0.034462404248993182 0.056778303206031173 0 0.038020000837984333 0.051231156947173014 0 0.030868682726126764 0.052687345436577354 0 0.028684467963358103 0.056548700817710483 0 0.044785016643153645 0.052610149004377368 0 0.044696911502035599 0.050623204281214883 0 0.04647673657172708 0.049797519624528316 0 0.028403012494110196 0.056216195500527449 0 0.02928871513735452 0.054500366244185125 0 0.02893339973697431 0.053892079178361481 0 0.030729468201789251 0.052591571925332585 0 0.02928871513735452 0.054500366244185125 0 0.02893339973697431 0.053892079178361481 0 0.030575002345481349 0.056870160346825072 0 0.028827706849165 0.057736567697699678 0 0.029899845957237707 0.058496741942996047 0 0.044696911502035599 0.050623204281214883 0 0.045436263688173321 0.049427572073737672 0 0.04647673657172708 0.049797519624528316 0 0.045436263688173321 0.049427572073737672 0 0.045941972902169684 0.048140006194499207 0 0.04647673657172708 0.049797519624528316 0 0.02376022433233459 0.038987080665582811 0 0.024648162338547604 0.037592043629196395 0 0.023158615044233593 0.037264482756334386 0 0.026509417729971646 0.038852494866394978 0 0.024648162338547604 0.037592043629196395 0 0.024927143597989108 0.040123932327359876 0 0.02376022433233459 0.038987080665582811 0 0.024648162338547604 0.037592043629196395 0 0.024927143597989108 0.040123932327359876 0 0.026725312256812024 0.036557921436380744 0 0.02503359145891141 0.034684228956938734 0 0.024648162338547604 0.037592043629196395 0 0.02503359145891141 0.034684228956938734 0 0.024648162338547604 0.037592043629196395 0 0.023492134783164996 0.036314799213774805 0 0.024648162338547604 0.037592043629196395 0 0.023492134783164996 0.036314799213774805 0 0.023158615044233593 0.037264482756334386 0 0.023765666584166244 0.032347022921625494 0 0.023379295530381872 0.036678199447793554 0 0.025738682204493896 0.029189593982947407 0 0.022561645847245817 0.032213005148106905 0 0.023158615044233593 0.037264482756334386 0 0.022103527449651446 0.035545914962442256 0 0.023492134783164996 0.036314799213774805 0 0.023158615044233593 0.037264482756334386 0 0.019629593077475041 0.032709543243768999 0 0.021221750604596315 0.029765645416332448 0 0.022561645847245817 0.032213005148106905 0 0.023393633266580258 0.027977655440232559 0 0.021221750604596315 0.029765645416332448 0 0.022561645847245817 0.032213005148106905 0 0.019629593077475041 0.032709543243768999 0 0.022561645847245817 0.032213005148106905 0 0.020408608273391724 0.035639085736987187 0 0.022561645847245817 0.032213005148106905 0 0.020408608273391724 0.035639085736987187 0 0.023158615044233593 0.037264482756334386 0 0.020408608273391724 0.035639085736987187 0 0.023158615044233593 0.037264482756334386 0 0.021545589613471534 0.040174279090338161 0 0.02376022433233459 0.038987080665582811 0 0.023158615044233593 0.037264482756334386 0 0.021545589613471534 0.040174279090338161 0 0.021545589613471534 0.040174279090338161 0 0.018598451110530281 0.03988786102186153 0 0.020056302201621575 0.043225348429584275 0 0.020408608273391724 0.035639085736987187 0 0.021545589613471534 0.040174279090338161 0 0.018598451110530281 0.03988786102186153 0 0.016686702590290651 0.043727819690979872 0 0.020056302201621575 0.043225348429584275 0 0.018236153510114497 0.046135881367995429 0 0.016686702590290651 0.043727819690979872 0 0.018598451110530281 0.03988786102186153 0 0.020056302201621575 0.043225348429584275 0 0.021545589613471534 0.040174279090338161 0 0.020056302201621575 0.043225348429584275 0 0.022806245356043042 0.041553498619500848 0 0.020056302201621575 0.043225348429584275 0 0.022806245356043042 0.041553498619500848 0 0.02207842950982878 0.044414944575485067 0 0.022806245356043042 0.041553498619500848 0 0.02434568195027817 0.043034575452020572 0 0.02207842950982878 0.044414944575485067 0 0.02376022433233459 0.038987080665582811 0 0.021545589613471534 0.040174279090338161 0 0.022806245356043042 0.041553498619500848 0 0.02376022433233459 0.038987080665582811 0 0.022806245356043042 0.041553498619500848 0 0.024927143597989108 0.040123932327359876 0 0.026526452668847404 0.041023218572357391 0 0.024927143597989108 0.040123932327359876 0 0.02434568195027817 0.043034575452020572 0 0.022806245356043042 0.041553498619500848 0 0.024927143597989108 0.040123932327359876 0 0.02434568195027817 0.043034575452020572 0 0.026049753740791607 0.043025790727685718 0 0.02434568195027817 0.043034575452020572 0 0.025273262852159833 0.044917970330425869 0 0.02434568195027817 0.043034575452020572 0 0.025273262852159833 0.044917970330425869 0 0.022384284491826591 0.047227062896538795 0 0.025273262852159833 0.044917970330425869 0 0.025138633727677811 0.047283372336366682 0 0.022384284491826591 0.047227062896538795 0 0.022147023795607665 0.047450736521444818 0 0.02365783465097495 0.050221728102803641 0 0.025138633727677811 0.047283372336366682 0 0.022384284491826591 0.047227062896538795 0 0.024356544574671447 0.04979794607503403 0 0.020427559045623288 0.049640387195397068 0 0.022384284491826591 0.047227062896538795 0 0.022411691883291618 0.050803174294894934 0 0.020427559045623288 0.049640387195397068 0 0.022384284491826591 0.047227062896538795 0 0.02012007256422714 0.0466544559763502 0 0.022384284491826591 0.047227062896538795 0 0.02207842950982878 0.044414944575485067 0 0.02012007256422714 0.0466544559763502 0 0.02434568195027817 0.043034575452020572 0 0.022384284491826591 0.047227062896538795 0 0.02207842950982878 0.044414944575485067 0 0.020056302201621575 0.043225348429584275 0 0.02207842950982878 0.044414944575485067 0 0.02012007256422714 0.0466544559763502 0 0.020056302201621575 0.043225348429584275 0 0.02012007256422714 0.0466544559763502 0 0.018236153510114497 0.046135881367995429 0 0.02012007256422714 0.0466544559763502 0 0.018236153510114497 0.046135881367995429 0 0.018255960203422055 0.049477621196054519 0 0.020645377585280338 0.054549235787907248 0 0.019785492006148257 0.05352559583379523 0 0.018236153510114497 0.046135881367995429 0 0.018255960203422055 0.049477621196054519 0 0.016020639398191368 0.047172490879101463 0 0.020427559045623288 0.049640387195397068 0 0.02012007256422714 0.0466544559763502 0 0.018255960203422055 0.049477621196054519 0 0.020427559045623288 0.049640387195397068 0 0.018255960203422055 0.049477621196054519 0 0.019733568289675867 0.052205968160191178 0 0.022626836161638523 0.059407704790492476 0 0.022853198893649406 0.058322489897151802 0 0.021242651660887679 0.057875215633647371 0 0.020645377585280338 0.054549235787907248 0 0.020536877757680653 0.055152707132686968 0 0.022626836161638523 0.059407704790492476 0 0.022853198893649406 0.058322489897151802 0 0.024240096474039297 0.058766234654642861 0 0.022853198893649406 0.058322489897151802 0 0.021242651660887679 0.057875215633647371 0 0.021467765110425658 0.056232095497636858 0 0.022533411302597905 0.058272232203618594 0 0.020361239391613394 0.05755588857143084 0 0.020543502249179245 0.055931020668306991 0 0.020536877757680653 0.055152707132686968 0 0.02027693502624674 0.055962144479476374 0 0.020831644621913975 0.052892559000404835 0 0.019733568289675867 0.052205968160191178 0 0.02027693502624674 0.055962144479476374 0 0.021242651660887679 0.057875215633647371 0 0.021467765110425658 0.056232095497636858 0 0.02027693502624674 0.055962144479476374 0 0.021271211176465958 0.054228735862354764 0 0.01959254114883496 0.056593587380064418 0 0.02027693502624674 0.055962144479476374 0 0.021271211176465958 0.054228735862354764 0 0.020831644621913975 0.052892559000404835 0 0.021271211176465958 0.054228735862354764 0 0.022411691883291618 0.050803174294894934 0 0.022698711874464029 0.053885953806352811 0 0.021271211176465958 0.054228735862354764 0 0.020831644621913975 0.052892559000404835 0 0.022411691883291618 0.050803174294894934 0 0.020427559045623288 0.049640387195397068 0 0.020831644621913975 0.052892559000404835 0 0.019733568289675867 0.052205968160191178 0 0.020427559045623288 0.049640387195397068 0 0.020831644621913975 0.052892559000404835 0 0.022411691883291618 0.050803174294894934 0 0.031419318794314054 0.058824431714414781 0 0.030291666992810919 0.059605992597219229 0 0.03096302985469258 0.057996293036945354 0 0.032606922641896637 0.057103111782627794 0 0.031419318794314054 0.058824431714414781 0 0.03096302985469258 0.057996293036945354 0 0.030291666992810919 0.059605992597219229 0 0.029705718865050027 0.058694035932577444 0 0.03096302985469258 0.057996293036945354 0 0.031419318794314054 0.058824431714414781 0 0.030291666992810919 0.059605992597219229 0 0.030966474973110891 0.05960961131490599 0 0.031445659862473128 0.059838014286214672 0 0.031419318794314054 0.058824431714414781 0 0.030966474973110891 0.05960961131490599 0 0.030291666992810919 0.059605992597219229 0 0.030966474973110891 0.05960961131490599 0 0.030685813221824308 0.060212684996547222 0 0.031445659862473128 0.059838014286214672 0 0.030966474973110891 0.05960961131490599 0 0.030685813221824308 0.060212684996547222 0 0.031445659862473128 0.059838014286214672 0 0.03098276173576836 0.060526758380338073 0 0.030685813221824308 0.060212684996547222 0 0.030685813221824308 0.060212684996547222 0 0.030413538735647068 0.060596999384949182 0 0.030215446037209388 0.060419158798471241 0 0.03098276173576836 0.060526758380338073 0 0.030685813221824308 0.060212684996547222 0 0.030413538735647068 0.060596999384949182 0 0.029748179016123893 0.060551284640725386 0 0.03098276173576836 0.060526758380338073 0 0.030413538735647068 0.060596999384949182 0 0.029748179016123893 0.060551284640725386 0 0.030413538735647068 0.060596999384949182 0 0.030108421821585612 0.060654054667296856 0 0.030108421821585612 0.060654054667296856 0 0.0298862985047849 0.060444877402559133 0 0.03007436950397958 0.060798815050725707 0 0.030413538735647068 0.060596999384949182 0 0.030108421821585612 0.060654054667296856 0 0.030215446037209388 0.060419158798471241 0 0.030108421821585612 0.060654054667296856 0 0.030215446037209388 0.060419158798471241 0 0.0298862985047849 0.060444877402559133 0 0.030291666992810919 0.059605992597219229 0 0.030685813221824308 0.060212684996547222 0 0.030215446037209388 0.060419158798471241 0 0.030291666992810919 0.059605992597219229 0 0.030215446037209388 0.060419158798471241 0 0.0298862985047849 0.060444877402559133 0 0.030709112394638142 0.06083457182231955 0 0.03007436950397958 0.060798815050725707 0 0.029693016077511562 0.060847569427539404 0 0.0298862985047849 0.060444877402559133 0 0.03007436950397958 0.060798815050725707 0 0.029693016077511562 0.060847569427539404 0 0.030709112394638142 0.06083457182231955 0 0.029411469885776753 0.061004522788824317 0 0.028583730589650167 0.061339807703441759 0 0.030709112394638142 0.06083457182231955 0 0.029411469885776753 0.061004522788824317 0 0.029693016077511562 0.060847569427539404 0 0.029411469885776753 0.061004522788824317 0 0.029693016077511562 0.060847569427539404 0 0.029116107017443472 0.060883779540913861 0 0.029411469885776753 0.061004522788824317 0 0.029116107017443472 0.060883779540913861 0 0.028568852605525871 0.061192583638692871 0 0.029116107017443472 0.060883779540913861 0 0.028627215791854805 0.060463116681097814 0 0.028568852605525871 0.061192583638692871 0 0.0298862985047849 0.060444877402559133 0 0.029693016077511562 0.060847569427539404 0 0.028627215791854805 0.060463116681097814 0 0.029693016077511562 0.060847569427539404 0 0.029116107017443472 0.060883779540913861 0 0.028627215791854805 0.060463116681097814 0 0.0298862985047849 0.060444877402559133 0 0.028627215791854805 0.060463116681097814 0 0.029110280168812407 0.059601325655225385 0 0.028627215791854805 0.060463116681097814 0 0.029110280168812407 0.059601325655225385 0 0.027506504227786648 0.059606495310006211 0 0.030291666992810919 0.059605992597219229 0 0.0298862985047849 0.060444877402559133 0 0.029110280168812407 0.059601325655225385 0 0.029110280168812407 0.059601325655225385 0 0.029705718865050027 0.058694035932577444 0 0.028465386271738079 0.058588794974463738 0 0.030291666992810919 0.059605992597219229 0 0.029110280168812407 0.059601325655225385 0 0.029705718865050027 0.058694035932577444 0 0.029110280168812407 0.059601325655225385 0 0.027506504227786648 0.059606495310006211 0 0.028465386271738079 0.058588794974463738 0 0.028627215791854805 0.060463116681097814 0 0.027506504227786648 0.059606495310006211 0 0.025160929961058145 0.060603878691260646 0 0.027506504227786648 0.059606495310006211 0 0.025160929961058145 0.060603878691260646 0 0.026177733972794468 0.058702606944024897 0 0.028627215791854805 0.060463116681097814 0 0.028568852605525871 0.061192583638692871 0 0.025160929961058145 0.060603878691260646 0 0.028568852605525871 0.061192583638692871 0 0.0284987406245929 0.061401905159077723 0 0.025160929961058145 0.060603878691260646 0 0.024702790870596885 0.053900962421571871 0 0.019785492006148257 0.05352559583379523 0 0.029411469885776753 0.061004522788824317 0 0.028568852605525871 0.061192583638692871 0 0.028583730589650167 0.061339807703441759 0 0.024664034852267491 0.054678729552077546 0 0.024702790870596885 0.053900962421571871 0 0.016686702590290651 0.043727819690979872 0 0.012857659705499297 0.044905163799418973 0 0.016020639398191368 0.047172490879101463 0 0.016686702590290651 0.043727819690979872 0 0.018236153510114497 0.046135881367995429 0 0.016020639398191368 0.047172490879101463 0 0.022626836161638523 0.059407704790492476 0 0.025160929961058145 0.060603878691260646 0 0.024240096474039297 0.058766234654642861 0 0.025160929961058145 0.060603878691260646 0 0.024240096474039297 0.058766234654642861 0 0.026177733972794468 0.058702606944024897 0 0.022853198893649406 0.058322489897151802 0 0.024336652214017731 0.057289913666171845 0 0.021905430296507929 0.05783481750508547 0 0.024240096474039297 0.058766234654642861 0 0.024336652214017731 0.057289913666171845 0 0.026177733972794468 0.058702606944024897 0 0.022853198893649406 0.058322489897151802 0 0.024240096474039297 0.058766234654642861 0 0.024336652214017731 0.057289913666171845 0 0.024336652214017731 0.057289913666171845 0 0.026177733972794468 0.058702606944024897 0 0.028073377928742305 0.057290483467098939 0 0.026177733972794468 0.058702606944024897 0 0.028465386271738079 0.058588794974463738 0 0.028073377928742305 0.057290483467098939 0 0.027506504227786648 0.059606495310006211 0 0.026177733972794468 0.058702606944024897 0 0.028465386271738079 0.058588794974463738 0 0.028465386271738079 0.058588794974463738 0 0.029833314755954479 0.057635099487441374 0 0.028073377928742305 0.057290483467098939 0 0.029705718865050027 0.058694035932577444 0 0.028465386271738079 0.058588794974463738 0 0.029833314755954479 0.057635099487441374 0 0.029833314755954479 0.057635099487441374 0 0.028073377928742305 0.057290483467098939 0 0.031047685329433434 0.055946285850390388 0 0.029833314755954479 0.057635099487441374 0 0.031672551198234894 0.056954166827455951 0 0.031047685329433434 0.055946285850390388 0 0.029833314755954479 0.057635099487441374 0 0.031672551198234894 0.056954166827455951 0 0.03096302985469258 0.057996293036945354 0 0.029705718865050027 0.058694035932577444 0 0.029833314755954479 0.057635099487441374 0 0.03096302985469258 0.057996293036945354 0 0.032606922641896637 0.057103111782627794 0 0.031672551198234894 0.056954166827455951 0 0.03096302985469258 0.057996293036945354 0 0.027139852211910082 0.05777382879732839 0 0.02450525309601272 0.058257748966969496 0 0.026211222450318181 0.056092288351538677 0 0.029296249857849149 0.056278359593880292 0 0.026777162852319819 0.056529966974502618 0 0.031548902393115245 0.054878563965378796 0 0.031047685329433434 0.055946285850390388 0 0.029061780322396796 0.054676432953353386 0 0.028073377928742305 0.057290483467098939 0 0.031047685329433434 0.055946285850390388 0 0.029061780322396796 0.054676432953353386 0 0.02450525309601272 0.058257748966969496 0 0.023281514563145176 0.057557234170853892 0 0.023547319793439318 0.056634225979178394 0 0.024531175963038304 0.057278838523652925 0 0.026777162852319819 0.056529966974502618 0 0.024336652214017731 0.057289913666171845 0 0.028073377928742305 0.057290483467098939 0 0.029061780322396796 0.054676432953353386 0 0.024336652214017731 0.057289913666171845 0 0.02450525309601272 0.058257748966969496 0 0.023281514563145176 0.057557234170853892 0 0.024336652214017731 0.057289913666171845 0 0.023281514563145176 0.057557234170853892 0 0.021905430296507929 0.05783481750508547 0 0.023281514563145176 0.057557234170853892 0 0.021905430296507929 0.05783481750508547 0 0.02136052624993303 0.056905645074813958 0 0.023281514563145176 0.057557234170853892 0 0.023547319793439318 0.056634225979178394 0 0.02136052624993303 0.056905645074813958 0 0.021461087947257974 0.054999586321024731 0 0.023547319793439318 0.056634225979178394 0 0.02136052624993303 0.056905645074813958 0 0.021461087947257974 0.054999586321024731 0 0.023547319793439318 0.056634225979178394 0 0.024708493625897852 0.054999759899217446 0 0.02450525309601272 0.058257748966969496 0 0.023547319793439318 0.056634225979178394 0 0.026211222450318181 0.056092288351538677 0 0.023547319793439318 0.056634225979178394 0 0.024708493625897852 0.054999759899217446 0 0.026211222450318181 0.056092288351538677 0 0.027958335773895306 0.054998893641891984 0 0.024708493625897852 0.054999759899217446 0 0.026211222450318181 0.056092288351538677 0 0.015841378157047493 0.058503909047104043 0 0.019062278743204524 0.057524567737554884 0 0.016166452616591311 0.056468776104467905 0 0.015841378157047493 0.058503909047104043 0 0.019366157092052135 0.059044511746011621 0 0.019062278743204524 0.057524567737554884 0 0.02027693502624674 0.055962144479476374 0 0.020156924277514639 0.054998943471403425 0 0.01959254114883496 0.056593587380064418 0 0.017918935211530731 0.056734032329891576 0 0.020361239391613394 0.05755588857143084 0 0.02027693502624674 0.055962144479476374 0 0.020156924277514639 0.054998943471403425 0 0.021467765110425658 0.056232095497636858 0 0.019366157092052135 0.059044511746011621 0 0.021905430296507929 0.05783481750508547 0 0.019062278743204524 0.057524567737554884 0 0.022853198893649406 0.058322489897151802 0 0.019366157092052135 0.059044511746011621 0 0.021905430296507929 0.05783481750508547 0 0.021905430296507929 0.05783481750508547 0 0.019062278743204524 0.057524567737554884 0 0.02136052624993303 0.056905645074813958 0 0.019062278743204524 0.057524567737554884 0 0.019280508561167448 0.056227263889744625 0 0.02136052624993303 0.056905645074813958 0 0.019062278743204524 0.057524567737554884 0 0.019280508561167448 0.056227263889744625 0 0.016166452616591311 0.056468776104467905 0 0.021461087947257974 0.054999586321024731 0 0.019280508561167448 0.056227263889744625 0 0.02136052624993303 0.056905645074813958 0 0.021461087947257974 0.054999586321024731 0 0.019280508561167448 0.056227263889744625 0 0.018212574724348986 0.054999237497883324 0 0.019280508561167448 0.056227263889744625 0 0.018212574724348986 0.054999237497883324 0 0.016166452616591311 0.056468776104467905 0 0.018212574724348986 0.054999237497883324 0 0.016166452616591311 0.056468776104467905 0 0.014964150677710442 0.054999528348968596 0 0.015841378157047493 0.058503909047104043 0 0.016166452616591311 0.056468776104467905 0 0.012673651458824448 0.057161027290060965 0 0.016166452616591311 0.056468776104467905 0 0.014964150677710442 0.054999528348968596 0 0.013550123430788187 0.055832763143523624 0 0.013550123430788187 0.055832763143523624 0 0.01171287097133368 0.054999101583771907 0 0.012673651458824448 0.057161027290060965 0 0.014964150677710442 0.054999528348968596 0 0.013550123430788187 0.055832763143523624 0 0.01171287097133368 0.054999101583771907 0 0.01171287097133368 0.054999101583771907 0 0.012673651458824448 0.057161027290060965 0 0.010514771242944747 0.05512420580369741 0 0.015304132333368145 0.053535423394942043 0 0.010514771242944747 0.05512420580369741 0 0.011492855248808527 0.054822081246834423 0 0.014047833960132934 0.055497152686987239 0 0.010988550136674642 0.055076226767770298 0 0.016166452616591311 0.056468776104467905 0 0.013550123430788187 0.055832763143523624 0 0.012673651458824448 0.057161027290060965 0 0.0084663217085747672 0.054999915788113363 0 0.0091097795286514197 0.056152812295902244 0 0.0084655625250052435 0.054999977006634268 0 0.0069983813883371755 0.057636047220607875 0 0.0052686505377308838 0.054999946628098581 0 0.0084744509288339868 0.054998660355560863 0 0.010514771242944747 0.05512420580369741 0 0.011453994963898931 0.054998319553597408 0 0.01171287097133368 0.054999101583771907 0 0.0084744509288339868 0.054998660355560863 0 0.010514771242944747 0.05512420580369741 0 0.010514771242944747 0.05512420580369741 0 0.011492855248808527 0.054822081246834423 0 0.011453994963898931 0.054998319553597408 0 0.011492855248808527 0.054822081246834423 0 0.011453994963898931 0.054998319553597408 0 0.012041039630361218 0.054930708467811763 0 0.011492855248808527 0.054822081246834423 0 0.012041039630361218 0.054930708467811763 0 0.012826848249326799 0.05520596289090357 0 0.012041039630361218 0.054930708467811763 0 0.012826848249326799 0.05520596289090357 0 0.012716789888128873 0.054999304186953202 0 0.012826848249326799 0.05520596289090357 0 0.012981246891059348 0.054884940320322213 0 0.012716789888128873 0.054999304186953202 0 0.012981246891059348 0.054884940320322213 0 0.012716789888128873 0.054999304186953202 0 0.013092225062296374 0.054744782867844892 0 0.012041039630361218 0.054930708467811763 0 0.012716789888128873 0.054999304186953202 0 0.012498841392229046 0.054964492425728026 0 0.012716789888128873 0.054999304186953202 0 0.012498841392229046 0.054964492425728026 0 0.013070127649225174 0.054753572535067331 0 0.017918935211530731 0.056734032329891576 0 0.014047833960132934 0.055497152686987239 0 0.020156924277514639 0.054998943471403425 0 0.015304132333368145 0.053535423394942043 0 0.016699239944923606 0.055382427766120679 0 0.015304132333368145 0.053535423394942043 0 0.012826848249326799 0.05520596289090357 0 0.016699239944923606 0.055382427766120679 0 0.015304132333368145 0.053535423394942043 0 0.011492855248808527 0.054822081246834423 0 0.012826848249326799 0.05520596289090357 0 0.013055890864351213 0.055192360672969926 0 0.013798435835485845 0.056169051696269262 0 0.012826848249326799 0.05520596289090357 0 0.012981246891059348 0.054884940320322213 0 0.012946480878496114 0.054851245539560452 0 0.012826848249326799 0.05520596289090357 0 0.016699239944923606 0.055382427766120679 0 0.015444535336648794 0.057224528070949743 0 0.016699239944923606 0.055382427766120679 0 0.015444535336648794 0.057224528070949743 0 0.01959254114883496 0.056593587380064418 0 0.020156924277514639 0.054998943471403425 0 0.016699239944923606 0.055382427766120679 0 0.01959254114883496 0.056593587380064418 0 0.019792449696713864 0.05733718341363888 0 0.020398197380499927 0.054604030880846983 0 0.015444535336648794 0.057224528070949743 0 0.01959254114883496 0.056593587380064418 0 0.018529792091214494 0.060610879621465108 0 0.021271211176465958 0.054228735862354764 0 0.01959254114883496 0.056593587380064418 0 0.022698711874464029 0.053885953806352811 0 0.013798435835485845 0.056169051696269262 0 0.020398197380499927 0.054604030880846983 0 0.02365783465097495 0.050221728102803641 0 0.020398197380499927 0.054604030880846983 0 0.024356544574671447 0.04979794607503403 0 0.026379687601689444 0.05247170029175844 0 0.027412657075501445 0.048930506483882426 0 0.020398197380499927 0.054604030880846983 0 0.020157374339062069 0.051661983206835189 0 0.01288803336241157 0.054473349492699823 0 0.013372932525357109 0.054115257851249141 0 0.01330721861517715 0.053693620953540286 0 0.013372932525357109 0.054115257851249141 0 0.013192641814418864 0.054530295219288302 0 0.013596133199209067 0.054122347498584904 0 0.013372932525357109 0.054115257851249141 0 0.013596133199209067 0.054122347498584904 0 0.013730669919079662 0.053748479288609791 0 0.01288803336241157 0.054473349492699823 0 0.013372932525357109 0.054115257851249141 0 0.013192641814418864 0.054530295219288302 0 0.012946480878496114 0.054851245539560452 0 0.01288803336241157 0.054473349492699823 0 0.013192641814418864 0.054530295219288302 0 0.012981246891059348 0.054884940320322213 0 0.012946480878496114 0.054851245539560452 0 0.013192641814418864 0.054530295219288302 0 0.013192641814418864 0.054530295219288302 0 0.013092225062296374 0.054744782867844892 0 0.013596133199209067 0.054122347498584904 0 0.012981246891059348 0.054884940320322213 0 0.013192641814418864 0.054530295219288302 0 0.013092225062296374 0.054744782867844892 0 0.012716789888128873 0.054999304186953202 0 0.013092225062296374 0.054744782867844892 0 0.013070127649225174 0.054753572535067331 0 0.012498841392229046 0.054964492425728026 0 0.013070127649225174 0.054753572535067331 0 0.013787108663014098 0.05442537560526365 0 0.013092225062296374 0.054744782867844892 0 0.013070127649225174 0.054753572535067331 0 0.01344491888692877 0.054426908139956758 0 0.013070127649225174 0.054753572535067331 0 0.01344491888692877 0.054426908139956758 0 0.013787108663014098 0.05442537560526365 0 0.01344491888692877 0.054426908139956758 0 0.013596133199209067 0.054122347498584904 0 0.013850894292742678 0.054039389635910248 0 0.01344491888692877 0.054426908139956758 0 0.013850894292742678 0.054039389635910248 0 0.013787108663014098 0.05442537560526365 0 0.013092225062296374 0.054744782867844892 0 0.01344491888692877 0.054426908139956758 0 0.013596133199209067 0.054122347498584904 0 0.013596133199209067 0.054122347498584904 0 0.013932949910094557 0.053739417026388535 0 0.013730669919079662 0.053748479288609791 0 0.013596133199209067 0.054122347498584904 0 0.013864106509039348 0.053877135916898862 0 0.013932949910094557 0.053739417026388535 0 0.013864106509039348 0.053877135916898862 0 0.013932949910094557 0.053739417026388535 0 0.014159729859409033 0.053777096863104695 0 0.013974291602455129 0.053875737513862744 0 0.013977015287514459 0.05379937892328461 0 0.014195047671414194 0.053787574581859551 0 0.013596133199209067 0.054122347498584904 0 0.013864106509039348 0.053877135916898862 0 0.013850894292742678 0.054039389635910248 0 0.013864106509039348 0.053877135916898862 0 0.013850894292742678 0.054039389635910248 0 0.013910845169043619 0.05389025187240009 0 0.013864106509039348 0.053877135916898862 0 0.013910845169043619 0.05389025187240009 0 0.013977015287514459 0.05379937892328461 0 0.013910845169043619 0.05389025187240009 0 0.013974291602455129 0.053875737513862744 0 0.013977015287514459 0.05379937892328461 0 0.013850894292742678 0.054039389635910248 0 0.013974291602455129 0.053875737513862744 0 0.014195047671414194 0.053787574581859551 0 0.013850894292742678 0.054039389635910248 0 0.013910845169043619 0.05389025187240009 0 0.013974291602455129 0.053875737513862744 0 0.027885665699737806 0.040734679855536068 0 0.027601476743511492 0.041154481414415564 0 0.028058230619660538 0.041303803504969309 0 0.021701521606443664 0.047697976525233908 0 0.016255572491554439 0.048154091616509472 0 0.013864106509039348 0.053877135916898862 0 0.013977015287514459 0.05379937892328461 0 0.014159729859409033 0.053777096863104695 0 0.021701521606443664 0.047697976525233908 0 0.020117469289099969 0.047261599483128393 0 0.027556528030520618 0.040718114861753876 0 0.027885665699737806 0.040734679855536068 0 0.027262128769512832 0.041027032771333606 0 0.027885665699737806 0.040734679855536068 0 0.027601476743511492 0.041154481414415564 0 0.027262128769512832 0.041027032771333606 0 0.027290492017979631 0.040804813460353882 0 0.027262128769512832 0.041027032771333606 0 0.026833552768708049 0.040866067393011907 0 0.020117469289099969 0.047261599483128393 0 0.022472695748900023 0.046532071432646212 0 0.013932949910094557 0.053739417026388535 0 0.014159729859409033 0.053777096863104695 0 0.01414460578202523 0.053170053763213612 0 0.027290492017979631 0.040804813460353882 0 0.027556528030520618 0.040718114861753876 0 0.027262128769512832 0.041027032771333606 0 0.013932949910094557 0.053739417026388535 0 0.01414460578202523 0.053170053763213612 0 0.013730669919079662 0.053748479288609791 0 0.02844299278257436 0.044887326138118765 0 0.026437928343173173 0.045920785793041256 0 0.027412657075501445 0.048930506483882426 0 0.027046647718370148 0.04245639537577816 0 0.02796188773388637 0.044241291785931343 0 0.026954688444384828 0.04422831145110654 0 0.02844299278257436 0.044887326138118765 0 0.026954688444384828 0.04422831145110654 0 0.026437928343173173 0.045920785793041256 0 0.022472695748900023 0.046532071432646212 0 0.02662990321163719 0.046008393008719284 0 0.025273262852159833 0.044917970330425869 0 0.026954688444384828 0.04422831145110654 0 0.026437928343173173 0.045920785793041256 0 0.026049753740791607 0.043025790727685718 0 0.025273262852159833 0.044917970330425869 0 0.026954688444384828 0.04422831145110654 0 0.025273262852159833 0.044917970330425869 0 0.025138633727677811 0.047283372336366682 0 0.026437928343173173 0.045920785793041256 0 0.025138633727677811 0.047283372336366682 0 0.024356544574671447 0.04979794607503403 0 0.027412657075501445 0.048930506483882426 0 0.025138633727677811 0.047283372336366682 0 0.026437928343173173 0.045920785793041256 0 0.027412657075501445 0.048930506483882426 0 0.01414460578202523 0.053170053763213612 0 0.01330721861517715 0.053693620953540286 0 0.013730669919079662 0.053748479288609791 0 0.013372932525357109 0.054115257851249141 0 0.01330721861517715 0.053693620953540286 0 0.013730669919079662 0.053748479288609791 0 0.022472695748900023 0.046532071432646212 0 0.020157374339062069 0.051661983206835189 0 0.0029267179873678014 0.046833917733732203 0 -0.0048316208367516766 0.048657314351864635 0 0.0096985447518247708 0.04122988440862857 0 0.010052227543310982 0.041587114982627592 0 0.010378796200562163 0.041350307788470764 0 0.0022767869130391545 0.047940196466608166 0 0.0027989593484903223 0.046943368531863441 0 0.0095075023890083109 0.049433741066432606 0 0.0029267179873678014 0.046833917733732203 0 0.0099049515641583662 0.045441377399880599 0 0.0029267179873678014 0.046833917733732203 0 0.00075241529431340436 0.052212752846372661 0 -0.0094174214037557498 0.052903556279146148 0 -0.0095185134319333651 0.053309072881477744 0 -0.0091902888016862586 0.052950380786493043 0 -0.0082742704062249012 0.05300527877802045 0 -0.0058145322537569927 0.050841758410808603 0 -0.010600875041523882 0.050279299348949417 0 -0.010777728212404714 0.050462274870773649 0 -0.010030394048974845 0.050420176908021058 0 -0.0095185134319333651 0.053309072881477744 0 -0.0092013200564813186 0.052959679735579711 0 -0.008979305053689492 0.053403846705770329 0 -0.0048316208367516766 0.048657314351864635 0 -0.0058145322537569927 0.050841758410808603 0 0.00075241529431340436 0.052212752846372661 0 -0.0058145322537569927 0.050841758410808603 0 -0.00054817534102767466 0.050429888134702019 0 -8.6888048614871147e-05 0.049552433708827955 0 -0.0012885650316025441 0.049255192528476897 0 -0.00054817534102767466 0.050429888134702019 0 -0.002080112314360524 0.050099572064290165 0 -0.0012885650316025441 0.049255192528476897 0 -0.0048316208367516766 0.048657314351864635 0 -0.0088638647855522282 0.048748356583252675 0 -0.010639310092140249 0.050293665768432527 0 -0.0092082331971537063 0.049823475200432496 0 -0.0091842264202175415 0.048487174881246028 0 -0.010777728212404714 0.050462274870773649 0 -0.010030394048974845 0.050420176908021058 0 -0.0092822575848884696 0.050899878048516693 0 -0.0058145322537569927 0.050841758410808603 0 -0.0092301710431239616 0.051921921301994148 0 -0.0092013200564813186 0.052959679735579711 0 -0.0080057742038795454 0.053253878081173232 0 -0.008979305053689492 0.053403846705770329 0 -0.0092822575848884696 0.050899878048516693 0 -0.0092082331971537063 0.049823475200432496 0 -0.0083544955888642768 0.050500116592135741 0 -0.010030394048974845 0.050420176908021058 0 -0.0092822575848884696 0.050899878048516693 0 -0.0092082331971537063 0.049823475200432496 0 -0.010639310092140249 0.050293665768432527 0 -0.010030394048974845 0.050420176908021058 0 -0.0092082331971537063 0.049823475200432496 0 -0.0013267360070100896 0.044017081322708686 0 -0.001922910542958604 0.045692699907460409 0 -0.00093787706385486187 0.044544441182911641 0 -0.0048316208367516766 0.048657314351864635 0 -0.0052360943998051709 0.046499630274053926 0 -0.0092082331971537063 0.049823475200432496 0 -0.0091842264202175415 0.048487174881246028 0 -0.0080486523085046783 0.049760589272160788 0 0.0091786172602282209 0.042176284499401417 0 0.0096985447518247708 0.04122988440862857 0 0.0097560210449628027 0.041871136776661759 0 -0.0013267360070100896 0.044017081322708686 0 -0.0021543023293932179 0.04564349828848005 0 -0.001922910542958604 0.045692699907460409 0 0.0096985447518247708 0.04122988440862857 0 0.0097560210449628027 0.041871136776661759 0 0.010052227543310982 0.041587114982627592 0 0.0038609019455962024 0.043149925396291082 0 0.0029267179873678014 0.046833917733732203 0 0.010056948094139812 0.042101163200172563 0 0.0097560210449628027 0.041871136776661759 0 0.010225876111886726 0.041917296194420389 0 0.0097560210449628027 0.041871136776661759 0 0.010225876111886726 0.041917296194420389 0 0.010052227543310982 0.041587114982627592 0 0.0098362823512559532 0.042190169900869906 0 0.010056948094139812 0.042101163200172563 0 0.0097560210449628027 0.041871136776661759 0 0.010289715813022602 0.042210400804900662 0 0.010056948094139812 0.042101163200172563 0 0.010225876111886726 0.041917296194420389 0 0.010225876111886726 0.041917296194420389 0 0.010586006211718223 0.041923718864995629 0 0.010363288170909618 0.041674060764655053 0 0.010586006211718223 0.041923718864995629 0 0.010363288170909618 0.041674060764655053 0 0.01104712666631274 0.041463707911444887 0 0.010534224489730067 0.042107907771879491 0 0.010225876111886726 0.041917296194420389 0 0.010586006211718223 0.041923718864995629 0 0.010846859103798529 0.042188499177390024 0 0.010534224489730067 0.042107907771879491 0 0.010586006211718223 0.041923718864995629 0 0.010225876111886726 0.041917296194420389 0 0.010052227543310982 0.041587114982627592 0 0.010363288170909618 0.041674060764655053 0 0.010052227543310982 0.041587114982627592 0 0.010363288170909618 0.041674060764655053 0 0.010378796200562163 0.041350307788470764 0 0.027885665699737806 0.040734679855536068 0 0.028313856156749286 0.040668457114162886 0 0.028058230619660538 0.041303803504969309 0 0.019889759559425502 0.040702523894456409 0 0.016255572491554439 0.048154091616509472 0 0.010846859103798529 0.042188499177390024 0 0.010586006211718223 0.041923718864995629 0 0.01104712666631274 0.041463707911444887 0 0.013850894292742678 0.054039389635910248 0 0.014195047671414194 0.053787574581859551 0 0.013787108663014098 0.05442537560526365 0 0.012108626398932268 0.055961685476771023 0 0.011978742699915959 0.055794872363662186 0 0.012231922745649442 0.055478985775623012 0 0.016255572491554439 0.048154091616509472 0 0.012445171443002953 0.05651221129399038 0 0.012108626398932268 0.055961685476771023 0 0.011978742699915959 0.055794872363662186 0 0.011745588883986238 0.055927836875601364 0 0.016255572491554439 0.048154091616509472 0 0.011579365410352562 0.052344921692179636 0 0.016255572491554439 0.048154091616509472 0 0.0099049515641583662 0.045441377399880599 0 0.01132193149313881 0.05583273175437941 0 0.011745588883986238 0.055927836875601364 0 0.011849972177244188 0.055698349469233153 0 0.016709966021592314 0.050202060117376865 0 0.0095075023890083109 0.049433741066432606 0 0.0098261381397426583 0.048621062701233925 0 0.010363288170909618 0.041674060764655053 0 0.01104712666631274 0.041463707911444887 0 0.010378796200562163 0.041350307788470764 0 0.0027989593484903223 0.046943368531863441 0 0.0095075023890083109 0.049433741066432606 0 0.0098261381397426583 0.048621062701233925 0 0.00075241529431340436 0.052212752846372661 0 0.011579365410352562 0.052344921692179636 0 0.011978742699915959 0.055794872363662186 0 0.011745588883986238 0.055927836875601364 0 0.011849972177244188 0.055698349469233153 0 0.01132193149313881 0.05583273175437941 0 0.011852916934930929 0.055479518311878646 0 0.011733870488506817 0.055311237683178069 0 0.01132193149313881 0.05583273175437941 0 0.011849972177244188 0.055698349469233153 0 0.011852916934930929 0.055479518311878646 0 0.00075241529431340436 0.052212752846372661 0 0.0025593024787404898 0.056514156662957928 0 0.011849972177244188 0.055698349469233153 0 0.011852916934930929 0.055479518311878646 0 0.012231922745649442 0.055478985775623012 0 0.011852916934930929 0.055479518311878646 0 0.012231922745649442 0.055478985775623012 0 0.012044080597581901 0.055350319537944469 0 0.011978742699915959 0.055794872363662186 0 0.011849972177244188 0.055698349469233153 0 0.012231922745649442 0.055478985775623012 0 0.012792938386099828 0.054215953698261404 0 0.012445171443002953 0.05651221129399038 0 0.012498841392229046 0.054964492425728026 0 0.012231922745649442 0.055478985775623012 0 0.012188159472899593 0.055185210548862586 0 0.012231922745649442 0.055478985775623012 0 0.012044080597581901 0.055350319537944469 0 0.012188159472899593 0.055185210548862586 0 0.012044080597581901 0.055350319537944469 0 0.011918386219382741 0.055352458658839455 0 0.011974707139198012 0.055236046508227145 0 0.012044080597581901 0.055350319537944469 0 0.012188159472899593 0.055185210548862586 0 0.011974707139198012 0.055236046508227145 0 0.011739956343288937 0.055315567414594716 0 0.011974707139198012 0.055236046508227145 0 0.012185146618492793 0.054897801343184699 0 -0.010350256896090622 0.05487548623943423 0 -0.0099802989903967701 0.055042694900156161 0 -0.0096325505170807568 0.054216044798768195 0 0.0025593024787404898 0.056514156662957928 0 0.0033984637458701322 0.056778629449638802 0 0.011852916934930929 0.055479518311878646 0 0.011776227493380779 0.05533114998038511 0 0.011918386219382741 0.055352458658839455 0 0.011739956343288937 0.055315567414594716 0 0.011776227493380779 0.05533114998038511 0 0.011974707139198012 0.055236046508227145 0 0.011852916934930929 0.055479518311878646 0 0.011733870488506817 0.055311237683178069 0 0.011776227493380779 0.05533114998038511 0 0.011852916934930929 0.055479518311878646 0 0.012044080597581901 0.055350319537944469 0 0.011918386219382741 0.055352458658839455 0 0.011776227493380779 0.05533114998038511 0 0.011918386219382741 0.055352458658839455 0 0.011974707139198012 0.055236046508227145 0 -0.0099802989903967701 0.055042694900156161 0 -0.0088986228632866957 0.055054113401359094 0 -0.0093387485227314597 0.055640983208877018 0 -0.0099802989903967701 0.055042694900156161 0 -0.0090651997799804651 0.054379467804991137 0 -0.0088986228632866957 0.055054113401359094 0 -0.010350256896090622 0.05487548623943423 0 -0.0099802989903967701 0.055042694900156161 0 -0.0093387485227314597 0.055640983208877018 0 0.0041001839697035894 0.062811890253500369 0 0.0016616091314688103 0.061575080088881608 0 0.0034862477851240995 0.061249899299251939 0 -0.0098824091447238388 0.05497268564819574 0 -0.00868437073738796 0.054359734196118052 0 0.0025593024787404898 0.056514156662957928 0 -0.0048251304495488725 0.05869524538698135 0 -0.0095185134319333651 0.053309072881477744 0 -0.010350256896090622 0.05487548623943423 0 -0.0096325505170807568 0.054216044798768195 0 -0.0099802989903967701 0.055042694900156161 0 -0.0096325505170807568 0.054216044798768195 0 -0.0091775579506596094 0.054208001442023902 0 -0.0099802989903967701 0.055042694900156161 0 -0.0091775579506596094 0.054208001442023902 0 -0.0083118132099039028 0.054293141810884155 0 -0.0094174214037557498 0.052903556279146148 0 -0.0095185134319333651 0.053309072881477744 0 -0.010350256896090622 0.05487548623943423 0 -0.0096325505170807568 0.054216044798768195 0 -0.0091775579506596094 0.054208001442023902 0 -0.0091935117722755071 0.053754772046701399 0 -0.0091775579506596094 0.054208001442023902 0 -0.0091935117722755071 0.053754772046701399 0 -0.0087752902750213111 0.053749301536514506 0 -0.0091935117722755071 0.053754772046701399 0 -0.0087752902750213111 0.053749301536514506 0 -0.008979305053689492 0.053403846705770329 0 -0.0095185134319333651 0.053309072881477744 0 -0.0091935117722755071 0.053754772046701399 0 -0.008979305053689492 0.053403846705770329 0 -0.0095185134319333651 0.053309072881477744 0 -0.0096325505170807568 0.054216044798768195 0 -0.0091935117722755071 0.053754772046701399 0 -0.0080057742038795454 0.053253878081173232 0 -0.0083118132099039028 0.054293141810884155 0 -0.0068192035328888323 0.053540111174095135 0 -0.0080057742038795454 0.053253878081173232 0 -0.0087752902750213111 0.053749301536514506 0 -0.0083118132099039028 0.054293141810884155 0 -0.0080057742038795454 0.053253878081173232 0 -0.0087752902750213111 0.053749301536514506 0 -0.008979305053689492 0.053403846705770329 0 -0.0091775579506596094 0.054208001442023902 0 -0.0087752902750213111 0.053749301536514506 0 -0.0083118132099039028 0.054293141810884155 0 -0.0090651997799804651 0.054379467804991137 0 -0.0088986228632866957 0.055054113401359094 0 -0.0082290523541582797 0.054344805374238234 0 -0.0088986228632866957 0.055054113401359094 0 -0.0084898841908884973 0.055791918553242274 0 -0.0093387485227314597 0.055640983208877018 0 -0.0088986228632866957 0.055054113401359094 0 -0.0084898841908884973 0.055791918553242274 0 -0.0078314594400393581 0.055083049104338526 0 0.0016616091314688103 0.061575080088881608 0 0.00033560337839490625 0.059981127817867338 0 -0.00079284846133778955 0.060333249412368228 0 -0.0048251304495488725 0.05869524538698135 0 -0.0041375815473281173 0.058652840395176195 0 0.0016616091314688103 0.061575080088881608 0 0.00033560337839490625 0.059981127817867338 0 0.001351029790687616 0.05975714533314895 0 -0.0084898841908884973 0.055791918553242274 0 -0.0093387485227314597 0.055640983208877018 0 -0.0078302595180414995 0.056923008724465859 0 0.0016616091314688103 0.061575080088881608 0 0.0030261414460258287 0.059879751767577129 0 0.0034862477851240995 0.061249899299251939 0 0.0016616091314688103 0.061575080088881608 0 0.0030261414460258287 0.059879751767577129 0 0.001351029790687616 0.05975714533314895 0 0.0030261414460258287 0.059879751767577129 0 0.001351029790687616 0.05975714533314895 0 0.0019175245489893359 0.0583132201785201 0 0.0030261414460258287 0.059879751767577129 0 0.0044378299118109097 0.057818396028119168 0 0.0019175245489893359 0.0583132201785201 0 0.00011354477079724782 0.058655253947843475 0 0.001351029790687616 0.05975714533314895 0 0.0019175245489893359 0.0583132201785201 0 0.00011354477079724782 0.058655253947843475 0 0.00033560337839490625 0.059981127817867338 0 -0.00049459588890629505 0.05949099628195352 0 0.00011354477079724782 0.058655253947843475 0 0.00033560337839490625 0.059981127817867338 0 0.001351029790687616 0.05975714533314895 0 0.012498841392229046 0.054964492425728026 0 0.012188159472899593 0.055185210548862586 0 0.012185146618492793 0.054897801343184699 0 0.012041039630361218 0.054930708467811763 0 0.012498841392229046 0.054964492425728026 0 0.012185146618492793 0.054897801343184699 0 0.012188159472899593 0.055185210548862586 0 0.011974707139198012 0.055236046508227145 0 0.012185146618492793 0.054897801343184699 0 0.0030261414460258287 0.059879751767577129 0 0.0055400419256776065 0.060238946040789443 0 0.0034862477851240995 0.061249899299251939 0 0.0041001839697035894 0.062811890253500369 0 0.0055400419256776065 0.060238946040789443 0 0.0034862477851240995 0.061249899299251939 0 0.0025593024787404898 0.056514156662957928 0 0.0095463045339545145 0.057885732685539988 0 0.0030261414460258287 0.059879751767577129 0 0.0055400419256776065 0.060238946040789443 0 0.0044378299118109097 0.057818396028119168 0 0.0069983813883371755 0.057636047220607875 0 0.0055400419256776065 0.060238946040789443 0 0.0044378299118109097 0.057818396028119168 0 0.011453994963898931 0.054998319553597408 0 0.012041039630361218 0.054930708467811763 0 0.012185146618492793 0.054897801343184699 0 0.0091097795286514197 0.056152812295902244 0 0.0095463045339545145 0.057885732685539988 0 0.0069983813883371755 0.057636047220607875 0 0.0044378299118109097 0.057818396028119168 0 0.0052686505377308838 0.054999946628098581 0 0.0044378299118109097 0.057818396028119168 0 0.0052686505377308838 0.054999946628098581 0 0.0020717695930394641 0.054999974817012735 0 0.00011354477079724782 0.058655253947843475 0 0.00052258058611224969 0.056791029719756261 0 0.0019175245489893359 0.0583132201785201 0 0.00052258058611224969 0.056791029719756261 0 0.0019175245489893359 0.0583132201785201 0 0.0020717695930394641 0.054999974817012735 0 0.0044378299118109097 0.057818396028119168 0 0.0019175245489893359 0.0583132201785201 0 0.0020717695930394641 0.054999974817012735 0 0.00052258058611224969 0.056791029719756261 0 0.0020717695930394641 0.054999974817012735 0 -0.0011252499636112588 0.054999944481987952 0 -0.0011252499636112588 0.054999944481987952 0 -0.0010278335206011918 0.057313134417905538 0 -0.0029323521120018445 0.057024612956860038 0 0.00052258058611224969 0.056791029719756261 0 -0.0011252499636112588 0.054999944481987952 0 -0.0010278335206011918 0.057313134417905538 0 0.00011354477079724782 0.058655253947843475 0 0.00052258058611224969 0.056791029719756261 0 -0.0010278335206011918 0.057313134417905538 0 0.00011354477079724782 0.058655253947843475 0 -0.0010278335206011918 0.057313134417905538 0 -0.0016366030719858402 0.058992874826712831 0 -0.0029323521120018445 0.057024612956860038 0 -0.0016366030719858402 0.058992874826712831 0 -0.0032720984304921005 0.059077136993574253 0 -0.0010278335206011918 0.057313134417905538 0 -0.0029323521120018445 0.057024612956860038 0 -0.0016366030719858402 0.058992874826712831 0 -0.0011252499636112588 0.054999944481987952 0 -0.0029323521120018445 0.057024612956860038 0 -0.004321802525649795 0.055000069823962675 0 -0.0029323521120018445 0.057024612956860038 0 -0.004321802525649795 0.055000069823962675 0 -0.0057883340898490553 0.057803302363302778 0 -0.004321802525649795 0.055000069823962675 0 -0.0057883340898490553 0.057803302363302778 0 -0.0075202493841025559 0.054999644812319913 0 -0.0029323521120018445 0.057024612956860038 0 -0.0057883340898490553 0.057803302363302778 0 -0.0032720984304921005 0.059077136993574253 0 -0.0089980596032364774 0.05723940699874417 0 -0.0086512503086164545 0.057286022494927633 0 -0.0085530894097035608 0.057002300870833973 0 -0.0089490103045304567 0.056986564772322099 0 -0.0089980596032364774 0.05723940699874417 0 -0.0085530894097035608 0.057002300870833973 0 -0.0073813394853320061 0.05734685314513259 0 -0.0059206242495203152 0.05803518904918932 0 -0.0089490103045304567 0.056986564772322099 0 -0.0089980596032364774 0.05723940699874417 0 -0.0091386063035192745 0.057091970501148948 0 -0.0089980596032364774 0.05723940699874417 0 -0.0092491809323061152 0.057576911748479162 0 -0.0095271174510237425 0.057592177068932042 0 -0.0089980596032364774 0.05723940699874417 0 -0.0092491809323061152 0.057576911748479162 0 -0.0086512503086164545 0.057286022494927633 0 -0.0092491809323061152 0.057576911748479162 0 -0.0086512503086164545 0.057286022494927633 0 -0.0086553165590191276 0.057730751139103011 0 -0.0086512503086164545 0.057286022494927633 0 -0.0079157855854330925 0.056963854064726857 0 -0.0086553165590191276 0.057730751139103011 0 -0.0075898887322184824 0.056108983905441494 0 -0.0079157855854330925 0.056963854064726857 0 -0.0059352474569381499 0.055423620276384297 0 -0.0078483546409411058 0.056954686082733887 0 -0.0072952710552916817 0.056526276793554549 0 -0.0075898887322184824 0.056108983905441494 0 -0.0079704163897232946 0.056062075912015098 0 -0.0078302595180414995 0.056923008724465859 0 -0.0084898841908884973 0.055791918553242274 0 -0.0079704163897232946 0.056062075912015098 0 -0.0078302595180414995 0.056923008724465859 0 -0.0075898887322184824 0.056108983905441494 0 -0.0078302595180414995 0.056923008724465859 0 -0.0079157855854330925 0.056963854064726857 0 0.00011354477079724782 0.058655253947843475 0 -0.00049459588890629505 0.05949099628195352 0 -0.0016366030719858402 0.058992874826712831 0 -0.00079284846133778955 0.060333249412368228 0 -0.00049459588890629505 0.05949099628195352 0 -0.0016366030719858402 0.058992874826712831 0 0.00033560337839490625 0.059981127817867338 0 -0.00079284846133778955 0.060333249412368228 0 -0.00049459588890629505 0.05949099628195352 0 -0.0086512503086164545 0.057286022494927633 0 -0.0079157855854330925 0.056963854064726857 0 -0.0085530894097035608 0.057002300870833973 0 -0.0041375815473281173 0.058652840395176195 0 -0.0059206242495203152 0.05803518904918932 0 -0.00079284846133778955 0.060333249412368228 0 -0.0016366030719858402 0.058992874826712831 0 -0.0032720984304921005 0.059077136993574253 0 -0.0078302595180414995 0.056923008724465859 0 -0.0079157855854330925 0.056963854064726857 0 -0.0085530894097035608 0.057002300870833973 0 -0.012571650829543774 0.056435657108788617 0 -0.011867181034679132 0.057417424211140614 0 -0.013686918538652608 0.057682438655714402 0 -0.012571650829543774 0.056435657108788617 0 -0.01071618811200652 0.054999973880953235 0 -0.013912569019880193 0.054999562126603146 0 -0.012571650829543774 0.056435657108788617 0 -0.01071618811200652 0.054999973880953235 0 -0.010375795170625127 0.056707754750933627 0 -0.012571650829543774 0.056435657108788617 0 -0.011867181034679132 0.057417424211140614 0 -0.010375795170625127 0.056707754750933627 0 -0.011867181034679132 0.057417424211140614 0 -0.010375795170625127 0.056707754750933627 0 -0.01010301930667367 0.057548765597998118 0 -0.010375795170625127 0.056707754750933627 0 -0.0087354050478280331 0.056417325112105891 0 -0.0091386063035192745 0.057091970501148948 0 -0.010375795170625127 0.056707754750933627 0 -0.0091386063035192745 0.057091970501148948 0 -0.01010301930667367 0.057548765597998118 0 -0.01071618811200652 0.054999973880953235 0 -0.010375795170625127 0.056707754750933627 0 -0.0087354050478280331 0.056417325112105891 0 -0.01071618811200652 0.054999973880953235 0 -0.0075202493841025559 0.054999644812319913 0 -0.0087354050478280331 0.056417325112105891 0 -0.0057883340898490553 0.057803302363302778 0 -0.0075202493841025559 0.054999644812319913 0 -0.0087354050478280331 0.056417325112105891 0 -0.0073813394853320061 0.05734685314513259 0 -0.0087137674211996592 0.05648319575002652 0 -0.0089490103045304567 0.056986564772322099 0 -0.0087354050478280331 0.056417325112105891 0 -0.0091386063035192745 0.057091970501148948 0 -0.0092491809323061152 0.057576911748479162 0 -0.0095271174510237425 0.057592177068932042 0 -0.010077968283772427 0.05804227488487862 0 -0.0089980596032364774 0.05723940699874417 0 -0.0091386063035192745 0.057091970501148948 0 -0.0095271174510237425 0.057592177068932042 0 -0.0091386063035192745 0.057091970501148948 0 -0.0095271174510237425 0.057592177068932042 0 -0.01010301930667367 0.057548765597998118 0 -0.0095271174510237425 0.057592177068932042 0 -0.01010301930667367 0.057548765597998118 0 -0.010077968283772427 0.05804227488487862 0 -0.01010301930667367 0.057548765597998118 0 -0.011252079643432011 0.058108287121029334 0 -0.010077968283772427 0.05804227488487862 0 -0.011867181034679132 0.057417424211140614 0 -0.01010301930667367 0.057548765597998118 0 -0.011252079643432011 0.058108287121029334 0 -0.010893490107764751 0.058766826713471353 0 -0.010428841216421746 0.057984914262598136 0 -0.011252079643432011 0.058108287121029334 0 -0.012214972463109736 0.059328594628227899 0 -0.010077968283772427 0.05804227488487862 0 -0.011252079643432011 0.058108287121029334 0 -0.012214972463109736 0.059328594628227899 0 -0.013037925035222032 0.058652280447144003 0 -0.011867181034679132 0.057417424211140614 0 -0.013037925035222032 0.058652280447144003 0 -0.013686918538652608 0.057682438655714402 0 -0.011867181034679132 0.057417424211140614 0 -0.011252079643432011 0.058108287121029334 0 -0.013037925035222032 0.058652280447144003 0 -0.010420559919473459 0.057398616328468571 0 -0.010348920182142165 0.057443668462758668 0 -0.010464377762550983 0.057244163090327031 0 -0.010420559919473459 0.057398616328468571 0 -0.010348920182142165 0.057443668462758668 0 -0.010279992161314932 0.057575764598210608 0 -0.010348920182142165 0.057443668462758668 0 -0.010326718981031135 0.05748036117982825 0 -0.010279992161314932 0.057575764598210608 0 -0.010300639886149574 0.057505592859318874 0 -0.010326718981031135 0.05748036117982825 0 -0.010344762801587417 0.057421118897404651 0 -0.010300639886149574 0.057505592859318874 0 -0.010326718981031135 0.05748036117982825 0 -0.010279992161314932 0.057575764598210608 0 -0.010279992161314932 0.057575764598210608 0 -0.010185759731699936 0.057652853010627704 0 -0.010077968283772427 0.05804227488487862 0 -0.010300639886149574 0.057505592859318874 0 -0.010279992161314932 0.057575764598210608 0 -0.010077968283772427 0.05804227488487862 0 -0.010420559919473459 0.057398616328468571 0 -0.010185759731699936 0.057652853010627704 0 -0.010435584499082969 0.057316880327653592 0 -0.010420559919473459 0.057398616328468571 0 -0.010279992161314932 0.057575764598210608 0 -0.010185759731699936 0.057652853010627704 0 -0.0092491809323061152 0.057576911748479162 0 -0.010077968283772427 0.05804227488487862 0 -0.0095499352914302765 0.057810141622274568 0 -0.010185759731699936 0.057652853010627704 0 -0.010054343869695547 0.057682753341511024 0 -0.010148432121700492 0.05757647395846896 0 -0.010185759731699936 0.057652853010627704 0 -0.010054343869695547 0.057682753341511024 0 -0.0099482229743886839 0.057776134400892833 0 -0.010185759731699936 0.057652853010627704 0 -0.010077968283772427 0.05804227488487862 0 -0.0099482229743886839 0.057776134400892833 0 -0.010077968283772427 0.05804227488487862 0 -0.0099482229743886839 0.057776134400892833 0 -0.0095499352914302765 0.057810141622274568 0 -0.0099482229743886839 0.057776134400892833 0 -0.0095499352914302765 0.057810141622274568 0 -0.0096737231740909296 0.05784326516032897 0 -0.010054343869695547 0.057682753341511024 0 -0.0099482229743886839 0.057776134400892833 0 -0.0099026257001728537 0.057758863245944543 0 -0.0099482229743886839 0.057776134400892833 0 -0.0099026257001728537 0.057758863245944543 0 -0.0096737231740909296 0.05784326516032897 0 -0.0097965772335648592 0.057798364003854442 0 -0.0098608236782867179 0.057773789670553737 0 -0.0096737231740909296 0.05784326516032897 0 -0.0097965772335648592 0.057798364003854442 0 -0.0099026257001728537 0.057758863245944543 0 -0.0096737231740909296 0.05784326516032897 0 -0.0097965772335648592 0.057798364003854442 0 -0.0099026257001728537 0.057758863245944543 0 -0.0099009531306694376 0.057750485443645999 0 -0.0097965772335648592 0.057798364003854442 0 -0.0099009531306694376 0.057750485443645999 0 -0.0098472066684894208 0.057777405259665779 0 -0.0099026257001728537 0.057758863245944543 0 -0.010010820479957369 0.057680360360212013 0 -0.0099009531306694376 0.057750485443645999 0 -0.010054343869695547 0.057682753341511024 0 -0.0099026257001728537 0.057758863245944543 0 -0.010010820479957369 0.057680360360212013 0 -0.0099802490401293027 0.057705996273550546 0 -0.0098984532285489538 0.0577528126758712 0 -0.0099009531306694376 0.057750485443645999 0 -0.010010820479957369 0.057680360360212013 0 -0.0099802490401293027 0.057705996273550546 0 -0.010082199757264055 0.057640152811271016 0 -0.010010820479957369 0.057680360360212013 0 -0.0099802490401293027 0.057705996273550546 0 -0.0099009531306694376 0.057750485443645999 0 -0.0099802490401293027 0.057705996273550546 0 -0.0098984532285489538 0.0577528126758712 0 -0.0098608236782867179 0.057773789670553737 0 -0.0098984532285489538 0.0577528126758712 0 -0.0099009531306694376 0.057750485443645999 0 -0.0098472066684894208 0.057777405259665779 0 -0.0097965772335648592 0.057798364003854442 0 -0.0098472066684894208 0.057777405259665779 0 -0.0098608236782867179 0.057773789670553737 0 -0.0098984532285489538 0.0577528126758712 0 -0.0098472066684894208 0.057777405259665779 0 -0.0098608236782867179 0.057773789670553737 0 -0.0056509373365432073 0.05381648713273459 0 -0.0037057583186974694 0.049401358051621609 0 -0.0063236865767758018 0.052995530236542743 0 -0.0055718735693463866 0.052251236967572313 0 -0.0057385066204096516 0.052201055772599932 0 -0.0099802490401293027 0.057705996273550546 0 -0.0098608236782867179 0.057773789670553737 0 -0.010154755907284461 0.057666207387607173 0 -0.00090003205011462734 0.048815877990945306 0 -0.001241180127253724 0.048157603256433805 0 0.00092607300123591385 0.047711885400957325 0 -0.0056509373365432073 0.05381648713273459 0 -0.0094905190058365025 0.053312017016084678 0 -0.001160392747107184 0.050394405951753818 0 -0.00090003205011462734 0.048815877990945306 0 -0.0020095757495719457 0.049086834288736537 0 -0.001160392747107184 0.050394405951753818 0 -0.00090003205011462734 0.048815877990945306 0 0.00092607300123591385 0.047711885400957325 0 -0.00090003205011462734 0.048815877990945306 0 -0.001241180127253724 0.048157603256433805 0 -0.0020095757495719457 0.049086834288736537 0 -0.0099802490401293027 0.057705996273550546 0 -0.010082199757264055 0.057640152811271016 0 -0.010154755907284461 0.057666207387607173 0 -0.010154755907284461 0.057666207387607173 0 -0.010240956488709296 0.057526395812761928 0 -0.010434208240843281 0.05745948031468745 0 -0.010082199757264055 0.057640152811271016 0 -0.010154755907284461 0.057666207387607173 0 -0.010240956488709296 0.057526395812761928 0 -0.010082199757264055 0.057640152811271016 0 -0.010240956488709296 0.057526395812761928 0 -0.010148432121700492 0.05757647395846896 0 -0.010010820479957369 0.057680360360212013 0 -0.010082199757264055 0.057640152811271016 0 -0.010148432121700492 0.05757647395846896 0 -0.010054343869695547 0.057682753341511024 0 -0.010010820479957369 0.057680360360212013 0 -0.010148432121700492 0.05757647395846896 0 -0.010240956488709296 0.057526395812761928 0 -0.010148432121700492 0.05757647395846896 0 -0.010435584499082969 0.057316880327653592 0 -0.010185759731699936 0.057652853010627704 0 -0.010148432121700492 0.05757647395846896 0 -0.010435584499082969 0.057316880327653592 0 -0.0094905190058365025 0.053312017016084678 0 -0.011992517160464154 0.056625406578313504 0 -0.010435584499082969 0.057316880327653592 0 -0.010434208240843281 0.05745948031468745 0 -0.010924580476056532 0.056633541611389671 0 -0.010240956488709296 0.057526395812761928 0 -0.010435584499082969 0.057316880327653592 0 -0.010434208240843281 0.05745948031468745 0 -0.01296969575078743 0.055922689345668866 0 -0.010924580476056532 0.056633541611389671 0 -0.01152642399169199 0.054647288889560573 0 -0.010924580476056532 0.056633541611389671 0 -0.01152642399169199 0.054647288889560573 0 -0.010370295967306965 0.055481156368659336 0 -0.011992517160464154 0.056625406578313504 0 -0.010854812845703145 0.05674383402903712 0 -0.010924580476056532 0.056633541611389671 0 -0.010581372438454306 0.057173068596245949 0 -0.010464377762550983 0.057244163090327031 0 -0.010435584499082969 0.057316880327653592 0 -0.010924580476056532 0.056633541611389671 0 -0.010581372438454306 0.057173068596245949 0 -0.010420559919473459 0.057398616328468571 0 -0.010435584499082969 0.057316880327653592 0 -0.010581372438454306 0.057173068596245949 0 -0.010420559919473459 0.057398616328468571 0 -0.010581372438454306 0.057173068596245949 0 -0.010464377762550983 0.057244163090327031 0 -0.0056907740864863398 0.053623121459050967 0 -0.0063995732099069672 0.05309707436734163 0 -0.0057014087682480978 0.051526902309145209 0 -0.0063995732099069672 0.05309707436734163 0 -0.0073278685348828355 0.053101368747628795 0 -0.0057014087682480978 0.051526902309145209 0 -0.0068296660572986414 0.054046630920196237 0 -0.0056907740864863398 0.053623121459050967 0 -0.0063995732099069672 0.05309707436734163 0 -0.0068296660572986414 0.054046630920196237 0 -0.0063995732099069672 0.05309707436734163 0 -0.0073278685348828355 0.053101368747628795 0 -0.0073278685348828355 0.053101368747628795 0 -0.0076336186359930256 0.053123361595732062 0 -0.0075999583216300034 0.053952674139810107 0 -0.0092301710431239616 0.051921921301994148 0 -0.0073561509500210545 0.052835876424971784 0 -0.00868437073738796 0.054359734196118052 0 -0.0073561509500210545 0.052835876424971784 0 -0.0090651997799804651 0.054379467804991137 0 -0.0076336186359930256 0.053123361595732062 0 -0.0082290523541582797 0.054344805374238234 0 -0.0073672710643671036 0.052869309327620552 0 -0.0073561509500210545 0.052835876424971784 0 -0.0076336186359930256 0.053123361595732062 0 -0.0082290523541582797 0.054344805374238234 0 -0.0075999583216300034 0.053952674139810107 0 -0.0068296660572986414 0.054046630920196237 0 -0.0073278685348828355 0.053101368747628795 0 -0.0075999583216300034 0.053952674139810107 0 -0.0068296660572986414 0.054046630920196237 0 -0.0075999583216300034 0.053952674139810107 0 -0.0078314594400393581 0.055083049104338526 0 -0.0082290523541582797 0.054344805374238234 0 -0.0075999583216300034 0.053952674139810107 0 -0.0078314594400393581 0.055083049104338526 0 -0.0088986228632866957 0.055054113401359094 0 -0.0082290523541582797 0.054344805374238234 0 -0.0078314594400393581 0.055083049104338526 0 -0.0084898841908884973 0.055791918553242274 0 -0.0079704163897232946 0.056062075912015098 0 -0.0078314594400393581 0.055083049104338526 0 -0.0075898887322184824 0.056108983905441494 0 -0.0079704163897232946 0.056062075912015098 0 -0.0078314594400393581 0.055083049104338526 0 -0.0068296660572986414 0.054046630920196237 0 -0.0056907740864863398 0.053623121459050967 0 -0.0059352474569381499 0.055423620276384297 0 -0.0075898887322184824 0.056108983905441494 0 -0.0078314594400393581 0.055083049104338526 0 -0.0059352474569381499 0.055423620276384297 0 -0.0068296660572986414 0.054046630920196237 0 -0.0078314594400393581 0.055083049104338526 0 -0.0059352474569381499 0.055423620276384297 0 -0.0072952710552916817 0.056526276793554549 0 -0.0065228125985736908 0.055617519303832783 0 -0.0086553165590191276 0.057730751139103011 0 -0.0095499352914302765 0.057810141622274568 0 -0.0093384008218967869 0.057956099195670352 0 -0.0092491809323061152 0.057576911748479162 0 -0.0086553165590191276 0.057730751139103011 0 -0.0095499352914302765 0.057810141622274568 0 -0.0095499352914302765 0.057810141622274568 0 -0.0096737231740909296 0.05784326516032897 0 -0.0093384008218967869 0.057956099195670352 0 -0.0056907740864863398 0.053623121459050967 0 -0.0059352474569381499 0.055423620276384297 0 -0.0037309346971793086 0.05323766667369436 0 -0.0056907740864863398 0.053623121459050967 0 -0.0037309346971793086 0.05323766667369436 0 -0.0057014087682480978 0.051526902309145209 0 -0.0033394931926382524 0.049924697990757341 0 -0.0055282713094932413 0.05097212065797728 0 -0.0037309346971793086 0.05323766667369436 0 -0.0031834087678807308 0.049834659565096882 0 -0.0057014087682480978 0.051526902309145209 0 -0.0056509373365432073 0.05381648713273459 0 -0.0065228125985736908 0.055617519303832783 0 -0.001160392747107184 0.050394405951753818 0 -0.0037309346971793086 0.05323766667369436 0 -0.0031834087678807308 0.049834659565096882 0 -0.0098608236782867179 0.057773789670553737 0 -0.0096737231740909296 0.05784326516032897 0 -0.0093384008218967869 0.057956099195670352 0 -0.001160392747107184 0.050394405951753818 0 -0.0020095757495719457 0.049086834288736537 0 -0.0031834087678807308 0.049834659565096882 0 -0.0020095757495719457 0.049086834288736537 0 -0.0031834087678807308 0.049834659565096882 0 -0.0032891164628546855 0.04812298144496218 0 -0.001241180127253724 0.048157603256433805 0 -0.0020095757495719457 0.049086834288736537 0 -0.002165087590402499 0.048030218515646823 0 -0.0020095757495719457 0.049086834288736537 0 -0.0032891164628546855 0.04812298144496218 0 -0.002165087590402499 0.048030218515646823 0 -0.0031834087678807308 0.049834659565096882 0 -0.0032891164628546855 0.04812298144496218 0 -0.0051479019741771607 0.048426357664289155 0 -0.0031834087678807308 0.049834659565096882 0 -0.0051479019741771607 0.048426357664289155 0 -0.0055132463868025729 0.050561804807045051 0 -0.0032891164628546855 0.04812298144496218 0 -0.0051479019741771607 0.048426357664289155 0 -0.0043734974675240287 0.047288451473898922 0 -0.0051479019741771607 0.048426357664289155 0 -0.0069560444380484619 0.048723763078372694 0 -0.0059323507544982697 0.047301074433827903 0 -0.0051479019741771607 0.048426357664289155 0 -0.0069560444380484619 0.048723763078372694 0 -0.0055132463868025729 0.050561804807045051 0 -0.0076126592429753186 0.051396616771479227 0 -0.0055132463868025729 0.050561804807045051 0 -0.0068812515458579757 0.050326350145312559 0 -0.0069560444380484619 0.048723763078372694 0 -0.0055132463868025729 0.050561804807045051 0 -0.0068812515458579757 0.050326350145312559 0 -0.0073278685348828355 0.053101368747628795 0 -0.007726064852269122 0.05304598587009722 0 -0.0057014087682480978 0.051526902309145209 0 -0.0073561509500210545 0.052835876424971784 0 -0.0055282713094932413 0.05097212065797728 0 -0.0092822575848884696 0.050899878048516693 0 -0.0076126592429753186 0.051396616771479227 0 -0.0083544955888642768 0.050500116592135741 0 -0.0076126592429753186 0.051396616771479227 0 -0.0068812515458579757 0.050326350145312559 0 -0.0076635397259506837 0.050559454900697333 0 -0.0076126592429753186 0.051396616771479227 0 -0.0083544955888642768 0.050500116592135741 0 -0.0076635397259506837 0.050559454900697333 0 -0.0069560444380484619 0.048723763078372694 0 -0.0068812515458579757 0.050326350145312559 0 -0.0080486523085046783 0.049760589272160788 0 -0.0068812515458579757 0.050326350145312559 0 -0.0076635397259506837 0.050559454900697333 0 -0.0080486523085046783 0.049760589272160788 0 -0.0092082331971537063 0.049823475200432496 0 -0.0083544955888642768 0.050500116592135741 0 -0.0080486523085046783 0.049760589272160788 0 -0.0083544955888642768 0.050500116592135741 0 -0.0076635397259506837 0.050559454900697333 0 -0.0080486523085046783 0.049760589272160788 0 -0.0091842264202175415 0.048487174881246028 0 -0.0069560444380484619 0.048723763078372694 0 -0.0080486523085046783 0.049760589272160788 0 -0.0091842264202175415 0.048487174881246028 0 -0.0069560444380484619 0.048723763078372694 0 -0.0075297073098888516 0.046436335799181577 0 -0.0052360943998051709 0.046499630274053926 0 -0.0037310281716422767 0.044913242851063094 0 -0.0013267360070100896 0.044017081322708686 0 -7.0342812648155012e-05 0.043486423457563567 0 -0.00056194753243384336 0.042611211607833425 0 -0.0069560444380484619 0.048723763078372694 0 -0.0075297073098888516 0.046436335799181577 0 -0.0059323507544982697 0.047301074433827903 0 -0.0075297073098888516 0.046436335799181577 0 -0.0059323507544982697 0.047301074433827903 0 -0.0052123502872008943 0.045768632792891742 0 -7.0342812648155012e-05 0.043486423457563567 0 8.186480600084609e-05 0.0426987234060636 0 0.00063384364790755859 0.042557907863848186 0 -0.0075297073098888516 0.046436335799181577 0 -0.0057668383261297784 0.044559733937040796 0 -0.0052123502872008943 0.045768632792891742 0 -0.0037310281716422767 0.044913242851063094 0 -0.0027601862100427484 0.043824560257506522 0 8.186480600084609e-05 0.0426987234060636 0 0.00063384364790755859 0.042557907863848186 0 0.00043788374586017719 0.042220093689684692 0 8.186480600084609e-05 0.0426987234060636 0 -0.00056194753243384336 0.042611211607833425 0 0.00043788374586017719 0.042220093689684692 0 -7.0342812648155012e-05 0.043486423457563567 0 8.186480600084609e-05 0.0426987234060636 0 -0.00056194753243384336 0.042611211607833425 0 0.0097701769669867721 0.032749961303747646 0 0.0097755270285179944 0.03270124657455787 0 0.0097729970477270899 0.032743329527013615 0 0.0042763869077359143 0.035665172864675687 0 0.0037854690174588339 0.036549252805316838 0 0.0030405343678266009 0.036159782574754697 0 0.0052666085444909765 0.039264392214529757 0 0.0070717421105023466 0.034090719724094345 0 0.0052666085444909765 0.039264392214529757 0 0.0016722499665232547 0.039003828768515721 0 0.0097701769669867721 0.032749961303747646 0 0.0097757826036439354 0.032817432035203903 0 0.0097729970477270899 0.032743329527013615 0 0.0037854690174588339 0.036549252805316838 0 0.0030405343678266009 0.036159782574754697 0 0.0026142050271188307 0.036882551180434375 0 0.0066003409307884 0.033348342040672975 0 0.0035772322396396901 0.030699245723457447 0 0.0071627219102328808 0.030564986910897794 0 0.0041146780979134153 0.030970154509825001 0 0.0066325703410979727 0.031571844617214496 0 0.0026142050271188307 0.036882551180434375 0 0.0032943818428126884 0.037480258500361747 0 0.0022327906968222259 0.037642926294690342 0 0.0037854690174588339 0.036549252805316838 0 0.0026142050271188307 0.036882551180434375 0 0.0032943818428126884 0.037480258500361747 0 0.0066003409307884 0.033348342040672975 0 0.0071733295150836389 0.027997861904844337 0 0.010417672955387914 0.032470786868664121 0 0.0066003409307884 0.033348342040672975 0 0.0070717421105023466 0.034090719724094345 0 0.0066003409307884 0.033348342040672975 0 0.0097911222465735699 0.032464344810558717 0 0.0096738551180953879 0.032401495613745265 0 0.0097717737032405709 0.032445860203956844 0 0.0097755270285179944 0.03270124657455787 0 0.0097729970477270899 0.032743329527013615 0 0.0097445065389903905 0.032737890619549868 0 -0.00029301284135082142 0.031903795027957565 0 0.0027331632712603643 0.032607902827240812 0 -0.0014961550704031949 0.033192539092987569 0 -0.0012322122521694939 0.038004840565489202 0 -0.0010815156093617355 0.041370765838367851 0 -0.0041133605234223948 0.043212451767577542 0 -0.0040456694993447999 0.042820773462061583 0 -0.0045238956234648735 0.043413478866396411 0 -0.0046643439396051398 0.043263761840455932 0 -0.0010815156093617355 0.041370765838367851 0 -0.0041133605234223948 0.043212451767577542 0 -0.0037990451552538289 0.043159683928985185 0 -0.0038699142888621433 0.04347392955927918 0 -0.0037990451552538289 0.043159683928985185 0 -0.0036088712619278531 0.043364051886055362 0 -0.0035879905254658658 0.043017809450826415 0 -0.0037990451552538289 0.043159683928985185 0 -0.0038699142888621433 0.04347392955927918 0 -0.0036088712619278531 0.043364051886055362 0 -0.0037990451552538289 0.043159683928985185 0 -0.0038408915357077563 0.042942163623535416 0 -0.0035879905254658658 0.043017809450826415 0 -0.0041133605234223948 0.043212451767577542 0 -0.0037990451552538289 0.043159683928985185 0 -0.0038408915357077563 0.042942163623535416 0 -0.0041133605234223948 0.043212451767577542 0 -0.0040456694993447999 0.042820773462061583 0 -0.0038408915357077563 0.042942163623535416 0 -0.0040456694993447999 0.042820773462061583 0 -0.0038408915357077563 0.042942163623535416 0 -0.0036971055336451125 0.042736859988831061 0 -0.0040456694993447999 0.042820773462061583 0 -0.0036971055336451125 0.042736859988831061 0 -0.0036616053450032439 0.042358921747612917 0 -0.0012322122521694939 0.038004840565489202 0 -0.0012538216645397726 0.031311234064881517 0 -0.0038408915357077563 0.042942163623535416 0 -0.0036971055336451125 0.042736859988831061 0 -0.0035879905254658658 0.043017809450826415 0 0.0026142050271188307 0.036882551180434375 0 0.0022327906968222259 0.037642926294690342 0 0.0017494304535343994 0.036697759778172544 0 0.0010756171128891213 0.037397783270604439 0 0.0022327906968222259 0.037642926294690342 0 0.0017494304535343994 0.036697759778172544 0 -0.0012322122521694939 0.038004840565489202 0 0.0035772322396396901 0.030699245723457447 0 -0.0046537272660134099 0.043453151866760055 0 -0.0047705121581699044 0.044120047500378082 0 -0.0041646597745150192 0.043887530932588299 0 -0.0057668383261297784 0.044559733937040796 0 -0.0046537272660134099 0.043453151866760055 0 -0.0047705121581699044 0.044120047500378082 0 -0.0027601862100427484 0.043824560257506522 0 -0.0010815156093617355 0.041370765838367851 0 0.0016722499665232547 0.039003828768515721 0 -0.0010815156093617355 0.041370765838367851 0 0.00063384364790755859 0.042557907863848186 0 0.00043788374586017719 0.042220093689684692 0 0.001189386488643598 0.041853799347063299 0 0.0030405343678266009 0.036159782574754697 0 0.0026142050271188307 0.036882551180434375 0 0.0017494304535343994 0.036697759778172544 0 -0.0047705121581699044 0.044120047500378082 0 -0.0041646597745150192 0.043887530932588299 0 -0.0045711818071538833 0.044586363784069279 0 -0.0041646597745150192 0.043887530932588299 0 -0.0041104399406276648 0.044498380982120521 0 -0.0045711818071538833 0.044586363784069279 0 -0.0041133605234223948 0.043212451767577542 0 -0.0041646597745150192 0.043887530932588299 0 -0.0038699142888621433 0.04347392955927918 0 -0.0041133605234223948 0.043212451767577542 0 -0.0046537272660134099 0.043453151866760055 0 -0.0041646597745150192 0.043887530932588299 0 -0.0041646597745150192 0.043887530932588299 0 -0.0038699142888621433 0.04347392955927918 0 -0.0036795180033935321 0.043764627114452101 0 -0.0038699142888621433 0.04347392955927918 0 -0.0036795180033935321 0.043764627114452101 0 -0.0036088712619278531 0.043364051886055362 0 -0.0041646597745150192 0.043887530932588299 0 -0.0036973220693651116 0.044289335833997634 0 -0.0041104399406276648 0.044498380982120521 0 -0.0041646597745150192 0.043887530932588299 0 -0.0036795180033935321 0.043764627114452101 0 -0.0036973220693651116 0.044289335833997634 0 -0.0036973220693651116 0.044289335833997634 0 -0.0041104399406276648 0.044498380982120521 0 -0.0035734583294741869 0.04503975973564673 0 -0.0041104399406276648 0.044498380982120521 0 -0.0041380790911599392 0.045042369863839096 0 -0.0035734583294741869 0.04503975973564673 0 -0.0041104399406276648 0.044498380982120521 0 -0.0041380790911599392 0.045042369863839096 0 -0.0045711818071538833 0.044586363784069279 0 -0.0041380790911599392 0.045042369863839096 0 -0.0045711818071538833 0.044586363784069279 0 -0.004634241532339451 0.045218547469005596 0 -0.0041380790911599392 0.045042369863839096 0 -0.004634241532339451 0.045218547469005596 0 -0.0038203199524354239 0.04567021115132941 0 -0.0041380790911599392 0.045042369863839096 0 -0.0038203199524354239 0.04567021115132941 0 -0.0035734583294741869 0.04503975973564673 0 -0.0057668383261297784 0.044559733937040796 0 -0.0045711818071538833 0.044586363784069279 0 -0.004634241532339451 0.045218547469005596 0 -0.0057668383261297784 0.044559733937040796 0 -0.0047705121581699044 0.044120047500378082 0 -0.0045711818071538833 0.044586363784069279 0 -0.0057668383261297784 0.044559733937040796 0 -0.004634241532339451 0.045218547469005596 0 -0.0052123502872008943 0.045768632792891742 0 -0.004634241532339451 0.045218547469005596 0 -0.0052123502872008943 0.045768632792891742 0 -0.0038203199524354239 0.04567021115132941 0 -0.005277939394103124 0.045771572047683701 0 -0.002523069682789464 0.046025116373356975 0 -0.0052123502872008943 0.045768632792891742 0 -0.0043734974675240287 0.047288451473898922 0 -0.0021217871520612854 0.046764314347000333 0 -0.0059323507544982697 0.047301074433827903 0 -0.0052123502872008943 0.045768632792891742 0 -0.0043734974675240287 0.047288451473898922 0 -0.0051479019741771607 0.048426357664289155 0 -0.0059323507544982697 0.047301074433827903 0 -0.0043734974675240287 0.047288451473898922 0 -0.0032891164628546855 0.04812298144496218 0 -0.0043734974675240287 0.047288451473898922 0 -0.0021217871520612854 0.046764314347000333 0 -0.0032891164628546855 0.04812298144496218 0 -0.002165087590402499 0.048030218515646823 0 -0.0021217871520612854 0.046764314347000333 0 -0.001241180127253724 0.048157603256433805 0 -0.002165087590402499 0.048030218515646823 0 -0.0021217871520612854 0.046764314347000333 0 -0.001241180127253724 0.048157603256433805 0 -0.0021217871520612854 0.046764314347000333 0 0.00092607300123591385 0.047711885400957325 0 -0.0038203199524354239 0.04567021115132941 0 -0.0032120027873882183 0.045625385849571952 0 -0.0028399988573604498 0.0459018539670022 0 -0.002523069682789464 0.046025116373356975 0 -0.0037057583186974694 0.049401358051621609 0 -0.0038203199524354239 0.04567021115132941 0 -0.0032120027873882183 0.045625385849571952 0 -0.0035734583294741869 0.04503975973564673 0 -0.0076583926196382157 0.049039368620713189 0 -0.0085815078116114833 0.049794443653281034 0 -0.0083294677457725098 0.050149550126058491 0 -0.0019166498522832816 0.045211162786991346 0 -0.0051743945413836789 0.045957045016331861 0 -0.0076583926196382157 0.049039368620713189 0 -0.0073494631929321421 0.049128707142829936 0 -0.0083294677457725098 0.050149550126058491 0 -0.0032120027873882183 0.045625385849571952 0 -0.0028399988573604498 0.0459018539670022 0 -0.0023639037568056955 0.045347203261623871 0 -0.0037057583186974694 0.049401358051621609 0 -0.0051743945413836789 0.045957045016331861 0 -0.0094905190058365025 0.053312017016084678 0 -0.0037057583186974694 0.049401358051621609 0 -0.0094905190058365025 0.053312017016084678 0 -0.011100280195386239 0.052103625665111626 0 -0.0032120027873882183 0.045625385849571952 0 -0.0025527026410240177 0.04480357186236069 0 -0.0019282737497738982 0.045014036458745181 0 -0.0025527026410240177 0.04480357186236069 0 -0.0019282737497738982 0.045014036458745181 0 -0.0019631651802684501 0.044276233914317634 0 -0.0025527026410240177 0.04480357186236069 0 -0.0019631651802684501 0.044276233914317634 0 -0.0024465696725962057 0.044205570767412709 0 -0.0025527026410240177 0.04480357186236069 0 -0.0028958637637284726 0.04451100896887876 0 -0.0024465696725962057 0.044205570767412709 0 -0.0028958637637284726 0.04451100896887876 0 -0.0033290334067531541 0.04455430332623414 0 -0.0031282128776958535 0.044979486682499466 0 -0.0028958637637284726 0.04451100896887876 0 -0.0033290334067531541 0.04455430332623414 0 -0.0031143875764239816 0.044152613970466603 0 -0.0036973220693651116 0.044289335833997634 0 -0.0033290334067531541 0.04455430332623414 0 -0.0035734583294741869 0.04503975973564673 0 -0.0032120027873882183 0.045625385849571952 0 -0.0035734583294741869 0.04503975973564673 0 -0.0031282128776958535 0.044979486682499466 0 -0.0033290334067531541 0.04455430332623414 0 -0.0035734583294741869 0.04503975973564673 0 -0.0031282128776958535 0.044979486682499466 0 -0.0025527026410240177 0.04480357186236069 0 -0.0028958637637284726 0.04451100896887876 0 -0.0031282128776958535 0.044979486682499466 0 -0.0032120027873882183 0.045625385849571952 0 -0.0025527026410240177 0.04480357186236069 0 -0.0031282128776958535 0.044979486682499466 0 -0.01152642399169199 0.054647288889560573 0 -0.013314844089068828 0.054163880194643577 0 -0.012019615102650191 0.052989418794528703 0 -0.01152642399169199 0.054647288889560573 0 -0.010996206836407608 0.053392091835507069 0 -0.010419025154040053 0.054211804752019303 0 -0.014630984878686235 0.055368054967524352 0 -0.01296969575078743 0.055922689345668866 0 -0.013314844089068828 0.054163880194643577 0 -0.01296969575078743 0.055922689345668866 0 -0.01152642399169199 0.054647288889560573 0 -0.013314844089068828 0.054163880194643577 0 -0.0085815078116114833 0.049794443653281034 0 -0.0083294677457725098 0.050149550126058491 0 -0.009546227307196866 0.050581773960905144 0 -0.0051743945413836789 0.045957045016331861 0 -0.011334386546027921 0.050254575552715904 0 -0.0083610259250990974 0.044138610722552533 0 -0.0089376411868320703 0.044693205168152506 0 -0.0093000993826522597 0.044448572082548016 0 -0.0051743945413836789 0.045957045016331861 0 -0.0055229568799590569 0.044443296378194795 0 -0.0019282737497738982 0.045014036458745181 0 -0.0019631651802684501 0.044276233914317634 0 -0.0014225220407022361 0.044329057780170315 0 -0.011100280195386239 0.052103625665111626 0 -0.011334386546027921 0.050254575552715904 0 -0.012019615102650191 0.052989418794528703 0 -0.01049230016093 0.052243842633017124 0 -0.010996206836407608 0.053392091835507069 0 -0.01152642399169199 0.054647288889560573 0 -0.012019615102650191 0.052989418794528703 0 -0.010996206836407608 0.053392091835507069 0 -0.011334386546027921 0.050254575552715904 0 -0.011273869022310522 0.052174900682101844 0 -0.013581080802550317 0.052426052615533923 0 -0.012326359483504324 0.051373685736320993 0 -0.011404890694314428 0.051707054186081021 0 -0.0089376411868320703 0.044693205168152506 0 -0.0093000993826522597 0.044448572082548016 0 -0.0093984913278735167 0.044814254545164273 0 -0.0093000993826522597 0.044448572082548016 0 -0.0098654666839476553 0.044908330690857479 0 -0.0093984913278735167 0.044814254545164273 0 -0.011334386546027921 0.050254575552715904 0 -0.012847365958622053 0.044267440898023765 0 -0.0098654666839476553 0.044908330690857479 0 -0.0093984913278735167 0.044814254545164273 0 -0.0094825812393760523 0.045203404415169644 0 -0.012847365958622053 0.044267440898023765 0 -0.010439795046455216 0.036674992534923519 0 -0.0089376411868320703 0.044693205168152506 0 -0.0093984913278735167 0.044814254545164273 0 -0.0094825812393760523 0.045203404415169644 0 -0.0055229568799590569 0.044443296378194795 0 -0.010439795046455216 0.036674992534923519 0 -0.0009428822323584616 0.043665875664596641 0 -0.0015129067282084203 0.043599479874110267 0 -0.0017194875066982313 0.042988431324386393 0 -0.0019631651802684501 0.044276233914317634 0 -0.0014225220407022361 0.044329057780170315 0 -0.0015129067282084203 0.043599479874110267 0 -0.0014225220407022361 0.044329057780170315 0 -0.0009428822323584616 0.043665875664596641 0 -0.0015129067282084203 0.043599479874110267 0 -0.0019631651802684501 0.044276233914317634 0 -0.0015129067282084203 0.043599479874110267 0 -0.0020969553024553327 0.043706607830963223 0 -0.0015129067282084203 0.043599479874110267 0 -0.0017889214357200826 0.043369975013090215 0 -0.0020969553024553327 0.043706607830963223 0 -0.0017889214357200826 0.043369975013090215 0 -0.0020418289533601979 0.043439799708718897 0 -0.0020969553024553327 0.043706607830963223 0 -0.013670653156018318 0.022209550361211073 0 -0.014219445404183802 0.021686072035316206 0 -0.01363392869592017 0.021804603333788766 0 -0.010439795046455216 0.036674992534923519 0 -0.0067720755707191133 0.032432523643271108 0 -0.0017889214357200826 0.043369975013090215 0 -0.0020418289533601979 0.043439799708718897 0 -0.0020756303428722993 0.043230490514659888 0 -0.0017889214357200826 0.043369975013090215 0 -0.0017194875066982313 0.042988431324386393 0 -0.0020756303428722993 0.043230490514659888 0 -0.013670653156018318 0.022209550361211073 0 -0.01313155092773189 0.022181223373162192 0 -0.013296190157532113 0.021777700591019696 0 -0.013670653156018318 0.022209550361211073 0 -0.013296190157532113 0.021777700591019696 0 -0.01363392869592017 0.021804603333788766 0 -0.0015129067282084203 0.043599479874110267 0 -0.0017889214357200826 0.043369975013090215 0 -0.0017194875066982313 0.042988431324386393 0 -0.012964509718770669 0.022787334304787597 0 -0.01313155092773189 0.022181223373162192 0 -0.012585399458225432 0.022096932174448622 0 -0.012964509718770669 0.022787334304787597 0 -0.013670653156018318 0.022209550361211073 0 -0.01313155092773189 0.022181223373162192 0 -0.01313155092773189 0.022181223373162192 0 -0.012949800991492986 0.021845309186714453 0 -0.013296190157532113 0.021777700591019696 0 -0.01313155092773189 0.022181223373162192 0 -0.012949800991492986 0.021845309186714453 0 -0.012585399458225432 0.022096932174448622 0 -0.012949800991492986 0.021845309186714453 0 -0.012733137695399452 0.021591534543144029 0 -0.012585399458225432 0.022096932174448622 0 -0.0028475050067322647 0.043709228838931483 0 -0.0032705539006085806 0.0436569716967799 0 -0.0031143875764239816 0.044152613970466603 0 -0.0028475050067322647 0.043709228838931483 0 -0.0030489397110885865 0.043410517272470951 0 -0.0032705539006085806 0.0436569716967799 0 -0.0028475050067322647 0.043709228838931483 0 -0.0030489397110885865 0.043410517272470951 0 -0.0027565772672785587 0.04328044736391027 0 -0.0030489397110885865 0.043410517272470951 0 -0.0032705539006085806 0.0436569716967799 0 -0.0033502646211684196 0.043211100753043095 0 -0.0032705539006085806 0.0436569716967799 0 -0.0036088712619278531 0.043364051886055362 0 -0.0033502646211684196 0.043211100753043095 0 -0.0036795180033935321 0.043764627114452101 0 -0.0032705539006085806 0.0436569716967799 0 -0.0036088712619278531 0.043364051886055362 0 -0.0036795180033935321 0.043764627114452101 0 -0.0032705539006085806 0.0436569716967799 0 -0.0034264437879202923 0.04408990608862718 0 -0.0036795180033935321 0.043764627114452101 0 -0.0036973220693651116 0.044289335833997634 0 -0.0034264437879202923 0.04408990608862718 0 -0.0032705539006085806 0.0436569716967799 0 -0.0034264437879202923 0.04408990608862718 0 -0.0031143875764239816 0.044152613970466603 0 -0.0033290334067531541 0.04455430332623414 0 -0.0034264437879202923 0.04408990608862718 0 -0.0031143875764239816 0.044152613970466603 0 -0.0036973220693651116 0.044289335833997634 0 -0.0033290334067531541 0.04455430332623414 0 -0.0034264437879202923 0.04408990608862718 0 -0.0028475050067322647 0.043709228838931483 0 -0.0031143875764239816 0.044152613970466603 0 -0.002791558831466191 0.044093306387723158 0 -0.0028958637637284726 0.04451100896887876 0 -0.0031143875764239816 0.044152613970466603 0 -0.002791558831466191 0.044093306387723158 0 -0.0028958637637284726 0.04451100896887876 0 -0.002791558831466191 0.044093306387723158 0 -0.0024465696725962057 0.044205570767412709 0 -0.002791558831466191 0.044093306387723158 0 -0.0024465696725962057 0.044205570767412709 0 -0.002514448594916948 0.043831132670279438 0 -0.0028475050067322647 0.043709228838931483 0 -0.002791558831466191 0.044093306387723158 0 -0.002514448594916948 0.043831132670279438 0 -0.0024465696725962057 0.044205570767412709 0 -0.002514448594916948 0.043831132670279438 0 -0.0020969553024553327 0.043706607830963223 0 -0.0019631651802684501 0.044276233914317634 0 -0.0024465696725962057 0.044205570767412709 0 -0.0020969553024553327 0.043706607830963223 0 -0.002514448594916948 0.043831132670279438 0 -0.0020969553024553327 0.043706607830963223 0 -0.0023925843026658378 0.043450521538414173 0 -0.0020418289533601979 0.043439799708718897 0 -0.0023925843026658378 0.043450521538414173 0 -0.0020756303428722993 0.043230490514659888 0 -0.0020418289533601979 0.043439799708718897 0 -0.0020969553024553327 0.043706607830963223 0 -0.0023925843026658378 0.043450521538414173 0 -0.0028475050067322647 0.043709228838931483 0 -0.0023925843026658378 0.043450521538414173 0 -0.0027565772672785587 0.04328044736391027 0 -0.0028475050067322647 0.043709228838931483 0 -0.002514448594916948 0.043831132670279438 0 -0.0023925843026658378 0.043450521538414173 0 -0.0067720755707191133 0.032432523643271108 0 -0.0043812966356689955 0.030863151859656792 0 -0.0017194875066982313 0.042988431324386393 0 -0.0025912464291740762 0.042750196339462671 0 -0.002816493920917644 0.042234857565528874 0 -0.0067720755707191133 0.032432523643271108 0 -0.01102413915595906 0.024181971394007656 0 -0.0017194875066982313 0.042988431324386393 0 -0.0024282514174264356 0.043018973652441672 0 -0.0025912464291740762 0.042750196339462671 0 -0.0023925843026658378 0.043450521538414173 0 -0.0027565772672785587 0.04328044736391027 0 -0.0024282514174264356 0.043018973652441672 0 -0.0027565772672785587 0.04328044736391027 0 -0.0027530794286414234 0.042978300593655872 0 -0.0024282514174264356 0.043018973652441672 0 -0.0017194875066982313 0.042988431324386393 0 -0.0020756303428722993 0.043230490514659888 0 -0.0024282514174264356 0.043018973652441672 0 -0.0023925843026658378 0.043450521538414173 0 -0.0020756303428722993 0.043230490514659888 0 -0.0024282514174264356 0.043018973652441672 0 -0.0025912464291740762 0.042750196339462671 0 -0.002885238675909528 0.042573560198163572 0 -0.002816493920917644 0.042234857565528874 0 -0.0027530794286414234 0.042978300593655872 0 -0.0025912464291740762 0.042750196339462671 0 -0.0029715283487946873 0.04279798031691244 0 -0.0027530794286414234 0.042978300593655872 0 -0.0024282514174264356 0.043018973652441672 0 -0.0025912464291740762 0.042750196339462671 0 -0.0025912464291740762 0.042750196339462671 0 -0.002885238675909528 0.042573560198163572 0 -0.0029715283487946873 0.04279798031691244 0 -0.002885238675909528 0.042573560198163572 0 -0.0031453788478617481 0.042596152963484402 0 -0.0029715283487946873 0.04279798031691244 0 -0.0031453788478617481 0.042596152963484402 0 -0.0029715283487946873 0.04279798031691244 0 -0.003350139801798897 0.042827684565001994 0 -0.0029715283487946873 0.04279798031691244 0 -0.0030739784179745345 0.043116972311044006 0 -0.003350139801798897 0.042827684565001994 0 -0.0027565772672785587 0.04328044736391027 0 -0.0027530794286414234 0.042978300593655872 0 -0.0030739784179745345 0.043116972311044006 0 -0.0027530794286414234 0.042978300593655872 0 -0.0029715283487946873 0.04279798031691244 0 -0.0030739784179745345 0.043116972311044006 0 -0.0030489397110885865 0.043410517272470951 0 -0.0030739784179745345 0.043116972311044006 0 -0.0033502646211684196 0.043211100753043095 0 -0.0030489397110885865 0.043410517272470951 0 -0.0027565772672785587 0.04328044736391027 0 -0.0030739784179745345 0.043116972311044006 0 -0.0036088712619278531 0.043364051886055362 0 -0.0033502646211684196 0.043211100753043095 0 -0.0035879905254658658 0.043017809450826415 0 -0.0033502646211684196 0.043211100753043095 0 -0.0035879905254658658 0.043017809450826415 0 -0.003350139801798897 0.042827684565001994 0 -0.0030739784179745345 0.043116972311044006 0 -0.0033502646211684196 0.043211100753043095 0 -0.003350139801798897 0.042827684565001994 0 -0.0036971055336451125 0.042736859988831061 0 -0.0035879905254658658 0.043017809450826415 0 -0.003350139801798897 0.042827684565001994 0 -0.0031453788478617481 0.042596152963484402 0 -0.003350139801798897 0.042827684565001994 0 -0.0036616053450032439 0.042358921747612917 0 -0.0036971055336451125 0.042736859988831061 0 -0.003350139801798897 0.042827684565001994 0 -0.0036616053450032439 0.042358921747612917 0 -0.0025913190603567811 0.02385940607380101 0 -0.0012538216645397726 0.031311234064881517 0 -0.0043812966356689955 0.030863151859656792 0 -0.0012538216645397726 0.031311234064881517 0 -0.0031453788478617481 0.042596152963484402 0 -0.002816493920917644 0.042234857565528874 0 -0.0036616053450032439 0.042358921747612917 0 -0.0025899360807740985 0.029913331372529835 0 -0.0033746156751519461 0.029439917782689513 0 -0.0019604682641546985 0.029250500977466933 0 -0.0052467425742217418 0.024609043930941026 0 -0.00557073288989099 0.024949582985025177 0 -0.0060878471754344746 0.024116786011811265 0 -0.0025913190603567811 0.02385940607380101 0 -0.0059958085111151147 0.020502014392708233 0 -0.0025913190603567811 0.02385940607380101 0 -0.0043812966356689955 0.030863151859656792 0 -0.002885238675909528 0.042573560198163572 0 -0.0031453788478617481 0.042596152963484402 0 -0.002816493920917644 0.042234857565528874 0 -0.0063141755822257528 0.030896048108001322 0 -0.0081547410079570708 0.029244826046044423 0 -0.0086959552672787443 0.029312297350426345 0 -0.01102413915595906 0.024181971394007656 0 -0.0043812966356689955 0.030863151859656792 0 -0.01254005381569992 0.02025800398113348 0 -0.012828168592769196 0.020085031076789408 0 -0.01277402232052411 0.020260272049133273 0 -0.012828168592769196 0.020085031076789408 0 -0.01297360454549777 0.020237819991724235 0 -0.01277402232052411 0.020260272049133273 0 -0.00557073288989099 0.024949582985025177 0 -0.0065483725895354354 0.024181776795929449 0 -0.0060878471754344746 0.024116786011811265 0 -0.0059958085111151147 0.020502014392708233 0 -0.01102413915595906 0.024181971394007656 0 -0.01254005381569992 0.02025800398113348 0 -0.01277402232052411 0.020260272049133273 0 -0.012756338530736296 0.020451845843802587 0 -0.0096784867537953387 0.01718356118082533 0 -0.014222631861772096 0.020481516679835578 0 -0.01297360454549777 0.020237819991724235 0 -0.01277402232052411 0.020260272049133273 0 -0.012756338530736296 0.020451845843802587 0 -0.013685878286048539 0.019866555155287905 0 -0.01333747565566324 0.01983112379470393 0 -0.013326572855858268 0.019389127173361605 0 -0.013685878286048539 0.019866555155287905 0 -0.01333747565566324 0.01983112379470393 0 -0.013185416896556496 0.020241065574587082 0 -0.01297360454549777 0.020237819991724235 0 -0.012756338530736296 0.020451845843802587 0 -0.013185416896556496 0.020241065574587082 0 -0.0096784867537953387 0.01718356118082533 0 -0.0049364036652381092 0.014014504132796795 0 -0.0057882280553437863 0.015964487944836892 0 -0.0068055798588356649 0.01704235276247467 0 -0.0046880912149135645 0.017787153192056291 0 -0.0059958085111151147 0.020502014392708233 0 -0.0022059309911157034 0.01893919610240594 0 -0.0057882280553437863 0.015964487944836892 0 -0.0046880912149135645 0.017787153192056291 0 -0.0041815577413286814 0.017247083764158695 0 -0.0017851550054720172 0.018745518681922035 0 -0.0021384845103497268 0.019120505817868824 0 -0.00079834533491164638 0.020163060053623977 0 -0.0059958085111151147 0.020502014392708233 0 -0.0096784867537953387 0.01718356118082533 0 -0.013764076013473067 0.020610762315420299 0 -0.012257246319445868 0.020830930956030547 0 -0.013208372204861839 0.020294466567838433 0 -0.012864408534877247 0.020310058744616021 0 -0.012440064652551807 0.020804340744689221 0 -0.012985403105273139 0.021535091000674782 0 -0.013493827235766925 0.021481266557481473 0 -0.012440064652551807 0.020804340744689221 0 -0.012733137695399452 0.021591534543144029 0 -0.012985403105273139 0.021535091000674782 0 -0.012440064652551807 0.020804340744689221 0 -0.012949800991492986 0.021845309186714453 0 -0.012733137695399452 0.021591534543144029 0 -0.012985403105273139 0.021535091000674782 0 -0.012985403105273139 0.021535091000674782 0 -0.013296190157532113 0.021777700591019696 0 -0.013493827235766925 0.021481266557481473 0 -0.012949800991492986 0.021845309186714453 0 -0.012985403105273139 0.021535091000674782 0 -0.013296190157532113 0.021777700591019696 0 -0.013208372204861839 0.020294466567838433 0 -0.013069514155954528 0.020165932555651352 0 -0.012864408534877247 0.020310058744616021 0 -0.014219445404183802 0.021686072035316206 0 -0.013493827235766925 0.021481266557481473 0 -0.01363392869592017 0.021804603333788766 0 -0.012828168592769196 0.020085031076789408 0 -0.01297360454549777 0.020237819991724235 0 -0.013208372204861839 0.020294466567838433 0 -0.01297360454549777 0.020237819991724235 0 -0.013208372204861839 0.020294466567838433 0 -0.013185416896556496 0.020241065574587082 0 -0.01102413915595906 0.024181971394007656 0 -0.013764076013473067 0.020610762315420299 0 -0.013208372204861839 0.020294466567838433 0 -0.013185416896556496 0.020241065574587082 0 -0.013069514155954528 0.020165932555651352 0 -0.013296190157532113 0.021777700591019696 0 -0.013493827235766925 0.021481266557481473 0 -0.01363392869592017 0.021804603333788766 0 -0.01333747565566324 0.01983112379470393 0 -0.013154022617838308 0.01985505758268789 0 -0.013185416896556496 0.020241065574587082 0 -0.013154022617838308 0.01985505758268789 0 -0.013185416896556496 0.020241065574587082 0 -0.013069514155954528 0.020165932555651352 0 -0.013069514155954528 0.020165932555651352 0 -0.01286187037065121 0.019934733706987746 0 -0.012864408534877247 0.020310058744616021 0 -0.013154022617838308 0.01985505758268789 0 -0.013069514155954528 0.020165932555651352 0 -0.01286187037065121 0.019934733706987746 0 -0.013154022617838308 0.01985505758268789 0 -0.01286187037065121 0.019934733706987746 0 -0.012996912329429865 0.019516930680421998 0 -0.01286187037065121 0.019934733706987746 0 -0.012864408534877247 0.020310058744616021 0 -0.012591331629844146 0.020201577845397268 0 -0.012864408534877247 0.020310058744616021 0 -0.012591331629844146 0.020201577845397268 0 -0.012440064652551807 0.020804340744689221 0 -0.01286187037065121 0.019934733706987746 0 -0.012996912329429865 0.019516930680421998 0 -0.01268035460034333 0.019319519722134741 0 -0.01286187037065121 0.019934733706987746 0 -0.01268035460034333 0.019319519722134741 0 -0.012432307832483794 0.019746888853681234 0 -0.012996912329429865 0.019516930680421998 0 -0.013326572855858268 0.019389127173361605 0 -0.012964750004462412 0.018785155597076296 0 -0.013154022617838308 0.01985505758268789 0 -0.012996912329429865 0.019516930680421998 0 -0.013326572855858268 0.019389127173361605 0 -0.01333747565566324 0.01983112379470393 0 -0.013154022617838308 0.01985505758268789 0 -0.013326572855858268 0.019389127173361605 0 -0.0090338762084741855 0.01208254094123614 0 -0.0077377794553017843 0.013508359777285242 0 -0.0092222496806396471 0.014863026365446244 0 -0.01116413103014228 0.015382229778572712 0 -0.011878095267658931 0.01653517546757443 0 -0.0090338762084741855 0.01208254094123614 0 -0.010780908241568368 0.014174277036898207 0 -0.0092222496806396471 0.014863026365446244 0 -0.012996912329429865 0.019516930680421998 0 -0.012964750004462412 0.018785155597076296 0 -0.01268035460034333 0.019319519722134741 0 -0.012964750004462412 0.018785155597076296 0 -0.012644856548713041 0.018753207655348294 0 -0.01268035460034333 0.019319519722134741 0 -0.0050575220669607183 0.010546518990961725 0 -0.0065799446300844593 0.011978428084819828 0 -0.0043707143612216198 0.012488323164885105 0 -0.0071393035417841536 0.0099521771482489578 0 -0.0050575220669607183 0.010546518990961725 0 -0.0065799446300844593 0.011978428084819828 0 -0.0090338762084741855 0.01208254094123614 0 -0.0065799446300844593 0.011978428084819828 0 -0.0077377794553017843 0.013508359777285242 0 -0.0096784867537953387 0.01718356118082533 0 -0.01116413103014228 0.015382229778572712 0 -0.0071393035417841536 0.0099521771482489578 0 -0.0090338762084741855 0.01208254094123614 0 -0.0065799446300844593 0.011978428084819828 0 -0.0065799446300844593 0.011978428084819828 0 -0.0077377794553017843 0.013508359777285242 0 -0.0060489319338760351 0.01350692948969073 0 -0.0077377794553017843 0.013508359777285242 0 -0.0060489319338760351 0.01350692948969073 0 -0.0077397869173281364 0.015067415345323302 0 -0.0065799446300844593 0.011978428084819828 0 -0.0060489319338760351 0.01350692948969073 0 -0.0043707143612216198 0.012488323164885105 0 -0.0043707143612216198 0.012488323164885105 0 -0.0026636662870864044 0.01335999070975839 0 -0.0041667413921610361 0.014880549014548225 0 -0.0060489319338760351 0.01350692948969073 0 -0.0043707143612216198 0.012488323164885105 0 -0.0041667413921610361 0.014880549014548225 0 -0.0043707143612216198 0.012488323164885105 0 -0.0029306824405574265 0.011163376788279406 0 -0.0026636662870864044 0.01335999070975839 0 -0.0050575220669607183 0.010546518990961725 0 -0.0043707143612216198 0.012488323164885105 0 -0.0029306824405574265 0.011163376788279406 0 -0.0049364036652381092 0.014014504132796795 0 -0.0010754976019976715 0.015965224345794397 0 0.00047653377469645582 0.013775736714305438 0 0.0021355219582756243 0.015041953283238629 0 0.0023157024632461331 0.014376917051318674 0 0.00054350710395084092 0.02122172298653488 0 0.0029599288549402043 0.021476038492862764 0 0.00056080720441543442 0.020094968346182799 0 -0.0010754976019976715 0.015965224345794397 0 0.0026813630654424041 0.018149371254422758 0 0.0049954547403658622 0.025151876520377914 0 0.0021687092828737492 0.022417074288486646 0 -0.0010754976019976715 0.015965224345794397 0 0.00075424957927481108 0.013471657989899107 0 -0.0029306824405574265 0.011163376788279406 0 -0.0026636662870864044 0.01335999070975839 0 -0.00023413322936377396 0.013069627431093777 0 -0.0026636662870864044 0.01335999070975839 0 -0.00023413322936377396 0.013069627431093777 0 -0.0013090359521505752 0.014467510642894197 0 0.0041614372134739864 0.01498341512365396 0 0.0021355219582756243 0.015041953283238629 0 0.0023157024632461331 0.014376917051318674 0 0.0041614372134739864 0.01498341512365396 0 0.0021355219582756243 0.015041953283238629 0 0.0037788906147917965 0.016355290513287258 0 0.00075424957927481108 0.013471657989899107 0 0.0032795181611275756 0.015951343922796079 0 0.0059970386010511486 0.021066187229448547 0 0.0026813630654424041 0.018149371254422758 0 0.0089895348274180564 0.028766119798676899 0 0.0085273213047348598 0.02683966331500914 0 0.0062372242136760278 0.027207776137792388 0 0.0085273213047348598 0.02683966331500914 0 0.0062372242136760278 0.027207776137792388 0 0.0072464011220867664 0.025057287314148604 0 0.0059970386010511486 0.021066187229448547 0 0.0049954547403658622 0.025151876520377914 0 0.0053640188676334225 0.022837293957998953 0 0.0029599288549402043 0.021476038492862764 0 0.0029514641914916689 0.022045928410138953 0 0.00054350710395084092 0.02122172298653488 0 0.0029599288549402043 0.021476038492862764 0 0.0029514641914916689 0.022045928410138953 0 0.0062372242136760278 0.027207776137792388 0 0.0072464011220867664 0.025057287314148604 0 0.0046703300272737764 0.024441551302165333 0 0.0091380688133698065 0.025183519217499766 0 0.0072464011220867664 0.025057287314148604 0 0.0086262923624682991 0.023500120173554993 0 0.0091380688133698065 0.025183519217499766 0 0.0085273213047348598 0.02683966331500914 0 0.0072464011220867664 0.025057287314148604 0 0.0096738551180953879 0.032401495613745265 0 0.0097717737032405709 0.032445860203956844 0 0.0096514851292100155 0.032419485804459053 0 0.0072951936535286064 0.023947951299774433 0 0.0086262923624682991 0.023500120173554993 0 0.0063081285172624851 0.02296731617033226 0 0.0093346533193468754 0.027976261896965466 0 0.0071733295150836389 0.027997861904844337 0 0.0072464011220867664 0.025057287314148604 0 0.0072951936535286064 0.023947951299774433 0 0.0086262923624682991 0.023500120173554993 0 0.0072464011220867664 0.025057287314148604 0 0.0058941409457034877 0.02373239950297756 0 0.0046703300272737764 0.024441551302165333 0 0.0072464011220867664 0.025057287314148604 0 0.0072951936535286064 0.023947951299774433 0 0.0058941409457034877 0.02373239950297756 0 0.0072951936535286064 0.023947951299774433 0 0.0058941409457034877 0.02373239950297756 0 0.0063081285172624851 0.02296731617033226 0 0.0045866690313953679 0.022581723944874413 0 0.0058941409457034877 0.02373239950297756 0 0.006292302829205205 0.02298498245183573 0 0.0035772322396396901 0.030699245723457447 0 0.0071733295150836389 0.027997861904844337 0 0.0075030121194717709 0.024694251092125846 0 0.0071733295150836389 0.027997861904844337 0 0.0045866690313953679 0.022581723944874413 0 0.0046703300272737764 0.024441551302165333 0 0.0014960619558422566 0.023005603733879082 0 0.0045866690313953679 0.022581723944874413 0 0.0058941409457034877 0.02373239950297756 0 0.0046703300272737764 0.024441551302165333 0 0.00060077544325690807 0.023950607811843033 0 0.0014960619558422566 0.023005603733879082 0 0.003435026897037802 0.025605478370279218 0 0.0035772322396396901 0.030699245723457447 0 -0.0012538216645397726 0.031311234064881517 0 0.0046703300272737764 0.024441551302165333 0 0.0014960619558422566 0.023005603733879082 0 0.003435026897037802 0.025605478370279218 0 -0.0017851550054720172 0.018745518681922035 0 -0.00079834533491164638 0.020163060053623977 0 0.00056080720441543442 0.020094968346182799 0 -0.0046880912149135645 0.017787153192056291 0 -0.0025674779072392072 0.018501712297676363 0 -0.0041815577413286814 0.017247083764158695 0 -0.0025913190603567811 0.02385940607380101 0 0.0021687092828737492 0.022417074288486646 0 0.00054350710395084092 0.02122172298653488 0 -0.00079834533491164638 0.020163060053623977 0 0.00056080720441543442 0.020094968346182799 0 -0.0010754976019976715 0.015965224345794397 0 -0.0022059309911157034 0.01893919610240594 0 0.0062372242136760278 0.027207776137792388 0 0.0046703300272737764 0.024441551302165333 0 0.003435026897037802 0.025605478370279218 0 -0.034517589673866103 0.024533527110845176 0 -0.034133300721848142 0.024499934374895737 0 -0.034431170389643141 0.024225302989049416 0 -0.034517589673866103 0.024533527110845176 0 -0.03459073449354743 0.025002968410953588 0 -0.034272548689812929 0.02496245376084073 0 -0.034517589673866103 0.024533527110845176 0 -0.03483652543323118 0.024668195125172109 0 -0.03459073449354743 0.025002968410953588 0 -0.034517589673866103 0.024533527110845176 0 -0.03483652543323118 0.024668195125172109 0 -0.034655591635879057 0.024372834056353911 0 -0.03483652543323118 0.024668195125172109 0 -0.034655591635879057 0.024372834056353911 0 -0.034656410847777916 0.024262647811013189 0 -0.03483652543323118 0.024668195125172109 0 -0.034873583783933813 0.025439657189171933 0 -0.03459073449354743 0.025002968410953588 0 -0.03483652543323118 0.024668195125172109 0 -0.034873583783933813 0.025439657189171933 0 -0.035411868332451309 0.024980249483149631 0 -0.034272548689812929 0.02496245376084073 0 -0.034473132060185117 0.025490253664766972 0 -0.034088734475198099 0.02552492466333901 0 -0.034873583783933813 0.025439657189171933 0 -0.03459073449354743 0.025002968410953588 0 -0.034473132060185117 0.025490253664766972 0 -0.03459073449354743 0.025002968410953588 0 -0.034272548689812929 0.02496245376084073 0 -0.034473132060185117 0.025490253664766972 0 -0.034272548689812929 0.02496245376084073 0 -0.03384681651783783 0.02487393745072625 0 -0.034088734475198099 0.02552492466333901 0 -0.034272548689812929 0.02496245376084073 0 -0.03384681651783783 0.02487393745072625 0 -0.034133300721848142 0.024499934374895737 0 -0.03384681651783783 0.02487393745072625 0 -0.034133300721848142 0.024499934374895737 0 -0.033796889272273756 0.024287451487406242 0 -0.034133300721848142 0.024499934374895737 0 -0.034072629385399678 0.024076250621577162 0 -0.033796889272273756 0.024287451487406242 0 -0.034517589673866103 0.024533527110845176 0 -0.034272548689812929 0.02496245376084073 0 -0.034133300721848142 0.024499934374895737 0 -0.034133300721848142 0.024499934374895737 0 -0.034072629385399678 0.024076250621577162 0 -0.034431170389643141 0.024225302989049416 0 -0.034347298294722391 0.023916139746568466 0 -0.034072629385399678 0.024076250621577162 0 -0.034135428166703299 0.023391881623934803 0 -0.034347298294722391 0.023916139746568466 0 -0.034072629385399678 0.024076250621577162 0 -0.034431170389643141 0.024225302989049416 0 -0.033737310855306631 0.02377968099868542 0 -0.034072629385399678 0.024076250621577162 0 -0.033796889272273756 0.024287451487406242 0 -0.033737310855306631 0.02377968099868542 0 -0.034072629385399678 0.024076250621577162 0 -0.034135428166703299 0.023391881623934803 0 -0.033737310855306631 0.02377968099868542 0 -0.034135428166703299 0.023391881623934803 0 -0.033806916232710857 0.022849618624088658 0 -0.034135428166703299 0.023391881623934803 0 -0.03474437154687815 0.023369071534230422 0 -0.034369639216396408 0.022960662923946749 0 -0.034347298294722391 0.023916139746568466 0 -0.034135428166703299 0.023391881623934803 0 -0.03474437154687815 0.023369071534230422 0 -0.034271119973274228 0.023998795282405304 0 -0.034869656751080919 0.02341766155179496 0 -0.034347298294722391 0.023916139746568466 0 -0.034453459179993186 0.023994479755614789 0 -0.034553853185193155 0.024171304423012314 0 -0.034453459179993186 0.023994479755614789 0 -0.034563756469860124 0.024052778936348846 0 -0.0345332312605676 0.023911592483899131 0 -0.034453459179993186 0.023994479755614789 0 -0.034553853185193155 0.024171304423012314 0 -0.034563756469860124 0.024052778936348846 0 -0.034517589673866103 0.024533527110845176 0 -0.034431170389643141 0.024225302989049416 0 -0.034553853185193155 0.024171304423012314 0 -0.034347298294722391 0.023916139746568466 0 -0.034431170389643141 0.024225302989049416 0 -0.034553853185193155 0.024171304423012314 0 -0.034517589673866103 0.024533527110845176 0 -0.034553853185193155 0.024171304423012314 0 -0.034655591635879057 0.024372834056353911 0 -0.034553853185193155 0.024171304423012314 0 -0.034655591635879057 0.024372834056353911 0 -0.034656410847777916 0.024262647811013189 0 -0.034553853185193155 0.024171304423012314 0 -0.034563756469860124 0.024052778936348846 0 -0.034656410847777916 0.024262647811013189 0 -0.029012401910891859 0.023022969840184166 0 -0.030956280295824666 0.02281194765120096 0 -0.034563756469860124 0.024052778936348846 0 -0.034662336686213144 0.024118799008939592 0 -0.034656410847777916 0.024262647811013189 0 -0.034563756469860124 0.024052778936348846 0 -0.034662336686213144 0.024118799008939592 0 -0.0345332312605676 0.023911592483899131 0 -0.024076389308919456 0.022187007857505069 0 -0.023373657855628324 0.022230140601898964 0 -0.023986902098363697 0.022659612012886628 0 -0.024076389308919456 0.022187007857505069 0 -0.023373657855628324 0.022230140601898964 0 -0.023584784448649511 0.021724769898426071 0 -0.023373657855628324 0.022230140601898964 0 -0.023584784448649511 0.021724769898426071 0 -0.022748750292735063 0.02186851690191104 0 -0.029012401910891859 0.023022969840184166 0 -0.030297906836469022 0.02342409230229734 0 -0.034662336686213144 0.024118799008939592 0 -0.034643415908013508 0.02436912914455952 0 -0.034656410847777916 0.024262647811013189 0 -0.012346008368017383 0.018692775109380982 0 -0.014688949842146137 0.020273945630107718 0 -0.012644856548713041 0.018753207655348294 0 -0.012093694096142065 0.019368279498776616 0 -0.01268035460034333 0.019319519722134741 0 -0.014688949842146137 0.020273945630107718 0 -0.018281315535404376 0.020813629373096599 0 -0.023373657855628324 0.022230140601898964 0 -0.022748750292735063 0.02186851690191104 0 -0.023010652527115882 0.022672125501221167 0 -0.012644856548713041 0.018753207655348294 0 -0.012591823281824103 0.01893955179365811 0 -0.012573121845189029 0.018554269203656323 0 -0.023584784448649511 0.021724769898426071 0 -0.022748750292735063 0.02186851690191104 0 -0.0231022674154105 0.021268874953222452 0 -0.012093694096142065 0.019368279498776616 0 -0.01268035460034333 0.019319519722134741 0 -0.012432307832483794 0.019746888853681234 0 -0.014688949842146137 0.020273945630107718 0 -0.012069268540979167 0.021046130910922781 0 -0.012093694096142065 0.019368279498776616 0 -0.012432307832483794 0.019746888853681234 0 -0.012139302414573292 0.020323749817182834 0 -0.012591331629844146 0.020201577845397268 0 -0.012139302414573292 0.020323749817182834 0 -0.012440064652551807 0.020804340744689221 0 -0.01286187037065121 0.019934733706987746 0 -0.012432307832483794 0.019746888853681234 0 -0.012591331629844146 0.020201577845397268 0 -0.012432307832483794 0.019746888853681234 0 -0.012591331629844146 0.020201577845397268 0 -0.012139302414573292 0.020323749817182834 0 -0.012484911065582003 0.021629016100241559 0 -0.012475227126183035 0.021765315945290048 0 -0.01239791435315374 0.021775199203124006 0 -0.014688949842146137 0.020273945630107718 0 -0.020357841472460017 0.024128788664145653 0 -0.012954265784701866 0.030929723415979681 0 -0.012293771637131847 0.032252581035613626 0 -0.014417344940307528 0.032738195184865107 0 -0.012475227126183035 0.021765315945290048 0 -0.01239791435315374 0.021775199203124006 0 -0.01240518163147543 0.021998136245559356 0 -0.020357841472460017 0.024128788664145653 0 -0.012551479980637121 0.026203651812759163 0 -0.012139302414573292 0.020323749817182834 0 -0.012440064652551807 0.020804340744689221 0 -0.012585399458225432 0.022096932174448622 0 -0.012069268540979167 0.021046130910922781 0 -0.012629024396269077 0.022053613347813115 0 -0.012733137695399452 0.021591534543144029 0 -0.012440064652551807 0.020804340744689221 0 -0.012585399458225432 0.022096932174448622 0 -0.012475227126183035 0.021765315945290048 0 -0.01240518163147543 0.021998136245559356 0 -0.012585399458225432 0.022096932174448622 0 -0.03483652543323118 0.024668195125172109 0 -0.034656410847777916 0.024262647811013189 0 -0.035411868332451309 0.024980249483149631 0 -0.034643415908013508 0.02436912914455952 0 -0.034656410847777916 0.024262647811013189 0 -0.034202415812079313 0.025016536279816398 0 -0.034342324679691033 0.025155626627041031 0 -0.036410103347907924 0.02291273724324518 0 -0.030297906836469022 0.02342409230229734 0 -0.020357841472460017 0.024128788664145653 0 -0.034643415908013508 0.02436912914455952 0 -0.03458916236362284 0.024931214258577864 0 -0.034202415812079313 0.025016536279816398 0 -0.034643415908013508 0.02436912914455952 0 -0.034909887551046431 0.024874365415202878 0 -0.03458916236362284 0.024931214258577864 0 -0.03458916236362284 0.024931214258577864 0 -0.034759103756474369 0.025503109844829789 0 -0.034447075988446429 0.025441449828382066 0 -0.03458916236362284 0.024931214258577864 0 -0.034447075988446429 0.025441449828382066 0 -0.034202415812079313 0.025016536279816398 0 -0.020357841472460017 0.024128788664145653 0 -0.017070438458617176 0.033587567276838266 0 -0.034909887551046431 0.024874365415202878 0 -0.03458916236362284 0.024931214258577864 0 -0.034759103756474369 0.025503109844829789 0 -0.034447075988446429 0.025441449828382066 0 -0.034202415812079313 0.025016536279816398 0 -0.034201369705715252 0.026498811580765072 0 -0.035411868332451309 0.024980249483149631 0 -0.035237991611750341 0.026113766841594329 0 -0.035852542494461022 0.026203268706181261 0 -0.034873583783933813 0.025439657189171933 0 -0.035411868332451309 0.024980249483149631 0 -0.035237991611750341 0.026113766841594329 0 -0.036410103347907924 0.02291273724324518 0 -0.021525718293289191 0.03749800076408099 0 -0.0077749630650794325 0.046961068986784815 0 -0.0065412602776082716 0.049528417041405565 0 -0.0083486558886619894 0.049206755551586261 0 -0.034759103756474369 0.025503109844829789 0 -0.034447075988446429 0.025441449828382066 0 -0.034201369705715252 0.026498811580765072 0 -0.017070438458617176 0.033587567276838266 0 -0.021525718293289191 0.03749800076408099 0 -0.0065412602776082716 0.049528417041405565 0 -0.0083486558886619894 0.049206755551586261 0 -0.0089190778348517078 0.050974022818432704 0 -0.0065412602776082716 0.049528417041405565 0 -0.0089190778348517078 0.050974022818432704 0 -0.0074467058568236776 0.052274649513716409 0 -0.021525718293289191 0.03749800076408099 0 -0.0073509042209045057 0.053759247833956574 0 -0.0077108326509137976 0.049453363488735649 0 -0.0063795960263842606 0.052228600821872882 0 -0.0082594345488240795 0.051943898958198648 0 -0.035237991611750341 0.026113766841594329 0 -0.035448016284963038 0.0272712773772079 0 -0.034926490682163865 0.026773548277163575 0 -0.035237991611750341 0.026113766841594329 0 -0.035852542494461022 0.026203268706181261 0 -0.035448016284963038 0.0272712773772079 0 -0.021525718293289191 0.03749800076408099 0 -0.020762876340362165 0.039685664994909865 0 -0.012964509718770669 0.022787334304787597 0 -0.01240518163147543 0.021998136245559356 0 -0.012585399458225432 0.022096932174448622 0 -0.010439795046455216 0.036674992534923519 0 -0.012551479980637121 0.026203651812759163 0 -0.015902525870353759 0.034568955133590165 0 -0.014417344940307528 0.032738195184865107 0 -0.013762504162888234 0.033687475711133938 0 -0.0077749630650794325 0.046961068986784815 0 -0.0083486558886619894 0.049206755551586261 0 -0.010166929772958591 0.049356349881928135 0 -0.012293771637131847 0.032252581035613626 0 -0.014417344940307528 0.032738195184865107 0 -0.013762504162888234 0.033687475711133938 0 -0.017070438458617176 0.033587567276838266 0 -0.011254566687975231 0.04191850599800543 0 -0.0089190778348517078 0.050974022818432704 0 -0.01049230016093 0.052243842633017124 0 -0.0095853449037571481 0.052557054964731037 0 -0.010166929772958591 0.049356349881928135 0 -0.0089190778348517078 0.050974022818432704 0 -0.011404890694314428 0.051707054186081021 0 -0.0088744112956817799 0.05100865263851663 0 -0.011273869022310522 0.052174900682101844 0 -0.0083486558886619894 0.049206755551586261 0 -0.010166929772958591 0.049356349881928135 0 -0.0089190778348517078 0.050974022818432704 0 -0.012326359483504324 0.051373685736320993 0 -0.010166929772958591 0.049356349881928135 0 -0.011404890694314428 0.051707054186081021 0 -0.015245846508293977 0.035136663043123656 0 -0.015902525870353759 0.034568955133590165 0 -0.013762504162888234 0.033687475711133938 0 -0.012847365958622053 0.044267440898023765 0 -0.011254566687975231 0.04191850599800543 0 -0.010996206836407608 0.053392091835507069 0 -0.010212456079235144 0.053167070055659259 0 -0.010419025154040053 0.054211804752019303 0 -0.01049230016093 0.052243842633017124 0 -0.010996206836407608 0.053392091835507069 0 -0.010212456079235144 0.053167070055659259 0 -0.01049230016093 0.052243842633017124 0 -0.010212456079235144 0.053167070055659259 0 -0.0095853449037571481 0.052557054964731037 0 -0.010212456079235144 0.053167070055659259 0 -0.0094692301413489433 0.053613628981741962 0 -0.010419025154040053 0.054211804752019303 0 -0.010212456079235144 0.053167070055659259 0 -0.0094692301413489433 0.053613628981741962 0 -0.0095853449037571481 0.052557054964731037 0 -0.0094692301413489433 0.053613628981741962 0 -0.0095853449037571481 0.052557054964731037 0 -0.0087682546373506597 0.052820023714448133 0 -0.0089190778348517078 0.050974022818432704 0 -0.0087682546373506597 0.052820023714448133 0 -0.0074467058568236776 0.052274649513716409 0 -0.0089190778348517078 0.050974022818432704 0 -0.0095853449037571481 0.052557054964731037 0 -0.0087682546373506597 0.052820023714448133 0 -0.0094692301413489433 0.053613628981741962 0 -0.0087682546373506597 0.052820023714448133 0 -0.0084597395708123808 0.054219778427711689 0 -0.0094692301413489433 0.053613628981741962 0 -0.009422067429712605 0.055143900673028309 0 -0.0084597395708123808 0.054219778427711689 0 -0.009422067429712605 0.055143900673028309 0 -0.0084597395708123808 0.054219778427711689 0 -0.0083196818791319745 0.055508805951088515 0 -0.0094692301413489433 0.053613628981741962 0 -0.009422067429712605 0.055143900673028309 0 -0.010419025154040053 0.054211804752019303 0 -0.009422067429712605 0.055143900673028309 0 -0.010419025154040053 0.054211804752019303 0 -0.010370295967306965 0.055481156368659336 0 -0.01152642399169199 0.054647288889560573 0 -0.010419025154040053 0.054211804752019303 0 -0.010370295967306965 0.055481156368659336 0 -0.0063795960263842606 0.052228600821872882 0 -0.0082594345488240795 0.051943898958198648 0 -0.0070522405493303438 0.054086808870978637 0 -0.0073509042209045057 0.053759247833956574 0 -0.0083411883961112369 0.053431001182278483 0 -0.0087682546373506597 0.052820023714448133 0 -0.0074467058568236776 0.052274649513716409 0 -0.0084597395708123808 0.054219778427711689 0 -0.0084597395708123808 0.054219778427711689 0 -0.0070522405493303438 0.054086808870978637 0 -0.0083196818791319745 0.055508805951088515 0 -0.0082594345488240795 0.051943898958198648 0 -0.0084597395708123808 0.054219778427711689 0 -0.0070522405493303438 0.054086808870978637 0 -0.0063795960263842606 0.052228600821872882 0 -0.0070522405493303438 0.054086808870978637 0 -0.0054050071942067053 0.054544764692793977 0 -0.0070522405493303438 0.054086808870978637 0 -0.0054050071942067053 0.054544764692793977 0 -0.0070700744309131853 0.05573823433522529 0 -0.020762876340362165 0.039685664994909865 0 -0.021849230271264938 0.042491679919925467 0 -0.034942712534956663 0.028517233272748275 0 -0.03464737795892648 0.027821377451957719 0 -0.034916330270081786 0.027423985759032498 0 -0.03546459194151709 0.029078062324485621 0 -0.034389358716106808 0.028091346190766645 0 -0.03505023753908619 0.029874506874599097 0 -0.021849230271264938 0.042491679919925467 0 -0.034387835827384548 0.030454969992876963 0 -0.034942712534956663 0.028517233272748275 0 -0.03464737795892648 0.027821377451957719 0 -0.034389358716106808 0.028091346190766645 0 -0.031079685116343504 0.036624568783108935 0 -0.030944220617871356 0.034728111825005986 0 -0.033076759551025917 0.037493444341506039 0 -0.034389358716106808 0.028091346190766645 0 -0.034034595858723191 0.027986473168368844 0 -0.03505023753908619 0.029874506874599097 0 -0.032684541787944554 0.030429627528670577 0 -0.02690541448860554 0.043580556354890755 0 -0.029847624744663185 0.03572012449346941 0 -0.031079685116343504 0.036624568783108935 0 -0.029847167461500117 0.03753200913283896 0 -0.029847624744663185 0.03572012449346941 0 -0.031079685116343504 0.036624568783108935 0 -0.030944220617871356 0.034728111825005986 0 -0.034322882988221795 0.027752800035601315 0 -0.034034595858723191 0.027986473168368844 0 -0.034122615571930338 0.027463263288285321 0 -0.03464737795892648 0.027821377451957719 0 -0.034389358716106808 0.028091346190766645 0 -0.034322882988221795 0.027752800035601315 0 -0.034389358716106808 0.028091346190766645 0 -0.034322882988221795 0.027752800035601315 0 -0.034034595858723191 0.027986473168368844 0 -0.029847624744663185 0.03572012449346941 0 -0.030944220617871356 0.034728111825005986 0 -0.029454589183744252 0.034685876496929162 0 -0.032684541787944554 0.030429627528670577 0 -0.032081524558350831 0.02930374264496664 0 -0.034034595858723191 0.027986473168368844 0 -0.034122615571930338 0.027463263288285321 0 -0.033872935105659328 0.027066147762267088 0 -0.030944220617871356 0.034728111825005986 0 -0.029111921867743289 0.032409047781908389 0 -0.029454589183744252 0.034685876496929162 0 -0.034122615571930338 0.027463263288285321 0 -0.034410309379381276 0.027486271037737684 0 -0.034160730827309749 0.027175271511026444 0 -0.034322882988221795 0.027752800035601315 0 -0.034122615571930338 0.027463263288285321 0 -0.034410309379381276 0.027486271037737684 0 -0.03464737795892648 0.027821377451957719 0 -0.034322882988221795 0.027752800035601315 0 -0.034410309379381276 0.027486271037737684 0 -0.034471503213223682 0.027018410597278848 0 -0.034160730827309749 0.027175271511026444 0 -0.034159212921282156 0.026771653827937607 0 -0.034410309379381276 0.027486271037737684 0 -0.034471503213223682 0.027018410597278848 0 -0.034160730827309749 0.027175271511026444 0 -0.034122615571930338 0.027463263288285321 0 -0.034160730827309749 0.027175271511026444 0 -0.033835319367157154 0.026898606599526573 0 -0.034160730827309749 0.027175271511026444 0 -0.034159212921282156 0.026771653827937607 0 -0.033835319367157154 0.026898606599526573 0 -0.035448016284963038 0.0272712773772079 0 -0.034942712534956663 0.028517233272748275 0 -0.034916330270081786 0.027423985759032498 0 -0.03464737795892648 0.027821377451957719 0 -0.034410309379381276 0.027486271037737684 0 -0.034916330270081786 0.027423985759032498 0 -0.034410309379381276 0.027486271037737684 0 -0.034471503213223682 0.027018410597278848 0 -0.034916330270081786 0.027423985759032498 0 -0.034471503213223682 0.027018410597278848 0 -0.034916330270081786 0.027423985759032498 0 -0.034926490682163865 0.026773548277163575 0 -0.035448016284963038 0.0272712773772079 0 -0.034916330270081786 0.027423985759032498 0 -0.034926490682163865 0.026773548277163575 0 -0.035237991611750341 0.026113766841594329 0 -0.034926490682163865 0.026773548277163575 0 -0.034892351952173516 0.026168963974330838 0 -0.034892351952173516 0.026168963974330838 0 -0.034504933386794792 0.026477183229888665 0 -0.034598531703277341 0.025930219175144032 0 -0.034926490682163865 0.026773548277163575 0 -0.034892351952173516 0.026168963974330838 0 -0.034504933386794792 0.026477183229888665 0 -0.034471503213223682 0.027018410597278848 0 -0.034926490682163865 0.026773548277163575 0 -0.034504933386794792 0.026477183229888665 0 -0.034471503213223682 0.027018410597278848 0 -0.034159212921282156 0.026771653827937607 0 -0.034504933386794792 0.026477183229888665 0 -0.034159212921282156 0.026771653827937607 0 -0.034242987186462751 0.026112376543517692 0 -0.034504933386794792 0.026477183229888665 0 -0.034159212921282156 0.026771653827937607 0 -0.034242987186462751 0.026112376543517692 0 -0.033984065052703856 0.026392712008280576 0 -0.034242987186462751 0.026112376543517692 0 -0.034504933386794792 0.026477183229888665 0 -0.034598531703277341 0.025930219175144032 0 -0.034242987186462751 0.026112376543517692 0 -0.034598531703277341 0.025930219175144032 0 -0.034473132060185117 0.025490253664766972 0 -0.034242987186462751 0.026112376543517692 0 -0.034473132060185117 0.025490253664766972 0 -0.034088734475198099 0.02552492466333901 0 -0.034873583783933813 0.025439657189171933 0 -0.034598531703277341 0.025930219175144032 0 -0.034473132060185117 0.025490253664766972 0 -0.034873583783933813 0.025439657189171933 0 -0.034892351952173516 0.026168963974330838 0 -0.034598531703277341 0.025930219175144032 0 -0.034873583783933813 0.025439657189171933 0 -0.035237991611750341 0.026113766841594329 0 -0.034892351952173516 0.026168963974330838 0 -0.03384681651783783 0.02487393745072625 0 -0.033748375711861747 0.026170309301530411 0 -0.032788320989556564 0.026173552380763215 0 -0.03384681651783783 0.02487393745072625 0 -0.034088734475198099 0.02552492466333901 0 -0.033748375711861747 0.026170309301530411 0 -0.03380128115942229 0.024992442880250876 0 -0.033551035826579603 0.025747842421710791 0 -0.034242987186462751 0.026112376543517692 0 -0.034088734475198099 0.02552492466333901 0 -0.034013567150907989 0.026024077123564672 0 -0.034088734475198099 0.02552492466333901 0 -0.034013567150907989 0.026024077123564672 0 -0.033748375711861747 0.026170309301530411 0 -0.034013567150907989 0.026024077123564672 0 -0.033984065052703856 0.026392712008280576 0 -0.033748375711861747 0.026170309301530411 0 -0.034093969454643207 0.027057806006641393 0 -0.033748375711861747 0.026170309301530411 0 -0.035019617070982875 0.027326730402594465 0 -0.033988395032081113 0.02615214336316788 0 -0.033049721211570009 0.028258022664158743 0 -0.033984065052703856 0.026392712008280576 0 -0.033748375711861747 0.026170309301530411 0 -0.033835319367157154 0.026898606599526573 0 -0.034242987186462751 0.026112376543517692 0 -0.034013567150907989 0.026024077123564672 0 -0.033984065052703856 0.026392712008280576 0 -0.034159212921282156 0.026771653827937607 0 -0.033984065052703856 0.026392712008280576 0 -0.033835319367157154 0.026898606599526573 0 -0.033627639135950238 0.026959311865377356 0 -0.033748375711861747 0.026170309301530411 0 -0.032788320989556564 0.026173552380763215 0 -0.034093969454643207 0.027057806006641393 0 -0.033627639135950238 0.026959311865377356 0 -0.033748375711861747 0.026170309301530411 0 -0.033627639135950238 0.026959311865377356 0 -0.033010127498430297 0.027280484218821455 0 -0.032788320989556564 0.026173552380763215 0 -0.033010127498430297 0.027280484218821455 0 -0.033970445599613527 0.027836518853636565 0 -0.032952793939439583 0.028847289625527971 0 -0.033627639135950238 0.026959311865377356 0 -0.033010127498430297 0.027280484218821455 0 -0.033970445599613527 0.027836518853636565 0 -0.034093969454643207 0.027057806006641393 0 -0.033627639135950238 0.026959311865377356 0 -0.033970445599613527 0.027836518853636565 0 -0.035284955802924942 0.027581655319854997 0 -0.033970445599613527 0.027836518853636565 0 -0.034646246278989191 0.030050213459150672 0 -0.035284955802924942 0.027581655319854997 0 -0.035019617070982875 0.027326730402594465 0 -0.033970445599613527 0.027836518853636565 0 -0.034122615571930338 0.027463263288285321 0 -0.033872935105659328 0.027066147762267088 0 -0.033835319367157154 0.026898606599526573 0 -0.032081524558350831 0.02930374264496664 0 -0.033049721211570009 0.028258022664158743 0 -0.034093969454643207 0.027057806006641393 0 -0.035019617070982875 0.027326730402594465 0 -0.033970445599613527 0.027836518853636565 0 -0.029111921867743289 0.032409047781908389 0 -0.029454589183744252 0.034685876496929162 0 -0.027973141275157543 0.035836923422571165 0 -0.032081524558350831 0.02930374264496664 0 -0.031248305097016229 0.033024524894846988 0 -0.029847624744663185 0.03572012449346941 0 -0.027973141275157543 0.035836923422571165 0 -0.029847167461500117 0.03753200913283896 0 -0.029847624744663185 0.03572012449346941 0 -0.029454589183744252 0.034685876496929162 0 -0.027973141275157543 0.035836923422571165 0 -0.034646246278989191 0.030050213459150672 0 -0.032767684081714862 0.031400625120469566 0 -0.031861408061775634 0.030086628539976866 0 -0.03383960773049232 0.027963017762412064 0 -0.032498517008046977 0.029401584563010303 0 -0.033970445599613527 0.027836518853636565 0 -0.034646246278989191 0.030050213459150672 0 -0.031861408061775634 0.030086628539976866 0 -0.032767684081714862 0.031400625120469566 0 -0.031320708693119877 0.031989058074674719 0 -0.031861408061775634 0.030086628539976866 0 -0.031124251859029832 0.036346066618001736 0 -0.032186463721553475 0.031720865624537124 0 -0.033435968232306872 0.032577635940295037 0 -0.033241141416935821 0.03318948175307998 0 -0.031320708693119877 0.031989058074674719 0 -0.032767684081714862 0.031400625120469566 0 -0.033806621957611048 0.032632062121902797 0 -0.031320708693119877 0.031989058074674719 0 -0.034646246278989191 0.030050213459150672 0 -0.032767684081714862 0.031400625120469566 0 -0.033806621957611048 0.032632062121902797 0 -0.031448691192747354 0.039634603158642957 0 -0.030279188677187985 0.04245373981328434 0 -0.02971612515562062 0.043213697121159605 0 -0.029619742520684285 0.043110947567585121 0 -0.030172485379132075 0.042556256986078289 0 -0.030785442024730034 0.041288466154723098 0 -0.030711268269575456 0.041362620197570622 0 -0.030660250912133823 0.0413211641198485 0 -0.031448691192747354 0.039634603158642957 0 -0.03035999193228877 0.037803227951759839 0 -0.030785442024730034 0.041288466154723098 0 -0.030711268269575456 0.041362620197570622 0 -0.030738415153240689 0.04141207121445431 0 -0.029603366816029118 0.042961270701261697 0 -0.029575953044901064 0.04307863319842431 0 -0.029648454241364121 0.043074889069532038 0 -0.031124251859029832 0.036346066618001736 0 -0.031448691192747354 0.039634603158642957 0 -0.029619742520684285 0.043110947567585121 0 -0.030236062087848441 0.043058637230591557 0 -0.0296829735785499 0.043536335756954245 0 -0.031124251859029832 0.036346066618001736 0 -0.027476559680978969 0.046814896905919799 0 -0.029603366816029118 0.042961270701261697 0 -0.029648454241364121 0.043074889069532038 0 -0.030236062087848441 0.043058637230591557 0 -0.029619742520684285 0.043110947567585121 0 -0.029648454241364121 0.043074889069532038 0 -0.030236062087848441 0.043058637230591557 0 -0.02971612515562062 0.043213697121159605 0 -0.029619742520684285 0.043110947567585121 0 -0.029648454241364121 0.043074889069532038 0 -0.031448691192747354 0.039634603158642957 0 -0.03046246874625853 0.040288382431850324 0 -0.031248305097016229 0.033024524894846988 0 -0.031124251859029832 0.036346066618001736 0 -0.027973141275157543 0.035836923422571165 0 -0.026934361801839463 0.0391360372249119 0 -0.029847167461500117 0.03753200913283896 0 -0.026934361801839463 0.0391360372249119 0 -0.029847167461500117 0.03753200913283896 0 -0.031649598072162936 0.040340870184731654 0 -0.029847167461500117 0.03753200913283896 0 -0.031542055467975623 0.037825228791173914 0 -0.031649598072162936 0.040340870184731654 0 -0.031079685116343504 0.036624568783108935 0 -0.029847167461500117 0.03753200913283896 0 -0.031542055467975623 0.037825228791173914 0 -0.031079685116343504 0.036624568783108935 0 -0.031542055467975623 0.037825228791173914 0 -0.033076759551025917 0.037493444341506039 0 -0.023222056707499567 0.05020040360039419 0 -0.023996876870215549 0.04867928314409746 0 -0.022317636120648052 0.049179119134058362 0 -0.031542055467975623 0.037825228791173914 0 -0.033076759551025917 0.037493444341506039 0 -0.031649598072162936 0.040340870184731654 0 -0.02690541448860554 0.043580556354890755 0 -0.027476559680978969 0.046814896905919799 0 -0.012362110830458408 0.057836631401635877 0 -0.012453677002592235 0.057650354859527859 0 -0.012116614272429273 0.057453158198254507 0 -0.021849230271264938 0.042491679919925467 0 -0.02690541448860554 0.043580556354890755 0 -0.02690541448860554 0.043580556354890755 0 -0.017651264054836878 0.053128994964982419 0 -0.023996876870215549 0.04867928314409746 0 -0.022317636120648052 0.049179119134058362 0 -0.021405514336039346 0.048150941122466352 0 -0.023526422485021577 0.054804426403441873 0 -0.022474723610201426 0.053581412410264706 0 -0.020943918932545477 0.054275995127784894 0 -0.027476559680978969 0.046814896905919799 0 -0.016527538822156705 0.054554825180520329 0 -0.030236062087848441 0.043058637230591557 0 -0.029999107624973702 0.043781500600884364 0 -0.0296829735785499 0.043536335756954245 0 -0.027476559680978969 0.046814896905919799 0 -0.027235520775642862 0.048437333215578214 0 -0.023526422485021577 0.054804426403441873 0 -0.024621594271115491 0.052660198369871923 0 -0.022474723610201426 0.053581412410264706 0 -0.024621594271115491 0.052660198369871923 0 -0.022474723610201426 0.053581412410264706 0 -0.022979763258654504 0.052379033326073056 0 -0.022474723610201426 0.053581412410264706 0 -0.022979763258654504 0.052379033326073056 0 -0.021677573293172298 0.052229689616360278 0 -0.022979763258654504 0.052379033326073056 0 -0.023259156666792929 0.051354280325206385 0 -0.022143091205792515 0.051298437732494734 0 -0.022979763258654504 0.052379033326073056 0 -0.021677573293172298 0.052229689616360278 0 -0.022143091205792515 0.051298437732494734 0 -0.024621594271115491 0.052660198369871923 0 -0.023259156666792929 0.051354280325206385 0 -0.023898242509215472 0.050489533587785546 0 -0.024621594271115491 0.052660198369871923 0 -0.022979763258654504 0.052379033326073056 0 -0.023259156666792929 0.051354280325206385 0 -0.027235520775642862 0.048437333215578214 0 -0.027301402666950018 0.048751650240119689 0 -0.029999107624973702 0.043781500600884364 0 -0.02959027439421081 0.043823604750589586 0 -0.029420214942158789 0.044245203784695111 0 -0.029999107624973702 0.043781500600884364 0 -0.029420214942158789 0.044245203784695111 0 -0.02957786382355531 0.044801515460008677 0 -0.03064988407272895 0.041400134281220698 0 -0.030279188677187985 0.04245373981328434 0 -0.03019478758066859 0.044716750526804711 0 -0.029744116545545551 0.042706611307132721 0 -0.030642378037379042 0.041341692898282566 0 -0.030605637401108943 0.041539997249271349 0 -0.03005190467466208 0.0421675288282981 0 -0.029420214942158789 0.044245203784695111 0 -0.028882181626530137 0.044402849789970535 0 -0.029220160560683509 0.043722079771878163 0 -0.02959027439421081 0.043823604750589586 0 -0.029420214942158789 0.044245203784695111 0 -0.029220160560683509 0.043722079771878163 0 -0.029619742520684285 0.043110947567585121 0 -0.03005190467466208 0.0421675288282981 0 -0.030172485379132075 0.042556256986078289 0 -0.030605637401108943 0.041539997249271349 0 -0.030738415153240689 0.04141207121445431 0 -0.030663099966593211 0.041425867200404864 0 -0.029568059519868132 0.043179449486306261 0 -0.029744116545545551 0.042706611307132721 0 -0.030605637401108943 0.041539997249271349 0 -0.03005190467466208 0.0421675288282981 0 -0.030172485379132075 0.042556256986078289 0 -0.030711268269575456 0.041362620197570622 0 -0.030738415153240689 0.04141207121445431 0 -0.030663099966593211 0.041425867200404864 0 -0.029619742520684285 0.043110947567585121 0 -0.029220160560683509 0.043722079771878163 0 -0.0296829735785499 0.043536335756954245 0 -0.029999107624973702 0.043781500600884364 0 -0.02959027439421081 0.043823604750589586 0 -0.0296829735785499 0.043536335756954245 0 -0.02959027439421081 0.043823604750589586 0 -0.029220160560683509 0.043722079771878163 0 -0.0296829735785499 0.043536335756954245 0 -0.010924580476056532 0.056633541611389671 0 -0.010269238523914639 0.057015195617372935 0 -0.0098796165795637467 0.056432967483189773 0 -0.010269238523914639 0.057015195617372935 0 -0.0098796165795637467 0.056432967483189773 0 -0.010157899350717217 0.05745213981816643 0 -0.010924580476056532 0.056633541611389671 0 -0.010464377762550983 0.057244163090327031 0 -0.010269238523914639 0.057015195617372935 0 -0.010464377762550983 0.057244163090327031 0 -0.010269238523914639 0.057015195617372935 0 -0.010318520030186769 0.057357049342417629 0 -0.010269238523914639 0.057015195617372935 0 -0.010157899350717217 0.05745213981816643 0 -0.010318520030186769 0.057357049342417629 0 -0.010924580476056532 0.056633541611389671 0 -0.010370295967306965 0.055481156368659336 0 -0.0098796165795637467 0.056432967483189773 0 -0.009422067429712605 0.055143900673028309 0 -0.010370295967306965 0.055481156368659336 0 -0.0098796165795637467 0.056432967483189773 0 -0.0098796165795637467 0.056432967483189773 0 -0.0090753007577771497 0.055976752383443552 0 -0.0086799904098683964 0.056795100115683832 0 -0.009422067429712605 0.055143900673028309 0 -0.0098796165795637467 0.056432967483189773 0 -0.0090753007577771497 0.055976752383443552 0 -0.009422067429712605 0.055143900673028309 0 -0.0090753007577771497 0.055976752383443552 0 -0.0083196818791319745 0.055508805951088515 0 -0.0090753007577771497 0.055976752383443552 0 -0.0086799904098683964 0.056795100115683832 0 -0.0083196818791319745 0.055508805951088515 0 -0.010964103432431585 0.057576457183546877 0 -0.010605970737352274 0.057375497537996291 0 -0.010157899350717217 0.05745213981816643 0 -0.0099991649972267956 0.057161684003681996 0 -0.010046155537039263 0.057388952103683485 0 -0.0098796165795637467 0.056432967483189773 0 -0.0086799904098683964 0.056795100115683832 0 -0.010157899350717217 0.05745213981816643 0 -0.010964103432431585 0.057576457183546877 0 -0.010605970737352274 0.057375497537996291 0 -0.011034181740091369 0.057155570180255445 0 -0.010964103432431585 0.057576457183546877 0 -0.011511172632855213 0.057439344392147186 0 -0.011710521616809943 0.057720768675333531 0 -0.011511172632855213 0.057439344392147186 0 -0.01176992635314437 0.057165307443178506 0 -0.011034181740091369 0.057155570180255445 0 -0.016527538822156705 0.054554825180520329 0 -0.0099181068259640431 0.057290282823566463 0 -0.010964103432431585 0.057576457183546877 0 -0.011511172632855213 0.057439344392147186 0 -0.011034181740091369 0.057155570180255445 0 -0.0070522405493303438 0.054086808870978637 0 -0.0083196818791319745 0.055508805951088515 0 -0.0070700744309131853 0.05573823433522529 0 -0.0086799904098683964 0.056795100115683832 0 -0.0083196818791319745 0.055508805951088515 0 -0.0070700744309131853 0.05573823433522529 0 -0.0099991649972267956 0.057161684003681996 0 -0.0080122209351093411 0.057484441395836056 0 -0.012362110830458408 0.057836631401635877 0 -0.011710521616809943 0.057720768675333531 0 -0.012116614272429273 0.057453158198254507 0 -0.021849230271264938 0.042491679919925467 0 -0.0080122209351093411 0.057484441395836056 0 -0.017651264054836878 0.053128994964982419 0 -0.016527538822156705 0.054554825180520329 0 -0.011511172632855213 0.057439344392147186 0 -0.011710521616809943 0.057720768675333531 0 -0.012116614272429273 0.057453158198254507 0 -0.011511172632855213 0.057439344392147186 0 -0.012116614272429273 0.057453158198254507 0 -0.01176992635314437 0.057165307443178506 0 -0.022474723610201426 0.053581412410264706 0 -0.020943918932545477 0.054275995127784894 0 -0.021016243652124726 0.052933113115678977 0 -0.022474723610201426 0.053581412410264706 0 -0.021016243652124726 0.052933113115678977 0 -0.021677573293172298 0.052229689616360278 0 -0.021677573293172298 0.052229689616360278 0 -0.020914268952194448 0.051311835179590655 0 -0.022143091205792515 0.051298437732494734 0 -0.021677573293172298 0.052229689616360278 0 -0.020586889637007656 0.052085408525565861 0 -0.020914268952194448 0.051311835179590655 0 -0.021016243652124726 0.052933113115678977 0 -0.021677573293172298 0.052229689616360278 0 -0.020586889637007656 0.052085408525565861 0 -0.021016243652124726 0.052933113115678977 0 -0.020586889637007656 0.052085408525565861 0 -0.019393427045838504 0.052491372467162921 0 -0.020586889637007656 0.052085408525565861 0 -0.019702597849316668 0.051376796196288918 0 -0.020914268952194448 0.051311835179590655 0 -0.020586889637007656 0.052085408525565861 0 -0.019702597849316668 0.051376796196288918 0 -0.019393427045838504 0.052491372467162921 0 -0.016527538822156705 0.054554825180520329 0 -0.014790467161413905 0.054767790792618128 0 -0.020943918932545477 0.054275995127784894 0 -0.021016243652124726 0.052933113115678977 0 -0.019393427045838504 0.052491372467162921 0 -0.010868545726109281 0.057567989866854352 0 -0.010509021223514681 0.057336351284284368 0 -0.010511033267655403 0.05753183738490622 0 -0.0099181068259640431 0.057290282823566463 0 -0.010676032794540312 0.057411737283365433 0 -0.010509021223514681 0.057336351284284368 0 -0.010511033267655403 0.05753183738490622 0 -0.0103881141562602 0.057396955516272177 0 -0.010511033267655403 0.05753183738490622 0 -0.0103881141562602 0.057396955516272177 0 -0.010282780856252475 0.057369152107075452 0 -0.010605970737352274 0.057375497537996291 0 -0.011034181740091369 0.057155570180255445 0 -0.010282780856252475 0.057369152107075452 0 -0.010605970737352274 0.057375497537996291 0 -0.010282780856252475 0.057369152107075452 0 -0.010157899350717217 0.05745213981816643 0 -0.0103881141562602 0.057396955516272177 0 -0.010330774682176053 0.057405653442040488 0 -0.010282780856252475 0.057369152107075452 0 -0.0103817549910371 0.05738567672271478 0 -0.010344762801587417 0.057421118897404651 0 -0.010382055914141718 0.057355727487097649 0 -0.014790467161413905 0.054767790792618128 0 -0.014348392345294085 0.056022043125504087 0 -0.010509021223514681 0.057336351284284368 0 -0.0103817549910371 0.05738567672271478 0 -0.010382055914141718 0.057355727487097649 0 -0.019702597849316668 0.051376796196288918 0 -0.019393427045838504 0.052491372467162921 0 -0.017816637247861526 0.050684438571191204 0 -0.010509021223514681 0.057336351284284368 0 -0.0103881141562602 0.057396955516272177 0 -0.0103817549910371 0.05738567672271478 0 -0.0103881141562602 0.057396955516272177 0 -0.0103817549910371 0.05738567672271478 0 -0.010330774682176053 0.057405653442040488 0 -0.0103817549910371 0.05738567672271478 0 -0.010344762801587417 0.057421118897404651 0 -0.010330774682176053 0.057405653442040488 0 -0.010344762801587417 0.057421118897404651 0 -0.010313542969174446 0.057433753039035806 0 -0.010330774682176053 0.057405653442040488 0 -0.010326718981031135 0.05748036117982825 0 -0.010344762801587417 0.057421118897404651 0 -0.010313542969174446 0.057433753039035806 0 -0.010348920182142165 0.057443668462758668 0 -0.010313542969174446 0.057433753039035806 0 -0.010279715013750726 0.057418751004914503 0 -0.010348920182142165 0.057443668462758668 0 -0.010326718981031135 0.05748036117982825 0 -0.010313542969174446 0.057433753039035806 0 -0.010313542969174446 0.057433753039035806 0 -0.010330774682176053 0.057405653442040488 0 -0.010282780856252475 0.057369152107075452 0 -0.010313542969174446 0.057433753039035806 0 -0.010282780856252475 0.057369152107075452 0 -0.010279715013750726 0.057418751004914503 0 -0.010282780856252475 0.057369152107075452 0 -0.010157899350717217 0.05745213981816643 0 -0.010279715013750726 0.057418751004914503 0 -0.010157899350717217 0.05745213981816643 0 -0.010318520030186769 0.057357049342417629 0 -0.010279715013750726 0.057418751004914503 0 -0.010348920182142165 0.057443668462758668 0 -0.010318520030186769 0.057357049342417629 0 -0.010279715013750726 0.057418751004914503 0 -0.010348920182142165 0.057443668462758668 0 -0.010464377762550983 0.057244163090327031 0 -0.010318520030186769 0.057357049342417629 0 -0.013686918538652608 0.057682438655714402 0 -0.014481548256973675 0.058808035625677137 0 -0.015441929563105902 0.057804689913810825 0 -0.013037925035222032 0.058652280447144003 0 -0.013686918538652608 0.057682438655714402 0 -0.014481548256973675 0.058808035625677137 0 -0.010893490107764751 0.058766826713471353 0 -0.014348392345294085 0.056022043125504087 0 -0.012214972463109736 0.059328594628227899 0 -0.013037925035222032 0.058652280447144003 0 -0.015103734950022873 0.059590544226064614 0 -0.013037925035222032 0.058652280447144003 0 -0.014481548256973675 0.058808035625677137 0 -0.015103734950022873 0.059590544226064614 0 -0.010300639886149574 0.057505592859318874 0 -0.010344762801587417 0.057421118897404651 0 -0.010382055914141718 0.057355727487097649 0 -0.015401205109250188 0.059160843743745951 0 -0.014348392345294085 0.056022043125504087 0 -0.014481548256973675 0.058808035625677137 0 -0.015384549877614501 0.0599354841446871 0 -0.0164273577908483 0.058627647851112678 0 -0.014348392345294085 0.056022043125504087 0 -0.019194549709235096 0.054686084139210236 0 -0.015384549877614501 0.0599354841446871 0 -0.0164273577908483 0.058627647851112678 0 -0.017654069569894324 0.059593290224836427 0 -0.015441929563105902 0.057804689913810825 0 -0.0164273577908483 0.058627647851112678 0 -0.017571942889973099 0.057343352481607386 0 -0.014481548256973675 0.058808035625677137 0 -0.015441929563105902 0.057804689913810825 0 -0.0164273577908483 0.058627647851112678 0 -0.0164273577908483 0.058627647851112678 0 -0.018141345935340763 0.058431162711880098 0 -0.017571942889973099 0.057343352481607386 0 -0.0164273577908483 0.058627647851112678 0 -0.018141345935340763 0.058431162711880098 0 -0.017654069569894324 0.059593290224836427 0 -0.018141345935340763 0.058431162711880098 0 -0.017654069569894324 0.059593290224836427 0 -0.018859611415226282 0.059338425739855823 0 -0.019702597849316668 0.051376796196288918 0 -0.017816637247861526 0.050684438571191204 0 -0.01976373996172575 0.050323326296767744 0 -0.019702597849316668 0.051376796196288918 0 -0.01976373996172575 0.050323326296767744 0 -0.020914268952194448 0.051311835179590655 0 -0.019194549709235096 0.054686084139210236 0 -0.01967641395331263 0.053017145114121332 0 -0.01976373996172575 0.050323326296767744 0 -0.020951505630888521 0.050120079639781157 0 -0.021508617214400304 0.050689265281821175 0 -0.01976373996172575 0.050323326296767744 0 -0.020914268952194448 0.051311835179590655 0 -0.021508617214400304 0.050689265281821175 0 -0.020914268952194448 0.051311835179590655 0 -0.021508617214400304 0.050689265281821175 0 -0.022143091205792515 0.051298437732494734 0 -0.01967641395331263 0.053017145114121332 0 -0.021610504179856764 0.051437306492411156 0 -0.020951505630888521 0.050120079639781157 0 -0.021508617214400304 0.050689265281821175 0 -0.021698770058810973 0.050006803221508862 0 -0.01967641395331263 0.053017145114121332 0 -0.021524824436430116 0.055717849875457061 0 -0.020962279972827066 0.050140133103167436 0 -0.021698770058810973 0.050006803221508862 0 -0.022305128407997112 0.048330541130417161 0 -0.018141345935340763 0.058431162711880098 0 -0.018859611415226282 0.059338425739855823 0 -0.020140554587524256 0.057535002421425591 0 -0.018141345935340763 0.058431162711880098 0 -0.017571942889973099 0.057343352481607386 0 -0.020140554587524256 0.057535002421425591 0 -0.017341465697912919 0.057952629583443702 0 -0.021524824436430116 0.055717849875457061 0 -0.019516105250685443 0.056571134540835614 0 -0.017571942889973099 0.057343352481607386 0 -0.021054202524949918 0.058020410053423468 0 -0.019516105250685443 0.056571134540835614 0 -0.020306567380103866 0.054999813892431172 0 -0.017109444379900002 0.054999732358075287 0 -0.019516105250685443 0.056571134540835614 0 -0.017571942889973099 0.057343352481607386 0 -0.017109444379900002 0.054999732358075287 0 -0.015441929563105902 0.057804689913810825 0 -0.017571942889973099 0.057343352481607386 0 -0.015050384111288334 0.056601328475377757 0 -0.017571942889973099 0.057343352481607386 0 -0.017109444379900002 0.054999732358075287 0 -0.015050384111288334 0.056601328475377757 0 -0.012571650829543774 0.056435657108788617 0 -0.013912569019880193 0.054999562126603146 0 -0.015050384111288334 0.056601328475377757 0 -0.017109444379900002 0.054999732358075287 0 -0.013912569019880193 0.054999562126603146 0 -0.015050384111288334 0.056601328475377757 0 -0.013686918538652608 0.057682438655714402 0 -0.015441929563105902 0.057804689913810825 0 -0.015050384111288334 0.056601328475377757 0 -0.012571650829543774 0.056435657108788617 0 -0.013686918538652608 0.057682438655714402 0 -0.015050384111288334 0.056601328475377757 0 -0.025958532330197296 0.05384636902941134 0 -0.024149831989345328 0.053137745216355392 0 -0.025319465838779771 0.049292861006926404 0 -0.026528778914532786 0.048719064503372336 0 -0.024390695451031588 0.048503303406975014 0 -0.025319465838779771 0.049292861006926404 0 -0.026275064592227559 0.049630410532245532 0 -0.025020870106076138 0.050134455566211315 0 -0.025319465838779771 0.049292861006926404 0 -0.026528778914532786 0.048719064503372336 0 -0.026275064592227559 0.049630410532245532 0 -0.025319465838779771 0.049292861006926404 0 -0.025020870106076138 0.050134455566211315 0 -0.024377000659027624 0.049500385656772609 0 -0.025958532330197296 0.05384636902941134 0 -0.030542432951293674 0.051033377300104252 0 -0.026528778914532786 0.048719064503372336 0 -0.027433156166375608 0.049454729171472783 0 -0.028463553471145601 0.048957437523625899 0 -0.027433156166375608 0.049454729171472783 0 -0.026275064592227559 0.049630410532245532 0 -0.026806683156289254 0.050196093936413277 0 -0.026528778914532786 0.048719064503372336 0 -0.027433156166375608 0.049454729171472783 0 -0.026275064592227559 0.049630410532245532 0 -0.026275064592227559 0.049630410532245532 0 -0.026806683156289254 0.050196093936413277 0 -0.025920194883327839 0.050383727091731979 0 -0.029420214942158789 0.044245203784695111 0 -0.028882181626530137 0.044402849789970535 0 -0.02957786382355531 0.044801515460008677 0 -0.027362943623726942 0.051145665962562502 0 -0.027433156166375608 0.049454729171472783 0 -0.026806683156289254 0.050196093936413277 0 -0.027362943623726942 0.051145665962562502 0 -0.026806683156289254 0.050196093936413277 0 -0.025920194883327839 0.050383727091731979 0 -0.03019478758066859 0.044716750526804711 0 -0.027301402666950018 0.048751650240119689 0 -0.024621594271115491 0.052660198369871923 0 -0.025737170839585929 0.050510710469120285 0 -0.025020870106076138 0.050134455566211315 0 -0.026207651945406391 0.050175562720206263 0 -0.027301402666950018 0.048751650240119689 0 -0.026275064592227559 0.049630410532245532 0 -0.02581159080962403 0.050557332265717701 0 -0.025020870106076138 0.050134455566211315 0 -0.027301402666950018 0.048751650240119689 0 -0.025732805833544224 0.049325949668469149 0 -0.024621594271115491 0.052660198369871923 0 -0.025020870106076138 0.050134455566211315 0 -0.023898242509215472 0.050489533587785546 0 -0.025020870106076138 0.050134455566211315 0 -0.023898242509215472 0.050489533587785546 0 -0.024377000659027624 0.049500385656772609 0 -0.021508617214400304 0.050689265281821175 0 -0.022143091205792515 0.051298437732494734 0 -0.022602094713933197 0.050394269581575266 0 -0.023259156666792929 0.051354280325206385 0 -0.023898242509215472 0.050489533587785546 0 -0.022602094713933197 0.050394269581575266 0 -0.023259156666792929 0.051354280325206385 0 -0.022143091205792515 0.051298437732494734 0 -0.022602094713933197 0.050394269581575266 0 -0.023898242509215472 0.050489533587785546 0 -0.022602094713933197 0.050394269581575266 0 -0.023332559392607685 0.049403543857252735 0 -0.021698770058810973 0.050006803221508862 0 -0.022602094713933197 0.050394269581575266 0 -0.022484436347406499 0.049533509259169606 0 -0.021508617214400304 0.050689265281821175 0 -0.021698770058810973 0.050006803221508862 0 -0.022602094713933197 0.050394269581575266 0 -0.021698770058810973 0.050006803221508862 0 -0.022484436347406499 0.049533509259169606 0 -0.022305128407997112 0.048330541130417161 0 -0.022602094713933197 0.050394269581575266 0 -0.022484436347406499 0.049533509259169606 0 -0.023332559392607685 0.049403543857252735 0 -0.022484436347406499 0.049533509259169606 0 -0.023332559392607685 0.049403543857252735 0 -0.022305128407997112 0.048330541130417161 0 -0.023332559392607685 0.049403543857252735 0 -0.024390695451031588 0.048503303406975014 0 -0.022305128407997112 0.048330541130417161 0 -0.023898242509215472 0.050489533587785546 0 -0.024377000659027624 0.049500385656772609 0 -0.023332559392607685 0.049403543857252735 0 -0.025319465838779771 0.049292861006926404 0 -0.024377000659027624 0.049500385656772609 0 -0.024390695451031588 0.048503303406975014 0 -0.024377000659027624 0.049500385656772609 0 -0.023332559392607685 0.049403543857252735 0 -0.024390695451031588 0.048503303406975014 0 -0.023701425423312248 0.058231496712656546 0 -0.02131342386247503 0.057946040558730302 0 -0.022426011969275558 0.056481765507514374 0 -0.023701425423312248 0.058231496712656546 0 -0.022426011969275558 0.056481765507514374 0 -0.024763636171496732 0.056578785677444648 0 -0.024149831989345328 0.053137745216355392 0 -0.021524824436430116 0.055717849875457061 0 -0.019516105250685443 0.056571134540835614 0 -0.021054202524949918 0.058020410053423468 0 -0.022276301341877913 0.056480937003009546 0 -0.021524824436430116 0.055717849875457061 0 -0.02215639023055074 0.056758518322682555 0 -0.019516105250685443 0.056571134540835614 0 -0.020306567380103866 0.054999813892431172 0 -0.022276301341877913 0.056480937003009546 0 -0.020306567380103866 0.054999813892431172 0 -0.022276301341877913 0.056480937003009546 0 -0.023503653419907702 0.055000006444710717 0 -0.022426011969275558 0.056481765507514374 0 -0.023503925980886919 0.054999963865946279 0 -0.024763636171496732 0.056578785677444648 0 -0.02215639023055074 0.056758518322682555 0 -0.023503578242541893 0.055000138339371944 0 -0.023503925980886919 0.054999963865946279 0 -0.024763636171496732 0.056578785677444648 0 -0.025991836482149484 0.054999939395459288 0 -0.026159993776319036 0.058508522814144662 0 -0.023701425423312248 0.058231496712656546 0 -0.024763636171496732 0.056578785677444648 0 -0.026159993776319036 0.058508522814144662 0 -0.027284295120482794 0.056806943130485475 0 -0.02861142138254644 0.058738958739983409 0 -0.026159993776319036 0.058508522814144662 0 -0.024763636171496732 0.056578785677444648 0 -0.027284295120482794 0.056806943130485475 0 -0.024763636171496732 0.056578785677444648 0 -0.027284295120482794 0.056806943130485475 0 -0.025991836482149484 0.054999939395459288 0 -0.027284295120482794 0.056806943130485475 0 -0.025991836482149484 0.054999939395459288 0 -0.028479810441346544 0.054999952739303609 0 -0.027284295120482794 0.056806943130485475 0 -0.028479810441346544 0.054999952739303609 0 -0.029451342323357964 0.057017326561648617 0 -0.02848004090877481 0.055000281330980574 0 -0.029812916034189629 0.057143032065098541 0 -0.030562481728210217 0.055000437774243474 0 -0.029812916034189629 0.057143032065098541 0 -0.028479994845351356 0.054999998305359017 0 -0.030562719153743298 0.054999997714082538 0 -0.029542845857321989 0.05713133667271577 0 -0.030563072636278284 0.054999956237138256 0 -0.029704409825700533 0.05697176903458117 0 -0.03194313047774363 0.057071873258462649 0 -0.03066812925817592 0.054732931732686875 0 -0.031760663116963378 0.052436016124758969 0 -0.029418666573499647 0.052176486154253306 0 -0.029812916034189629 0.057143032065098541 0 -0.031436678555218908 0.050906605273138089 0 -0.029704409825700533 0.05697176903458117 0 -0.030682469029082008 0.058818784557451591 0 -0.03194313047774363 0.057071873258462649 0 -0.029812916034189629 0.057143032065098541 0 -0.030542432951293674 0.051033377300104252 0 -0.027284295120482794 0.056806943130485475 0 -0.029451342323357964 0.057017326561648617 0 -0.02861142138254644 0.058738958739983409 0 -0.030542432951293674 0.051033377300104252 0 -0.031436678555218908 0.050906605273138089 0 -0.033912126406510673 0.045591994195770313 0 -0.032753042638937906 0.045448872465495026 0 -0.033096734399183592 0.044799008329373731 0 -0.033912126406510673 0.045591994195770313 0 -0.033096734399183592 0.044799008329373731 0 -0.033638348273575105 0.044215844779806571 0 -0.032753042638937906 0.045448872465495026 0 -0.033096734399183592 0.044799008329373731 0 -0.032409708653483561 0.044680755932865891 0 -0.031436678555218908 0.050906605273138089 0 -0.031275682714390241 0.044501678457303767 0 -0.033096734399183592 0.044799008329373731 0 -0.032889326528088549 0.043944967787324769 0 -0.033638348273575105 0.044215844779806571 0 -0.033096734399183592 0.044799008329373731 0 -0.032889326528088549 0.043944967787324769 0 -0.032409708653483561 0.044680755932865891 0 -0.027362943623726942 0.051145665962562502 0 -0.027433156166375608 0.049454729171472783 0 -0.028463553471145601 0.048957437523625899 0 -0.03019478758066859 0.044716750526804711 0 -0.030542432951293674 0.051033377300104252 0 -0.034795806290093788 0.043692660357450522 0 -0.033912126406510673 0.045591994195770313 0 -0.033638348273575105 0.044215844779806571 0 -0.04405600813101599 0.036299280990567097 0 -0.04329398440071134 0.038290420406966362 0 -0.041570620462741986 0.03628355858208953 0 -0.04405600813101599 0.036299280990567097 0 -0.041570620462741986 0.03628355858208953 0 -0.041873061892589741 0.034113074026133505 0 -0.037229578290075616 0.036671089560005331 0 -0.035719145050425213 0.050605739133397679 0 -0.031380996241418775 0.044164981924880851 0 -0.031735784460218498 0.04453378384702409 0 -0.031004373608086739 0.045253770457127987 0 -0.031380996241418775 0.044164981924880851 0 -0.032071337058754618 0.043966317417155211 0 -0.031743077762838377 0.043118138287341949 0 -0.031380996241418775 0.044164981924880851 0 -0.032071337058754618 0.043966317417155211 0 -0.031735784460218498 0.04453378384702409 0 -0.032889326528088549 0.043944967787324769 0 -0.032071337058754618 0.043966317417155211 0 -0.032409708653483561 0.044680755932865891 0 -0.032071337058754618 0.043966317417155211 0 -0.032409708653483561 0.044680755932865891 0 -0.031735784460218498 0.04453378384702409 0 -0.031436678555218908 0.050906605273138089 0 -0.035719145050425213 0.050605739133397679 0 -0.030682469029082008 0.058818784557451591 0 -0.033379651871014764 0.059112231732106696 0 -0.03194313047774363 0.057071873258462649 0 -0.032789737192938991 0.045473798883737621 0 -0.032409708653483561 0.044680755932865891 0 -0.031004373608086739 0.045253770457127987 0 -0.032409708653483561 0.044680755932865891 0 -0.031735784460218498 0.04453378384702409 0 -0.031004373608086739 0.045253770457127987 0 -0.033379651871014764 0.059112231732106696 0 -0.034215522511670982 0.057106163893497257 0 -0.03194313047774363 0.057071873258462649 0 -0.035719145050425213 0.050605739133397679 0 -0.033859764660767629 0.058636940324496047 0 -0.030563072636278284 0.054999956237138256 0 -0.03194313047774363 0.057071873258462649 0 -0.03286197981190573 0.054999945837767364 0 -0.034215522511670982 0.057106163893497257 0 -0.03194313047774363 0.057071873258462649 0 -0.03286197981190573 0.054999945837767364 0 -0.034215522511670982 0.057106163893497257 0 -0.03286197981190573 0.054999945837767364 0 -0.035161239318556227 0.054999965267783849 0 -0.034569208397235318 0.057010635277163595 0 -0.035161967238787881 0.054999954664084159 0 -0.036731228995906362 0.056759919438204839 0 -0.033859764660767629 0.058636940324496047 0 -0.035161960077261405 0.054998492105431979 0 -0.035161967238787881 0.054999954664084159 0 -0.036731228995906362 0.056759919438204839 0 -0.038080886021808105 0.054999865870158121 0 -0.036731228995906362 0.056759919438204839 0 -0.039114836966434134 0.057345528599320586 0 -0.036780931586247602 0.059319762940586884 0 -0.034569208397235318 0.057010635277163595 0 -0.036731228995906362 0.056759919438204839 0 -0.036780931586247602 0.059319762940586884 0 -0.041000614285084287 0.054999945254555947 0 -0.038080886021808105 0.054999865870158121 0 -0.039114836966434134 0.057345528599320586 0 -0.036731228995906362 0.056759919438204839 0 -0.038080886021808105 0.054999865870158121 0 -0.039114836966434134 0.057345528599320586 0 -0.041000614285084287 0.054999945254555947 0 -0.039114836966434134 0.057345528599320586 0 -0.041216064688482476 0.057920842987910379 0 -0.039114836966434134 0.057345528599320586 0 -0.039813115316408555 0.059652342862036481 0 -0.041216064688482476 0.057920842987910379 0 -0.039114836966434134 0.057345528599320586 0 -0.039813115316408555 0.059652342862036481 0 -0.036780931586247602 0.059319762940586884 0 -0.036117049372714392 0.048568678402032113 0 -0.039105836311143075 0.048318115761612879 0 -0.035650972757273268 0.037406186972245049 0 -0.039501536164069519 0.037822254369390407 0 -0.038905103238943979 0.034759367735569001 0 -0.035650972757273268 0.037406186972245049 0 -0.03592366918348866 0.033572363120693643 0 -0.033830126243261385 0.035254831347552439 0 -0.033854379110258202 0.058927651396023496 0 -0.034569208397235318 0.057010635277163595 0 -0.036780931586247602 0.059319762940586884 0 -0.04329398440071134 0.038290420406966362 0 -0.039501536164069519 0.037822254369390407 0 -0.041570620462741986 0.03628355858208953 0 -0.035719145050425213 0.050605739133397679 0 -0.039105836311143075 0.048318115761612879 0 -0.039501536164069519 0.037822254369390407 0 -0.041570620462741986 0.03628355858208953 0 -0.038905103238943979 0.034759367735569001 0 -0.041570620462741986 0.03628355858208953 0 -0.041873061892589741 0.034113074026133505 0 -0.038905103238943979 0.034759367735569001 0 -0.041873061892589741 0.034113074026133505 0 -0.038905103238943979 0.034759367735569001 0 -0.039660583055109971 0.031846471067263099 0 -0.038905103238943979 0.034759367735569001 0 -0.039660583055109971 0.031846471067263099 0 -0.037509059513569178 0.031775851590558395 0 -0.034509615056813381 0.027086483881197283 0 -0.035176907621768401 0.027174653857399467 0 -0.034800664490290206 0.026815699662939303 0 -0.035258923322967463 0.028366758500559756 0 -0.034509615056813381 0.027086483881197283 0 -0.035176907621768401 0.027174653857399467 0 -0.035258923322967463 0.028366758500559756 0 -0.035176907621768401 0.027174653857399467 0 -0.035790177562851709 0.027548835856687819 0 -0.038827962168602854 0.030865146751082383 0 -0.037095986239784787 0.029530160156292881 0 -0.03592366918348866 0.033572363120693643 0 -0.033830126243261385 0.035254831347552439 0 -0.033726808501880597 0.032625015240488837 0 -0.035650972757273268 0.037406186972245049 0 -0.038905103238943979 0.034759367735569001 0 -0.03592366918348866 0.033572363120693643 0 -0.038905103238943979 0.034759367735569001 0 -0.03592366918348866 0.033572363120693643 0 -0.037509059513569178 0.031775851590558395 0 -0.039660583055109971 0.031846471067263099 0 -0.037509059513569178 0.031775851590558395 0 -0.037293902001990592 0.029451000110719393 0 -0.03592366918348866 0.033572363120693643 0 -0.037509059513569178 0.031775851590558395 0 -0.034686567073808121 0.029970536005460381 0 -0.03592366918348866 0.033572363120693643 0 -0.034686567073808121 0.029970536005460381 0 -0.033726808501880597 0.032625015240488837 0 -0.034686567073808121 0.029970536005460381 0 -0.037293902001990592 0.029451000110719393 0 -0.034467402671450695 0.027053611479463186 0 -0.037509059513569178 0.031775851590558395 0 -0.034686567073808121 0.029970536005460381 0 -0.037293902001990592 0.029451000110719393 0 -0.034563986143202677 0.026633423106771074 0 -0.034705402098445894 0.026500488416903972 0 -0.034467402671450695 0.027053611479463186 0 -0.034705402098445894 0.026500488416903972 0 -0.034467402671450695 0.027053611479463186 0 -0.034781403011451904 0.026390476673919326 0 -0.034563986143202677 0.026633423106771074 0 -0.034705402098445894 0.026500488416903972 0 -0.034685419628072152 0.026427141563915277 0 -0.035866943192344888 0.028064873087563631 0 -0.034590278577723531 0.027076598780761851 0 -0.044454899752136547 0.031851826329659508 0 -0.033621907117767524 0.025336934282969251 0 -0.034686567073808121 0.029970536005460381 0 -0.034467402671450695 0.027053611479463186 0 -0.032792949545193635 0.027142089186853395 0 -0.034467402671450695 0.027053611479463186 0 -0.032792949545193635 0.027142089186853395 0 -0.034781403011451904 0.026390476673919326 0 -0.034924105726171453 0.02648360707203324 0 -0.034687168059220626 0.026606999529282978 0 -0.034820339042713498 0.026336528222921977 0 -0.034924105726171453 0.02648360707203324 0 -0.034820339042713498 0.026336528222921977 0 -0.034833437558459544 0.026329444510308116 0 -0.035176907621768401 0.027174653857399467 0 -0.034924105726171453 0.02648360707203324 0 -0.034800664490290206 0.026815699662939303 0 -0.034924105726171453 0.02648360707203324 0 -0.034800664490290206 0.026815699662939303 0 -0.034687168059220626 0.026606999529282978 0 -0.034509615056813381 0.027086483881197283 0 -0.034563986143202677 0.026633423106771074 0 -0.034687168059220626 0.026606999529282978 0 -0.037095986239784787 0.029530160156292881 0 -0.035866943192344888 0.028064873087563631 0 -0.034509615056813381 0.027086483881197283 0 -0.034800664490290206 0.026815699662939303 0 -0.034687168059220626 0.026606999529282978 0 -0.034563986143202677 0.026633423106771074 0 -0.034687168059220626 0.026606999529282978 0 -0.034685419628072152 0.026427141563915277 0 -0.034685419628072152 0.026427141563915277 0 -0.034820339042713498 0.026336528222921977 0 -0.034767384098087502 0.026148301175685555 0 -0.034687168059220626 0.026606999529282978 0 -0.034685419628072152 0.026427141563915277 0 -0.034820339042713498 0.026336528222921977 0 -0.034820339042713498 0.026336528222921977 0 -0.034802384598832288 0.026205409108040284 0 -0.034767384098087502 0.026148301175685555 0 -0.034802384598832288 0.026205409108040284 0 -0.034806294885284791 0.026190773303198054 0 -0.034786865050284201 0.026007219629343051 0 -0.034802384598832288 0.026205409108040284 0 -0.034833437558459544 0.026329444510308116 0 -0.034806294885284791 0.026190773303198054 0 -0.034820339042713498 0.026336528222921977 0 -0.034802384598832288 0.026205409108040284 0 -0.034833437558459544 0.026329444510308116 0 -0.034801920139613106 0.026262291533615457 0 -0.035529122227244032 0.02787376008879042 0 -0.034924105726171453 0.02648360707203324 0 -0.034833437558459544 0.026329444510308116 0 -0.034806774674468036 0.026312906371011469 0 -0.035176907621768401 0.027174653857399467 0 -0.034924105726171453 0.02648360707203324 0 -0.036049686598028541 0.027018110759511705 0 -0.034833437558459544 0.026329444510308116 0 -0.034804292297996135 0.026278279154041455 0 -0.034806294885284791 0.026190773303198054 0 -0.034833437558459544 0.026329444510308116 0 -0.034804292297996135 0.026278279154041455 0 -0.034806774674468036 0.026312906371011469 0 -0.034839836081355019 0.026348853928825196 0 -0.034804292297996135 0.026278279154041455 0 -0.034806774674468036 0.026312906371011469 0 -0.034839836081355019 0.026348853928825196 0 -0.034804292297996135 0.026278279154041455 0 -0.03481598464237385 0.026184598895647074 0 -0.034806294885284791 0.026190773303198054 0 -0.034787364382364336 0.026035654436826424 0 -0.034786865050284201 0.026007219629343051 0 -0.03481598464237385 0.026184598895647074 0 -0.034806294885284791 0.026190773303198054 0 -0.034787364382364336 0.026035654436826424 0 -0.034804292297996135 0.026278279154041455 0 -0.03481598464237385 0.026184598895647074 0 -0.034806294885284791 0.026190773303198054 0 -0.03481598464237385 0.026184598895647074 0 -0.034787364382364336 0.026035654436826424 0 -0.03486886174236694 0.026056476124804773 0 -0.030030790899797558 0.032229303975143404 0 -0.031320708693119877 0.031989058074674719 0 -0.031861408061775634 0.030086628539976866 0 -0.030671197925363179 0.031236182123414547 0 -0.032498517008046977 0.029401584563010303 0 -0.031470514630264311 0.029461923988304911 0 -0.031919599733551775 0.029954888615736117 0 -0.032952793939439583 0.028847289625527971 0 -0.033241141416935821 0.03318948175307998 0 -0.031320708693119877 0.031989058074674719 0 -0.030776599081851371 0.033610358550133175 0 -0.030030790899797558 0.032229303975143404 0 -0.031320708693119877 0.031989058074674719 0 -0.030776599081851371 0.033610358550133175 0 -0.030597810876225505 0.04129645805742841 0 -0.030660250912133823 0.0413211641198485 0 -0.030631106681216613 0.041356836470383379 0 -0.031450655474783033 0.03234805839976785 0 -0.033471467371450438 0.026946685093368301 0 -0.03085165163807822 0.03113373143353132 0 -0.031470514630264311 0.029461923988304911 0 -0.031919599733551775 0.029954888615736117 0 -0.031450655474783033 0.03234805839976785 0 -0.030671197925363179 0.031236182123414547 0 -0.031450655474783033 0.03234805839976785 0 -0.03035999193228877 0.037803227951759839 0 -0.034839836081355019 0.026348853928825196 0 -0.03481598464237385 0.026184598895647074 0 -0.03486886174236694 0.026056476124804773 0 -0.028365061844274404 0.034076504972745655 0 -0.030030790899797558 0.032229303975143404 0 -0.030776599081851371 0.033610358550133175 0 -0.030631106681216613 0.041356836470383379 0 -0.030663099966593211 0.041425867200404864 0 -0.030671383300749418 0.041474355347871007 0 -0.032443178558105155 0.042630179183311252 0 -0.032821779129750574 0.035701555815650758 0 -0.030631106681216613 0.041356836470383379 0 -0.030671383300749418 0.041474355347871007 0 -0.030576051292728539 0.041341444510202621 0 -0.030597810876225505 0.04129645805742841 0 -0.030631106681216613 0.041356836470383379 0 -0.030576051292728539 0.041341444510202621 0 -0.030660250912133823 0.0413211641198485 0 -0.030631106681216613 0.041356836470383379 0 -0.030663099966593211 0.041425867200404864 0 -0.030711268269575456 0.041362620197570622 0 -0.030660250912133823 0.0413211641198485 0 -0.030663099966593211 0.041425867200404864 0 -0.030605637401108943 0.041539997249271349 0 -0.030663099966593211 0.041425867200404864 0 -0.030671383300749418 0.041474355347871007 0 -0.030642378037379042 0.041341692898282566 0 -0.030605637401108943 0.041539997249271349 0 -0.030671383300749418 0.041474355347871007 0 -0.03019478758066859 0.044716750526804711 0 -0.032443178558105155 0.042630179183311252 0 -0.034795806290093788 0.043692660357450522 0 -0.033638348273575105 0.044215844779806571 0 -0.033481562971621873 0.042909335650582241 0 -0.033481562971621873 0.042909335650582241 0 -0.03251131241965638 0.043172884754838069 0 -0.032127836601639065 0.04207675907723183 0 -0.032889326528088549 0.043944967787324769 0 -0.033638348273575105 0.044215844779806571 0 -0.033481562971621873 0.042909335650582241 0 -0.032889326528088549 0.043944967787324769 0 -0.033481562971621873 0.042909335650582241 0 -0.03251131241965638 0.043172884754838069 0 -0.032071337058754618 0.043966317417155211 0 -0.03251131241965638 0.043172884754838069 0 -0.031743077762838377 0.043118138287341949 0 -0.032889326528088549 0.043944967787324769 0 -0.032071337058754618 0.043966317417155211 0 -0.03251131241965638 0.043172884754838069 0 -0.036416412576735301 0.029587053560424518 0 -0.036764509774688987 0.028571354838115879 0 -0.036316882976050527 0.028070049917914171 0 -0.03251131241965638 0.043172884754838069 0 -0.031743077762838377 0.043118138287341949 0 -0.032127836601639065 0.04207675907723183 0 -0.036764509774688987 0.028571354838115879 0 -0.036316882976050527 0.028070049917914171 0 -0.037025225330494828 0.027724397832060859 0 -0.034310606606572307 0.035877712915867971 0 -0.032821779129750574 0.035701555815650758 0 -0.037229578290075616 0.036671089560005331 0 -0.034310606606572307 0.035877712915867971 0 -0.035258923322967463 0.028366758500559756 0 -0.036316882976050527 0.028070049917914171 0 -0.035790177562851709 0.027548835856687819 0 -0.037229578290075616 0.036671089560005331 0 -0.038827962168602854 0.030865146751082383 0 -0.036416412576735301 0.029587053560424518 0 -0.035258923322967463 0.028366758500559756 0 -0.036316882976050527 0.028070049917914171 0 -0.035176907621768401 0.027174653857399467 0 -0.035790177562851709 0.027548835856687819 0 -0.036247203477404989 0.027034377598300883 0 -0.035534747880596726 0.02714962673656636 0 -0.035529122227244032 0.02787376008879042 0 -0.036316882976050527 0.028070049917914171 0 -0.036317651342643045 0.027513754716091895 0 -0.035790177562851709 0.027548835856687819 0 -0.036317651342643045 0.027513754716091895 0 -0.035790177562851709 0.027548835856687819 0 -0.036247203477404989 0.027034377598300883 0 -0.036317651342643045 0.027513754716091895 0 -0.036247203477404989 0.027034377598300883 0 -0.036925709865357606 0.027409852899801197 0 -0.035529122227244032 0.02787376008879042 0 -0.034458442723539574 0.030962460568740687 0 -0.032234667127784514 0.030833464223385194 0 -0.035339748402731061 0.030317550292022249 0 -0.033595461163576791 0.029383783977320665 0 -0.031450655474783033 0.03234805839976785 0 -0.035529122227244032 0.02787376008879042 0 -0.031450655474783033 0.03234805839976785 0 -0.034458442723539574 0.030962460568740687 0 -0.031450655474783033 0.03234805839976785 0 -0.032821779129750574 0.035701555815650758 0 -0.032080909365690136 0.032774997187861372 0 -0.0324752676409941 0.032371886638305425 0 -0.03228707229462642 0.0322735563834897 0 -0.034458442723539574 0.030962460568740687 0 -0.032821779129750574 0.035701555815650758 0 -0.036316882976050527 0.028070049917914171 0 -0.036815937168402341 0.027610524251455972 0 -0.037025225330494828 0.027724397832060859 0 -0.037153910262457124 0.027378950354751803 0 -0.034458442723539574 0.030962460568740687 0 -0.036316882976050527 0.028070049917914171 0 -0.036317651342643045 0.027513754716091895 0 -0.036925709865357606 0.027409852899801197 0 -0.055000456645579815 0.04814779272127688 0 -0.056021866258604572 0.050526334589013115 0 -0.055254369293609717 0.052725840077008493 0 -0.054857004159697652 0.054694330581011037 0 -0.054764820004851847 0.054686709524595076 0 -0.055058062505002774 0.053854277618010558 0 -0.055000456645579815 0.04814779272127688 0 -0.056591300425779173 0.048407195719016152 0 -0.056021866258604572 0.050526334589013115 0 -0.055147912755343906 0.050874086434022907 0 -0.055516726850921426 0.052281225316840103 0 -0.055001255207276695 0.048146131510587824 0 -0.055147912755343906 0.050874086434022907 0 -0.054390066321281919 0.052255094156488581 0 -0.054290283830870992 0.05188055512101062 0 -0.054390066321281919 0.052255094156488581 0 -0.053604068360832709 0.057371288613108966 0 -0.054764820004851847 0.054686709524595076 0 -0.054587193137905547 0.053758609944572239 0 -0.055058062505002774 0.053854277618010558 0 -0.055147912755343906 0.050874086434022907 0 -0.054390066321281919 0.052255094156488581 0 -0.052743675811928618 0.060741781042220132 0 -0.052455500595722744 0.058881413502463752 0 -0.050567275246088825 0.060580068929187374 0 -0.054189127220105729 0.051150663882467182 0 -0.0552585395768532 0.051268712852863559 0 -0.054803074373390506 0.048254586463986782 0 -0.052455500595722744 0.058881413502463752 0 -0.05222083882475867 0.056973316567919076 0 -0.050514736408150504 0.058264446131411143 0 -0.054587193137905547 0.053758609944572239 0 -0.055058062505002774 0.053854277618010558 0 -0.055254369293609717 0.052725840077008493 0 -0.055516726850921426 0.052281225316840103 0 -0.055328037958241989 0.052625604742268864 0 -0.055000456645579815 0.04814779272127688 0 -0.055254369293609717 0.052725840077008493 0 -0.054995715928086802 0.055000628765494324 0 -0.055254369293609717 0.052725840077008493 0 -0.054995715928086802 0.055000628765494324 0 -0.054323703076235852 0.053570470665242814 0 -0.054995715928086802 0.055000628765494324 0 -0.05212336364618457 0.054996563456619178 0 -0.054323703076235852 0.053570470665242814 0 -0.052114780243047581 0.054999916616561534 0 -0.05222083882475867 0.056973316567919076 0 -0.050497045127492146 0.056591560258158598 0 -0.052115814548897028 0.054999698853013791 0 -0.053099751285175793 0.055001997592035445 0 -0.054587193137905547 0.053758609944572239 0 -0.055254369293609717 0.052725840077008493 0 -0.054323703076235852 0.053570470665242814 0 -0.053604068360832709 0.057371288613108966 0 -0.053099751285175793 0.055001997592035445 0 -0.05222083882475867 0.056973316567919076 0 -0.050497045127492146 0.056591560258158598 0 -0.050514736408150504 0.058264446131411143 0 -0.052114780243047581 0.054999916616561534 0 -0.050497045127492146 0.056591560258158598 0 -0.049383695323281962 0.054999886141135337 0 -0.050497045127492146 0.056591560258158598 0 -0.049383695323281962 0.054999886141135337 0 -0.048243853349617512 0.057617884755358929 0 -0.050497045127492146 0.056591560258158598 0 -0.048243853349617512 0.057617884755358929 0 -0.050514736408150504 0.058264446131411143 0 -0.048243853349617512 0.057617884755358929 0 -0.049000578310771092 0.059001860070895543 0 -0.050514736408150504 0.058264446131411143 0 -0.049000578310771092 0.059001860070895543 0 -0.050514736408150504 0.058264446131411143 0 -0.050567275246088825 0.060580068929187374 0 -0.052455500595722744 0.058881413502463752 0 -0.050514736408150504 0.058264446131411143 0 -0.050567275246088825 0.060580068929187374 0 -0.049000578310771092 0.059001860070895543 0 -0.050567275246088825 0.060580068929187374 0 -0.048263542415256634 0.060391349889716429 0 -0.054290283830870992 0.05188055512101062 0 -0.05325516335193628 0.052033820683189728 0 -0.057786747958685547 0.043232622479510721 0 -0.058416011170538885 0.043351211233012735 0 -0.058076411539628107 0.042852320153537606 0 -0.058416011170538885 0.043351211233012735 0 -0.059132122480485959 0.043488564799495213 0 -0.058768122306010508 0.042979898429977612 0 -0.05325516335193628 0.052033820683189728 0 -0.052993498157944574 0.049739576646972025 0 -0.049000578310771092 0.059001860070895543 0 -0.048263542415256634 0.060391349889716429 0 -0.047171005178196591 0.059359214385129686 0 -0.048263542415256634 0.060391349889716429 0 -0.04592361360114864 0.060124740996434126 0 -0.047171005178196591 0.059359214385129686 0 -0.045863912806980878 0.059904519784672677 0 -0.04568577344199324 0.058926422472237214 0 -0.043810952950246243 0.059680748438889611 0 -0.052993498157944574 0.049739576646972025 0 -0.048298098052004176 0.060462322728940095 0 -0.04568577344199324 0.058926422472237214 0 -0.046687832140882568 0.058145999003457717 0 -0.047171005178196591 0.059359214385129686 0 -0.04592361360114864 0.060124740996434126 0 -0.04568577344199324 0.058926422472237214 0 -0.047171005178196591 0.059359214385129686 0 -0.04568577344199324 0.058926422472237214 0 -0.046687832140882568 0.058145999003457717 0 -0.045162580115952693 0.057830740240269948 0 -0.048243853349617512 0.057617884755358929 0 -0.049000578310771092 0.059001860070895543 0 -0.047171005178196591 0.059359214385129686 0 -0.048243853349617512 0.057617884755358929 0 -0.046687832140882568 0.058145999003457717 0 -0.047171005178196591 0.059359214385129686 0 -0.048243853349617512 0.057617884755358929 0 -0.046687832140882568 0.058145999003457717 0 -0.045755762551352386 0.056866814008363242 0 -0.048243853349617512 0.057617884755358929 0 -0.046651923861111944 0.054999858114121392 0 -0.045755762551352386 0.056866814008363242 0 -0.049383695323281962 0.054999886141135337 0 -0.048243853349617512 0.057617884755358929 0 -0.046651923861111944 0.054999858114121392 0 -0.046651923861111944 0.054999858114121392 0 -0.045755762551352386 0.056866814008363242 0 -0.043920948261383187 0.05499997954702833 0 -0.045755762551352386 0.056866814008363242 0 -0.045162580115952693 0.057830740240269948 0 -0.043963084859519559 0.057461283729103564 0 -0.046687832140882568 0.058145999003457717 0 -0.045755762551352386 0.056866814008363242 0 -0.045162580115952693 0.057830740240269948 0 -0.045755762551352386 0.056866814008363242 0 -0.043963084859519559 0.057461283729103564 0 -0.043920948261383187 0.05499997954702833 0 -0.043436452361603733 0.059915661485569031 0 -0.043920642403706363 0.054996727702436549 0 -0.041000614285084287 0.054999945254555947 0 -0.043297528449684014 0.05754115108959152 0 -0.043919721005875052 0.054999872818523921 0 -0.041000614285084287 0.054999945254555947 0 -0.043297528449684014 0.05754115108959152 0 -0.041216064688482476 0.057920842987910379 0 -0.039813115316408555 0.059652342862036481 0 -0.041216064688482476 0.057920842987910379 0 -0.042794068355124573 0.05991207487204743 0 -0.043297528449684014 0.05754115108959152 0 -0.041216064688482476 0.057920842987910379 0 -0.042794068355124573 0.05991207487204743 0 -0.045162580115952693 0.057830740240269948 0 -0.043963084859519559 0.057461283729103564 0 -0.043810952950246243 0.059680748438889611 0 -0.043436452361603733 0.059915661485569031 0 -0.043718912503632586 0.047995306759980483 0 -0.04568577344199324 0.058926422472237214 0 -0.045162580115952693 0.057830740240269948 0 -0.043810952950246243 0.059680748438889611 0 -0.052993498157944574 0.049739576646972025 0 -0.043718912503632586 0.047995306759980483 0 -0.043718912503632586 0.047995306759980483 0 -0.045150209628591342 0.034281591231827654 0 -0.057266764760484271 0.03947114020832674 0 -0.057730106812479552 0.039530633794840571 0 -0.057563666232550749 0.039170501858386289 0 -0.036117049372714392 0.048568678402032113 0 -0.043718912503632586 0.047995306759980483 0 -0.035650972757273268 0.037406186972245049 0 -0.031786851743842715 0.037022371569924564 0 -0.033830126243261385 0.035254831347552439 0 -0.031786851743842715 0.037022371569924564 0 -0.033830126243261385 0.035254831347552439 0 -0.031968229615241782 0.033805520855051466 0 -0.033830126243261385 0.035254831347552439 0 -0.031968229615241782 0.033805520855051466 0 -0.033726808501880597 0.032625015240488837 0 -0.057730106812479552 0.039530633794840571 0 -0.05785496704792091 0.03889462225750908 0 -0.057563666232550749 0.039170501858386289 0 -0.05785496704792091 0.03889462225750908 0 -0.057563666232550749 0.039170501858386289 0 -0.057619673425190254 0.038840039774233358 0 -0.05785496704792091 0.03889462225750908 0 -0.057619673425190254 0.038840039774233358 0 -0.057718671235102999 0.038575683323108088 0 -0.05785496704792091 0.03889462225750908 0 -0.057718671235102999 0.038575683323108088 0 -0.057893901202502838 0.038437674024694453 0 -0.057619673425190254 0.038840039774233358 0 -0.057718671235102999 0.038575683323108088 0 -0.057579183055489223 0.038615194976258212 0 -0.045150209628591342 0.034281591231827654 0 -0.045095997708072114 0.03502928934745473 0 -0.031968229615241782 0.033805520855051466 0 -0.033726808501880597 0.032625015240488837 0 -0.032244708600717625 0.030490205835543276 0 -0.034686567073808121 0.029970536005460381 0 -0.033726808501880597 0.032625015240488837 0 -0.032244708600717625 0.030490205835543276 0 -0.045095997708072114 0.03502928934745473 0 -0.044454899752136547 0.031851826329659508 0 -0.034686567073808121 0.029970536005460381 0 -0.032244708600717625 0.030490205835543276 0 -0.032792949545193635 0.027142089186853395 0 -0.057893901202502838 0.038437674024694453 0 -0.057885688305646589 0.038164362579308754 0 -0.05786836526381671 0.038217770634945844 0 -0.057958238195046516 0.038129485943867093 0 -0.05786836526381671 0.038217770634945844 0 -0.057907999745181314 0.038051289446872805 0 -0.044454899752136547 0.031851826329659508 0 -0.054921084395150449 0.032767394189259384 0 -0.057833021331663154 0.038223962590023836 0 -0.05786836526381671 0.038217770634945844 0 -0.057907999745181314 0.038051289446872805 0 -0.05786836526381671 0.038217770634945844 0 -0.057817862430302493 0.038284637296453594 0 -0.057802394022233208 0.038362356390024825 0 -0.057833021331663154 0.038223962590023836 0 -0.05786836526381671 0.038217770634945844 0 -0.057817862430302493 0.038284637296453594 0 -0.057833021331663154 0.038223962590023836 0 -0.057817862430302493 0.038284637296453594 0 -0.057763787697757231 0.038339285577118867 0 -0.057817862430302493 0.038284637296453594 0 -0.057802394022233208 0.038362356390024825 0 -0.057763787697757231 0.038339285577118867 0 -0.057802394022233208 0.038362356390024825 0 -0.057681563573302563 0.038431070562869186 0 -0.057763787697757231 0.038339285577118867 0 -0.057893901202502838 0.038437674024694453 0 -0.05786836526381671 0.038217770634945844 0 -0.057802394022233208 0.038362356390024825 0 -0.057718671235102999 0.038575683323108088 0 -0.057893901202502838 0.038437674024694453 0 -0.057802394022233208 0.038362356390024825 0 -0.057718671235102999 0.038575683323108088 0 -0.057802394022233208 0.038362356390024825 0 -0.057681563573302563 0.038431070562869186 0 -0.0575684080795512 0.038437882966108922 0 -0.057735400789215484 0.038392577676405013 0 -0.057942739640810696 0.038481376682627133 0 -0.057681563573302563 0.038431070562869186 0 -0.0575684080795512 0.038437882966108922 0 -0.057735400789215484 0.038392577676405013 0 -0.057681563573302563 0.038431070562869186 0 -0.0575684080795512 0.038437882966108922 0 -0.057579183055489223 0.038615194976258212 0 -0.057681563573302563 0.038431070562869186 0 -0.057735400789215484 0.038392577676405013 0 -0.057763787697757231 0.038339285577118867 0 -0.057833021331663154 0.038223962590023836 0 -0.057763787697757231 0.038339285577118867 0 -0.057819825911597678 0.038312472047059572 0 -0.057735400789215484 0.038392577676405013 0 -0.057763787697757231 0.038339285577118867 0 -0.057819825911597678 0.038312472047059572 0 -0.057735400789215484 0.038392577676405013 0 -0.057819825911597678 0.038312472047059572 0 -0.057942739640810696 0.038481376682627133 0 -0.057819825911597678 0.038312472047059572 0 -0.057942739640810696 0.038481376682627133 0 -0.057804766312273624 0.03813481454848977 0 -0.057833021331663154 0.038223962590023836 0 -0.057819825911597678 0.038312472047059572 0 -0.057855633598557187 0.038075361735912368 0 -0.057942739640810696 0.038481376682627133 0 -0.0570913761289071 0.038993761748633886 0 -0.05749816405501243 0.03810668401637262 0 -0.057942739640810696 0.038481376682627133 0 -0.058146766212295684 0.039968242952767873 0 -0.0570913761289071 0.038993761748633886 0 -0.058146766212295684 0.039968242952767873 0 -0.05878007543100975 0.041771222383296759 0 -0.0570913761289071 0.038993761748633886 0 -0.058928417452115703 0.040968358086811152 0 -0.057942739640810696 0.038481376682627133 0 -0.058146766212295684 0.039968242952767873 0 -0.05878007543100975 0.041771222383296759 0 -0.058494443317103725 0.041937916977993484 0 -0.058610560594951837 0.041638403161955891 0 -0.05873520193963206 0.041703269077437675 0 -0.057918771069564522 0.040337309904078932 0 -0.058229959572329237 0.040037105648654106 0 -0.057985837301483142 0.038516593518772631 0 -0.058928417452115703 0.040968358086811152 0 -0.058146766212295684 0.039968242952767873 0 -0.05878007543100975 0.041771222383296759 0 -0.058508917382422643 0.042217655329104313 0 -0.05878007543100975 0.041771222383296759 0 -0.058494443317103725 0.041937916977993484 0 -0.058508917382422643 0.042217655329104313 0 -0.058700531676604009 0.042473294299845449 0 -0.058417024369305813 0.042662655610422755 0 -0.058508917382422643 0.042217655329104313 0 -0.05878007543100975 0.041771222383296759 0 -0.058700531676604009 0.042473294299845449 0 -0.05878007543100975 0.041771222383296759 0 -0.059142653300226888 0.04277868841529104 0 -0.058700531676604009 0.042473294299845449 0 -0.058229959572329237 0.040037105648654106 0 -0.058454870587074423 0.039277702975783896 0 -0.058928417452115703 0.040968358086811152 0 -0.05878007543100975 0.041771222383296759 0 -0.059142653300226888 0.04277868841529104 0 -0.0575684080795512 0.038437882966108922 0 -0.057579183055489223 0.038615194976258212 0 -0.057335974753242189 0.038888088412820036 0 -0.057718671235102999 0.038575683323108088 0 -0.057681563573302563 0.038431070562869186 0 -0.057579183055489223 0.038615194976258212 0 -0.057619673425190254 0.038840039774233358 0 -0.057579183055489223 0.038615194976258212 0 -0.057335974753242189 0.038888088412820036 0 -0.057266764760484271 0.03947114020832674 0 -0.057563666232550749 0.039170501858386289 0 -0.057335974753242189 0.038888088412820036 0 -0.059132122480485959 0.043488564799495213 0 -0.059142653300226888 0.04277868841529104 0 -0.058768122306010508 0.042979898429977612 0 -0.052993498157944574 0.049739576646972025 0 -0.058454870587074423 0.039277702975783896 0 -0.057563666232550749 0.039170501858386289 0 -0.057619673425190254 0.038840039774233358 0 -0.057335974753242189 0.038888088412820036 0 -0.058416011170538885 0.043351211233012735 0 -0.058768122306010508 0.042979898429977612 0 -0.058417024369305813 0.042662655610422755 0 -0.058768122306010508 0.042979898429977612 0 -0.058700531676604009 0.042473294299845449 0 -0.058417024369305813 0.042662655610422755 0 -0.059142653300226888 0.04277868841529104 0 -0.058768122306010508 0.042979898429977612 0 -0.058700531676604009 0.042473294299845449 0 -0.058416011170538885 0.043351211233012735 0 -0.058417024369305813 0.042662655610422755 0 -0.058076411539628107 0.042852320153537606 0 -0.058417024369305813 0.042662655610422755 0 -0.058076411539628107 0.042852320153537606 0 -0.058168725820131266 0.042330445327753888 0 -0.057786747958685547 0.043232622479510721 0 -0.058076411539628107 0.042852320153537606 0 -0.057629615028630073 0.04272143784280634 0 -0.058076411539628107 0.042852320153537606 0 -0.057629615028630073 0.04272143784280634 0 -0.058168725820131266 0.042330445327753888 0 -0.057629615028630073 0.04272143784280634 0 -0.057855351294352007 0.04222287529169029 0 -0.058168725820131266 0.042330445327753888 0 -0.057855351294352007 0.04222287529169029 0 -0.058168725820131266 0.042330445327753888 0 -0.058225834585914522 0.041982693105379026 0 -0.058168725820131266 0.042330445327753888 0 -0.058494443317103725 0.041937916977993484 0 -0.058225834585914522 0.041982693105379026 0 -0.058508917382422643 0.042217655329104313 0 -0.058417024369305813 0.042662655610422755 0 -0.058168725820131266 0.042330445327753888 0 -0.058508917382422643 0.042217655329104313 0 -0.058168725820131266 0.042330445327753888 0 -0.058494443317103725 0.041937916977993484 0 -0.058494443317103725 0.041937916977993484 0 -0.058225834585914522 0.041982693105379026 0 -0.058610560594951837 0.041638403161955891 0 -0.058225834585914522 0.041982693105379026 0 -0.058610560594951837 0.041638403161955891 0 -0.057985915187814659 0.041851282650916047 0 -0.057918771069564522 0.040337309904078932 0 -0.057784804168111908 0.039203884848020648 0 -0.058610560594951837 0.041638403161955891 0 -0.057985915187814659 0.041851282650916047 0 -0.058521029126128207 0.040469812539127827 0 -0.057985915187814659 0.041851282650916047 0 -0.057589677048008006 0.041654964825702107 0 -0.058521029126128207 0.040469812539127827 0 -0.057855351294352007 0.04222287529169029 0 -0.057985915187814659 0.041851282650916047 0 -0.057387630355397332 0.042224604824315393 0 -0.057855351294352007 0.04222287529169029 0 -0.058225834585914522 0.041982693105379026 0 -0.057985915187814659 0.041851282650916047 0 -0.057527961682921278 0.04194791218606906 0 -0.057507022563094527 0.043135851918614673 0 -0.057985915187814659 0.041851282650916047 0 -0.057589677048008006 0.041654964825702107 0 -0.057387630355397332 0.042224604824315393 0 -0.057589677048008006 0.041654964825702107 0 -0.054999761073210814 0.042587228902018361 0 -0.05726395193690742 0.044812266336046437 0 -0.057589677048008006 0.041654964825702107 0 -0.056158707761004491 0.041201618094933015 0 -0.056903451699057007 0.040393116224648015 0 -0.057589677048008006 0.041654964825702107 0 -0.054999761073210814 0.042587228902018361 0 -0.056158707761004491 0.041201618094933015 0 -0.054999761073210814 0.042587228902018361 0 -0.054999987303636449 0.045366596772317046 0 -0.05726395193690742 0.044812266336046437 0 -0.054999987303636449 0.045366596772317046 0 -0.05726395193690742 0.044812266336046437 0 -0.055999645412338421 0.046498679392081958 0 -0.057629615028630073 0.04272143784280634 0 -0.057855351294352007 0.04222287529169029 0 -0.057387630355397332 0.042224604824315393 0 -0.05726395193690742 0.044812266336046437 0 -0.056752860555065662 0.047730491747689535 0 -0.055999645412338421 0.046498679392081958 0 -0.057507022563094527 0.043135851918614673 0 -0.055654000823075873 0.046891653216594248 0 -0.057145117441786693 0.043196516023185604 0 -0.057629615028630073 0.04272143784280634 0 -0.057124571295347641 0.04301647067548281 0 -0.057629615028630073 0.04272143784280634 0 -0.057387630355397332 0.042224604824315393 0 -0.057124571295347641 0.04301647067548281 0 -0.057145117441786693 0.043196516023185604 0 -0.057786747958685547 0.043232622479510721 0 -0.057629615028630073 0.04272143784280634 0 -0.055147912755343906 0.050874086434022907 0 -0.055654000823075873 0.046891653216594248 0 -0.054390066321281919 0.052255094156488581 0 -0.055654000823075873 0.046891653216594248 0 -0.054999920319881934 0.048145459784123212 0 -0.056629035281787678 0.048309148437509282 0 -0.056752860555065662 0.047730491747689535 0 -0.054999920319881934 0.048145459784123212 0 -0.056752860555065662 0.047730491747689535 0 -0.055999645412338421 0.046498679392081958 0 -0.054999920319881934 0.048145459784123212 0 -0.054999987303636449 0.045366596772317046 0 -0.055999645412338421 0.046498679392081958 0 -0.055000019676844661 0.03521862498955973 0 -0.056517320238020266 0.035142169175268717 0 -0.054999930336239566 0.035220076702318616 0 -0.056767574268510666 0.036358251331478679 0 -0.055936657702971071 0.036439241107224386 0 -0.055000083167858836 0.035215328375601068 0 -0.056629311473660571 0.03392930688899972 0 -0.056708075838909341 0.032142758089536122 0 -0.056767574268510666 0.036358251331478679 0 -0.05677235016885699 0.036990536016831936 0 -0.055936657702971071 0.036439241107224386 0 -0.056767574268510666 0.036358251331478679 0 -0.05677235016885699 0.036990536016831936 0 -0.05710113309156796 0.037022609095582165 0 -0.05715973246965117 0.03755069907017114 0 -0.05724846722766383 0.037816777549119412 0 -0.056478403336735886 0.037960597143438551 0 -0.054999930336239566 0.035220076702318616 0 -0.054999905579879833 0.037029035328097488 0 -0.055936657702971071 0.036439241107224386 0 -0.05715973246965117 0.03755069907017114 0 -0.056478403336735886 0.037960597143438551 0 -0.054999889123427723 0.037030611618170603 0 -0.056913181969598728 0.037267564436322773 0 -0.055000335269503202 0.037029955228497911 0 -0.056478403336735886 0.037960597143438551 0 -0.054999889123427723 0.037030611618170603 0 -0.055970969908876761 0.038273564280056245 0 -0.05677235016885699 0.036990536016831936 0 -0.054999905579879833 0.037029035328097488 0 -0.055936657702971071 0.036439241107224386 0 -0.055970969908876761 0.038273564280056245 0 -0.054999869729353924 0.039808661968941457 0 -0.056781968227295199 0.039069000444663438 0 -0.054999889123427723 0.037030611618170603 0 -0.055970969908876761 0.038273564280056245 0 -0.054999869729353924 0.039808661968941457 0 -0.054999761073210814 0.042587228902018361 0 -0.056158707761004491 0.041201618094933015 0 -0.054999869729353924 0.039808661968941457 0 -0.056158707761004491 0.041201618094933015 0 -0.054999869729353924 0.039808661968941457 0 -0.056903451699057007 0.040393116224648015 0 -0.054999869729353924 0.039808661968941457 0 -0.056903451699057007 0.040393116224648015 0 -0.056781968227295199 0.039069000444663438 0 -0.056903451699057007 0.040393116224648015 0 -0.056781968227295199 0.039069000444663438 0 -0.058521029126128207 0.040469812539127827 0 -0.057589677048008006 0.041654964825702107 0 -0.056903451699057007 0.040393116224648015 0 -0.058521029126128207 0.040469812539127827 0 -0.05724846722766383 0.037816777549119412 0 -0.056781968227295199 0.039069000444663438 0 -0.058521029126128207 0.040469812539127827 0 -0.056478403336735886 0.037960597143438551 0 -0.055970969908876761 0.038273564280056245 0 -0.056781968227295199 0.039069000444663438 0 -0.05724846722766383 0.037816777549119412 0 -0.056478403336735886 0.037960597143438551 0 -0.056781968227295199 0.039069000444663438 0 -0.057247130165094723 0.037900543749202521 0 -0.057784804168111908 0.039203884848020648 0 -0.05724846722766383 0.037816777549119412 0 -0.057291825137706552 0.03776583018950954 0 -0.057137974071418837 0.037996224948705623 0 -0.0570913761289071 0.038993761748633886 0 -0.057137974071418837 0.037996224948705623 0 -0.05749816405501243 0.03810668401637262 0 -0.057137974071418837 0.037996224948705623 0 -0.057413169632875453 0.037798224764358963 0 -0.05749816405501243 0.03810668401637262 0 -0.057291825137706552 0.03776583018950954 0 -0.057137974071418837 0.037996224948705623 0 -0.057413169632875453 0.037798224764358963 0 -0.057291825137706552 0.03776583018950954 0 -0.057413169632875453 0.037798224764358963 0 -0.05740477894177079 0.037459845258884988 0 -0.057413169632875453 0.037798224764358963 0 -0.057558806072377074 0.037543946887522675 0 -0.057634317298405284 0.0378051203379553 0 -0.057614164532805309 0.035195723234526383 0 -0.057648573646944881 0.03506650583589354 0 -0.057558806072377074 0.037543946887522675 0 -0.057417484955517982 0.037198315622128657 0 -0.057705876113824474 0.037496276099666506 0 -0.057413169632875453 0.037798224764358963 0 -0.057558806072377074 0.037543946887522675 0 -0.05740477894177079 0.037459845258884988 0 -0.057558806072377074 0.037543946887522675 0 -0.05740477894177079 0.037459845258884988 0 -0.057417484955517982 0.037198315622128657 0 -0.05724846722766383 0.037816777549119412 0 -0.057291825137706552 0.03776583018950954 0 -0.05740477894177079 0.037459845258884988 0 -0.056913181969598728 0.037267564436322773 0 -0.057440992367139586 0.037420473152947525 0 -0.05677235016885699 0.036990536016831936 0 -0.05740477894177079 0.037459845258884988 0 -0.05710113309156796 0.037022609095582165 0 -0.05715973246965117 0.03755069907017114 0 -0.05724846722766383 0.037816777549119412 0 -0.05740477894177079 0.037459845258884988 0 -0.05740477894177079 0.037459845258884988 0 -0.05710113309156796 0.037022609095582165 0 -0.057417484955517982 0.037198315622128657 0 -0.056767574268510666 0.036358251331478679 0 -0.05710113309156796 0.037022609095582165 0 -0.057417484955517982 0.037198315622128657 0 -0.056629311473660571 0.03392930688899972 0 -0.057701419172002881 0.033184481681654547 0 -0.057976452466054658 0.031990097845127054 0 -0.056517320238020266 0.035142169175268717 0 -0.057614164532805309 0.035195723234526383 0 -0.057701419172002881 0.033184481681654547 0 -0.058643685275241407 0.032838560790362063 0 -0.057976452466054658 0.031990097845127054 0 -0.058879913754284002 0.031982719398028103 0 -0.058643685275241407 0.032838560790362063 0 -0.057976452466054658 0.031990097845127054 0 -0.058879913754284002 0.031982719398028103 0 -0.058643685275241407 0.032838560790362063 0 -0.059532633870967973 0.03278666008925659 0 -0.058879913754284002 0.031982719398028103 0 -0.059532633870967973 0.03278666008925659 0 -0.059554872408443163 0.031586523508127476 0 -0.057648573646944881 0.03506650583589354 0 -0.061008363136327841 0.035864950964238924 0 -0.057705876113824474 0.037496276099666506 0 -0.057818923116783112 0.037814833474460324 0 -0.057906411669106116 0.037627064284533787 0 -0.057558806072377074 0.037543946887522675 0 -0.057705876113824474 0.037496276099666506 0 -0.057634317298405284 0.0378051203379553 0 -0.057413169632875453 0.037798224764358963 0 -0.057634317298405284 0.0378051203379553 0 -0.05749816405501243 0.03810668401637262 0 -0.057705876113824474 0.037496276099666506 0 -0.057634317298405284 0.0378051203379553 0 -0.057818923116783112 0.037814833474460324 0 -0.057634317298405284 0.0378051203379553 0 -0.057804766312273624 0.03813481454848977 0 -0.057818923116783112 0.037814833474460324 0 -0.057634317298405284 0.0378051203379553 0 -0.05749816405501243 0.03810668401637262 0 -0.057804766312273624 0.03813481454848977 0 -0.057942739640810696 0.038481376682627133 0 -0.05749816405501243 0.03810668401637262 0 -0.057804766312273624 0.03813481454848977 0 -0.057855633598557187 0.038075361735912368 0 -0.057804766312273624 0.03813481454848977 0 -0.057818923116783112 0.037814833474460324 0 -0.057819825911597678 0.038312472047059572 0 -0.057855633598557187 0.038075361735912368 0 -0.057804766312273624 0.03813481454848977 0 -0.057855633598557187 0.038075361735912368 0 -0.057818923116783112 0.037814833474460324 0 -0.057919244988063945 0.037822433238475117 0 -0.057818923116783112 0.037814833474460324 0 -0.057919244988063945 0.037822433238475117 0 -0.057906411669106116 0.037627064284533787 0 -0.057855633598557187 0.038075361735912368 0 -0.057919244988063945 0.037822433238475117 0 -0.057907999745181314 0.038051289446872805 0 -0.057919244988063945 0.037822433238475117 0 -0.057907999745181314 0.038051289446872805 0 -0.05801299575899934 0.037842807574559587 0 -0.057833021331663154 0.038223962590023836 0 -0.057855633598557187 0.038075361735912368 0 -0.057907999745181314 0.038051289446872805 0 -0.036689428440672779 0.025017213199356261 0 -0.036594326545632161 0.02539292704061643 0 -0.036064275020395505 0.02509844067069698 0 -0.057958238195046516 0.038129485943867093 0 -0.057907999745181314 0.038051289446872805 0 -0.05801299575899934 0.037842807574559587 0 -0.044454899752136547 0.031851826329659508 0 -0.04738839835916956 0.031787229580076216 0 -0.036594326545632161 0.02539292704061643 0 -0.036567534938994797 0.025855850763752516 0 -0.036188163480823266 0.025421456838321112 0 -0.04738839835916956 0.031787229580076216 0 -0.048808429942066335 0.030496069090022889 0 -0.057919244988063945 0.037822433238475117 0 -0.05801299575899934 0.037842807574559587 0 -0.058004492623018829 0.037626432941215773 0 -0.060437382288789553 0.032867101618280194 0 -0.059532633870967973 0.03278666008925659 0 -0.060070780274567477 0.032231234725004575 0 -0.057919244988063945 0.037822433238475117 0 -0.058004492623018829 0.037626432941215773 0 -0.057906411669106116 0.037627064284533787 0 -0.048808429942066335 0.030496069090022889 0 -0.061008363136327841 0.035864950964238924 0 -0.059532633870967973 0.03278666008925659 0 -0.060070780274567477 0.032231234725004575 0 -0.059554872408443163 0.031586523508127476 0 -0.048808429942066335 0.030496069090022889 0 -0.048625238637689645 0.02876748805803479 0 -0.060070780274567477 0.032231234725004575 0 -0.06068873275424011 0.031643517888412763 0 -0.059554872408443163 0.031586523508127476 0 -0.060437382288789553 0.032867101618280194 0 -0.060070780274567477 0.032231234725004575 0 -0.06068873275424011 0.031643517888412763 0 -0.059554872408443163 0.031586523508127476 0 -0.060169436619264494 0.030785447720190488 0 -0.059443484236826459 0.029627040202065334 0 -0.06068873275424011 0.031643517888412763 0 -0.059554872408443163 0.031586523508127476 0 -0.060169436619264494 0.030785447720190488 0 -0.06068873275424011 0.031643517888412763 0 -0.060169436619264494 0.030785447720190488 0 -0.060922531962445882 0.030169035790562661 0 -0.060169436619264494 0.030785447720190488 0 -0.059443484236826459 0.029627040202065334 0 -0.060922531962445882 0.030169035790562661 0 -0.06515134382474165 0.030770744081494793 0 -0.047505648151126248 0.027760913656490166 0 -0.059639471624164615 0.028770223148326893 0 -0.060235836036489819 0.029660078953469955 0 -0.060406649950525658 0.028780202290510929 0 -0.059639471624164615 0.028770223148326893 0 -0.059443484236826459 0.029627040202065334 0 -0.060235836036489819 0.029660078953469955 0 -0.059639471624164615 0.028770223148326893 0 -0.060406649950525658 0.028780202290510929 0 -0.059548162171053458 0.027625586857199527 0 -0.059639471624164615 0.028770223148326893 0 -0.059443484236826459 0.029627040202065334 0 -0.058992645938400569 0.028492798816758303 0 -0.059639471624164615 0.028770223148326893 0 -0.058992645938400569 0.028492798816758303 0 -0.059303535715317053 0.028039910071619416 0 -0.059443484236826459 0.029627040202065334 0 -0.058722489457210002 0.029443813824650628 0 -0.058815432119208304 0.030864972205242553 0 -0.059443484236826459 0.029627040202065334 0 -0.058722489457210002 0.029443813824650628 0 -0.058992645938400569 0.028492798816758303 0 -0.058722489457210002 0.029443813824650628 0 -0.058992645938400569 0.028492798816758303 0 -0.05860365852962364 0.028515011772764658 0 -0.058722489457210002 0.029443813824650628 0 -0.058233163286738131 0.029085068892933354 0 -0.05860365852962364 0.028515011772764658 0 -0.058722489457210002 0.029443813824650628 0 -0.058815432119208304 0.030864972205242553 0 -0.05820344603529104 0.030284767728148407 0 -0.058722489457210002 0.029443813824650628 0 -0.058233163286738131 0.029085068892933354 0 -0.05820344603529104 0.030284767728148407 0 -0.059554872408443163 0.031586523508127476 0 -0.059443484236826459 0.029627040202065334 0 -0.058815432119208304 0.030864972205242553 0 -0.058815432119208304 0.030864972205242553 0 -0.057976452466054658 0.031990097845127054 0 -0.05820344603529104 0.030284767728148407 0 -0.058879913754284002 0.031982719398028103 0 -0.059554872408443163 0.031586523508127476 0 -0.058815432119208304 0.030864972205242553 0 -0.058879913754284002 0.031982719398028103 0 -0.058815432119208304 0.030864972205242553 0 -0.057976452466054658 0.031990097845127054 0 -0.056629311473660571 0.03392930688899972 0 -0.057976452466054658 0.031990097845127054 0 -0.056708075838909341 0.032142758089536122 0 -0.057976452466054658 0.031990097845127054 0 -0.057401526581473489 0.030601263555834538 0 -0.056708075838909341 0.032142758089536122 0 -0.057976452466054658 0.031990097845127054 0 -0.057401526581473489 0.030601263555834538 0 -0.05820344603529104 0.030284767728148407 0 -0.057401526581473489 0.030601263555834538 0 -0.05820344603529104 0.030284767728148407 0 -0.057604337248708004 0.029136231495647934 0 -0.058233163286738131 0.029085068892933354 0 -0.05820344603529104 0.030284767728148407 0 -0.057604337248708004 0.029136231495647934 0 -0.058233163286738131 0.029085068892933354 0 -0.057604337248708004 0.029136231495647934 0 -0.05783894576862901 0.027919008736090788 0 -0.057604337248708004 0.029136231495647934 0 -0.05671455372382915 0.029385166816958054 0 -0.056689120774360231 0.027552474053107436 0 -0.057401526581473489 0.030601263555834538 0 -0.057604337248708004 0.029136231495647934 0 -0.05671455372382915 0.029385166816958054 0 -0.057401526581473489 0.030601263555834538 0 -0.05671455372382915 0.029385166816958054 0 -0.056085751349621869 0.030862888036005457 0 -0.05671455372382915 0.029385166816958054 0 -0.054999503442441158 0.029569710472270458 0 -0.055000011328528615 0.02674894536220495 0 -0.05671455372382915 0.029385166816958054 0 -0.054999503442441158 0.029569710472270458 0 -0.056085751349621869 0.030862888036005457 0 -0.056085751349621869 0.030862888036005457 0 -0.054999487300515772 0.032394857483981847 0 -0.056708075838909341 0.032142758089536122 0 -0.054999503442441158 0.029569710472270458 0 -0.056085751349621869 0.030862888036005457 0 -0.054999487300515772 0.032394857483981847 0 -0.057401526581473489 0.030601263555834538 0 -0.056085751349621869 0.030862888036005457 0 -0.056708075838909341 0.032142758089536122 0 -0.055000083167858836 0.035215328375601068 0 -0.054999487300515772 0.032394857483981847 0 -0.056708075838909341 0.032142758089536122 0 -0.034622421421937541 0.025564945165563614 0 -0.034719157584156619 0.025669993941989353 0 -0.034973679951426292 0.025731236123480532 0 -0.034622421421937541 0.025564945165563614 0 -0.034826767265138579 0.025655707177457576 0 -0.034973679951426292 0.025731236123480532 0 -0.034984443354880143 0.025886358525762897 0 -0.034719157584156619 0.025669993941989353 0 -0.034973679951426292 0.025731236123480532 0 -0.034984443354880143 0.025886358525762897 0 -0.034719157584156619 0.025669993941989353 0 -0.034666280647555267 0.025919202689377672 0 -0.034719157584156619 0.025669993941989353 0 -0.034113068631773019 0.025270649268272972 0 -0.034666280647555267 0.025919202689377672 0 -0.034622421421937541 0.025564945165563614 0 -0.034719157584156619 0.025669993941989353 0 -0.034113068631773019 0.025270649268272972 0 -0.034137637911729177 0.025264658743776387 0 -0.034185111837200105 0.025119328516738676 0 -0.03384681651783783 0.02487393745072625 0 -0.034113068631773019 0.025270649268272972 0 -0.034271693696147978 0.025343187706495393 0 -0.034113068631773019 0.025270649268272972 0 -0.034271693696147978 0.025343187706495393 0 -0.034406897206831905 0.025482544457286743 0 -0.033551035826579603 0.025747842421710791 0 -0.033279307806693019 0.026962147371308053 0 -0.034271693696147978 0.025343187706495393 0 -0.034406897206831905 0.025482544457286743 0 -0.034649982565684842 0.025666407975401231 0 -0.033010127498430297 0.027280484218821455 0 -0.032788320989556564 0.026173552380763215 0 -0.032068713657237673 0.02785525978159727 0 -0.034622421421937541 0.025564945165563614 0 -0.034113068631773019 0.025270649268272972 0 -0.034406897206831905 0.025482544457286743 0 -0.034622421421937541 0.025564945165563614 0 -0.034406897206831905 0.025482544457286743 0 -0.034607454451850581 0.025644335400074832 0 -0.034406897206831905 0.025482544457286743 0 -0.034607454451850581 0.025644335400074832 0 -0.034649982565684842 0.025666407975401231 0 -0.034607454451850581 0.025644335400074832 0 -0.034649982565684842 0.025666407975401231 0 -0.034722678429125957 0.025825621861495281 0 -0.033010127498430297 0.027280484218821455 0 -0.032068713657237673 0.02785525978159727 0 -0.032952793939439583 0.028847289625527971 0 -0.031470514630264311 0.029461923988304911 0 -0.032068713657237673 0.02785525978159727 0 -0.032952793939439583 0.028847289625527971 0 -0.033471467371450438 0.026946685093368301 0 -0.033279307806693019 0.026962147371308053 0 -0.03486886174236694 0.026056476124804773 0 -0.034649982565684842 0.025666407975401231 0 -0.034722678429125957 0.025825621861495281 0 -0.034787364382364336 0.026035654436826424 0 -0.03486886174236694 0.026056476124804773 0 -0.034722678429125957 0.025825621861495281 0 -0.034787364382364336 0.026035654436826424 0 -0.034722678429125957 0.025825621861495281 0 -0.034719017062304618 0.025769886410282994 0 -0.034787364382364336 0.026035654436826424 0 -0.034719017062304618 0.025769886410282994 0 -0.034786865050284201 0.026007219629343051 0 -0.034622421421937541 0.025564945165563614 0 -0.034607454451850581 0.025644335400074832 0 -0.034719017062304618 0.025769886410282994 0 -0.034607454451850581 0.025644335400074832 0 -0.034722678429125957 0.025825621861495281 0 -0.034719017062304618 0.025769886410282994 0 -0.034719017062304618 0.025769886410282994 0 -0.034826767265138579 0.025655707177457576 0 -0.034786865050284201 0.026007219629343051 0 -0.034622421421937541 0.025564945165563614 0 -0.034719017062304618 0.025769886410282994 0 -0.034826767265138579 0.025655707177457576 0 -0.034802384598832288 0.026205409108040284 0 -0.034786865050284201 0.026007219629343051 0 -0.034767384098087502 0.026148301175685555 0 -0.034826767265138579 0.025655707177457576 0 -0.034786865050284201 0.026007219629343051 0 -0.034767384098087502 0.026148301175685555 0 -0.034826767265138579 0.025655707177457576 0 -0.034767384098087502 0.026148301175685555 0 -0.034649481598071956 0.02613968739595773 0 -0.034685419628072152 0.026427141563915277 0 -0.034767384098087502 0.026148301175685555 0 -0.034649481598071956 0.02613968739595773 0 -0.034705402098445894 0.026500488416903972 0 -0.034685419628072152 0.026427141563915277 0 -0.034649481598071956 0.02613968739595773 0 -0.034826767265138579 0.025655707177457576 0 -0.035419188716989514 0.025275516096331673 0 -0.035415555824883711 0.02566678816695131 0 -0.03472074377159088 0.025695021807413662 0 -0.035418814562600778 0.025682586440687456 0 -0.036594326545632161 0.02539292704061643 0 -0.036064275020395505 0.02509844067069698 0 -0.036188163480823266 0.025421456838321112 0 -0.035418814562600778 0.025682586440687456 0 -0.033621907117767524 0.025336934282969251 0 -0.035419188716989514 0.025275516096331673 0 -0.036064275020395505 0.02509844067069698 0 -0.036188163480823266 0.025421456838321112 0 -0.034705402098445894 0.026500488416903972 0 -0.034649481598071956 0.02613968739595773 0 -0.034781403011451904 0.026390476673919326 0 -0.035419188716989514 0.025275516096331673 0 -0.035957560665535376 0.025666710911711247 0 -0.035415555824883711 0.02566678816695131 0 -0.035419188716989514 0.025275516096331673 0 -0.036188163480823266 0.025421456838321112 0 -0.035957560665535376 0.025666710911711247 0 -0.036567534938994797 0.025855850763752516 0 -0.036188163480823266 0.025421456838321112 0 -0.035957560665535376 0.025666710911711247 0 -0.036408300980129905 0.025683316690249963 0 -0.035957560665535376 0.025666710911711247 0 -0.03612649680985134 0.025850106557764298 0 -0.048808429942066335 0.030496069090022889 0 -0.031226190050812654 0.024664247101485733 0 -0.035957560665535376 0.025666710911711247 0 -0.035812192400226046 0.025955537613856172 0 -0.03612649680985134 0.025850106557764298 0 -0.035957560665535376 0.025666710911711247 0 -0.035812192400226046 0.025955537613856172 0 -0.035415555824883711 0.02566678816695131 0 -0.036351344496735626 0.026133667821952186 0 -0.035812192400226046 0.025955537613856172 0 -0.03612649680985134 0.025850106557764298 0 -0.036408300980129905 0.025683316690249963 0 -0.036351344496735626 0.026133667821952186 0 -0.03612649680985134 0.025850106557764298 0 -0.034826767265138579 0.025655707177457576 0 -0.034973679951426292 0.025731236123480532 0 -0.035415555824883711 0.02566678816695131 0 -0.034973679951426292 0.025731236123480532 0 -0.035415555824883711 0.02566678816695131 0 -0.035263632384749159 0.025858846131955271 0 -0.035812192400226046 0.025955537613856172 0 -0.035415555824883711 0.02566678816695131 0 -0.035263632384749159 0.025858846131955271 0 -0.035812192400226046 0.025955537613856172 0 -0.035263632384749159 0.025858846131955271 0 -0.03543566537346822 0.026093941716674948 0 -0.034984443354880143 0.025886358525762897 0 -0.034973679951426292 0.025731236123480532 0 -0.035263632384749159 0.025858846131955271 0 -0.034984443354880143 0.025886358525762897 0 -0.035263632384749159 0.025858846131955271 0 -0.035131859891251921 0.025963126036898428 0 -0.034984443354880143 0.025886358525762897 0 -0.035131859891251921 0.025963126036898428 0 -0.034988264057555611 0.026050249517716562 0 -0.034984443354880143 0.025886358525762897 0 -0.034988264057555611 0.026050249517716562 0 -0.035159858008696733 0.025971900965726855 0 -0.035263632384749159 0.025858846131955271 0 -0.035131859891251921 0.025963126036898428 0 -0.03543566537346822 0.026093941716674948 0 -0.035131859891251921 0.025963126036898428 0 -0.03543566537346822 0.026093941716674948 0 -0.034988264057555611 0.026050249517716562 0 -0.03621251921191173 0.026363583857794252 0 -0.031519826524250824 0.025396486107443422 0 -0.03543566537346822 0.026093941716674948 0 -0.034988264057555611 0.026050249517716562 0 -0.035631442538041826 0.026547169522188569 0 -0.034988264057555611 0.026050249517716562 0 -0.033358591658630594 0.02551180385305267 0 -0.034851211564807888 0.024786082843549509 0 -0.034427702866734904 0.024253658458837601 0 -0.03460836220271285 0.02489300284540218 0 -0.034988264057555611 0.026050249517716562 0 -0.034851211564807888 0.024786082843549509 0 -0.035159858008696733 0.025971900965726855 0 -0.036351344496735626 0.026133667821952186 0 -0.035812192400226046 0.025955537613856172 0 -0.035987500257788088 0.02632683716947817 0 -0.036351344496735626 0.026133667821952186 0 -0.035987500257788088 0.02632683716947817 0 -0.036358743714672591 0.026762609247829333 0 -0.03543566537346822 0.026093941716674948 0 -0.035987500257788088 0.02632683716947817 0 -0.035631442538041826 0.026547169522188569 0 -0.035812192400226046 0.025955537613856172 0 -0.03543566537346822 0.026093941716674948 0 -0.035987500257788088 0.02632683716947817 0 -0.033358591658630594 0.02551180385305267 0 -0.031784376415393563 0.024925881058005087 0 -0.032743490447053845 0.024320212515858267 0 -0.048625238637689645 0.02876748805803479 0 -0.047505648151126248 0.027760913656490166 0 -0.031519826524250824 0.025396486107443422 0 -0.047505648151126248 0.027760913656490166 0 -0.035987500257788088 0.02632683716947817 0 -0.035631442538041826 0.026547169522188569 0 -0.036358743714672591 0.026762609247829333 0 -0.047505648151126248 0.027760913656490166 0 -0.046098603002877034 0.026052028644794546 0 -0.031784376415393563 0.024925881058005087 0 -0.032743490447053845 0.024320212515858267 0 -0.031963570757436228 0.023465608426441013 0 -0.033358591658630594 0.02551180385305267 0 -0.032743490447053845 0.024320212515858267 0 -0.033506195188293314 0.023361954590777945 0 -0.032743490447053845 0.024320212515858267 0 -0.032747058989853042 0.022827365512622478 0 -0.033506195188293314 0.023361954590777945 0 -0.032747058989853042 0.022827365512622478 0 -0.033506195188293314 0.023361954590777945 0 -0.03364639119189549 0.022177644990831104 0 -0.032747058989853042 0.022827365512622478 0 -0.031963570757436228 0.023465608426441013 0 -0.032218586430087043 0.022108580213910742 0 -0.046098603002877034 0.026052028644794546 0 -0.046472092328353296 0.024742302664874379 0 -0.032743490447053845 0.024320212515858267 0 -0.032747058989853042 0.022827365512622478 0 -0.031963570757436228 0.023465608426441013 0 -0.034170582934049988 0.023768110053729329 0 -0.034367125786924427 0.022869573163812388 0 -0.034516842320414076 0.023764658206641368 0 -0.034170582934049988 0.023768110053729329 0 -0.034516842320414076 0.023764658206641368 0 -0.034109970915760297 0.023832212044732289 0 -0.033358591658630594 0.02551180385305267 0 -0.033506195188293314 0.023361954590777945 0 -0.034851211564807888 0.024786082843549509 0 -0.033571860417746069 0.023428872968194341 0 -0.034427702866734904 0.024253658458837601 0 -0.033506195188293314 0.023361954590777945 0 -0.034367125786924427 0.022869573163812388 0 -0.03364639119189549 0.022177644990831104 0 -0.033506195188293314 0.023361954590777945 0 -0.034170582934049988 0.023768110053729329 0 -0.034367125786924427 0.022869573163812388 0 -0.034367125786924427 0.022869573163812388 0 -0.034516842320414076 0.023764658206641368 0 -0.035678331750749026 0.022249982028717794 0 -0.037193840089861326 0.022463673600452858 0 -0.034516842320414076 0.023764658206641368 0 -0.035678331750749026 0.022249982028717794 0 -0.033102427499727985 0.023212771349904293 0 -0.033431911902009066 0.023569987052809646 0 -0.034516842320414076 0.023764658206641368 0 -0.035156184857551877 0.022738134789164175 0 -0.034631765815147209 0.023618328079896587 0 -0.033102427499727985 0.023212771349904293 0 -0.033431911902009066 0.023569987052809646 0 -0.033082904715199153 0.023304315925081254 0 -0.033431911902009066 0.023569987052809646 0 -0.033669209923003776 0.023819371658762828 0 -0.033475679432769898 0.023864391061098941 0 -0.033431911902009066 0.023569987052809646 0 -0.034516842320414076 0.023764658206641368 0 -0.033669209923003776 0.023819371658762828 0 -0.034516842320414076 0.023764658206641368 0 -0.034109970915760297 0.023832212044732289 0 -0.033669209923003776 0.023819371658762828 0 -0.033669209923003776 0.023819371658762828 0 -0.03357468425183447 0.02431539889776109 0 -0.033767942203525511 0.024394953627441748 0 -0.034109970915760297 0.023832212044732289 0 -0.033669209923003776 0.023819371658762828 0 -0.03357468425183447 0.02431539889776109 0 -0.034984443354880143 0.025886358525762897 0 -0.035159858008696733 0.025971900965726855 0 -0.034666280647555267 0.025919202689377672 0 -0.03460836220271285 0.02489300284540218 0 -0.034185111837200105 0.025119328516738676 0 -0.03384681651783783 0.02487393745072625 0 -0.034113068631773019 0.025270649268272972 0 -0.033767942203525511 0.024394953627441748 0 -0.034113068631773019 0.025270649268272972 0 -0.03357468425183447 0.02431539889776109 0 -0.033767942203525511 0.024394953627441748 0 -0.033669209923003776 0.023819371658762828 0 -0.033767942203525511 0.024394953627441748 0 -0.033475679432769898 0.023864391061098941 0 -0.033767942203525511 0.024394953627441748 0 -0.033796889272273756 0.024287451487406242 0 -0.033475679432769898 0.023864391061098941 0 -0.03384681651783783 0.02487393745072625 0 -0.033767942203525511 0.024394953627441748 0 -0.033796889272273756 0.024287451487406242 0 -0.033737310855306631 0.02377968099868542 0 -0.033475679432769898 0.023864391061098941 0 -0.03332337022897363 0.023341824321471 0 -0.033737310855306631 0.02377968099868542 0 -0.033796889272273756 0.024287451487406242 0 -0.033475679432769898 0.023864391061098941 0 -0.033431911902009066 0.023569987052809646 0 -0.033475679432769898 0.023864391061098941 0 -0.033082904715199153 0.023304315925081254 0 -0.033475679432769898 0.023864391061098941 0 -0.033082904715199153 0.023304315925081254 0 -0.03332337022897363 0.023341824321471 0 -0.033102427499727985 0.023212771349904293 0 -0.033082904715199153 0.023304315925081254 0 -0.032591708650352241 0.022395701686939492 0 -0.033082904715199153 0.023304315925081254 0 -0.03332337022897363 0.023341824321471 0 -0.032591708650352241 0.022395701686939492 0 -0.033737310855306631 0.02377968099868542 0 -0.03332337022897363 0.023341824321471 0 -0.033806916232710857 0.022849618624088658 0 -0.03332337022897363 0.023341824321471 0 -0.032591708650352241 0.022395701686939492 0 -0.033806916232710857 0.022849618624088658 0 -0.032591708650352241 0.022395701686939492 0 -0.03034113368475088 0.021844153399874913 0 -0.029775217108894071 0.020736708264524537 0 -0.032344830586023755 0.022248195348685079 0 -0.031697872300534724 0.021886065369265364 0 -0.032591708650352241 0.022395701686939492 0 -0.031955743327178016 0.022256794940808941 0 -0.03034113368475088 0.021844153399874913 0 -0.035156184857551877 0.022738134789164175 0 -0.035131057850833008 0.021393850809410905 0 -0.033102427499727985 0.023212771349904293 0 -0.032591708650352241 0.022395701686939492 0 -0.031955743327178016 0.022256794940808941 0 -0.037193840089861326 0.022463673600452858 0 -0.038378383988345727 0.020543144766145289 0 -0.037439804594027092 0.021062061218595975 0 -0.038378383988345727 0.020543144766145289 0 -0.037803770522514282 0.02029396434602394 0 -0.037439804594027092 0.021062061218595975 0 -0.038378383988345727 0.020543144766145289 0 -0.037803770522514282 0.02029396434602394 0 -0.038159464283903911 0.019760438480378117 0 -0.038378383988345727 0.020543144766145289 0 -0.038159464283903911 0.019760438480378117 0 -0.037895042291174803 0.019370524915635741 0 -0.031955743327178016 0.022256794940808941 0 -0.03034113368475088 0.021844153399874913 0 -0.029508328703763808 0.022478242411718342 0 -0.035131057850833008 0.021393850809410905 0 -0.033750488062330657 0.020927554956884042 0 -0.038159464283903911 0.019760438480378117 0 -0.038226183852940278 0.019470882932715042 0 -0.037895042291174803 0.019370524915635741 0 -0.037803770522514282 0.02029396434602394 0 -0.038159464283903911 0.019760438480378117 0 -0.038055722559926765 0.019671432281275901 0 -0.038159464283903911 0.019760438480378117 0 -0.038226183852940278 0.019470882932715042 0 -0.038055722559926765 0.019671432281275901 0 -0.038226183852940278 0.019470882932715042 0 -0.037646940334216027 0.019748949942703747 0 -0.039045151444858442 0.019119667481973697 0 -0.038226183852940278 0.019470882932715042 0 -0.038055722559926765 0.019671432281275901 0 -0.039045151444858442 0.019119667481973697 0 -0.038226183852940278 0.019470882932715042 0 -0.037646940334216027 0.019748949942703747 0 -0.037895042291174803 0.019370524915635741 0 -0.037904484328823693 0.019111141918552 0 -0.036999185028420721 0.01995942010209454 0 -0.036556519884352406 0.018747155253773035 0 -0.037904484328823693 0.019111141918552 0 -0.038055722559926765 0.019671432281275901 0 -0.036999185028420721 0.01995942010209454 0 -0.037904484328823693 0.019111141918552 0 -0.038055722559926765 0.019671432281275901 0 -0.039045151444858442 0.019119667481973697 0 -0.038055722559926765 0.019671432281275901 0 -0.036999185028420721 0.01995942010209454 0 -0.036633741491346107 0.020794586814870376 0 -0.036999185028420721 0.01995942010209454 0 -0.036633741491346107 0.020794586814870376 0 -0.036316552748181199 0.020870760511817726 0 -0.036360642911115737 0.020832779565821521 0 -0.036020797437569356 0.021015087840964335 0 -0.037803770522514282 0.02029396434602394 0 -0.036633741491346107 0.020794586814870376 0 -0.037439804594027092 0.021062061218595975 0 -0.037803770522514282 0.02029396434602394 0 -0.038055722559926765 0.019671432281275901 0 -0.036633741491346107 0.020794586814870376 0 -0.036633741491346107 0.020794586814870376 0 -0.037439804594027092 0.021062061218595975 0 -0.035678331750749026 0.022249982028717794 0 -0.037193840089861326 0.022463673600452858 0 -0.037439804594027092 0.021062061218595975 0 -0.035678331750749026 0.022249982028717794 0 -0.036633741491346107 0.020794586814870376 0 -0.035678331750749026 0.022249982028717794 0 -0.034638961160264804 0.021012133346850894 0 -0.034367125786924427 0.022869573163812388 0 -0.035678331750749026 0.022249982028717794 0 -0.034638961160264804 0.021012133346850894 0 -0.034367125786924427 0.022869573163812388 0 -0.03364639119189549 0.022177644990831104 0 -0.034638961160264804 0.021012133346850894 0 -0.03175743388476885 0.02061840140092637 0 -0.036020797437569356 0.021015087840964335 0 -0.03364639119189549 0.022177644990831104 0 -0.033485272970400833 0.021084680927388692 0 -0.034638961160264804 0.021012133346850894 0 -0.03496097951774621 0.02094713203626607 0 -0.036316552748181199 0.020870760511817726 0 -0.035745444531694627 0.01995792590752796 0 -0.060406649950525658 0.028780202290510929 0 -0.060541167905665647 0.027347003107235805 0 -0.059548162171053458 0.027625586857199527 0 -0.060541167905665647 0.027347003107235805 0 -0.059658714863414342 0.025809417504053713 0 -0.059548162171053458 0.027625586857199527 0 -0.032747058989853042 0.022827365512622478 0 -0.03364639119189549 0.022177644990831104 0 -0.032967892088480728 0.02180204757018794 0 -0.032747058989853042 0.022827365512622478 0 -0.032218586430087043 0.022108580213910742 0 -0.032967892088480728 0.02180204757018794 0 -0.033485272970400833 0.021084680927388692 0 -0.032967892088480728 0.02180204757018794 0 -0.032440037682955156 0.020979854802751444 0 -0.03175743388476885 0.02061840140092637 0 -0.045122699671773882 0.022628159962155319 0 -0.03364639119189549 0.022177644990831104 0 -0.033485272970400833 0.021084680927388692 0 -0.032967892088480728 0.02180204757018794 0 -0.060541167905665647 0.027347003107235805 0 -0.06084106712238245 0.024677534360105124 0 -0.059658714863414342 0.025809417504053713 0 -0.046472092328353296 0.024742302664874379 0 -0.045122699671773882 0.022628159962155319 0 -0.032218586430087043 0.022108580213910742 0 -0.032967892088480728 0.02180204757018794 0 -0.032440037682955156 0.020979854802751444 0 -0.06084106712238245 0.024677534360105124 0 -0.059658714863414342 0.025809417504053713 0 -0.058930320619615291 0.024209596879096223 0 -0.045122699671773882 0.022628159962155319 0 -0.062561314879015922 0.02491581671634549 0 -0.045122699671773882 0.022628159962155319 0 -0.046225106084405609 0.020927712642763285 0 -0.059218353364887538 0.024240644425383259 0 -0.058752704698315186 0.022855728052809048 0 -0.058259933247912996 0.023243973991353424 0 -0.059218353364887538 0.024240644425383259 0 -0.058930320619615291 0.024209596879096223 0 -0.058259933247912996 0.023243973991353424 0 -0.03496097951774621 0.02094713203626607 0 -0.033511372058768051 0.020822358425901289 0 -0.034520782059292654 0.019933072633522009 0 -0.033511372058768051 0.020822358425901289 0 -0.034520782059292654 0.019933072633522009 0 -0.033443174975195042 0.018959186175795586 0 -0.034520782059292654 0.019933072633522009 0 -0.033443174975195042 0.018959186175795586 0 -0.034873614752991486 0.018629807137570922 0 -0.058752704698315186 0.022855728052809048 0 -0.058259933247912996 0.023243973991353424 0 -0.057812510396390668 0.022156409460086592 0 -0.036999185028420721 0.01995942010209454 0 -0.036316552748181199 0.020870760511817726 0 -0.035745444531694627 0.01995792590752796 0 -0.03496097951774621 0.02094713203626607 0 -0.034520782059292654 0.019933072633522009 0 -0.035745444531694627 0.01995792590752796 0 -0.035745444531694627 0.01995792590752796 0 -0.034873614752991486 0.018629807137570922 0 -0.036556519884352406 0.018747155253773035 0 -0.034520782059292654 0.019933072633522009 0 -0.035745444531694627 0.01995792590752796 0 -0.034873614752991486 0.018629807137570922 0 -0.036999185028420721 0.01995942010209454 0 -0.035745444531694627 0.01995792590752796 0 -0.036556519884352406 0.018747155253773035 0 -0.036556519884352406 0.018747155253773035 0 -0.035520916331208283 0.016819886127407719 0 -0.038064813562780082 0.017151442984696487 0 -0.034873614752991486 0.018629807137570922 0 -0.036556519884352406 0.018747155253773035 0 -0.035520916331208283 0.016819886127407719 0 -0.035520916331208283 0.016819886127407719 0 -0.036859797373151565 0.014282887159018641 0 -0.038064813562780082 0.017151442984696487 0 -0.058752704698315186 0.022855728052809048 0 -0.05805182220576019 0.021664416792531387 0 -0.057812510396390668 0.022156409460086592 0 -0.046225106084405609 0.020927712642763285 0 -0.045580420614723616 0.018826939487360469 0 -0.033443174975195042 0.018959186175795586 0 -0.034873614752991486 0.018629807137570922 0 -0.033096629105375815 0.01642148298418426 0 -0.034873614752991486 0.018629807137570922 0 -0.035520916331208283 0.016819886127407719 0 -0.033096629105375815 0.01642148298418426 0 -0.035520916331208283 0.016819886127407719 0 -0.033096629105375815 0.01642148298418426 0 -0.032994924410426563 0.012831448634503131 0 -0.05805182220576019 0.021664416792531387 0 -0.057462719090530759 0.021374701387822128 0 -0.057812510396390668 0.022156409460086592 0 -0.05805182220576019 0.021664416792531387 0 -0.057462719090530759 0.021374701387822128 0 -0.057111373771598341 0.020818165983440481 0 -0.057462719090530759 0.021374701387822128 0 -0.057111373771598341 0.020818165983440481 0 -0.056986476576487526 0.020917934745647154 0 -0.045580420614723616 0.018826939487360469 0 -0.044932198894096415 0.01788374126679608 0 -0.032994924410426563 0.012831448634503131 0 -0.035577466050957234 0.01124412007325294 0 -0.03324562963749042 0.0085553769869410861 0 -0.044932198894096415 0.01788374126679608 0 -0.045275748489143362 0.010012011751049051 0 -0.057111373771598341 0.020818165983440481 0 -0.056986476576487526 0.020917934745647154 0 -0.056391618745408129 0.020517632636522311 0 -0.036859797373151565 0.014282887159018641 0 -0.039347746024427636 0.013832325253301272 0 -0.038064813562780082 0.017151442984696487 0 -0.036859797373151565 0.014282887159018641 0 -0.038618108209899624 0.011230885450549748 0 -0.039347746024427636 0.013832325253301272 0 -0.035520916331208283 0.016819886127407719 0 -0.032994924410426563 0.012831448634503131 0 -0.036859797373151565 0.014282887159018641 0 -0.032994924410426563 0.012831448634503131 0 -0.036859797373151565 0.014282887159018641 0 -0.035577466050957234 0.01124412007325294 0 -0.036859797373151565 0.014282887159018641 0 -0.035577466050957234 0.01124412007325294 0 -0.038618108209899624 0.011230885450549748 0 -0.038618108209899624 0.011230885450549748 0 -0.039347746024427636 0.013832325253301272 0 -0.041979189961164717 0.011287697620507613 0 -0.038618108209899624 0.011230885450549748 0 -0.041979189961164717 0.011287697620507613 0 -0.042129370261315469 0.0077980934827380742 0 -0.039347746024427636 0.013832325253301272 0 -0.041979189961164717 0.011287697620507613 0 -0.040652404186497987 0.015710970990069 0 -0.03964685861765032 0.02266401119835517 0 -0.038569292934678368 0.022163151564588368 0 -0.039393057973203374 0.021048351023726233 0 -0.040762205234961865 0.016891714117436195 0 -0.039972776852823612 0.01825941821598305 0 -0.03964685861765032 0.02266401119835517 0 -0.038569292934678368 0.022163151564588368 0 -0.038474204931667033 0.023249370883106097 0 -0.037865206507464465 0.022726833335182186 0 -0.038569292934678368 0.022163151564588368 0 -0.037693220823449509 0.022037653157086536 0 -0.037865206507464465 0.022726833335182186 0 -0.038569292934678368 0.022163151564588368 0 -0.038474204931667033 0.023249370883106097 0 -0.037260652293850081 0.022599661099976718 0 -0.037424633751146165 0.023541298838718978 0 -0.036491682525962355 0.022591895950534076 0 -0.037865206507464465 0.022726833335182186 0 -0.037260652293850081 0.022599661099976718 0 -0.037424633751146165 0.023541298838718978 0 -0.037865206507464465 0.022726833335182186 0 -0.037260652293850081 0.022599661099976718 0 -0.037693220823449509 0.022037653157086536 0 -0.037260652293850081 0.022599661099976718 0 -0.037693220823449509 0.022037653157086536 0 -0.036922340716730756 0.022012042869918935 0 -0.037693220823449509 0.022037653157086536 0 -0.037344546937753013 0.021323586546761197 0 -0.038180944057645841 0.021411652658705888 0 -0.037693220823449509 0.022037653157086536 0 -0.037344546937753013 0.021323586546761197 0 -0.036922340716730756 0.022012042869918935 0 -0.038569292934678368 0.022163151564588368 0 -0.038180944057645841 0.021411652658705888 0 -0.039393057973203374 0.021048351023726233 0 -0.038569292934678368 0.022163151564588368 0 -0.037693220823449509 0.022037653157086536 0 -0.038180944057645841 0.021411652658705888 0 -0.038038741081462664 0.020466495806992804 0 -0.039045151444858442 0.019119667481973697 0 -0.039393057973203374 0.021048351023726233 0 -0.038180944057645841 0.021411652658705888 0 -0.038038741081462664 0.020466495806992804 0 -0.039393057973203374 0.021048351023726233 0 -0.037344546937753013 0.021323586546761197 0 -0.038180944057645841 0.021411652658705888 0 -0.038038741081462664 0.020466495806992804 0 -0.037344546937753013 0.021323586546761197 0 -0.038038741081462664 0.020466495806992804 0 -0.037033566666017523 0.020679568760569249 0 -0.038038741081462664 0.020466495806992804 0 -0.037646940334216027 0.019748949942703747 0 -0.037033566666017523 0.020679568760569249 0 -0.038038741081462664 0.020466495806992804 0 -0.037646940334216027 0.019748949942703747 0 -0.039045151444858442 0.019119667481973697 0 -0.037904484328823693 0.019111141918552 0 -0.036556519884352406 0.018747155253773035 0 -0.038064813562780082 0.017151442984696487 0 -0.037904484328823693 0.019111141918552 0 -0.039045151444858442 0.019119667481973697 0 -0.038064813562780082 0.017151442984696487 0 -0.039347746024427636 0.013832325253301272 0 -0.038064813562780082 0.017151442984696487 0 -0.040652404186497987 0.015710970990069 0 -0.039045151444858442 0.019119667481973697 0 -0.038064813562780082 0.017151442984696487 0 -0.040652404186497987 0.015710970990069 0 -0.039218638247843537 0.018948203914286348 0 -0.039972776852823612 0.01825941821598305 0 -0.056546292120658925 0.021998301840400154 0 -0.057773117454721828 0.019847487751825151 0 -0.054999791020912021 0.020542150314432888 0 -0.056546292120658925 0.021998301840400154 0 -0.054999718846512134 0.023644131734810569 0 -0.054999791020912021 0.020542150314432888 0 -0.056546292120658925 0.021998301840400154 0 -0.057967233342718069 0.022272237680496958 0 -0.057773117454721828 0.019847487751825151 0 -0.056546292120658925 0.021998301840400154 0 -0.056957825487202629 0.023783540512586156 0 -0.057967233342718069 0.022272237680496958 0 -0.056546292120658925 0.021998301840400154 0 -0.056957825487202629 0.023783540512586156 0 -0.054999718846512134 0.023644131734810569 0 -0.056957825487202629 0.023783540512586156 0 -0.054999718846512134 0.023644131734810569 0 -0.05500006458828724 0.026744785919549697 0 -0.055000099855099453 0.026746286696470944 0 -0.056866504718259395 0.026576033658258794 0 -0.05671455372382915 0.029385166816958054 0 -0.055000011328528615 0.02674894536220495 0 -0.056689120774360231 0.027552474053107436 0 -0.056957825487202629 0.023783540512586156 0 -0.057275076429907701 0.02562007608257539 0 -0.058393353824542325 0.023653601850978034 0 -0.056957825487202629 0.023783540512586156 0 -0.05500006458828724 0.026744785919549697 0 -0.057275076429907701 0.02562007608257539 0 -0.057275076429907701 0.02562007608257539 0 -0.058393353824542325 0.023653601850978034 0 -0.058878282765059152 0.024523758269073652 0 -0.057604337248708004 0.029136231495647934 0 -0.056689120774360231 0.027552474053107436 0 -0.05783894576862901 0.027919008736090788 0 -0.056866504718259395 0.026576033658258794 0 -0.05828709010347078 0.026213220114814483 0 -0.058393353824542325 0.023653601850978034 0 -0.058878282765059152 0.024523758269073652 0 -0.059231250171580603 0.023581934736232504 0 -0.058393353824542325 0.023653601850978034 0 -0.059231250171580603 0.023581934736232504 0 -0.05924117834124331 0.022037369082906374 0 -0.056957825487202629 0.023783540512586156 0 -0.058393353824542325 0.023653601850978034 0 -0.057967233342718069 0.022272237680496958 0 -0.058393353824542325 0.023653601850978034 0 -0.057967233342718069 0.022272237680496958 0 -0.05924117834124331 0.022037369082906374 0 -0.057967233342718069 0.022272237680496958 0 -0.05924117834124331 0.022037369082906374 0 -0.057773117454721828 0.019847487751825151 0 -0.05838626653569072 0.022875893455202558 0 -0.058207336765911104 0.021155386965375514 0 -0.05924117834124331 0.022037369082906374 0 -0.060133236154946305 0.022708401644977977 0 -0.060406717820395993 0.020117713810532359 0 -0.056755757943587726 0.023302111679356554 0 -0.057817610876443166 0.023521210497710197 0 -0.057227499998309478 0.022521464237271843 0 -0.05838626653569072 0.022875893455202558 0 -0.058367452824151754 0.023778883123310088 0 -0.056755757943587726 0.023302111679356554 0 -0.057884360258006064 0.023950599248435973 0 -0.057817610876443166 0.023521210497710197 0 -0.060133236154946305 0.022708401644977977 0 -0.059155524006522069 0.023687515913345555 0 -0.058376897088001208 0.024003325975816246 0 -0.056755757943587726 0.023302111679356554 0 -0.058376897088001208 0.024003325975816246 0 -0.057884360258006064 0.023950599248435973 0 -0.059231250171580603 0.023581934736232504 0 -0.05924117834124331 0.022037369082906374 0 -0.060133236154946305 0.022708401644977977 0 -0.059231250171580603 0.023581934736232504 0 -0.060133236154946305 0.022708401644977977 0 -0.059155524006522069 0.023687515913345555 0 -0.059231250171580603 0.023581934736232504 0 -0.059155524006522069 0.023687515913345555 0 -0.059029592465950007 0.023699049009504123 0 -0.058878282765059152 0.024523758269073652 0 -0.059231250171580603 0.023581934736232504 0 -0.059029592465950007 0.023699049009504123 0 -0.05783894576862901 0.027919008736090788 0 -0.058578796120507391 0.027906529338568065 0 -0.05860365852962364 0.028515011772764658 0 -0.05828709010347078 0.026213220114814483 0 -0.058761190164627698 0.025843930219060431 0 -0.058233163286738131 0.029085068892933354 0 -0.05783894576862901 0.027919008736090788 0 -0.05860365852962364 0.028515011772764658 0 -0.058992645938400569 0.028492798816758303 0 -0.058578796120507391 0.027906529338568065 0 -0.059102930925013224 0.027433994934817581 0 -0.058992645938400569 0.028492798816758303 0 -0.058578796120507391 0.027906529338568065 0 -0.05860365852962364 0.028515011772764658 0 -0.058761190164627698 0.025843930219060431 0 -0.05861112226218252 0.025840730498290304 0 -0.059029592465950007 0.023699049009504123 0 -0.058376897088001208 0.024003325975816246 0 -0.057764216933029619 0.024276040317200615 0 -0.059155524006522069 0.023687515913345555 0 -0.059029592465950007 0.023699049009504123 0 -0.058376897088001208 0.024003325975816246 0 -0.058376897088001208 0.024003325975816246 0 -0.057764216933029619 0.024276040317200615 0 -0.057884360258006064 0.023950599248435973 0 -0.057764216933029619 0.024276040317200615 0 -0.058137546117054767 0.024081523634289372 0 -0.057884360258006064 0.023950599248435973 0 -0.058992645938400569 0.028492798816758303 0 -0.059102930925013224 0.027433994934817581 0 -0.059303535715317053 0.028039910071619416 0 -0.059102930925013224 0.027433994934817581 0 -0.059303535715317053 0.028039910071619416 0 -0.059548162171053458 0.027625586857199527 0 -0.059639471624164615 0.028770223148326893 0 -0.059303535715317053 0.028039910071619416 0 -0.059548162171053458 0.027625586857199527 0 -0.059658714863414342 0.025809417504053713 0 -0.057764216933029619 0.024276040317200615 0 -0.058137546117054767 0.024081523634289372 0 -0.059658714863414342 0.025809417504053713 0 -0.059102930925013224 0.027433994934817581 0 -0.059548162171053458 0.027625586857199527 0 -0.059658714863414342 0.025809417504053713 0 -0.058137546117054767 0.024081523634289372 0 -0.058930320619615291 0.024209596879096223 0 -0.059743359733843447 0.025779707100430659 0 -0.05861112226218252 0.025840730498290304 0 -0.058234648597076173 0.023709822192201357 0 -0.057817610876443166 0.023521210497710197 0 -0.058259933247912996 0.023243973991353424 0 -0.058930320619615291 0.024209596879096223 0 -0.058234648597076173 0.023709822192201357 0 -0.058259933247912996 0.023243973991353424 0 -0.058137546117054767 0.024081523634289372 0 -0.058930320619615291 0.024209596879096223 0 -0.058234648597076173 0.023709822192201357 0 -0.058137546117054767 0.024081523634289372 0 -0.057884360258006064 0.023950599248435973 0 -0.057817610876443166 0.023521210497710197 0 -0.058137546117054767 0.024081523634289372 0 -0.058234648597076173 0.023709822192201357 0 -0.057817610876443166 0.023521210497710197 0 -0.057817610876443166 0.023521210497710197 0 -0.058259933247912996 0.023243973991353424 0 -0.057227499998309478 0.022521464237271843 0 -0.058259933247912996 0.023243973991353424 0 -0.057812510396390668 0.022156409460086592 0 -0.057227499998309478 0.022521464237271843 0 -0.057812510396390668 0.022156409460086592 0 -0.057227499998309478 0.022521464237271843 0 -0.057106200879567234 0.021547722376781556 0 -0.057462719090530759 0.021374701387822128 0 -0.057812510396390668 0.022156409460086592 0 -0.057106200879567234 0.021547722376781556 0 -0.057462719090530759 0.021374701387822128 0 -0.057106200879567234 0.021547722376781556 0 -0.056986476576487526 0.020917934745647154 0 -0.056986476576487526 0.020917934745647154 0 -0.056661187189343598 0.02061753931775925 0 -0.056391618745408129 0.020517632636522311 0 -0.056986476576487526 0.020917934745647154 0 -0.056499770228462323 0.020956839342801594 0 -0.056661187189343598 0.02061753931775925 0 -0.057106200879567234 0.021547722376781556 0 -0.056986476576487526 0.020917934745647154 0 -0.056499770228462323 0.020956839342801594 0 -0.056499770228462323 0.020956839342801594 0 -0.056041206143397033 0.020607041236912257 0 -0.056555605209311376 0.020302746691191632 0 -0.057106200879567234 0.021547722376781556 0 -0.056499770228462323 0.020956839342801594 0 -0.056519729378042546 0.021653308973879272 0 -0.056499770228462323 0.020956839342801594 0 -0.056041206143397033 0.020607041236912257 0 -0.055677060848012529 0.021304048094761538 0 -0.056499770228462323 0.020956839342801594 0 -0.056519729378042546 0.021653308973879272 0 -0.055677060848012529 0.021304048094761538 0 -0.056519729378042546 0.021653308973879272 0 -0.056034895800693228 0.022176251438972949 0 -0.055677060848012529 0.021304048094761538 0 -0.057227499998309478 0.022521464237271843 0 -0.057106200879567234 0.021547722376781556 0 -0.056519729378042546 0.021653308973879272 0 -0.057227499998309478 0.022521464237271843 0 -0.056519729378042546 0.021653308973879272 0 -0.056034895800693228 0.022176251438972949 0 -0.056755757943587726 0.023302111679356554 0 -0.057227499998309478 0.022521464237271843 0 -0.056034895800693228 0.022176251438972949 0 -0.060406717820395993 0.020117713810532359 0 -0.057773117454721828 0.019847487751825151 0 -0.059970606320838983 0.01732484264256608 0 -0.05924117834124331 0.022037369082906374 0 -0.060406717820395993 0.020117713810532359 0 -0.057773117454721828 0.019847487751825151 0 -0.057773117454721828 0.019847487751825151 0 -0.059970606320838983 0.01732484264256608 0 -0.057475752486317991 0.016397583645211117 0 -0.058207336765911104 0.021155386965375514 0 -0.057738190052542229 0.01910468251604678 0 -0.056041206143397033 0.020607041236912257 0 -0.055677060848012529 0.021304048094761538 0 -0.0553724156342685 0.020603243376375167 0 -0.057738190052542229 0.01910468251604678 0 -0.05750322671944149 0.018400967534020214 0 -0.059970606320838983 0.01732484264256608 0 -0.059204722291217683 0.014463770211027434 0 -0.057475752486317991 0.016397583645211117 0 -0.057475752486317991 0.016397583645211117 0 -0.054999811032365752 0.014337931910425331 0 -0.057198357682567903 0.013732350181166249 0 -0.059204722291217683 0.014463770211027434 0 -0.057475752486317991 0.016397583645211117 0 -0.057198357682567903 0.013732350181166249 0 -0.057475752486317991 0.016397583645211117 0 -0.054999811032365752 0.014337931910425331 0 -0.054999709571096081 0.017440284870143447 0 -0.057773117454721828 0.019847487751825151 0 -0.057475752486317991 0.016397583645211117 0 -0.054999709571096081 0.017440284870143447 0 -0.057773117454721828 0.019847487751825151 0 -0.054999709571096081 0.017440284870143447 0 -0.054999791020912021 0.020542150314432888 0 -0.056535040692194415 0.0025107526357711278 0 -0.056244864572046492 0.0028249059935538849 0 -0.056158925762674276 0.0031708202356703122 0 -0.054999983380326085 0.008677224944696825 0 -0.056171134095296081 0.0061976224031911106 0 -0.054999989873246301 0.0061188324846504719 0 -0.057319144011711218 0.0088262286211115738 0 -0.054999983380326085 0.008677224944696825 0 -0.056171134095296081 0.0061976224031911106 0 -0.056898919904420225 0.0046956988377215838 0 -0.056149218035665846 0.0048221002498061742 0 -0.056535040692194415 0.0025107526357711278 0 -0.056495925399465359 0.0018363952423187837 0 -0.056437525436690755 0.0021557541633764861 0 -0.056898919904420225 0.0046956988377215838 0 -0.056109285844159223 0.011596723817510174 0 -0.057319144011711218 0.0088262286211115738 0 -0.055961784753268302 0.0099447986257538545 0 -0.054999983380326085 0.008677224944696825 0 -0.057319144011711218 0.0088262286211115738 0 -0.055961784753268302 0.0099447986257538545 0 -0.056732401769994598 0.011317997110784727 0 -0.055961784753268302 0.0099447986257538545 0 -0.054999983380326085 0.008677224944696825 0 -0.054999984828829916 0.011235516246111774 0 -0.055961784753268302 0.0099447986257538545 0 -0.054999984828829916 0.011235516246111774 0 -0.056732401769994598 0.011317997110784727 0 -0.055000202251764073 0.011235670929848245 0 -0.056979863439183119 0.01144938985532792 0 -0.054999811032365752 0.014337931910425331 0 -0.057198357682567903 0.013732350181166249 0 -0.056574840976225303 0.011542877670474849 0 -0.054999811032365752 0.014337931910425331 0 -0.054999850151293016 0.011236124431557868 0 -0.056574840976225303 0.011542877670474849 0 -0.057198357682567903 0.013732350181166249 0 -0.056574840976225303 0.011542877670474849 0 -0.058197048763345666 0.011742356703432535 0 -0.056979863439183119 0.01144938985532792 0 -0.056109285844159223 0.011596723817510174 0 -0.057319144011711218 0.0088262286211115738 0 -0.056732401769994598 0.011317997110784727 0 -0.058445918655099204 0.01142638335190903 0 -0.056109285844159223 0.011596723817510174 0 -0.056047021924942507 0.01052607182456964 0 -0.056495925399465359 0.0018363952423187837 0 -0.056300429039653044 0.0017326818749128742 0 -0.056437525436690755 0.0021557541633764861 0 -0.059204722291217683 0.014463770211027434 0 -0.057198357682567903 0.013732350181166249 0 -0.058197048763345666 0.011742356703432535 0 -0.05750322671944149 0.018400967534020214 0 -0.056109285844159223 0.011596723817510174 0 -0.0553724156342685 0.020603243376375167 0 -0.055047768521997338 0.01981867500340545 0 -0.055900558684012031 0.020009127116654108 0 -0.056041206143397033 0.020607041236912257 0 -0.0553724156342685 0.020603243376375167 0 -0.055900558684012031 0.020009127116654108 0 -0.056363442634831229 0.0013019891695265286 0 -0.056300429039653044 0.0017326818749128742 0 -0.056217472540706054 0.0016065838011729439 0 -0.056495925399465359 0.0018363952423187837 0 -0.056363442634831229 0.0013019891695265286 0 -0.056300429039653044 0.0017326818749128742 0 -0.056300429039653044 0.0017326818749128742 0 -0.056190245781836262 0.0014063225020251818 0 -0.056301537835488878 0.0015125534252108516 0 -0.056300429039653044 0.0017326818749128742 0 -0.056301537835488878 0.0015125534252108516 0 -0.056217472540706054 0.0016065838011729439 0 -0.056535040692194415 0.0025107526357711278 0 -0.056437525436690755 0.0021557541633764861 0 -0.056244864572046492 0.0028249059935538849 0 -0.056300429039653044 0.0017326818749128742 0 -0.056437525436690755 0.0021557541633764861 0 -0.056244864572046492 0.0028249059935538849 0 -0.056275383741984611 0.0017688985426626742 0 -0.056245642845690176 0.0021086938165438118 0 -0.056301537835488878 0.0015125534252108516 0 -0.056406974566523917 0.0014250074494085191 0 -0.056217472540706054 0.0016065838011729439 0 -0.056301537835488878 0.0015125534252108516 0 -0.056406974566523917 0.0014250074494085191 0 -0.056386175658055551 0.0012000733952373598 0 -0.056190245781836262 0.0014063225020251818 0 -0.056301537835488878 0.0015125534252108516 0 -0.056386175658055551 0.0012000733952373598 0 -0.056406974566523917 0.0014250074494085191 0 -0.056319282121032557 0.0016021468127596953 0 -0.056582489072602264 0.0013258717694885382 0 -0.055381901244217512 0.0022396125970627033 0 -0.055265775588669686 0.0040554223189672653 0 -0.054493649549592398 0.0031790428098130313 0 -0.052784839799472738 0.0032344894918138016 0 -0.053112116889120965 0.0058726409997251752 0 -0.056319282121032557 0.0016021468127596953 0 -0.056857388242829897 0.0013194761896459413 0 -0.056582489072602264 0.0013258717694885382 0 -0.054493649549592398 0.0031790428098130313 0 -0.05549415278666267 0.0011224788481294622 0 -0.054031378952504344 0.001738726252761067 0 -0.055381901244217512 0.0022396125970627033 0 -0.055573272395080184 0.0012147612294821455 0 -0.054493649549592398 0.0031790428098130313 0 -0.054031378952504344 0.001738726252761067 0 -0.052784839799472738 0.0032344894918138016 0 -0.056406974566523917 0.0014250074494085191 0 -0.056319282121032557 0.0016021468127596953 0 -0.056217472540706054 0.0016065838011729439 0 -0.056319282121032557 0.0016021468127596953 0 -0.056217472540706054 0.0016065838011729439 0 -0.05549415278666267 0.0011224788481294622 0 -0.056047021924942507 0.01052607182456964 0 -0.054930962514606392 0.010223881507621943 0 -0.056499770228462323 0.020956839342801594 0 -0.056555605209311376 0.020302746691191632 0 -0.056661187189343598 0.02061753931775925 0 -0.056363442634831229 0.0013019891695265286 0 -0.05549415278666267 0.0011224788481294622 0 -0.054002024887991919 0.00011468212475063236 0 -0.056363442634831229 0.0013019891695265286 0 -0.056217472540706054 0.0016065838011729439 0 -0.05549415278666267 0.0011224788481294622 0 -0.056041206143397033 0.020607041236912257 0 -0.055900558684012031 0.020009127116654108 0 -0.056555605209311376 0.020302746691191632 0 -0.05549415278666267 0.0011224788481294622 0 -0.054002024887991919 0.00011468212475063236 0 -0.054031378952504344 0.001738726252761067 0 -0.054002024887991919 0.00011468212475063236 0 -0.049936934769029093 -0.00091167072710687162 0 -0.052263264171374377 0.0017489592451885041 0 -0.054002024887991919 0.00011468212475063236 0 -0.054031378952504344 0.001738726252761067 0 -0.052263264171374377 0.0017489592451885041 0 -0.056555605209311376 0.020302746691191632 0 -0.056661187189343598 0.02061753931775925 0 -0.056391618745408129 0.020517632636522311 0 -0.054930962514606392 0.010223881507621943 0 -0.054410839623219395 0.009799464546311679 0 -0.049936934769029093 -0.00091167072710687162 0 -0.04991430843935861 0.0017649067139346121 0 -0.052263264171374377 0.0017489592451885041 0 -0.049936934769029093 -0.00091167072710687162 0 -0.04991430843935861 0.0017649067139346121 0 -0.048040236966317283 0.00099510491134107413 0 -0.04991430843935861 0.0017649067139346121 0 -0.051265815361480262 0.0028812511750295885 0 -0.052263264171374377 0.0017489592451885041 0 -0.04991430843935861 0.0017649067139346121 0 -0.049915962918048409 0.0035636045263127921 0 -0.048401175025410977 0.0024717960844414166 0 -0.04991430843935861 0.0017649067139346121 0 -0.049915962918048409 0.0035636045263127921 0 -0.051265815361480262 0.0028812511750295885 0 -0.049915962918048409 0.0035636045263127921 0 -0.051265815361480262 0.0028812511750295885 0 -0.051375416610394214 0.004109673657518847 0 -0.051265815361480262 0.0028812511750295885 0 -0.052263264171374377 0.0017489592451885041 0 -0.052784839799472738 0.0032344894918138016 0 -0.054031378952504344 0.001738726252761067 0 -0.052263264171374377 0.0017489592451885041 0 -0.052784839799472738 0.0032344894918138016 0 -0.051265815361480262 0.0028812511750295885 0 -0.052784839799472738 0.0032344894918138016 0 -0.051375416610394214 0.004109673657518847 0 -0.052784839799472738 0.0032344894918138016 0 -0.051375416610394214 0.004109673657518847 0 -0.053112116889120965 0.0058726409997251752 0 -0.051375416610394214 0.004109673657518847 0 -0.051377765838432884 0.0055706279817715762 0 -0.053112116889120965 0.0058726409997251752 0 -0.051375416610394214 0.004109673657518847 0 -0.051377765838432884 0.0055706279817715762 0 -0.050336355227004317 0.0048816475289899033 0 -0.04556585559208956 -2.7531394214083189e-05 0 -0.045205547036512916 0.0014905766851658739 0 -0.044970660699031252 0.0020498299785403915 0 -0.050336355227004317 0.0048816475289899033 0 -0.050389083038490975 0.0063931123562411723 0 -0.048454634881471406 0.0046294053209374533 0 -0.047942170501958661 0.0034981029230811613 0 -0.046775721692684943 0.0031496905862685898 0 -0.051377765838432884 0.0055706279817715762 0 -0.050336355227004317 0.0048816475289899033 0 -0.050389083038490975 0.0063931123562411723 0 -0.049915962918048409 0.0035636045263127921 0 -0.050336355227004317 0.0048816475289899033 0 -0.048454634881471406 0.0046294053209374533 0 -0.049915962918048409 0.0035636045263127921 0 -0.051375416610394214 0.004109673657518847 0 -0.050336355227004317 0.0048816475289899033 0 -0.047942170501958661 0.0034981029230811613 0 -0.050410797048354848 0.00089004703160527659 0 -0.051377765838432884 0.0055706279817715762 0 -0.050389083038490975 0.0063931123562411723 0 -0.051691298783425162 0.0064908501292078504 0 -0.051377765838432884 0.0055706279817715762 0 -0.051691298783425162 0.0064908501292078504 0 -0.053112116889120965 0.0058726409997251752 0 -0.055265775588669686 0.0040554223189672653 0 -0.050410797048354848 0.00089004703160527659 0 -0.050389083038490975 0.0063931123562411723 0 -0.051691298783425162 0.0064908501292078504 0 -0.051811792880000949 0.0081298380194472688 0 -0.051691298783425162 0.0064908501292078504 0 -0.053112116889120965 0.0058726409997251752 0 -0.051811792880000949 0.0081298380194472688 0 -0.057228417887308571 0.00084745839315000966 0 -0.056986415845100419 0.00088293455569229127 0 -0.05658247565075767 -0.0001349100700460154 0 -0.056857388242829897 0.0013194761896459413 0 -0.057228417887308571 0.00084745839315000966 0 -0.056986415845100419 0.00088293455569229127 0 -0.045581832631137111 -0.0021653648582204343 0 -0.046269010878280503 -0.0021809183233415493 0 -0.046618995038270689 -0.0032533583293525561 0 -0.04702644463272436 -0.0038473019919909052 0 -0.047256451769099261 -0.0033928138549142281 0 -0.046618995038270689 -0.0032533583293525561 0 -0.050410797048354848 0.00089004703160527659 0 -0.048397586755295749 -0.0024735357352519065 0 -0.046269010878280503 -0.0021809183233415493 0 -0.046774778568163512 -0.0029246124696172379 0 -0.046618995038270689 -0.0032533583293525561 0 -0.04556585559208956 -2.7531394214083189e-05 0 -0.045581832631137111 -0.0021653648582204343 0 -0.046269010878280503 -0.0021809183233415493 0 -0.04556585559208956 -2.7531394214083189e-05 0 -0.046699309304801116 -0.0020644135470396013 0 -0.047545998545324382 -0.0016096735130677164 0 -0.04556585559208956 -2.7531394214083189e-05 0 -0.046269010878280503 -0.0021809183233415493 0 -0.046699309304801116 -0.0020644135470396013 0 -0.046699309304801116 -0.0020644135470396013 0 -0.046774778568163512 -0.0029246124696172379 0 -0.047072886297448581 -0.002668147848858487 0 -0.046269010878280503 -0.0021809183233415493 0 -0.046699309304801116 -0.0020644135470396013 0 -0.046774778568163512 -0.0029246124696172379 0 -0.046774778568163512 -0.0029246124696172379 0 -0.047035557412547301 -0.0031637766492226961 0 -0.047072886297448581 -0.002668147848858487 0 -0.046774778568163512 -0.0029246124696172379 0 -0.046983015739595721 -0.0032429096936399762 0 -0.046618995038270689 -0.0032533583293525561 0 -0.046774778568163512 -0.0029246124696172379 0 -0.046983015739595721 -0.0032429096936399762 0 -0.047035557412547301 -0.0031637766492226961 0 -0.046983015739595721 -0.0032429096936399762 0 -0.047035557412547301 -0.0031637766492226961 0 -0.047181390889568957 -0.0032317525801295968 0 -0.046983015739595721 -0.0032429096936399762 0 -0.047181390889568957 -0.0032317525801295968 0 -0.047422454617214192 -0.0033779323610253938 0 -0.047035557412547301 -0.0031637766492226961 0 -0.047183991693776003 -0.0031084802879011511 0 -0.047094633299084761 -0.0030942995228844931 0 -0.047035557412547301 -0.0031637766492226961 0 -0.047181390889568957 -0.0032317525801295968 0 -0.047183991693776003 -0.0031084802879011511 0 -0.047488645169581657 -0.0028259962432181291 0 -0.047183991693776003 -0.0031084802879011511 0 -0.047453516816897981 -0.0031819851810753834 0 -0.047181390889568957 -0.0032317525801295968 0 -0.047183991693776003 -0.0031084802879011511 0 -0.047453516816897981 -0.0031819851810753834 0 -0.048021611198932654 -0.0031934731919036966 0 -0.047916269577643736 -0.0034441603574613773 0 -0.048400874587745973 -0.0034473688480651157 0 -0.048021611198932654 -0.0031934731919036966 0 -0.047453516816897981 -0.0031819851810753834 0 -0.047916269577643736 -0.0034441603574613773 0 -0.047181390889568957 -0.0032317525801295968 0 -0.047453516816897981 -0.0031819851810753834 0 -0.047422454617214192 -0.0033779323610253938 0 -0.047453516816897981 -0.0031819851810753834 0 -0.047916269577643736 -0.0034441603574613773 0 -0.047422454617214192 -0.0033779323610253938 0 -0.047916269577643736 -0.0034441603574613773 0 -0.047998677704184735 -0.0035684606970754667 0 -0.04833747145783418 -0.0035901071901682726 0 -0.047688281758128198 -0.0034840036541026495 0 -0.047422454617214192 -0.0033779323610253938 0 -0.047256451769099261 -0.0033928138549142281 0 -0.047916269577643736 -0.0034441603574613773 0 -0.047688281758128198 -0.0034840036541026495 0 -0.047998677704184735 -0.0035684606970754667 0 -0.050410797048354848 0.00089004703160527659 0 -0.052104287247570547 -0.0024192881568702415 0 -0.04702644463272436 -0.0038473019919909052 0 -0.04760100180387903 -0.0035416647493653262 0 -0.048046427928426824 -0.0036366104938424107 0 -0.047916269577643736 -0.0034441603574613773 0 -0.047688281758128198 -0.0034840036541026495 0 -0.047422454617214192 -0.0033779323610253938 0 -0.047688281758128198 -0.0034840036541026495 0 -0.047256451769099261 -0.0033928138549142281 0 -0.04760100180387903 -0.0035416647493653262 0 -0.04760100180387903 -0.0035416647493653262 0 -0.048046427928426824 -0.0036366104938424107 0 -0.047998677704184735 -0.0035684606970754667 0 -0.047688281758128198 -0.0034840036541026495 0 -0.04760100180387903 -0.0035416647493653262 0 -0.047998677704184735 -0.0035684606970754667 0 -0.047422454617214192 -0.0033779323610253938 0 -0.047063167516454341 -0.0033070835035381163 0 -0.047256451769099261 -0.0033928138549142281 0 -0.046983015739595721 -0.0032429096936399762 0 -0.047422454617214192 -0.0033779323610253938 0 -0.047063167516454341 -0.0033070835035381163 0 -0.046983015739595721 -0.0032429096936399762 0 -0.047063167516454341 -0.0033070835035381163 0 -0.046618995038270689 -0.0032533583293525561 0 -0.047063167516454341 -0.0033070835035381163 0 -0.047256451769099261 -0.0033928138549142281 0 -0.046618995038270689 -0.0032533583293525561 0 -0.04702644463272436 -0.0038473019919909052 0 -0.047256451769099261 -0.0033928138549142281 0 -0.04760100180387903 -0.0035416647493653262 0 -0.05658247565075767 -0.0001349100700460154 0 -0.05636268345258362 -9.4235790975211376e-05 0 -0.055681728684441094 -0.0013707425904479918 0 -0.057080000946365672 0.00063624453888637942 0 -0.057258202602702986 0.00013890082728538802 0 -0.057053411110710266 0.00049769545629684182 0 -0.056986415845100419 0.00088293455569229127 0 -0.05658247565075767 -0.0001349100700460154 0 -0.05636268345258362 -9.4235790975211376e-05 0 -0.05701387950689249 0.00068090163104514521 0 -0.057080000946365672 0.00063624453888637942 0 -0.056980918739077471 0.00076101040024506182 0 -0.05701387950689249 0.00068090163104514521 0 -0.056936404045505006 0.00070146150359296541 0 -0.056980918739077471 0.00076101040024506182 0 -0.05701387950689249 0.00068090163104514521 0 -0.057026731855762389 0.00062847784702799831 0 -0.057080000946365672 0.00063624453888637942 0 -0.05701387950689249 0.00068090163104514521 0 -0.057026731855762389 0.00062847784702799831 0 -0.056936404045505006 0.00070146150359296541 0 -0.057026731855762389 0.00062847784702799831 0 -0.057053411110710266 0.00049769545629684182 0 -0.056936404045505006 0.00070146150359296541 0 -0.057026731855762389 0.00062847784702799831 0 -0.057080000946365672 0.00063624453888637942 0 -0.057053411110710266 0.00049769545629684182 0 -0.048046427928426824 -0.0036366104938424107 0 -0.047998677704184735 -0.0035684606970754667 0 -0.04833747145783418 -0.0035901071901682726 0 -0.048046427928426824 -0.0036366104938424107 0 -0.04890464587713126 -0.0036407830018263419 0 -0.049794729501290692 -0.0038250535039856914 0 -0.052104287247570547 -0.0024192881568702415 0 -0.055070827553427709 -0.001313963748703335 0 -0.048046427928426824 -0.0036366104938424107 0 -0.04833747145783418 -0.0035901071901682726 0 -0.04890464587713126 -0.0036407830018263419 0 -0.056880237450482929 0.00044389870825216625 0 -0.055070827553427709 -0.001313963748703335 0 -0.04833747145783418 -0.0035901071901682726 0 -0.04890464587713126 -0.0036407830018263419 0 -0.048400874587745973 -0.0034473688480651157 0 -0.047916269577643736 -0.0034441603574613773 0 -0.04833747145783418 -0.0035901071901682726 0 -0.048400874587745973 -0.0034473688480651157 0 -0.049026293466203061 -0.0033420509987270581 0 -0.04890464587713126 -0.0036407830018263419 0 -0.049794729501290692 -0.0038250535039856914 0 -0.049026293466203061 -0.0033420509987270581 0 -0.04890464587713126 -0.0036407830018263419 0 -0.048400874587745973 -0.0034473688480651157 0 -0.049026293466203061 -0.0033420509987270581 0 -0.048021611198932654 -0.0031934731919036966 0 -0.048400874587745973 -0.0034473688480651157 0 -0.057095187103335318 -0.00012045497345845921 0 -0.056988828050218807 0.00027682949533724206 0 -0.056871005839321996 -5.2201853416678198e-05 0 -0.057095187103335318 -0.00012045497345845921 0 -0.057258202602702986 0.00013890082728538802 0 -0.056988828050218807 0.00027682949533724206 0 -0.057258202602702986 0.00013890082728538802 0 -0.056988828050218807 0.00027682949533724206 0 -0.057053411110710266 0.00049769545629684182 0 -0.056988828050218807 0.00027682949533724206 0 -0.056835100234249605 0.00059809497039193984 0 -0.056713814861880728 0.00042979171926138966 0 -0.056988828050218807 0.00027682949533724206 0 -0.056835100234249605 0.00059809497039193984 0 -0.057053411110710266 0.00049769545629684182 0 -0.056835100234249605 0.00059809497039193984 0 -0.057053411110710266 0.00049769545629684182 0 -0.056936404045505006 0.00070146150359296541 0 -0.056835100234249605 0.00059809497039193984 0 -0.056936404045505006 0.00070146150359296541 0 -0.056726886267784715 0.00081689042642039858 0 -0.056835100234249605 0.00059809497039193984 0 -0.056726886267784715 0.00081689042642039858 0 -0.056532867725272627 0.000833888762189082 0 -0.056599403824308926 0.0010438833712487585 0 -0.056836798026319447 0.00087611858972437378 0 -0.056817750221150973 0.0010765140681485246 0 -0.056726886267784715 0.00081689042642039858 0 -0.056599403824308926 0.0010438833712487585 0 -0.056532867725272627 0.000833888762189082 0 -0.056726886267784715 0.00081689042642039858 0 -0.056599403824308926 0.0010438833712487585 0 -0.056836798026319447 0.00087611858972437378 0 -0.056936404045505006 0.00070146150359296541 0 -0.056726886267784715 0.00081689042642039858 0 -0.056836798026319447 0.00087611858972437378 0 -0.056916808435441654 0.00073129683813168644 0 -0.056880237450482929 0.00044389870825216625 0 -0.056986415845100419 0.00088293455569229127 0 -0.057080000946365672 0.00063624453888637942 0 -0.056980918739077471 0.00076101040024506182 0 -0.056936404045505006 0.00070146150359296541 0 -0.056836798026319447 0.00087611858972437378 0 -0.056980918739077471 0.00076101040024506182 0 -0.056836798026319447 0.00087611858972437378 0 -0.056980918739077471 0.00076101040024506182 0 -0.056908485810558136 0.00089760992992856563 0 -0.056986415845100419 0.00088293455569229127 0 -0.056980918739077471 0.00076101040024506182 0 -0.056908485810558136 0.00089760992992856563 0 -0.056986415845100419 0.00088293455569229127 0 -0.056908485810558136 0.00089760992992856563 0 -0.056817750221150973 0.0010765140681485246 0 -0.056836798026319447 0.00087611858972437378 0 -0.056908485810558136 0.00089760992992856563 0 -0.056817750221150973 0.0010765140681485246 0 -0.056857388242829897 0.0013194761896459413 0 -0.056986415845100419 0.00088293455569229127 0 -0.056817750221150973 0.0010765140681485246 0 -0.056857388242829897 0.0013194761896459413 0 -0.056817750221150973 0.0010765140681485246 0 -0.056582489072602264 0.0013258717694885382 0 -0.056406974566523917 0.0014250074494085191 0 -0.056599403824308926 0.0010438833712487585 0 -0.056582489072602264 0.0013258717694885382 0 -0.056599403824308926 0.0010438833712487585 0 -0.056817750221150973 0.0010765140681485246 0 -0.056582489072602264 0.0013258717694885382 0 -0.056406974566523917 0.0014250074494085191 0 -0.056599403824308926 0.0010438833712487585 0 -0.056386175658055551 0.0012000733952373598 0 -0.056190245781836262 0.0014063225020251818 0 -0.056386175658055551 0.0012000733952373598 0 -0.056260686840100639 0.00091493321911247506 0 -0.056245642845690176 0.0021086938165438118 0 -0.056361144188942162 0.0019151374325959698 0 -0.056599403824308926 0.0010438833712487585 0 -0.056386175658055551 0.0012000733952373598 0 -0.056532867725272627 0.000833888762189082 0 -0.056386175658055551 0.0012000733952373598 0 -0.056260686840100639 0.00091493321911247506 0 -0.056532867725272627 0.000833888762189082 0 -0.056532867725272627 0.000833888762189082 0 -0.056713814861880728 0.00042979171926138966 0 -0.056442737609126978 0.00067801262075411063 0 -0.056835100234249605 0.00059809497039193984 0 -0.056532867725272627 0.000833888762189082 0 -0.056713814861880728 0.00042979171926138966 0 -0.056713814861880728 0.00042979171926138966 0 -0.056556657760817412 5.443856905706179e-05 0 -0.056442737609126978 0.00067801262075411063 0 -0.056988828050218807 0.00027682949533724206 0 -0.056713814861880728 0.00042979171926138966 0 -0.056871005839321996 -5.2201853416678198e-05 0 -0.056713814861880728 0.00042979171926138966 0 -0.056871005839321996 -5.2201853416678198e-05 0 -0.056556657760817412 5.443856905706179e-05 0 -0.056556657760817412 5.443856905706179e-05 0 -0.056442737609126978 0.00067801262075411063 0 -0.056353550573776098 0.00076888227991959122 0 -0.056179661108404409 -0.00040288006787625533 0 -0.056556657760817412 5.443856905706179e-05 0 -0.056353550573776098 0.00076888227991959122 0 -0.056260686840100639 0.00091493321911247506 0 -0.056442737609126978 0.00067801262075411063 0 -0.056353550573776098 0.00076888227991959122 0 -0.056361144188942162 0.0019151374325959698 0 -0.056328628494059917 0.00082835177470571956 0 -0.056260686840100639 0.00091493321911247506 0 -0.056532867725272627 0.000833888762189082 0 -0.056442737609126978 0.00067801262075411063 0 -0.056467809497896676 0.0029971869461239481 0 -0.055881240954143027 0.00178082643824014 0 -0.056353550573776098 0.00076888227991959122 0 -0.055148313235817197 -0.00053426434457717507 0 -0.055881240954143027 0.00178082643824014 0 -0.056353550573776098 0.00076888227991959122 0 -0.055877844645969406 -0.00062170256985398867 0 -0.055876240842995285 0.001556022405220143 0 -0.056596064775359771 -0.00071151935787799165 0 -0.055881240954143027 0.00178082643824014 0 -0.054999329748859349 0.00061558114949143206 0 -0.055881240954143027 0.00178082643824014 0 -0.054999329748859349 0.00061558114949143206 0 -0.055000520751670647 0.00355644555241024 0 -0.055881240954143027 0.00178082643824014 0 -0.055000520751670647 0.00355644555241024 0 -0.055920450429158407 0.0030555395033926066 0 -0.055000520751670647 0.00355644555241024 0 -0.055920450429158407 0.0030555395033926066 0 -0.056158925762674276 0.0031708202356703122 0 -0.056244864572046492 0.0028249059935538849 0 -0.056467809497896676 0.0029971869461239481 0 -0.056158925762674276 0.0031708202356703122 0 -0.055000156588226205 0.0035601578350886445 0 -0.056149218035665846 0.0048221002498061742 0 -0.056467809497896676 0.0029971869461239481 0 -0.055920450429158407 0.0030555395033926066 0 -0.056158925762674276 0.0031708202356703122 0 -0.056467809497896676 0.0029971869461239481 0 -0.055881240954143027 0.00178082643824014 0 -0.055920450429158407 0.0030555395033926066 0 -0.055000001861632362 0.0035604670009345943 0 -0.056171134095296081 0.0061976224031911106 0 -0.054999989873246301 0.0061188324846504719 0 -0.040723908822480247 0.02760107382581764 0 -0.03949335456022416 0.025837441170555118 0 -0.038586577322134483 0.026508721748104723 0 -0.028649250875217507 0.026722258126085668 0 -0.029126259266190575 0.026679455583600145 0 -0.028356770836825786 0.026392577744737213 0 -0.039024666457713776 0.017119437402493595 0 -0.033174804892348614 0.027605410307049761 0 -0.028649250875217507 0.026722258126085668 0 -0.028349548697413657 0.026720791230792219 0 -0.028524548327182982 0.026906737744478933 0 -0.028349548697413657 0.026720791230792219 0 -0.028132622606640748 0.02692650089450311 0 -0.028082890946187811 0.026662031665767558 0 -0.028349548697413657 0.026720791230792219 0 -0.028524548327182982 0.026906737744478933 0 -0.028132622606640748 0.02692650089450311 0 -0.028349548697413657 0.026720791230792219 0 -0.028082890946187811 0.026662031665767558 0 -0.028356770836825786 0.026392577744737213 0 -0.028649250875217507 0.026722258126085668 0 -0.028349548697413657 0.026720791230792219 0 -0.028356770836825786 0.026392577744737213 0 -0.043827650059640393 0.0041010149070670292 0 -0.043153753017008779 0.0052092242102028518 0 -0.043036901530428821 0.0050165462799434306 0 -0.039024666457713776 0.017119437402493595 0 -0.041940031860522552 0.015214808753601736 0 -0.043827650059640393 0.0041010149070670292 0 -0.043036901530428821 0.0050165462799434306 0 -0.043333919887899586 0.0044160556553245311 0 -0.043827650059640393 0.0041010149070670292 0 -0.043561127585519541 0.0040789534861232161 0 -0.043333919887899586 0.0044160556553245311 0 -0.039024666457713776 0.017119437402493595 0 -0.039105396917934847 0.012719085070775155 0 -0.043827650059640393 0.0041010149070670292 0 -0.043561127585519541 0.0040789534861232161 0 -0.043698892351415816 0.003818097390982361 0 -0.028861886784478548 0.027019485397560449 0 -0.028730353188651418 0.027404266565020399 0 -0.029348501989332986 0.027385936650794345 0 -0.043977535245746394 0.0040248508446417705 0 -0.043787859998517649 0.0034101146379053949 0 -0.043967178942651494 0.0025598115512648809 0 -0.028649250875217507 0.026722258126085668 0 -0.029126259266190575 0.026679455583600145 0 -0.028861886784478548 0.027019485397560449 0 -0.029126259266190575 0.026679455583600145 0 -0.028861886784478548 0.027019485397560449 0 -0.029348501989332986 0.027385936650794345 0 -0.039024666457713776 0.017119437402493595 0 -0.036925356892608792 0.0096170280683182934 0 -0.043977535245746394 0.0040248508446417705 0 -0.043698892351415816 0.003818097390982361 0 -0.043787859998517649 0.0034101146379053949 0 -0.043787859998517649 0.0034101146379053949 0 -0.043766663527249054 0.0029418359918696704 0 -0.043967178942651494 0.0025598115512648809 0 -0.028861886784478548 0.027019485397560449 0 -0.028395065022210154 0.027239140020906095 0 -0.028730353188651418 0.027404266565020399 0 -0.028861886784478548 0.027019485397560449 0 -0.028524548327182982 0.026906737744478933 0 -0.028395065022210154 0.027239140020906095 0 -0.028649250875217507 0.026722258126085668 0 -0.028861886784478548 0.027019485397560449 0 -0.028524548327182982 0.026906737744478933 0 -0.028524548327182982 0.026906737744478933 0 -0.028395065022210154 0.027239140020906095 0 -0.028132622606640748 0.02692650089450311 0 -0.028395065022210154 0.027239140020906095 0 -0.027712470374849189 0.027349767338326593 0 -0.028132622606640748 0.02692650089450311 0 -0.027712470374849189 0.027349767338326593 0 -0.028132622606640748 0.02692650089450311 0 -0.027731552604642506 0.026887843755928217 0 -0.027712470374849189 0.027349767338326593 0 -0.027400936524328727 0.027111350212014322 0 -0.027731552604642506 0.026887843755928217 0 -0.027712470374849189 0.027349767338326593 0 -0.027212689056364498 0.027313939192772103 0 -0.027082905231072395 0.027594893493408514 0 -0.027212689056364498 0.027313939192772103 0 -0.027082905231072395 0.027594893493408514 0 -0.026730097760534057 0.027311108698858284 0 -0.027712470374849189 0.027349767338326593 0 -0.027212689056364498 0.027313939192772103 0 -0.027400936524328727 0.027111350212014322 0 -0.027212689056364498 0.027313939192772103 0 -0.027400936524328727 0.027111350212014322 0 -0.02706704468477001 0.027079246198677548 0 -0.027212689056364498 0.027313939192772103 0 -0.02706704468477001 0.027079246198677548 0 -0.026730097760534057 0.027311108698858284 0 -0.02706704468477001 0.027079246198677548 0 -0.027418263641178092 0.026797589755553786 0 -0.027068046580436746 0.026716545242673469 0 -0.02706704468477001 0.027079246198677548 0 -0.027068046580436746 0.026716545242673469 0 -0.026748075736525344 0.02697761838340482 0 -0.027400936524328727 0.027111350212014322 0 -0.027418263641178092 0.026797589755553786 0 -0.027731552604642506 0.026887843755928217 0 -0.027400936524328727 0.027111350212014322 0 -0.02706704468477001 0.027079246198677548 0 -0.027418263641178092 0.026797589755553786 0 -0.027418263641178092 0.026797589755553786 0 -0.027769052199092974 0.026528146201200309 0 -0.027402321940454749 0.02640138768507197 0 -0.027418263641178092 0.026797589755553786 0 -0.027068046580436746 0.026716545242673469 0 -0.027402321940454749 0.02640138768507197 0 -0.028132622606640748 0.02692650089450311 0 -0.027731552604642506 0.026887843755928217 0 -0.028082890946187811 0.026662031665767558 0 -0.027731552604642506 0.026887843755928217 0 -0.027769052199092974 0.026528146201200309 0 -0.028082890946187811 0.026662031665767558 0 -0.027418263641178092 0.026797589755553786 0 -0.027731552604642506 0.026887843755928217 0 -0.027769052199092974 0.026528146201200309 0 -0.027769052199092974 0.026528146201200309 0 -0.028082890946187811 0.026662031665767558 0 -0.028356770836825786 0.026392577744737213 0 -0.030922391017468607 0.025661195287853565 0 -0.033174804892348614 0.027605410307049761 0 -0.027769052199092974 0.026528146201200309 0 -0.027580085785985118 0.026052216305289849 0 -0.028356770836825786 0.026392577744737213 0 -0.034442655279038815 0.025636423779286144 0 -0.038359296193915871 0.02515241055991595 0 -0.038586577322134483 0.026508721748104723 0 -0.02705193425852611 0.026449964178950555 0 -0.027402321940454749 0.02640138768507197 0 -0.027026962452027077 0.02612127816270577 0 -0.027068046580436746 0.026716545242673469 0 -0.02705193425852611 0.026449964178950555 0 -0.027402321940454749 0.02640138768507197 0 -0.027769052199092974 0.026528146201200309 0 -0.027402321940454749 0.02640138768507197 0 -0.027580085785985118 0.026052216305289849 0 -0.027402321940454749 0.02640138768507197 0 -0.027580085785985118 0.026052216305289849 0 -0.027026962452027077 0.02612127816270577 0 -0.035604854958156282 0.024070579922213748 0 -0.032557581744789309 0.023305769022675511 0 -0.034442655279038815 0.025636423779286144 0 -0.033482908004521382 0.024350371860097853 0 -0.030032509392923998 0.024927812379526518 0 -0.027580085785985118 0.026052216305289849 0 -0.027026962452027077 0.02612127816270577 0 -0.026814413098835345 0.02556722126986774 0 -0.030922391017468607 0.025661195287853565 0 -0.028327072289196183 0.025184032068922089 0 -0.035604854958156282 0.024070579922213748 0 -0.038272214789820409 0.025186838829915188 0 -0.037424633751146165 0.023541298838718978 0 -0.038474204931667033 0.023249370883106097 0 -0.038463931203763513 0.024143328838249104 0 -0.037424633751146165 0.023541298838718978 0 -0.038463931203763513 0.024143328838249104 0 -0.038359296193915871 0.02515241055991595 0 -0.037865206507464465 0.022726833335182186 0 -0.037424633751146165 0.023541298838718978 0 -0.038474204931667033 0.023249370883106097 0 -0.034442655279038815 0.025636423779286144 0 -0.033482908004521382 0.024350371860097853 0 -0.038359296193915871 0.02515241055991595 0 -0.03964685861765032 0.02266401119835517 0 -0.038474204931667033 0.023249370883106097 0 -0.039239727856529419 0.023994865546607385 0 -0.03964685861765032 0.02266401119835517 0 -0.039239727856529419 0.023994865546607385 0 -0.040176540613407356 0.024961384991101242 0 -0.038474204931667033 0.023249370883106097 0 -0.039239727856529419 0.023994865546607385 0 -0.038463931203763513 0.024143328838249104 0 -0.039239727856529419 0.023994865546607385 0 -0.039116801672891492 0.02477382509532387 0 -0.040176540613407356 0.024961384991101242 0 -0.039239727856529419 0.023994865546607385 0 -0.038463931203763513 0.024143328838249104 0 -0.039116801672891492 0.02477382509532387 0 -0.038463931203763513 0.024143328838249104 0 -0.038359296193915871 0.02515241055991595 0 -0.039116801672891492 0.02477382509532387 0 -0.039116801672891492 0.02477382509532387 0 -0.03949335456022416 0.025837441170555118 0 -0.040176540613407356 0.024961384991101242 0 -0.038359296193915871 0.02515241055991595 0 -0.039116801672891492 0.02477382509532387 0 -0.03949335456022416 0.025837441170555118 0 -0.038359296193915871 0.02515241055991595 0 -0.03949335456022416 0.025837441170555118 0 -0.038586577322134483 0.026508721748104723 0 -0.043827650059640393 0.0041010149070670292 0 -0.043153753017008779 0.0052092242102028518 0 -0.043089556724290122 0.0059312386869229197 0 -0.040723908822480247 0.02760107382581764 0 -0.03949335456022416 0.025837441170555118 0 -0.040176540613407356 0.024961384991101242 0 -0.043153753017008779 0.0052092242102028518 0 -0.042591127260618811 0.0058843060042085265 0 -0.043036901530428821 0.0050165462799434306 0 -0.043089556724290122 0.0059312386869229197 0 -0.042591127260618811 0.0058843060042085265 0 -0.042129370261315469 0.0077980934827380742 0 -0.043153753017008779 0.0052092242102028518 0 -0.043089556724290122 0.0059312386869229197 0 -0.042591127260618811 0.0058843060042085265 0 -0.041979189961164717 0.011287697620507613 0 -0.043089556724290122 0.0059312386869229197 0 -0.042129370261315469 0.0077980934827380742 0 -0.040762205234961865 0.016891714117436195 0 -0.041940031860522552 0.015214808753601736 0 -0.035577466050957234 0.01124412007325294 0 -0.038618108209899624 0.011230885450549748 0 -0.036778034216497224 0.0083975624230881018 0 -0.038618108209899624 0.011230885450549748 0 -0.042129370261315469 0.0077980934827380742 0 -0.036778034216497224 0.0083975624230881018 0 -0.042880470257319989 0.0077619004045909202 0 -0.038044454011943257 0.0067820712353359848 0 -0.042591127260618811 0.0058843060042085265 0 -0.042129370261315469 0.0077980934827380742 0 -0.042556792289905401 0.0056944124502659637 0 -0.035577466050957234 0.01124412007325294 0 -0.036778034216497224 0.0083975624230881018 0 -0.03324562963749042 0.0085553769869410861 0 -0.038044454011943257 0.0067820712353359848 0 -0.045275748489143362 0.010012011751049051 0 -0.042556792289905401 0.0056944124502659637 0 -0.042457296297828087 0.0050653477944621805 0 -0.041839941526250347 0.0055798748100699957 0 -0.042457296297828087 0.0050653477944621805 0 -0.042734060906472714 0.0052524179517832283 0 -0.042820223132064149 0.004541258376576496 0 -0.042734060906472714 0.0052524179517832283 0 -0.043001104489243262 0.0046899128971122344 0 -0.042820223132064149 0.004541258376576496 0 -0.042734060906472714 0.0052524179517832283 0 -0.043036901530428821 0.0050165462799434306 0 -0.043001104489243262 0.0046899128971122344 0 -0.042591127260618811 0.0058843060042085265 0 -0.042734060906472714 0.0052524179517832283 0 -0.043036901530428821 0.0050165462799434306 0 -0.042591127260618811 0.0058843060042085265 0 -0.042556792289905401 0.0056944124502659637 0 -0.042734060906472714 0.0052524179517832283 0 -0.042556792289905401 0.0056944124502659637 0 -0.042457296297828087 0.0050653477944621805 0 -0.042734060906472714 0.0052524179517832283 0 -0.057111373771598341 0.020818165983440481 0 -0.056391618745408129 0.020517632636522311 0 -0.056121660905869362 0.020578098238081998 0 -0.054410839623219395 0.009799464546311679 0 -0.045275748489143362 0.010012011751049051 0 -0.045275748489143362 0.010012011751049051 0 -0.043337692843254776 0.001472976304592316 0 -0.045520178201956571 -0.0012779669509298693 0 -0.046182980682950653 0.00022156409846494426 0 -0.044562370812293223 0.0013614913208428311 0 -0.042457296297828087 0.0050653477944621805 0 -0.041839941526250347 0.0055798748100699957 0 -0.041922641761181149 0.0045445946209983247 0 -0.046182980682950653 0.00022156409846494426 0 -0.045588157616698807 0.0017286816425424688 0 -0.044562370812293223 0.0013614913208428311 0 -0.049936934769029093 -0.00091167072710687162 0 -0.045520178201956571 -0.0012779669509298693 0 -0.046182980682950653 0.00022156409846494426 0 -0.049936934769029093 -0.00091167072710687162 0 -0.046182980682950653 0.00022156409846494426 0 -0.048040236966317283 0.00099510491134107413 0 -0.046182980682950653 0.00022156409846494426 0 -0.048040236966317283 0.00099510491134107413 0 -0.045588157616698807 0.0017286816425424688 0 -0.045615685452979268 0.0018289619035255225 0 -0.046775721692684943 0.0031496905862685898 0 -0.048401175025410977 0.0024717960844414166 0 -0.045588157616698807 0.0017286816425424688 0 -0.048454634881471406 0.0046294053209374533 0 -0.045588157616698807 0.0017286816425424688 0 -0.044520424461595653 0.0022321524722407056 0 -0.044970660699031252 0.0020498299785403915 0 -0.049915962918048409 0.0035636045263127921 0 -0.048401175025410977 0.0024717960844414166 0 -0.048454634881471406 0.0046294053209374533 0 -0.04991430843935861 0.0017649067139346121 0 -0.048040236966317283 0.00099510491134107413 0 -0.048401175025410977 0.0024717960844414166 0 -0.048040236966317283 0.00099510491134107413 0 -0.048401175025410977 0.0024717960844414166 0 -0.045588157616698807 0.0017286816425424688 0 -0.043337692843254776 0.001472976304592316 0 -0.043091029468687564 0.0034438980814331132 0 -0.044562370812293223 0.0013614913208428311 0 -0.043142386489291411 0.0026823690345979131 0 -0.044520424461595653 0.0022321524722407056 0 -0.045588157616698807 0.0017286816425424688 0 -0.044562370812293223 0.0013614913208428311 0 -0.044520424461595653 0.0022321524722407056 0 -0.044520424461595653 0.0022321524722407056 0 -0.044286101152462988 0.0019190571027299203 0 -0.043507989139112691 0.0022634776187969055 0 -0.043142386489291411 0.0026823690345979131 0 -0.044520424461595653 0.0022321524722407056 0 -0.043507989139112691 0.0022634776187969055 0 -0.044520424461595653 0.0022321524722407056 0 -0.044286101152462988 0.0019190571027299203 0 -0.044970660699031252 0.0020498299785403915 0 -0.044286101152462988 0.0019190571027299203 0 -0.045205547036512916 0.0014905766851658739 0 -0.044970660699031252 0.0020498299785403915 0 -0.043115837985082305 0.0041609394224010159 0 -0.042820223132064149 0.004541258376576496 0 -0.042985913773815096 0.003699917267914834 0 -0.043115837985082305 0.0041609394224010159 0 -0.042985913773815096 0.003699917267914834 0 -0.043225333256010308 0.0036401941935586836 0 -0.043115837985082305 0.0041609394224010159 0 -0.043388944265955645 0.0039828758996729753 0 -0.043225333256010308 0.0036401941935586836 0 -0.043115837985082305 0.0041609394224010159 0 -0.043388944265955645 0.0039828758996729753 0 -0.043333919887899586 0.0044160556553245311 0 -0.043561127585519541 0.0040789534861232161 0 -0.043698892351415816 0.003818097390982361 0 -0.043388944265955645 0.0039828758996729753 0 -0.043561127585519541 0.0040789534861232161 0 -0.043388944265955645 0.0039828758996729753 0 -0.043333919887899586 0.0044160556553245311 0 -0.043115837985082305 0.0041609394224010159 0 -0.043001104489243262 0.0046899128971122344 0 -0.043333919887899586 0.0044160556553245311 0 -0.043036901530428821 0.0050165462799434306 0 -0.043001104489243262 0.0046899128971122344 0 -0.043333919887899586 0.0044160556553245311 0 -0.043115837985082305 0.0041609394224010159 0 -0.043001104489243262 0.0046899128971122344 0 -0.042820223132064149 0.004541258376576496 0 -0.042457296297828087 0.0050653477944621805 0 -0.042820223132064149 0.004541258376576496 0 -0.042655592824028012 0.0041615363825415631 0 -0.042820223132064149 0.004541258376576496 0 -0.042655592824028012 0.0041615363825415631 0 -0.042985913773815096 0.003699917267914834 0 -0.041922641761181149 0.0045445946209983247 0 -0.043142386489291411 0.0026823690345979131 0 -0.042655592824028012 0.0041615363825415631 0 -0.042457296297828087 0.0050653477944621805 0 -0.041922641761181149 0.0045445946209983247 0 -0.042655592824028012 0.0041615363825415631 0 -0.043142386489291411 0.0026823690345979131 0 -0.042655592824028012 0.0041615363825415631 0 -0.042985913773815096 0.003699917267914834 0 -0.043142386489291411 0.0026823690345979131 0 -0.042985913773815096 0.003699917267914834 0 -0.043164552034592518 0.0030752597222709088 0 -0.043142386489291411 0.0026823690345979131 0 -0.04314006588832707 0.0026347378895116087 0 -0.043164552034592518 0.0030752597222709088 0 -0.043142386489291411 0.0026823690345979131 0 -0.04314006588832707 0.0026347378895116087 0 -0.043080143387567951 0.0022156992718859085 0 -0.04314006588832707 0.0026347378895116087 0 -0.043164552034592518 0.0030752597222709088 0 -0.043303230287498384 0.0025162764307300801 0 -0.043164552034592518 0.0030752597222709088 0 -0.043394510992274218 0.0029992025130681659 0 -0.043303230287498384 0.0025162764307300801 0 -0.043164552034592518 0.0030752597222709088 0 -0.043394510992274218 0.0029992025130681659 0 -0.043361648479013588 0.0033045457952872743 0 -0.042985913773815096 0.003699917267914834 0 -0.043164552034592518 0.0030752597222709088 0 -0.043225333256010308 0.0036401941935586836 0 -0.043164552034592518 0.0030752597222709088 0 -0.043361648479013588 0.0033045457952872743 0 -0.043225333256010308 0.0036401941935586836 0 -0.043698892351415816 0.003818097390982361 0 -0.043388944265955645 0.0039828758996729753 0 -0.043494979143638111 0.0035814289305204487 0 -0.043698892351415816 0.003818097390982361 0 -0.043787859998517649 0.0034101146379053949 0 -0.043494979143638111 0.0035814289305204487 0 -0.043388944265955645 0.0039828758996729753 0 -0.043225333256010308 0.0036401941935586836 0 -0.043494979143638111 0.0035814289305204487 0 -0.043361648479013588 0.0033045457952872743 0 -0.043225333256010308 0.0036401941935586836 0 -0.043494979143638111 0.0035814289305204487 0 -0.043361648479013588 0.0033045457952872743 0 -0.043494979143638111 0.0035814289305204487 0 -0.043578337031954614 0.0032162209560481184 0 -0.043787859998517649 0.0034101146379053949 0 -0.043494979143638111 0.0035814289305204487 0 -0.043578337031954614 0.0032162209560481184 0 -0.043787859998517649 0.0034101146379053949 0 -0.043578337031954614 0.0032162209560481184 0 -0.043766663527249054 0.0029418359918696704 0 -0.043394510992274218 0.0029992025130681659 0 -0.043578337031954614 0.0032162209560481184 0 -0.043649884799564824 0.0028956772294629405 0 -0.043394510992274218 0.0029992025130681659 0 -0.043361648479013588 0.0033045457952872743 0 -0.043578337031954614 0.0032162209560481184 0 -0.043394510992274218 0.0029992025130681659 0 -0.043649884799564824 0.0028956772294629405 0 -0.043527617474419918 0.002720132789192677 0 -0.043578337031954614 0.0032162209560481184 0 -0.043649884799564824 0.0028956772294629405 0 -0.043766663527249054 0.0029418359918696704 0 -0.043649884799564824 0.0028956772294629405 0 -0.043766663527249054 0.0029418359918696704 0 -0.043863062982049547 0.0026278462206840965 0 -0.043766663527249054 0.0029418359918696704 0 -0.043863062982049547 0.0026278462206840965 0 -0.043967178942651494 0.0025598115512648809 0 -0.043649884799564824 0.0028956772294629405 0 -0.043863062982049547 0.0026278462206840965 0 -0.043681760427601538 0.0026667666463599097 0 -0.043681760427601538 0.0026667666463599097 0 -0.043609548980651815 0.0024768575201685639 0 -0.043527617474419918 0.002720132789192677 0 -0.043649884799564824 0.0028956772294629405 0 -0.043681760427601538 0.0026667666463599097 0 -0.043527617474419918 0.002720132789192677 0 -0.043609548980651815 0.0024768575201685639 0 -0.043772190770507473 0.0025091091749454026 0 -0.043835635578110183 0.0022527832217421016 0 -0.043681760427601538 0.0026667666463599097 0 -0.043609548980651815 0.0024768575201685639 0 -0.043772190770507473 0.0025091091749454026 0 -0.043863908938860954 0.0025083412686233326 0 -0.043835635578110183 0.0022527832217421016 0 -0.043987061989301551 0.0025965217724376729 0 -0.043772190770507473 0.0025091091749454026 0 -0.043863908938860954 0.0025083412686233326 0 -0.043835635578110183 0.0022527832217421016 0 -0.043863062982049547 0.0026278462206840965 0 -0.043772190770507473 0.0025091091749454026 0 -0.043863908938860954 0.0025083412686233326 0 -0.043863062982049547 0.0026278462206840965 0 -0.043863908938860954 0.0025083412686233326 0 -0.043987061989301551 0.0025965217724376729 0 -0.043863062982049547 0.0026278462206840965 0 -0.043681760427601538 0.0026667666463599097 0 -0.043772190770507473 0.0025091091749454026 0 -0.043609548980651815 0.0024768575201685639 0 -0.043835635578110183 0.0022527832217421016 0 -0.04354217661063732 0.0022058135060280168 0 -0.043835635578110183 0.0022527832217421016 0 -0.04354217661063732 0.0022058135060280168 0 -0.043712063607818416 0.0018475693720739156 0 -0.04354217661063732 0.0022058135060280168 0 -0.043303230287498384 0.0025162764307300801 0 -0.043307113564625035 0.0018942749266921152 0 -0.04354217661063732 0.0022058135060280168 0 -0.043307113564625035 0.0018942749266921152 0 -0.043712063607818416 0.0018475693720739156 0 -0.043609548980651815 0.0024768575201685639 0 -0.043303230287498384 0.0025162764307300801 0 -0.043527617474419918 0.002720132789192677 0 -0.043609548980651815 0.0024768575201685639 0 -0.04354217661063732 0.0022058135060280168 0 -0.043303230287498384 0.0025162764307300801 0 -0.043394510992274218 0.0029992025130681659 0 -0.043303230287498384 0.0025162764307300801 0 -0.043527617474419918 0.002720132789192677 0 -0.043303230287498384 0.0025162764307300801 0 -0.043080143387567951 0.0022156992718859085 0 -0.043307113564625035 0.0018942749266921152 0 -0.04314006588832707 0.0026347378895116087 0 -0.043303230287498384 0.0025162764307300801 0 -0.043080143387567951 0.0022156992718859085 0 -0.043080143387567951 0.0022156992718859085 0 -0.043307113564625035 0.0018942749266921152 0 -0.042894395818634655 0.0013292049562640927 0 -0.043307113564625035 0.0018942749266921152 0 -0.042894395818634655 0.0013292049562640927 0 -0.043237850000962703 0.0012366940489576194 0 -0.04368443004066689 -0.002243769706780304 0 -0.036925356892608792 0.0096170280683182934 0 -0.043835635578110183 0.0022527832217421016 0 -0.043712063607818416 0.0018475693720739156 0 -0.044017036505535699 0.0010259298109567101 0 -0.043835635578110183 0.0022527832217421016 0 -0.044017036505535699 0.0010259298109567101 0 -0.043987061989301551 0.0025965217724376729 0 -0.043237850000962703 0.0012366940489576194 0 -0.04357881983463726 0.0014155466048161966 0 -0.043435155110577224 0.0010205470268688757 0 -0.043307113564625035 0.0018942749266921152 0 -0.043237850000962703 0.0012366940489576194 0 -0.04357881983463726 0.0014155466048161966 0 -0.04357881983463726 0.0014155466048161966 0 -0.043435155110577224 0.0010205470268688757 0 -0.044017036505535699 0.0010259298109567101 0 -0.04357881983463726 0.0014155466048161966 0 -0.043712063607818416 0.0018475693720739156 0 -0.044017036505535699 0.0010259298109567101 0 -0.043307113564625035 0.0018942749266921152 0 -0.04357881983463726 0.0014155466048161966 0 -0.043712063607818416 0.0018475693720739156 0 -0.04524931844134869 0.001231789811420146 0 -0.045235798865342666 0.00015992480683707906 0 -0.044286101152462988 0.0019190571027299203 0 -0.045205547036512916 0.0014905766851658739 0 -0.043061790909342798 0.0021402165370277486 0 -0.04556585559208956 -2.7531394214083189e-05 0 -0.045205547036512916 0.0014905766851658739 0 -0.047545998545324382 -0.0016096735130677164 0 -0.044286101152462988 0.0019190571027299203 0 -0.043507989139112691 0.0022634776187969055 0 -0.043061790909342798 0.0021402165370277486 0 -0.043080143387567951 0.0022156992718859085 0 -0.043507989139112691 0.0022634776187969055 0 -0.042881549775716093 0.0018016374855007579 0 -0.043507989139112691 0.0022634776187969055 0 -0.042881549775716093 0.0018016374855007579 0 -0.043061790909342798 0.0021402165370277486 0 -0.043142386489291411 0.0026823690345979131 0 -0.043080143387567951 0.0022156992718859085 0 -0.043507989139112691 0.0022634776187969055 0 -0.042881549775716093 0.0018016374855007579 0 -0.043061790909342798 0.0021402165370277486 0 -0.042078565590994356 0.0004919210173580476 0 -0.042894395818634655 0.0013292049562640927 0 -0.042881549775716093 0.0018016374855007579 0 -0.042078565590994356 0.0004919210173580476 0 -0.043080143387567951 0.0022156992718859085 0 -0.042894395818634655 0.0013292049562640927 0 -0.042881549775716093 0.0018016374855007579 0 -0.047545998545324382 -0.0016096735130677164 0 -0.047072886297448581 -0.002668147848858487 0 -0.047363092660151804 -0.0030540298066560876 0 -0.045235798865342666 0.00015992480683707906 0 -0.044998744835376393 -0.0012446778366216726 0 -0.046699309304801116 -0.0020644135470396013 0 -0.047545998545324382 -0.0016096735130677164 0 -0.047072886297448581 -0.002668147848858487 0 -0.047035557412547301 -0.0031637766492226961 0 -0.047072886297448581 -0.002668147848858487 0 -0.047363092660151804 -0.0030540298066560876 0 -0.042894395818634655 0.0013292049562640927 0 -0.042078565590994356 0.0004919210173580476 0 -0.042373002301002757 -2.4440483588815673e-05 0 -0.047016135335154897 -0.0030630510078291542 0 -0.047363092660151804 -0.0030540298066560876 0 -0.047094633299084761 -0.0030942995228844931 0 -0.042586221641059754 -0.0022295089020054758 0 -0.044998744835376393 -0.0012446778366216726 0 -0.042100038757843801 -0.00069383967387169555 0 -0.042078565590994356 0.0004919210173580476 0 -0.042373002301002757 -2.4440483588815673e-05 0 -0.047035557412547301 -0.0031637766492226961 0 -0.047363092660151804 -0.0030540298066560876 0 -0.047094633299084761 -0.0030942995228844931 0 -0.042311679289272923 -0.00099240032780873897 0 -0.042581111769677743 -0.0015926383375968597 0 -0.042155325771437824 -0.00087767438573204629 0 -0.044017036505535699 0.0010259298109567101 0 -0.042895460587069077 0.00030876123005463372 0 -0.042581111769677743 -0.0015926383375968597 0 -0.04368443004066689 -0.002243769706780304 0 -0.042607496696714729 -0.00051144477995184812 0 -0.043237850000962703 0.0012366940489576194 0 -0.043435155110577224 0.0010205470268688757 0 -0.042895460587069077 0.00030876123005463372 0 -0.043435155110577224 0.0010205470268688757 0 -0.044017036505535699 0.0010259298109567101 0 -0.042895460587069077 0.00030876123005463372 0 -0.042894395818634655 0.0013292049562640927 0 -0.042373002301002757 -2.4440483588815673e-05 0 -0.042895460587069077 0.00030876123005463372 0 -0.042894395818634655 0.0013292049562640927 0 -0.043237850000962703 0.0012366940489576194 0 -0.042895460587069077 0.00030876123005463372 0 -0.042373002301002757 -2.4440483588815673e-05 0 -0.042895460587069077 0.00030876123005463372 0 -0.042381600051784318 -0.00095544483003474315 0 -0.042100038757843801 -0.00069383967387169555 0 -0.042373002301002757 -2.4440483588815673e-05 0 -0.042381600051784318 -0.00095544483003474315 0 -0.042586221641059754 -0.0022295089020054758 0 -0.041922862103270758 -0.00095502831369799197 0 -0.041569340183049412 -0.0023444864344694164 0 -0.040260851230429759 -0.0022409980849264336 0 -0.042381600051784318 -0.00095544483003474315 0 -0.042210582343750788 -0.0020327557295566436 0 -0.041569340183049412 -0.0023444864344694164 0 -0.042381600051784318 -0.00095544483003474315 0 -0.042581111769677743 -0.0015926383375968597 0 -0.042439878071213563 -0.0016121368813864442 0 -0.042155325771437824 -0.00087767438573204629 0 -0.042350718865343397 -0.0023944854550969736 0 -0.042210582343750788 -0.0020327557295566436 0 -0.042581111769677743 -0.0015926383375968597 0 -0.042895460587069077 0.00030876123005463372 0 -0.042381600051784318 -0.00095544483003474315 0 -0.042581111769677743 -0.0015926383375968597 0 -0.042210582343750788 -0.0020327557295566436 0 -0.042381600051784318 -0.00095544483003474315 0 -0.042581111769677743 -0.0015926383375968597 0 -0.042581111769677743 -0.0015926383375968597 0 -0.04246752785113201 -0.0021461919989618963 0 -0.042439878071213563 -0.0016121368813864442 0 -0.042350718865343397 -0.0023944854550969736 0 -0.042581111769677743 -0.0015926383375968597 0 -0.04246752785113201 -0.0021461919989618963 0 -0.04246752785113201 -0.0021461919989618963 0 -0.042605444292180383 -0.0020643492070868967 0 -0.042439878071213563 -0.0016121368813864442 0 -0.042605444292180383 -0.0020643492070868967 0 -0.042439878071213563 -0.0016121368813864442 0 -0.042919310458442869 -0.0015585973630454517 0 -0.042609787651638933 -0.0011503532380276592 0 -0.036079746832920978 0.0076838584301901899 0 -0.042897899400779788 -0.0023162496587966195 0 -0.042919310458442869 -0.0015585973630454517 0 -0.043541251696846139 -0.0021889505772500371 0 -0.039998530221517573 0.0014478555706763994 0 -0.038134859910623271 0.0014847888837010231 0 -0.037662420282329877 0.0033368776997227977 0 -0.042897899400779788 -0.0023162496587966195 0 -0.042605444292180383 -0.0020643492070868967 0 -0.042919310458442869 -0.0015585973630454517 0 -0.040121119000257478 -0.00080865030747083227 0 -0.037654782210569261 -0.0001753758699524304 0 -0.038134859910623271 0.0014847888837010231 0 -0.039998530221517573 0.0014478555706763994 0 -0.040121119000257478 -0.00080865030747083227 0 -0.038134859910623271 0.0014847888837010231 0 -0.039998530221517573 0.0014478555706763994 0 -0.040121119000257478 -0.00080865030747083227 0 -0.042155325771437824 -0.00087767438573204629 0 -0.042439878071213563 -0.0016121368813864442 0 -0.042919310458442869 -0.0015585973630454517 0 -0.042155325771437824 -0.00087767438573204629 0 -0.042609787651638933 -0.0011503532380276592 0 -0.041616506127402877 -0.00037092412646298609 0 -0.040121119000257478 -0.00080865030747083227 0 -0.042155325771437824 -0.00087767438573204629 0 -0.041600187306871685 -0.0015783987277161455 0 -0.041600187306871685 -0.0015783987277161455 0 -0.040841299032589394 -0.0020939737588262608 0 -0.041974452487500792 -0.0036033219333042781 0 -0.042311679289272923 -0.00099240032780873897 0 -0.042155325771437824 -0.00087767438573204629 0 -0.041600187306871685 -0.0015783987277161455 0 -0.042311679289272923 -0.00099240032780873897 0 -0.041600187306871685 -0.0015783987277161455 0 -0.041974452487500792 -0.0036033219333042781 0 -0.040121119000257478 -0.00080865030747083227 0 -0.041600187306871685 -0.0015783987277161455 0 -0.040841299032589394 -0.0020939737588262608 0 -0.040121119000257478 -0.00080865030747083227 0 -0.03880232199549926 -0.0024062767981680314 0 -0.037654782210569261 -0.0001753758699524304 0 -0.040121119000257478 -0.00080865030747083227 0 -0.040841299032589394 -0.0020939737588262608 0 -0.03880232199549926 -0.0024062767981680314 0 -0.028395065022210154 0.027239140020906095 0 -0.028316526945119866 0.027975066019479595 0 -0.028730353188651418 0.027404266565020399 0 -0.034469362957942076 0.01240379393768387 0 -0.036925356892608792 0.0096170280683182934 0 -0.040841299032589394 -0.0020939737588262608 0 -0.03880232199549926 -0.0024062767981680314 0 -0.041974452487500792 -0.0036033219333042781 0 -0.028316526945119866 0.027975066019479595 0 -0.028730353188651418 0.027404266565020399 0 -0.029348501989332986 0.027385936650794345 0 -0.038397837964847088 0.0086843169474138514 0 -0.036925356892608792 0.0096170280683182934 0 -0.027712470374849189 0.027349767338326593 0 -0.027494162608606178 0.027786076728961176 0 -0.027082905231072395 0.027594893493408514 0 -0.027494162608606178 0.027786076728961176 0 -0.027112160593479817 0.027903669661187996 0 -0.027447402382505433 0.028071462064508241 0 -0.027494162608606178 0.027786076728961176 0 -0.027112160593479817 0.027903669661187996 0 -0.027082905231072395 0.027594893493408514 0 -0.028395065022210154 0.027239140020906095 0 -0.027712470374849189 0.027349767338326593 0 -0.028316526945119866 0.027975066019479595 0 -0.027712470374849189 0.027349767338326593 0 -0.028316526945119866 0.027975066019479595 0 -0.027494162608606178 0.027786076728961176 0 -0.028316526945119866 0.027975066019479595 0 -0.027494162608606178 0.027786076728961176 0 -0.027447402382505433 0.028071462064508241 0 -0.03880232199549926 -0.0024062767981680314 0 -0.034855119866458409 -0.00048577047871313788 0 -0.037654782210569261 -0.0001753758699524304 0 -0.028316526945119866 0.027975066019479595 0 -0.027447402382505433 0.028071462064508241 0 -0.027292445417548626 0.028440182796937823 0 -0.034469362957942076 0.01240379393768387 0 -0.025513008549278245 0.01789894347988075 0 -0.027112160593479817 0.027903669661187996 0 -0.027447402382505433 0.028071462064508241 0 -0.027292445417548626 0.028440182796937823 0 -0.027112160593479817 0.027903669661187996 0 -0.027292445417548626 0.028440182796937823 0 -0.02670170945043682 0.027832368831162052 0 -0.017576951426780865 0.026905590975587895 0 -0.017556912481420377 0.026915927275570663 0 -0.017568384502605852 0.02707345628706323 0 -0.014988707203414865 0.022823410775164837 0 -0.015126051453855816 0.02275813988458774 0 -0.015087169410352796 0.023411468505722878 0 -0.014791445825058864 0.02318240298918153 0 -0.014988707203414865 0.022823410775164837 0 -0.015087169410352796 0.023411468505722878 0 -0.018155291784476103 0.022414812729531067 0 -0.025513008549278245 0.01789894347988075 0 -0.015126051453855816 0.02275813988458774 0 -0.015087169410352796 0.023411468505722878 0 -0.015792033154564213 0.023490915893292254 0 -0.025513008549278245 0.01789894347988075 0 -0.025507685539756818 0.01161290869882013 0 -0.014791445825058864 0.02318240298918153 0 -0.015087169410352796 0.023411468505722878 0 -0.014531445134597398 0.023627107750039608 0 -0.034855119866458409 -0.00048577047871313788 0 -0.037654782210569261 -0.0001753758699524304 0 -0.036271427319516616 0.0013880929926009724 0 -0.037654782210569261 -0.0001753758699524304 0 -0.036271427319516616 0.0013880929926009724 0 -0.038134859910623271 0.0014847888837010231 0 -0.036271427319516616 0.0013880929926009724 0 -0.038134859910623271 0.0014847888837010231 0 -0.037662420282329877 0.0033368776997227977 0 -0.015792033154564213 0.023490915893292254 0 -0.016504009543772142 0.024180980258614947 0 -0.015614031034078416 0.023956250741068569 0 -0.025507685539756818 0.01161290869882013 0 -0.036079746832920978 0.0076838584301901899 0 -0.015767559365623986 0.024742418121323693 0 -0.016504009543772142 0.024180980258614947 0 -0.015614031034078416 0.023956250741068569 0 -0.015767559365623986 0.024742418121323693 0 -0.01502405653752689 0.023897202750829009 0 -0.014192202464942152 0.023906534893915678 0 -0.015767559365623986 0.024742418121323693 0 -0.01502405653752689 0.023897202750829009 0 -0.015614031034078416 0.023956250741068569 0 -0.024743695888943967 0.0089390472192174397 0 -0.011037566725737595 0.024609340723688946 0 -0.015087169410352796 0.023411468505722878 0 -0.01502405653752689 0.023897202750829009 0 -0.014531445134597398 0.023627107750039608 0 -0.015087169410352796 0.023411468505722878 0 -0.01502405653752689 0.023897202750829009 0 -0.015614031034078416 0.023956250741068569 0 -0.015087169410352796 0.023411468505722878 0 -0.015792033154564213 0.023490915893292254 0 -0.015614031034078416 0.023956250741068569 0 -0.011502482090825472 0.022065299040604325 0 -0.012509687171090373 0.021551945939076101 0 -0.013432240007814129 0.022225292938143622 0 -0.014192202464942152 0.023906534893915678 0 -0.014531445134597398 0.023627107750039608 0 -0.014053731712007297 0.023972479979718211 0 -0.01502405653752689 0.023897202750829009 0 -0.014192202464942152 0.023906534893915678 0 -0.014531445134597398 0.023627107750039608 0 -0.012152483999918456 0.020352862522906742 0 -0.011502482090825472 0.022065299040604325 0 -0.012509687171090373 0.021551945939076101 0 -0.011502482090825472 0.022065299040604325 0 -0.013432240007814129 0.022225292938143622 0 -0.014082768273967435 0.024190151550581587 0 -0.014555841881234094 0.020739229990334593 0 -0.012509687171090373 0.021551945939076101 0 -0.013432240007814129 0.022225292938143622 0 -0.011037566725737595 0.024609340723688946 0 -0.014573199824329749 0.023749645436983033 0 -0.013432240007814129 0.022225292938143622 0 -0.014082768273967435 0.024190151550581587 0 -0.014693728333694957 0.023588636863044916 0 -0.014192202464942152 0.023906534893915678 0 -0.014082768273967435 0.024190151550581587 0 -0.014053731712007297 0.023972479979718211 0 -0.014082768273967435 0.024190151550581587 0 -0.013932409039230492 0.024431059923885314 0 -0.014075360825877839 0.024738278416643583 0 -0.014082768273967435 0.024190151550581587 0 -0.013932409039230492 0.024431059923885314 0 -0.014053731712007297 0.023972479979718211 0 -0.018155291784476103 0.022414812729531067 0 -0.012533917779462854 0.024530562324803582 0 -0.014791445825058864 0.02318240298918153 0 -0.014531445134597398 0.023627107750039608 0 -0.014053731712007297 0.023972479979718211 0 -0.013932409039230492 0.024431059923885314 0 -0.013682326396272051 0.024364327298971436 0 -0.013639130423276375 0.024635518188598521 0 -0.013018186301367916 0.024395972654345788 0 -0.013682326396272051 0.024364327298971436 0 -0.014053731712007297 0.023972479979718211 0 -0.013932409039230492 0.024431059923885314 0 -0.013682326396272051 0.024364327298971436 0 -0.014053731712007297 0.023972479979718211 0 -0.014791445825058864 0.02318240298918153 0 -0.014988707203414865 0.022823410775164837 0 -0.014053731712007297 0.023972479979718211 0 -0.013018186301367916 0.024395972654345788 0 -0.013682326396272051 0.024364327298971436 0 -0.013639130423276375 0.024635518188598521 0 -0.016485319741082988 0.022371954742262556 0 -0.016303508892020615 0.022983178494855285 0 -0.017270371070714205 0.022862503956210842 0 -0.006780569248322741 0.016773127566403888 0 -0.006382075406489488 0.018640453823455101 0 -0.0072836967951967879 0.017860904166242284 0 -0.006382075406489488 0.018640453823455101 0 -0.0079979710418014299 0.018360934136826244 0 -0.0072836967951967879 0.017860904166242284 0 -0.01587278570690058 0.022533068646152971 0 -0.015558469360501643 0.023384090573109702 0 -0.016303508892020615 0.022983178494855285 0 -0.016485319741082988 0.022371954742262556 0 -0.01587278570690058 0.022533068646152971 0 -0.016303508892020615 0.022983178494855285 0 -0.014555841881234094 0.020739229990334593 0 -0.016485319741082988 0.022371954742262556 0 -0.01587278570690058 0.022533068646152971 0 -0.014555841881234094 0.020739229990334593 0 -0.01587278570690058 0.022533068646152971 0 -0.014861396627440378 0.022555799366521488 0 -0.015587450113784086 0.020772003007310115 0 -0.014210551919336126 0.019884117884633897 0 -0.01587278570690058 0.022533068646152971 0 -0.014861396627440378 0.022555799366521488 0 -0.015558469360501643 0.023384090573109702 0 -0.014555841881234094 0.020739229990334593 0 -0.013432240007814129 0.022225292938143622 0 -0.014861396627440378 0.022555799366521488 0 -0.013432240007814129 0.022225292938143622 0 -0.014861396627440378 0.022555799366521488 0 -0.014693728333694957 0.023588636863044916 0 -0.014082768273967435 0.024190151550581587 0 -0.014982258281458565 0.024690038607376251 0 -0.014464895370292283 0.024970346111209119 0 -0.014082768273967435 0.024190151550581587 0 -0.014693728333694957 0.023588636863044916 0 -0.014982258281458565 0.024690038607376251 0 -0.014861396627440378 0.022555799366521488 0 -0.014693728333694957 0.023588636863044916 0 -0.015558469360501643 0.023384090573109702 0 -0.014693728333694957 0.023588636863044916 0 -0.014982258281458565 0.024690038607376251 0 -0.015558469360501643 0.023384090573109702 0 -0.016303508892020615 0.022983178494855285 0 -0.016483639001383922 0.023537320638488787 0 -0.017270371070714205 0.022862503956210842 0 -0.015558469360501643 0.023384090573109702 0 -0.016303508892020615 0.022983178494855285 0 -0.016483639001383922 0.023537320638488787 0 -0.01490647410086943 0.024739621889402354 0 -0.015914307629265025 0.024199972841287099 0 -0.014982258281458565 0.024690038607376251 0 -0.014893592378762711 0.025303213244012805 0 -0.014947470051314667 0.025186523358639867 0 -0.014982258281458565 0.024690038607376251 0 -0.015558469360501643 0.023384090573109702 0 -0.016483639001383922 0.023537320638488787 0 -0.014893592378762711 0.025303213244012805 0 -0.014947470051314667 0.025186523358639867 0 -0.014688051794621515 0.025320159017340707 0 -0.015008666782540207 0.025603811038486496 0 -0.014947470051314667 0.025186523358639867 0 -0.014850422608717908 0.025519094627767854 0 -0.014947470051314667 0.025186523358639867 0 -0.014850422608717908 0.025519094627767854 0 -0.014688051794621515 0.025320159017340707 0 -0.015008666782540207 0.025603811038486496 0 -0.014882800997460369 0.025285781438261681 0 -0.0149143942577521 0.02574394432370334 0 -0.015008666782540207 0.025603811038486496 0 -0.014947470051314667 0.025186523358639867 0 -0.014882800997460369 0.025285781438261681 0 -0.014982258281458565 0.024690038607376251 0 -0.014882800997460369 0.025285781438261681 0 -0.014464895370292283 0.024970346111209119 0 -0.014982258281458565 0.024690038607376251 0 -0.014947470051314667 0.025186523358639867 0 -0.014882800997460369 0.025285781438261681 0 -0.014464895370292283 0.024970346111209119 0 -0.014614713521447031 0.02549131167542425 0 -0.014264464295098532 0.025298858894015439 0 -0.014882800997460369 0.025285781438261681 0 -0.014464895370292283 0.024970346111209119 0 -0.014614713521447031 0.02549131167542425 0 -0.0149143942577521 0.02574394432370334 0 -0.015264921243237603 0.026132598361121775 0 -0.014646368779120705 0.026243749649692422 0 -0.014614713521447031 0.02549131167542425 0 -0.0149143942577521 0.02574394432370334 0 -0.014646368779120705 0.026243749649692422 0 -0.014614713521447031 0.02549131167542425 0 -0.014264464295098532 0.025298858894015439 0 -0.014646368779120705 0.026243749649692422 0 -0.014882800997460369 0.025285781438261681 0 -0.014614713521447031 0.02549131167542425 0 -0.0149143942577521 0.02574394432370334 0 -0.015008666782540207 0.025603811038486496 0 -0.015264921243237603 0.026132598361121775 0 -0.015080997936440143 0.026034389195335884 0 -0.015008666782540207 0.025603811038486496 0 -0.0149143942577521 0.02574394432370334 0 -0.015264921243237603 0.026132598361121775 0 -0.017576951426780865 0.026905590975587895 0 -0.017568384502605852 0.02707345628706323 0 -0.017554736257924915 0.027237390416431796 0 -0.025513008549278245 0.01789894347988075 0 -0.022057585624603904 0.029308485242278477 0 -0.018155291784476103 0.022414812729531067 0 -0.01530109673252336 0.026711349178133333 0 -0.017556912481420377 0.026915927275570663 0 -0.017568384502605852 0.02707345628706323 0 -0.017579010542457644 0.027233592299984552 0 -0.013018186301367916 0.024395972654345788 0 -0.013639130423276375 0.024635518188598521 0 -0.01382602826545299 0.025332681486925343 0 -0.017568384502605852 0.02707345628706323 0 -0.017554736257924915 0.027237390416431796 0 -0.017579010542457644 0.027233592299984552 0 -0.013639130423276375 0.024635518188598521 0 -0.01392167195365116 0.024880350916408934 0 -0.01382602826545299 0.025332681486925343 0 -0.013932409039230492 0.024431059923885314 0 -0.013639130423276375 0.024635518188598521 0 -0.01392167195365116 0.024880350916408934 0 -0.013932409039230492 0.024431059923885314 0 -0.01392167195365116 0.024880350916408934 0 -0.014075360825877839 0.024738278416643583 0 -0.014082768273967435 0.024190151550581587 0 -0.014464895370292283 0.024970346111209119 0 -0.014075360825877839 0.024738278416643583 0 -0.014464895370292283 0.024970346111209119 0 -0.014075360825877839 0.024738278416643583 0 -0.014264464295098532 0.025298858894015439 0 -0.01392167195365116 0.024880350916408934 0 -0.014264464295098532 0.025298858894015439 0 -0.01382602826545299 0.025332681486925343 0 -0.01392167195365116 0.024880350916408934 0 -0.014075360825877839 0.024738278416643583 0 -0.014264464295098532 0.025298858894015439 0 -0.014264464295098532 0.025298858894015439 0 -0.01382602826545299 0.025332681486925343 0 -0.014646368779120705 0.026243749649692422 0 -0.017387384987554176 0.02713321917114472 0 -0.017554736257924915 0.027237390416431796 0 -0.017054659612126159 0.027148894255379044 0 -0.01530109673252336 0.026711349178133333 0 -0.015908018419648458 0.026596542278674161 0 -0.017387384987554176 0.02713321917114472 0 -0.017554736257924915 0.027237390416431796 0 -0.017579010542457644 0.027233592299984552 0 -0.027112160593479817 0.027903669661187996 0 -0.027082905231072395 0.027594893493408514 0 -0.02670170945043682 0.027832368831162052 0 -0.027082905231072395 0.027594893493408514 0 -0.02670170945043682 0.027832368831162052 0 -0.026619582327699131 0.027520880387962087 0 -0.02670170945043682 0.027832368831162052 0 -0.026619582327699131 0.027520880387962087 0 -0.025936870363525467 0.027346962249990392 0 -0.027082905231072395 0.027594893493408514 0 -0.026619582327699131 0.027520880387962087 0 -0.026730097760534057 0.027311108698858284 0 -0.026619582327699131 0.027520880387962087 0 -0.026730097760534057 0.027311108698858284 0 -0.025936870363525467 0.027346962249990392 0 -0.026730097760534057 0.027311108698858284 0 -0.026341892516381245 0.027150082319024115 0 -0.025936870363525467 0.027346962249990392 0 -0.02706704468477001 0.027079246198677548 0 -0.026730097760534057 0.027311108698858284 0 -0.026748075736525344 0.02697761838340482 0 -0.026730097760534057 0.027311108698858284 0 -0.026748075736525344 0.02697761838340482 0 -0.026341892516381245 0.027150082319024115 0 -0.026748075736525344 0.02697761838340482 0 -0.026341892516381245 0.027150082319024115 0 -0.026377143503591719 0.026806433938517268 0 -0.026748075736525344 0.02697761838340482 0 -0.026377143503591719 0.026806433938517268 0 -0.026698416689791497 0.026549506794192941 0 -0.027068046580436746 0.026716545242673469 0 -0.026748075736525344 0.02697761838340482 0 -0.026698416689791497 0.026549506794192941 0 -0.025865055031930633 0.026843557931809196 0 -0.025936870363525467 0.027346962249990392 0 -0.024736262673700014 0.026821340866645758 0 -0.026341892516381245 0.027150082319024115 0 -0.025865055031930633 0.026843557931809196 0 -0.025936870363525467 0.027346962249990392 0 -0.026341892516381245 0.027150082319024115 0 -0.026377143503591719 0.026806433938517268 0 -0.025865055031930633 0.026843557931809196 0 -0.022057585624603904 0.029308485242278477 0 -0.021534245139114158 0.02675679215508097 0 -0.017387384987554176 0.02713321917114472 0 -0.017579010542457644 0.027233592299984552 0 -0.017326793438614423 0.026889914476171225 0 -0.017387384987554176 0.02713321917114472 0 -0.017326793438614423 0.026889914476171225 0 -0.017054659612126159 0.027148894255379044 0 -0.017054659612126159 0.027148894255379044 0 -0.01611428967047826 0.026696023190389252 0 -0.016870491504439224 0.026705610147806598 0 -0.017326793438614423 0.026889914476171225 0 -0.017054659612126159 0.027148894255379044 0 -0.016870491504439224 0.026705610147806598 0 -0.015264921243237603 0.026132598361121775 0 -0.014646368779120705 0.026243749649692422 0 -0.01611428967047826 0.026696023190389252 0 -0.015908018419648458 0.026596542278674161 0 -0.016033501400054134 0.026701173365414804 0 -0.015264921243237603 0.026132598361121775 0 -0.01611428967047826 0.026696023190389252 0 -0.015424519629946931 0.02642931117237592 0 -0.01611428967047826 0.026696023190389252 0 -0.016870491504439224 0.026705610147806598 0 -0.016725579579637682 0.026369564471574961 0 -0.021534245139114158 0.02675679215508097 0 -0.020821111955213741 0.026619131684375508 0 -0.017326793438614423 0.026889914476171225 0 -0.016870491504439224 0.026705610147806598 0 -0.0168539051654003 0.026327099747666755 0 -0.016870491504439224 0.026705610147806598 0 -0.0168539051654003 0.026327099747666755 0 -0.016725579579637682 0.026369564471574961 0 -0.024736262673700014 0.026821340866645758 0 -0.024876606173734751 0.026182399080802998 0 -0.025799046335858177 0.026184752139460959 0 -0.0168539051654003 0.026327099747666755 0 -0.016725579579637682 0.026369564471574961 0 -0.017441169372912017 0.026351024740453234 0 -0.017441169372912017 0.026351024740453234 0 -0.017868344317311803 0.026461488192584121 0 -0.017926970894155847 0.026603681076024038 0 -0.024736262673700014 0.026821340866645758 0 -0.022846189085745996 0.025919077125621796 0 -0.024045994475978438 0.025976977648999755 0 -0.020821111955213741 0.026619131684375508 0 -0.020280689522140596 0.025998432334597033 0 -0.0168539051654003 0.026327099747666755 0 -0.017441169372912017 0.026351024740453234 0 -0.017868344317311803 0.026461488192584121 0 -0.022846189085745996 0.025919077125621796 0 -0.024045994475978438 0.025976977648999755 0 -0.023434688883051457 0.025314932330773022 0 -0.024736262673700014 0.026821340866645758 0 -0.024876606173734751 0.026182399080802998 0 -0.024045994475978438 0.025976977648999755 0 -0.024045994475978438 0.025976977648999755 0 -0.02435775136334235 0.025436354180866774 0 -0.023434688883051457 0.025314932330773022 0 -0.024876606173734751 0.026182399080802998 0 -0.024045994475978438 0.025976977648999755 0 -0.02435775136334235 0.025436354180866774 0 -0.024876606173734751 0.026182399080802998 0 -0.025432040294354977 0.025414152248650967 0 -0.02435775136334235 0.025436354180866774 0 -0.026148659131182146 0.025586515214934637 0 -0.026814413098835345 0.02556722126986774 0 -0.026029980676587731 0.024491646173146371 0 -0.025432040294354977 0.025414152248650967 0 -0.026148659131182146 0.025586515214934637 0 -0.025799046335858177 0.026184752139460959 0 -0.024876606173734751 0.026182399080802998 0 -0.025432040294354977 0.025414152248650967 0 -0.025799046335858177 0.026184752139460959 0 -0.026148659131182146 0.025586515214934637 0 -0.026511548042638208 0.026030918254428857 0 -0.025799046335858177 0.026184752139460959 0 -0.033482908004521382 0.024350371860097853 0 -0.030032509392923998 0.024927812379526518 0 -0.028633866406741492 0.023976452725713106 0 -0.027026962452027077 0.02612127816270577 0 -0.026814413098835345 0.02556722126986774 0 -0.026511548042638208 0.026030918254428857 0 -0.026148659131182146 0.025586515214934637 0 -0.026814413098835345 0.02556722126986774 0 -0.026511548042638208 0.026030918254428857 0 -0.026511548042638208 0.026030918254428857 0 -0.026698416689791497 0.026549506794192941 0 -0.02620227806715051 0.026459638077406474 0 -0.027026962452027077 0.02612127816270577 0 -0.026511548042638208 0.026030918254428857 0 -0.026698416689791497 0.026549506794192941 0 -0.027068046580436746 0.026716545242673469 0 -0.02705193425852611 0.026449964178950555 0 -0.026698416689791497 0.026549506794192941 0 -0.02705193425852611 0.026449964178950555 0 -0.027026962452027077 0.02612127816270577 0 -0.026698416689791497 0.026549506794192941 0 -0.026377143503591719 0.026806433938517268 0 -0.026698416689791497 0.026549506794192941 0 -0.02620227806715051 0.026459638077406474 0 -0.025865055031930633 0.026843557931809196 0 -0.02620227806715051 0.026459638077406474 0 -0.025799046335858177 0.026184752139460959 0 -0.025865055031930633 0.026843557931809196 0 -0.024736262673700014 0.026821340866645758 0 -0.025799046335858177 0.026184752139460959 0 -0.026377143503591719 0.026806433938517268 0 -0.025865055031930633 0.026843557931809196 0 -0.02620227806715051 0.026459638077406474 0 -0.026511548042638208 0.026030918254428857 0 -0.02620227806715051 0.026459638077406474 0 -0.025799046335858177 0.026184752139460959 0 -0.015869004864860245 0.027677953780678822 0 -0.016609296452716246 0.02648635837567298 0 -0.017069228028771099 0.027160432042899033 0 -0.015869004864860245 0.027677953780678822 0 -0.017069228028771099 0.027160432042899033 0 -0.016109547018728774 0.028691617169568272 0 -0.015869004864860245 0.027677953780678822 0 -0.014947892602207198 0.027858009627254373 0 -0.015273579071519492 0.026662219984737178 0 -0.015869004864860245 0.027677953780678822 0 -0.014947892602207198 0.027858009627254373 0 -0.015242235779794194 0.028585274221807424 0 -0.014947892602207198 0.027858009627254373 0 -0.015273579071519492 0.026662219984737178 0 -0.014102973006661516 0.026839133833875581 0 -0.015273579071519492 0.026662219984737178 0 -0.014102973006661516 0.026839133833875581 0 -0.014616311048494137 0.025511757211705573 0 -0.015869004864860245 0.027677953780678822 0 -0.015273579071519492 0.026662219984737178 0 -0.016609296452716246 0.02648635837567298 0 -0.017653190753484489 0.02637662053761379 0 -0.017926970894155847 0.026603681076024038 0 -0.017069228028771099 0.027160432042899033 0 -0.016609296452716246 0.02648635837567298 0 -0.017653190753484489 0.02637662053761379 0 -0.017069228028771099 0.027160432042899033 0 -0.017868344317311803 0.026461488192584121 0 -0.017926970894155847 0.026603681076024038 0 -0.018419072990242567 0.026033114697458896 0 -0.017653190753484489 0.02637662053761379 0 -0.017926970894155847 0.026603681076024038 0 -0.018419072990242567 0.026033114697458896 0 -0.016725579579637682 0.026369564471574961 0 -0.017441169372912017 0.026351024740453234 0 -0.015673846376346428 0.026343639017135115 0 -0.017309618323627037 0.026456660732331144 0 -0.016646085356560491 0.02696324054330132 0 -0.017441169372912017 0.026351024740453234 0 -0.017926970894155847 0.026603681076024038 0 -0.017730843124357638 0.027518768432054658 0 -0.017926970894155847 0.026603681076024038 0 -0.017730843124357638 0.027518768432054658 0 -0.017069228028771099 0.027160432042899033 0 -0.017730843124357638 0.027518768432054658 0 -0.017069228028771099 0.027160432042899033 0 -0.016109547018728774 0.028691617169568272 0 -0.015673846376346428 0.026343639017135115 0 -0.015489160547914058 0.026620541782970086 0 -0.015096664875147917 0.026761105405648401 0 -0.016646085356560491 0.02696324054330132 0 -0.015681908024524124 0.027704350512422371 0 -0.01611428967047826 0.026696023190389252 0 -0.016725579579637682 0.026369564471574961 0 -0.015673846376346428 0.026343639017135115 0 -0.01611428967047826 0.026696023190389252 0 -0.015673846376346428 0.026343639017135115 0 -0.015489160547914058 0.026620541782970086 0 -0.01611428967047826 0.026696023190389252 0 -0.015424519629946931 0.02642931117237592 0 -0.015489160547914058 0.026620541782970086 0 -0.015424519629946931 0.02642931117237592 0 -0.015489160547914058 0.026620541782970086 0 -0.015194532677128808 0.026702091855441368 0 -0.015489160547914058 0.026620541782970086 0 -0.015194532677128808 0.026702091855441368 0 -0.015096664875147917 0.026761105405648401 0 -0.015681908024524124 0.027704350512422371 0 -0.015352894670687978 0.02814602840149864 0 -0.015060878386078882 0.027142172625415965 0 -0.015096664875147917 0.026761105405648401 0 -0.015266428988991469 0.028271716480417493 0 -0.015194532677128808 0.026702091855441368 0 -0.015060878386078882 0.027142172625415965 0 -0.015096664875147917 0.026761105405648401 0 -0.015869004864860245 0.027677953780678822 0 -0.016109547018728774 0.028691617169568272 0 -0.015242235779794194 0.028585274221807424 0 -0.014947892602207198 0.027858009627254373 0 -0.015242235779794194 0.028585274221807424 0 -0.014515383170599808 0.028658707868736286 0 -0.015242235779794194 0.028585274221807424 0 -0.015266428988991469 0.028271716480417493 0 -0.014981502952091268 0.02889529763996113 0 -0.016109547018728774 0.028691617169568272 0 -0.015242235779794194 0.028585274221807424 0 -0.015266428988991469 0.028271716480417493 0 -0.015072936762965722 0.027046428362511088 0 -0.014959597814462782 0.026228775983164962 0 -0.015512282511421812 0.026844239194629943 0 -0.015266428988991469 0.028271716480417493 0 -0.015512282511421812 0.026844239194629943 0 -0.015863695413367834 0.028572281935124004 0 -0.015266428988991469 0.028271716480417493 0 -0.015072936762965722 0.027046428362511088 0 -0.015512282511421812 0.026844239194629943 0 -0.015060878386078882 0.027142172625415965 0 -0.015266428988991469 0.028271716480417493 0 -0.015072936762965722 0.027046428362511088 0 -0.015060878386078882 0.027142172625415965 0 -0.014977384021044012 0.02667353567648284 0 -0.015072936762965722 0.027046428362511088 0 -0.015194532677128808 0.026702091855441368 0 -0.015060878386078882 0.027142172625415965 0 -0.014977384021044012 0.02667353567648284 0 -0.014977384021044012 0.02667353567648284 0 -0.015072936762965722 0.027046428362511088 0 -0.014959597814462782 0.026228775983164962 0 -0.014959597814462782 0.026228775983164962 0 -0.015250457280710242 0.025467422500691932 0 -0.014623915915125334 0.025262778534970918 0 -0.014977384021044012 0.02667353567648284 0 -0.014959597814462782 0.026228775983164962 0 -0.014753689452877614 0.025928861233819069 0 -0.014959597814462782 0.026228775983164962 0 -0.014753689452877614 0.025928861233819069 0 -0.014623915915125334 0.025262778534970918 0 -0.014959597814462782 0.026228775983164962 0 -0.015250457280710242 0.025467422500691932 0 -0.015512282511421812 0.026844239194629943 0 -0.015250457280710242 0.025467422500691932 0 -0.015512282511421812 0.026844239194629943 0 -0.016244795421162302 0.025236169489804061 0 -0.015424519629946931 0.02642931117237592 0 -0.015194532677128808 0.026702091855441368 0 -0.015080997936440143 0.026034389195335884 0 -0.015264921243237603 0.026132598361121775 0 -0.015424519629946931 0.02642931117237592 0 -0.015080997936440143 0.026034389195335884 0 -0.015080997936440143 0.026034389195335884 0 -0.014943650879122996 0.026257092232910367 0 -0.014800664889321077 0.025827007693647066 0 -0.015194532677128808 0.026702091855441368 0 -0.015080997936440143 0.026034389195335884 0 -0.014943650879122996 0.026257092232910367 0 -0.015194532677128808 0.026702091855441368 0 -0.014977384021044012 0.02667353567648284 0 -0.014943650879122996 0.026257092232910367 0 -0.014977384021044012 0.02667353567648284 0 -0.014943650879122996 0.026257092232910367 0 -0.014753689452877614 0.025928861233819069 0 -0.014753689452877614 0.025928861233819069 0 -0.014540345161936892 0.025473847989023132 0 -0.014623915915125334 0.025262778534970918 0 -0.014753689452877614 0.025928861233819069 0 -0.014540345161936892 0.025473847989023132 0 -0.014800664889321077 0.025827007693647066 0 -0.014943650879122996 0.026257092232910367 0 -0.014753689452877614 0.025928861233819069 0 -0.014800664889321077 0.025827007693647066 0 -0.015080997936440143 0.026034389195335884 0 -0.014800664889321077 0.025827007693647066 0 -0.014850422608717908 0.025519094627767854 0 -0.014540345161936892 0.025473847989023132 0 -0.014800664889321077 0.025827007693647066 0 -0.014850422608717908 0.025519094627767854 0 -0.014540345161936892 0.025473847989023132 0 -0.014850422608717908 0.025519094627767854 0 -0.014688051794621515 0.025320159017340707 0 -0.015008666782540207 0.025603811038486496 0 -0.015080997936440143 0.026034389195335884 0 -0.014850422608717908 0.025519094627767854 0 -0.015914307629265025 0.024199972841287099 0 -0.012737417494791015 0.023035966456918733 0 -0.014893592378762711 0.025303213244012805 0 -0.01459673494714279 0.025431950540340257 0 -0.014688051794621515 0.025320159017340707 0 -0.014540345161936892 0.025473847989023132 0 -0.014688051794621515 0.025320159017340707 0 -0.014234200190674024 0.025071966647923275 0 -0.012737417494791015 0.023035966456918733 0 -0.014736717374934162 0.025023061175908808 0 -0.01459673494714279 0.025431950540340257 0 -0.014688051794621515 0.025320159017340707 0 -0.014234200190674024 0.025071966647923275 0 -0.013702086039160084 0.024819766985884912 0 -0.014234200190674024 0.025071966647923275 0 -0.014407709963424168 0.024502187069855734 0 -0.014540345161936892 0.025473847989023132 0 -0.014234200190674024 0.025071966647923275 0 -0.014623915915125334 0.025262778534970918 0 -0.014234200190674024 0.025071966647923275 0 -0.014407709963424168 0.024502187069855734 0 -0.014623915915125334 0.025262778534970918 0 -0.0084259758011567421 0.019661558741257558 0 -0.0098651510900127238 0.017607757196493906 0 -0.011893219123054837 0.017850149029381351 0 -0.013702086039160084 0.024819766985884912 0 -0.014407709963424168 0.024502187069855734 0 -0.014377390056890186 0.02351991213268351 0 -0.012737417494791015 0.023035966456918733 0 -0.012872227584287549 0.020581222796048248 0 -0.0084259758011567421 0.019661558741257558 0 -0.0098651510900127238 0.017607757196493906 0 -0.0079979710418014299 0.018360934136826244 0 -0.0079302281484511464 0.017273977281230157 0 -0.0098651510900127238 0.017607757196493906 0 -0.0079979710418014299 0.018360934136826244 0 -0.0079302281484511464 0.017273977281230157 0 -0.0079979710418014299 0.018360934136826244 0 -0.0072836967951967879 0.017860904166242284 0 -0.0079302281484511464 0.017273977281230157 0 -0.006780569248322741 0.016773127566403888 0 -0.0072836967951967879 0.017860904166242284 0 -0.014210551919336126 0.019884117884633897 0 -0.012737417494791015 0.023035966456918733 0 -0.006382075406489488 0.018640453823455101 0 -0.0084259758011567421 0.019661558741257558 0 -0.0079979710418014299 0.018360934136826244 0 -0.015149083424516067 0.024104456325340844 0 -0.017024603065361393 0.022914532573715379 0 -0.016244795421162302 0.025236169489804061 0 -0.015250457280710242 0.025467422500691932 0 -0.015149083424516067 0.024104456325340844 0 -0.016244795421162302 0.025236169489804061 0 -0.015250457280710242 0.025467422500691932 0 -0.015149083424516067 0.024104456325340844 0 -0.014623915915125334 0.025262778534970918 0 -0.014407709963424168 0.024502187069855734 0 -0.015149083424516067 0.024104456325340844 0 -0.014623915915125334 0.025262778534970918 0 -0.014407709963424168 0.024502187069855734 0 -0.015149083424516067 0.024104456325340844 0 -0.014377390056890186 0.02351991213268351 0 -0.015637161308785202 0.021150969241705796 0 -0.015149083424516067 0.024104456325340844 0 -0.014377390056890186 0.02351991213268351 0 -0.015637161308785202 0.021150969241705796 0 -0.015149083424516067 0.024104456325340844 0 -0.017024603065361393 0.022914532573715379 0 -0.017024603065361393 0.022914532573715379 0 -0.016244795421162302 0.025236169489804061 0 -0.018021580303844757 0.025132363574164776 0 -0.018021580303844757 0.025132363574164776 0 -0.019912439260246929 0.022408043142798283 0 -0.020174256047626397 0.025847496878469156 0 -0.017024603065361393 0.022914532573715379 0 -0.018021580303844757 0.025132363574164776 0 -0.019912439260246929 0.022408043142798283 0 -0.023903841773050976 0.020620969817947515 0 -0.019912439260246929 0.022408043142798283 0 -0.022338928173997553 0.024701619460104754 0 -0.011416273494790958 0.020671011502127162 0 -0.010612218078995577 0.024153162446251781 0 0.0010638048527804186 0.021465225788148183 0 0.0012005424567714438 0.023648911030736162 0 -2.7626365505958608e-05 0.022810702996468479 0 0.0012005424567714438 0.023648911030736162 0 -2.7626365505958608e-05 0.022810702996468479 0 0.00013870569567967509 0.024440916209961194 0 -0.019912439260246929 0.022408043142798283 0 -0.022338928173997553 0.024701619460104754 0 -0.020174256047626397 0.025847496878469156 0 -0.020174256047626397 0.025847496878469156 0 -0.02130645709586125 0.028034760901730436 0 -0.018750631060810746 0.027547359253480494 0 -0.010612218078995577 0.024153162446251781 0 -0.0099474878087243753 0.02696546613373025 0 -0.022338928173997553 0.024701619460104754 0 -0.020174256047626397 0.025847496878469156 0 -0.02130645709586125 0.028034760901730436 0 0.0012005424567714438 0.023648911030736162 0 0.0012022210513241221 0.025612417260727625 0 0.00013870569567967509 0.024440916209961194 0 0.0012022210513241221 0.025612417260727625 0 2.2691999335237266e-05 0.025706231834105548 0 2.4050059978970018e-05 0.026903262582518166 0 0.0012022210513241221 0.025612417260727625 0 0.00013870569567967509 0.024440916209961194 0 2.2691999335237266e-05 0.025706231834105548 0 -0.02130645709586125 0.028034760901730436 0 -0.018750631060810746 0.027547359253480494 0 -0.018477874871587908 0.030249248745959412 0 -0.018750631060810746 0.027547359253480494 0 -0.015863695413367834 0.028572281935124004 0 -0.018477874871587908 0.030249248745959412 0 -0.015512282511421812 0.026844239194629943 0 -0.015863695413367834 0.028572281935124004 0 -0.016856650533416444 0.02667891206083171 0 -0.018750631060810746 0.027547359253480494 0 -0.015863695413367834 0.028572281935124004 0 -0.016856650533416444 0.02667891206083171 0 -0.015512282511421812 0.026844239194629943 0 -0.016244795421162302 0.025236169489804061 0 -0.016856650533416444 0.02667891206083171 0 -0.016244795421162302 0.025236169489804061 0 -0.018021580303844757 0.025132363574164776 0 -0.016856650533416444 0.02667891206083171 0 -0.018021580303844757 0.025132363574164776 0 -0.018750631060810746 0.027547359253480494 0 -0.016856650533416444 0.02667891206083171 0 -0.018021580303844757 0.025132363574164776 0 -0.020174256047626397 0.025847496878469156 0 -0.018750631060810746 0.027547359253480494 0 -0.0023455689093534551 0.023093854002795861 0 -0.0016513024305051241 0.023092400025042634 0 -0.0013365464993258776 0.026234683914640712 0 -0.0031173323115179399 0.023555572683325907 0 -0.0027977358080492542 0.023900698342300464 0 -0.0031639819582301668 0.024179869044497631 0 -0.0031173323115179399 0.023555572683325907 0 -0.0036744716983976395 0.023360824798813424 0 -0.0031639819582301668 0.024179869044497631 0 -0.0031173323115179399 0.023555572683325907 0 -0.0032222408951766584 0.023085282890472757 0 -0.0036744716983976395 0.023360824798813424 0 -0.0032222408951766584 0.023085282890472757 0 -0.0036744716983976395 0.023360824798813424 0 -0.0033384528752088403 0.022302151165934276 0 -0.0031173323115179399 0.023555572683325907 0 -0.0032222408951766584 0.023085282890472757 0 -0.002764034387453818 0.023124659228907593 0 -0.0029150823787229465 0.020844287967982437 0 -0.0028371255080974832 0.02307002970497601 0 -0.0020865260604897369 0.020275877364761424 0 -0.0023455689093534551 0.023093854002795861 0 -0.0016513024305051241 0.023092400025042634 0 -0.0037860735133478218 0.021276023886042484 0 -0.0036744716983976395 0.023360824798813424 0 -0.0033384528752088403 0.022302151165934276 0 -0.00284346060019517 0.021459110792047324 0 -0.0032833607292372612 0.021454212975110739 0 -0.0033384528752088403 0.022302151165934276 0 -0.0032833607292372612 0.021454212975110739 0 -0.0037860735133478218 0.021276023886042484 0 -0.0033384528752088403 0.022302151165934276 0 -0.0032222408951766584 0.023085282890472757 0 -0.0033384528752088403 0.022302151165934276 0 -0.002764034387453818 0.023124659228907593 0 -0.0033384528752088403 0.022302151165934276 0 -0.0023178988751821976 0.02224256419682186 0 -0.002764034387453818 0.023124659228907593 0 -0.00284346060019517 0.021459110792047324 0 -0.0033384528752088403 0.022302151165934276 0 -0.0023178988751821976 0.02224256419682186 0 -0.0019832130400843319 0.021213426769089952 0 -0.00284346060019517 0.021459110792047324 0 -0.0023178988751821976 0.02224256419682186 0 -0.0019832130400843319 0.021213426769089952 0 -0.0023178988751821976 0.02224256419682186 0 -0.001241198504898397 0.022203633127344788 0 -0.0023178988751821976 0.02224256419682186 0 -0.0018465535971018327 0.023263379078897944 0 -0.001241198504898397 0.022203633127344788 0 -0.0018465535971018327 0.023263379078897944 0 -0.002764034387453818 0.023124659228907593 0 -0.0023121310421418541 0.024014775948092176 0 -0.0023178988751821976 0.02224256419682186 0 -0.0018465535971018327 0.023263379078897944 0 -0.002764034387453818 0.023124659228907593 0 -0.0031173323115179399 0.023555572683325907 0 -0.002764034387453818 0.023124659228907593 0 -0.0027977358080492542 0.023900698342300464 0 -0.002764034387453818 0.023124659228907593 0 -0.0023121310421418541 0.024014775948092176 0 -0.0027977358080492542 0.023900698342300464 0 -0.0018465535971018327 0.023263379078897944 0 -0.0023121310421418541 0.024014775948092176 0 -0.0015586089253557724 0.024401927347517501 0 -0.0018465535971018327 0.023263379078897944 0 -0.00087379645507069915 0.023665835762093763 0 -0.001241198504898397 0.022203633127344788 0 -0.0018465535971018327 0.023263379078897944 0 -0.00087379645507069915 0.023665835762093763 0 -0.0015586089253557724 0.024401927347517501 0 -0.00030262573560732516 0.021525168823455731 0 0.0010638048527804186 0.021465225788148183 0 -2.7626365505958608e-05 0.022810702996468479 0 -0.00030262573560732516 0.021525168823455731 0 -0.001241198504898397 0.022203633127344788 0 -2.7626365505958608e-05 0.022810702996468479 0 -0.00087379645507069915 0.023665835762093763 0 -2.7626365505958608e-05 0.022810702996468479 0 0.00013870569567967509 0.024440916209961194 0 -0.00087379645507069915 0.023665835762093763 0 -0.001241198504898397 0.022203633127344788 0 -2.7626365505958608e-05 0.022810702996468479 0 -0.00087379645507069915 0.023665835762093763 0 0.00013870569567967509 0.024440916209961194 0 -0.00079312359895326802 0.024998148743470262 0 0.00013870569567967509 0.024440916209961194 0 2.2691999335237266e-05 0.025706231834105548 0 -0.00079312359895326802 0.024998148743470262 0 2.2691999335237266e-05 0.025706231834105548 0 -0.001024855120072701 0.026280720645133728 0 -0.00079312359895326802 0.024998148743470262 0 -0.001024855120072701 0.026280720645133728 0 -0.0014881480990002699 0.025360544863723473 0 -0.00079312359895326802 0.024998148743470262 0 -0.001024855120072701 0.026280720645133728 0 -0.0014881480990002699 0.025360544863723473 0 -0.0019992570826140319 0.025940222940477552 0 -0.0014881480990002699 0.025360544863723473 0 -0.0015586089253557724 0.024401927347517501 0 -0.0020871313134595191 0.024946213886171343 0 -0.0014881480990002699 0.025360544863723473 0 -0.00079312359895326802 0.024998148743470262 0 -0.0015586089253557724 0.024401927347517501 0 -0.00087379645507069915 0.023665835762093763 0 -0.00079312359895326802 0.024998148743470262 0 -0.0015586089253557724 0.024401927347517501 0 -0.0023121310421418541 0.024014775948092176 0 -0.0015586089253557724 0.024401927347517501 0 -0.0020871313134595191 0.024946213886171343 0 -0.0023121310421418541 0.024014775948092176 0 -0.002625851335151517 0.024620176038287683 0 -0.0020871313134595191 0.024946213886171343 0 -0.0023121310421418541 0.024014775948092176 0 -0.0027977358080492542 0.023900698342300464 0 -0.002625851335151517 0.024620176038287683 0 -0.002625851335151517 0.024620176038287683 0 -0.0020871313134595191 0.024946213886171343 0 -0.0025474066164986975 0.025330089617055331 0 -0.002625851335151517 0.024620176038287683 0 -0.0025474066164986975 0.025330089617055331 0 -0.0030173935981093196 0.025120906605238216 0 -0.0020871313134595191 0.024946213886171343 0 -0.0019992570826140319 0.025940222940477552 0 -0.0025474066164986975 0.025330089617055331 0 -0.0014881480990002699 0.025360544863723473 0 -0.0020871313134595191 0.024946213886171343 0 -0.0019992570826140319 0.025940222940477552 0 -0.0019992570826140319 0.025940222940477552 0 -0.0026105097952918788 0.025832202314669889 0 -0.0024690350342949771 0.026436018156913481 0 -0.0019992570826140319 0.025940222940477552 0 -0.0026105097952918788 0.025832202314669889 0 -0.0025474066164986975 0.025330089617055331 0 -0.0026105097952918788 0.025832202314669889 0 -0.0025474066164986975 0.025330089617055331 0 -0.0029108034855520135 0.025549239102111852 0 -0.0029108034855520135 0.025549239102111852 0 -0.0030943109910075805 0.026037117123658218 0 -0.0032550344524266512 0.025403812205443421 0 -0.0026105097952918788 0.025832202314669889 0 -0.0029108034855520135 0.025549239102111852 0 -0.0030943109910075805 0.026037117123658218 0 0.0042734793986959731 0.02735819785188974 0 8.2167622823948815e-05 0.029874634422273939 0 -0.0030943109910075805 0.026037117123658218 0 -0.0033909142071085769 0.025577159707255409 0 -0.0027397993244387842 0.027100427463516943 0 0.004520400022198722 0.0325191960346745 0 0.004715103154865936 0.032697176715469518 0 0.003576580137606776 0.032256435980544985 0 -0.0025474066164986975 0.025330089617055331 0 -0.0029108034855520135 0.025549239102111852 0 -0.0030173935981093196 0.025120906605238216 0 -0.0029108034855520135 0.025549239102111852 0 -0.0032550344524266512 0.025403812205443421 0 -0.0030173935981093196 0.025120906605238216 0 -0.0026105097952918788 0.025832202314669889 0 -0.0030943109910075805 0.026037117123658218 0 -0.0024690350342949771 0.026436018156913481 0 -0.0030943109910075805 0.026037117123658218 0 -0.0033909142071085769 0.025577159707255409 0 -0.0032183763406177994 0.025447912418614955 0 -0.002094192222502234 0.025754226523396782 0 -0.00086408789546471663 0.026541292119760414 0 0.0042734793986959731 0.02735819785188974 0 -0.00086408789546471663 0.026541292119760414 0 0.0079866742166342774 0.023733307217373673 0 0.0042734793986959731 0.02735819785188974 0 -0.0028371255080974832 0.02307002970497601 0 -0.00086408789546471663 0.026541292119760414 0 -0.0023455689093534551 0.023093854002795861 0 -0.0016366292667377661 0.026469035676322632 0 -0.0013365464993258776 0.026234683914640712 0 -0.0036744716983976395 0.023360824798813424 0 -0.003424571141617106 0.025419757326300436 0 -0.0031639819582301668 0.024179869044497631 0 -0.003424571141617106 0.025419757326300436 0 -0.0030457193266464921 0.02483316641455911 0 -0.0031639819582301668 0.024179869044497631 0 -0.003424571141617106 0.025419757326300436 0 -0.0030173935981093196 0.025120906605238216 0 -0.0030457193266464921 0.02483316641455911 0 -0.00086408789546471663 0.026541292119760414 0 -0.0019324271313904604 0.0263992021867888 0 -0.002625851335151517 0.024620176038287683 0 -0.0030173935981093196 0.025120906605238216 0 -0.0030457193266464921 0.02483316641455911 0 -0.0027977358080492542 0.023900698342300464 0 -0.002625851335151517 0.024620176038287683 0 -0.0031639819582301668 0.024179869044497631 0 -0.002625851335151517 0.024620176038287683 0 -0.0030457193266464921 0.02483316641455911 0 -0.0031639819582301668 0.024179869044497631 0 0.0044683425610897824 0.032113742335350123 0 0.003576580137606776 0.032256435980544985 0 0.0019971420105685546 0.030731800084725931 0 8.2167622823948815e-05 0.029874634422273939 0 0.00020203820375774712 0.029262487558941154 0 0.004520400022198722 0.0325191960346745 0 0.0044683425610897824 0.032113742335350123 0 0.003576580137606776 0.032256435980544985 0 -0.0030943109910075805 0.026037117123658218 0 -0.0027397993244387842 0.027100427463516943 0 -0.0024690350342949771 0.026436018156913481 0 -0.0027397993244387842 0.027100427463516943 0 -0.0018639551976830854 0.027217824980391235 0 -0.0024690350342949771 0.026436018156913481 0 -0.0019992570826140319 0.025940222940477552 0 -0.0018639551976830854 0.027217824980391235 0 -0.0024690350342949771 0.026436018156913481 0 -0.0018639551976830854 0.027217824980391235 0 -0.0016925011720836276 0.027996233869645514 0 -0.0016434371545070094 0.028345680734974194 0 -0.0027397993244387842 0.027100427463516943 0 -0.0018639551976830854 0.027217824980391235 0 -0.0016434371545070094 0.028345680734974194 0 -0.0018639551976830854 0.027217824980391235 0 -0.0010290799324294999 0.027323662222130569 0 -0.0016925011720836276 0.027996233869645514 0 -0.001024855120072701 0.026280720645133728 0 -0.0019992570826140319 0.025940222940477552 0 -0.0018639551976830854 0.027217824980391235 0 -0.001024855120072701 0.026280720645133728 0 -0.0018639551976830854 0.027217824980391235 0 -0.0010290799324294999 0.027323662222130569 0 2.2691999335237266e-05 0.025706231834105548 0 -0.001024855120072701 0.026280720645133728 0 2.4050059978970018e-05 0.026903262582518166 0 -0.001024855120072701 0.026280720645133728 0 -0.0010290799324294999 0.027323662222130569 0 2.4050059978970018e-05 0.026903262582518166 0 -0.0010290799324294999 0.027323662222130569 0 -0.00030893487782769657 0.028165566289590105 0 2.4050059978970018e-05 0.026903262582518166 0 -0.0010290799324294999 0.027323662222130569 0 -0.0016925011720836276 0.027996233869645514 0 -0.00030893487782769657 0.028165566289590105 0 -0.0022650020637540662 0.028848436899280464 0 -0.0025787945289853964 0.028579018574896642 0 -0.0066886227011194116 0.030006929547589285 0 -0.0060391953650899633 0.026492663751961409 0 -0.0021134584582034963 0.028470265884422381 0 -0.0060391953650899633 0.026492663751961409 0 -0.0021134584582034963 0.028470265884422381 0 -0.0022166598390347438 0.026507315411397756 0 -0.0016925011720836276 0.027996233869645514 0 -0.00030893487782769657 0.028165566289590105 0 -0.0021134584582034963 0.028470265884422381 0 -0.0016925011720836276 0.027996233869645514 0 -0.0021134584582034963 0.028470265884422381 0 -0.0016434371545070094 0.028345680734974194 0 -0.0021134584582034963 0.028470265884422381 0 -1.1999535676590303e-05 0.027800693321369408 0 -0.0022166598390347438 0.026507315411397756 0 -0.0021134584582034963 0.028470265884422381 0 -1.1999535676590303e-05 0.027800693321369408 0 -0.0016434371545070094 0.028345680734974194 0 0.0038283985893231799 0.029157768586488574 0 0.0034834561401123165 0.025982155933115605 0 -1.1999535676590303e-05 0.027800693321369408 0 0.0038283985893231799 0.029157768586488574 0 -1.1999535676590303e-05 0.027800693321369408 0 0.0019971420105685546 0.030731800084725931 0 -4.986206044277272e-05 0.027789348757283495 0 0.00020203820375774712 0.029262487558941154 0 -0.013821165953985616 0.029084659409737205 0 -0.012499402889211681 0.029364681222432493 0 -0.013557073856668933 0.029699373110762511 0 -0.012499402889211681 0.029364681222432493 0 -0.013557073856668933 0.029699373110762511 0 -0.011556456715490429 0.029848579724739213 0 -0.012499402889211681 0.029364681222432493 0 -0.013108516274185298 0.028716191881572754 0 -0.011861200832194668 0.028658379961990478 0 -0.013821165953985616 0.029084659409737205 0 -0.012499402889211681 0.029364681222432493 0 -0.013108516274185298 0.028716191881572754 0 -0.013821165953985616 0.029084659409737205 0 -0.013108516274185298 0.028716191881572754 0 -0.014515383170599808 0.028658707868736286 0 -0.015242235779794194 0.028585274221807424 0 -0.014515383170599808 0.028658707868736286 0 -0.014981502952091268 0.02889529763996113 0 -0.013821165953985616 0.029084659409737205 0 -0.014515383170599808 0.028658707868736286 0 -0.014981502952091268 0.02889529763996113 0 -0.015295778000143551 0.028584688373892424 0 -0.016906596763885121 0.03039468051703418 0 -0.013821165953985616 0.029084659409737205 0 -0.014981502952091268 0.02889529763996113 0 -0.013557073856668933 0.029699373110762511 0 -0.015863695413367834 0.028572281935124004 0 -0.014981502952091268 0.02889529763996113 0 -0.013557073856668933 0.029699373110762511 0 -0.015266428988991469 0.028271716480417493 0 -0.015863695413367834 0.028572281935124004 0 -0.014981502952091268 0.02889529763996113 0 -0.016906596763885121 0.03039468051703418 0 -0.010460761669437274 0.028703112320413528 0 -0.02130645709586125 0.028034760901730436 0 -0.018477874871587908 0.030249248745959412 0 -0.020563838168301388 0.03160877903557905 0 -0.0099474878087243753 0.02696546613373025 0 -0.010460761669437274 0.028703112320413528 0 0.0012022210513241221 0.025612417260727625 0 2.4050059978970018e-05 0.026903262582518166 0 0.001249763436474842 0.027322017392149945 0 -0.0066886227011194116 0.030006929547589285 0 -0.010856759076913544 0.031280433129100525 0 -0.011128317183111859 0.029658093715003518 0 -0.00030893487782769657 0.028165566289590105 0 2.4050059978970018e-05 0.026903262582518166 0 0.001249763436474842 0.027322017392149945 0 -0.0022650020637540662 0.028848436899280464 0 -0.010460761669437274 0.028703112320413528 0 -0.010460761669437274 0.028703112320413528 0 -0.010811917207095886 0.029963603410785026 0 -0.012499402889211681 0.029364681222432493 0 -0.011556456715490429 0.029848579724739213 0 -0.011128317183111859 0.029658093715003518 0 -0.012499402889211681 0.029364681222432493 0 -0.011128317183111859 0.029658093715003518 0 -0.011861200832194668 0.028658379961990478 0 -0.011128317183111859 0.029658093715003518 0 -0.0097708233415123424 0.028087594418372826 0 -0.011861200832194668 0.028658379961990478 0 -0.0097708233415123424 0.028087594418372826 0 -0.011971413054453622 0.027714699305135166 0 -0.011861200832194668 0.028658379961990478 0 -0.0066886227011194116 0.030006929547589285 0 -0.0060391953650899633 0.026492663751961409 0 -0.0097708233415123424 0.028087594418372826 0 -0.0066886227011194116 0.030006929547589285 0 -0.011128317183111859 0.029658093715003518 0 -0.0097708233415123424 0.028087594418372826 0 -0.0060391953650899633 0.026492663751961409 0 -0.0097708233415123424 0.028087594418372826 0 -0.010260670084301477 0.026135539375273586 0 -0.0097708233415123424 0.028087594418372826 0 -0.011971413054453622 0.027714699305135166 0 -0.010260670084301477 0.026135539375273586 0 -0.012806171155781015 0.026768470635463896 0 -0.011971413054453622 0.027714699305135166 0 -0.010260670084301477 0.026135539375273586 0 -0.012806171155781015 0.026768470635463896 0 -0.012696901581309964 0.025537974573543117 0 -0.010260670084301477 0.026135539375273586 0 -0.012806171155781015 0.026768470635463896 0 -0.011971413054453622 0.027714699305135166 0 -0.013650044876228833 0.027829698981472244 0 -0.013108516274185298 0.028716191881572754 0 -0.011971413054453622 0.027714699305135166 0 -0.011861200832194668 0.028658379961990478 0 -0.013108516274185298 0.028716191881572754 0 -0.011971413054453622 0.027714699305135166 0 -0.013650044876228833 0.027829698981472244 0 -0.013108516274185298 0.028716191881572754 0 -0.014515383170599808 0.028658707868736286 0 -0.013650044876228833 0.027829698981472244 0 -0.014947892602207198 0.027858009627254373 0 -0.014515383170599808 0.028658707868736286 0 -0.013650044876228833 0.027829698981472244 0 -0.014947892602207198 0.027858009627254373 0 -0.013650044876228833 0.027829698981472244 0 -0.014102973006661516 0.026839133833875581 0 -0.012806171155781015 0.026768470635463896 0 -0.013650044876228833 0.027829698981472244 0 -0.014102973006661516 0.026839133833875581 0 -0.012806171155781015 0.026768470635463896 0 -0.014102973006661516 0.026839133833875581 0 -0.012696901581309964 0.025537974573543117 0 -0.014102973006661516 0.026839133833875581 0 -0.012696901581309964 0.025537974573543117 0 -0.014616311048494137 0.025511757211705573 0 -0.013324075996925663 0.024644807686182817 0 -0.012696901581309964 0.025537974573543117 0 -0.014616311048494137 0.025511757211705573 0 -0.013324075996925663 0.024644807686182817 0 -0.013892383511052687 0.023620007317101475 0 -0.014616311048494137 0.025511757211705573 0 -0.01170284444720977 0.024327252258548305 0 -0.011676307705770803 0.022904738049642877 0 -0.014292615256234148 0.023532740137483802 0 -0.013324075996925663 0.024644807686182817 0 -0.013892383511052687 0.023620007317101475 0 -0.011941224010404681 0.023802666710143732 0 -0.013892383511052687 0.023620007317101475 0 -0.011941224010404681 0.023802666710143732 0 -0.010662174524118599 0.022049545044257449 0 -0.011941224010404681 0.023802666710143732 0 -0.010418080291049471 0.024394586892630181 0 -0.010662174524118599 0.022049545044257449 0 -0.012800444203678433 0.023953725668777473 0 -0.0095779667529115493 0.022551620755236246 0 -0.013324075996925663 0.024644807686182817 0 -0.011941224010404681 0.023802666710143732 0 -0.012696901581309964 0.025537974573543117 0 -0.011941224010404681 0.023802666710143732 0 -0.012696901581309964 0.025537974573543117 0 -0.010418080291049471 0.024394586892630181 0 -0.012696901581309964 0.025537974573543117 0 -0.010260670084301477 0.026135539375273586 0 -0.010418080291049471 0.024394586892630181 0 -0.010260670084301477 0.026135539375273586 0 -0.0078904464570000044 0.023906127075708942 0 -0.010418080291049471 0.024394586892630181 0 -0.0060391953650899633 0.026492663751961409 0 -0.010260670084301477 0.026135539375273586 0 -0.0078904464570000044 0.023906127075708942 0 -0.0078904464570000044 0.023906127075708942 0 -0.010418080291049471 0.024394586892630181 0 -0.010662174524118599 0.022049545044257449 0 -0.008489169140150488 0.023001215308471622 0 -0.0058381126542654442 0.021798496895106101 0 -0.0082196565835681423 0.020970599674347109 0 -0.0095779667529115493 0.022551620755236246 0 -0.006343323313335183 0.021379045594054107 0 -0.0078904464570000044 0.023906127075708942 0 -0.010662174524118599 0.022049545044257449 0 -0.006847152977328996 0.020940436320813667 0 -0.0058381126542654442 0.021798496895106101 0 -0.0050336423562011333 0.020087538739315965 0 -0.0065568164184705222 0.019742784604240324 0 -0.0058381126542654442 0.021798496895106101 0 -0.0082196565835681423 0.020970599674347109 0 -0.0065568164184705222 0.019742784604240324 0 -0.0082196565835681423 0.020970599674347109 0 -0.010005794633558282 0.022205263497860811 0 -0.0099174600510068423 0.020215826482071823 0 -0.011132070646577865 0.021198100376781017 0 -0.010005794633558282 0.022205263497860811 0 -0.0099174600510068423 0.020215826482071823 0 -0.011132070646577865 0.021198100376781017 0 -0.011433665876175041 0.019690857064965189 0 -0.012637804536050103 0.021457067123244369 0 -0.011132070646577865 0.021198100376781017 0 -0.011433665876175041 0.019690857064965189 0 -0.0099174600510068423 0.020215826482071823 0 -0.01170284444720977 0.024327252258548305 0 -0.011676307705770803 0.022904738049642877 0 -0.010005794633558282 0.022205263497860811 0 -0.011132070646577865 0.021198100376781017 0 -0.011676307705770803 0.022904738049642877 0 -0.012637804536050103 0.021457067123244369 0 -0.011132070646577865 0.021198100376781017 0 -0.011676307705770803 0.022904738049642877 0 -0.010005794633558282 0.022205263497860811 0 -0.008489169140150488 0.023001215308471622 0 -0.0082196565835681423 0.020970599674347109 0 -0.010005794633558282 0.022205263497860811 0 -0.01170284444720977 0.024327252258548305 0 -0.008489169140150488 0.023001215308471622 0 -0.010005794633558282 0.022205263497860811 0 0.0034834561401123165 0.025982155933115605 0 -0.00021804557385568133 0.025174049268388433 0 0.001929711474720113 0.023434327180214917 0 0.0034834561401123165 0.025982155933115605 0 -1.1999535676590303e-05 0.027800693321369408 0 -0.00021804557385568133 0.025174049268388433 0 -1.1999535676590303e-05 0.027800693321369408 0 -0.00021804557385568133 0.025174049268388433 0 -0.0022166598390347438 0.026507315411397756 0 -0.00021804557385568133 0.025174049268388433 0 -0.0034718762962092317 0.024421697019506368 0 -0.00099103719741924301 0.022823568708419468 0 -0.00021804557385568133 0.025174049268388433 0 -0.00099103719741924301 0.022823568708419468 0 0.001929711474720113 0.023434327180214917 0 -0.00021804557385568133 0.025174049268388433 0 -0.0034718762962092317 0.024421697019506368 0 -0.0022166598390347438 0.026507315411397756 0 -0.0060391953650899633 0.026492663751961409 0 -0.0034718762962092317 0.024421697019506368 0 -0.0022166598390347438 0.026507315411397756 0 -0.0060391953650899633 0.026492663751961409 0 -0.0078904464570000044 0.023906127075708942 0 -0.0034718762962092317 0.024421697019506368 0 -0.0078904464570000044 0.023906127075708942 0 -0.0034718762962092317 0.024421697019506368 0 -0.0040945715896000649 0.022141307586345717 0 -0.0078904464570000044 0.023906127075708942 0 -0.006847152977328996 0.020940436320813667 0 -0.0040945715896000649 0.022141307586345717 0 -0.006847152977328996 0.020940436320813667 0 -0.0040945715896000649 0.022141307586345717 0 -0.003142965603956765 0.02032063553591866 0 -0.0058381126542654442 0.021798496895106101 0 -0.0050336423562011333 0.020087538739315965 0 -0.003142965603956765 0.02032063553591866 0 -0.006343323313335183 0.021379045594054107 0 -0.0033664816885526018 0.020370793963757634 0 -0.0040945715896000649 0.022141307586345717 0 -0.003142965603956765 0.02032063553591866 0 -0.0016245920105000479 0.020988186745734827 0 -0.003142965603956765 0.02032063553591866 0 -0.0016245920105000479 0.020988186745734827 0 -0.0018293284660578035 0.01916960120315905 0 -0.0040945715896000649 0.022141307586345717 0 -0.00099103719741924301 0.022823568708419468 0 -0.0016245920105000479 0.020988186745734827 0 -0.0034718762962092317 0.024421697019506368 0 -0.0040945715896000649 0.022141307586345717 0 -0.00099103719741924301 0.022823568708419468 0 -0.0016245920105000479 0.020988186745734827 0 0.0017322250004235531 0.020622210800199742 0 -0.0018293284660578035 0.01916960120315905 0 -0.00099103719741924301 0.022823568708419468 0 -0.0016245920105000479 0.020988186745734827 0 0.0017322250004235531 0.020622210800199742 0 0.0022292176313458063 0.021635152403136456 0 -0.0011253994777881942 0.020347307687655605 0 -0.00099103719741924301 0.022823568708419468 0 0.0017322250004235531 0.020622210800199742 0 0.001929711474720113 0.023434327180214917 0 0.0040815795912538142 0.02083429431268654 0 0.002766816219025115 0.022575476681107008 0 0.0017105877652428274 0.020646751776318098 0 0.0040815795912538142 0.02083429431268654 0 0.0024075459556421011 0.019036110002040963 0 0.0017105877652428274 0.020646751776318098 0 0.002766816219025115 0.022575476681107008 0 0.0017105877652428274 0.020646751776318098 0 -0.00046470368392705368 0.021505621108278396 0 0.0017105877652428274 0.020646751776318098 0 -0.00046470368392705368 0.021505621108278396 0 -0.00038511204205960413 0.018900465289929256 0 0.0024075459556421011 0.019036110002040963 0 -0.00038511204205960413 0.018900465289929256 0 0.0015216287381823481 0.017075296186851895 0 0.0024075459556421011 0.019036110002040963 0 0.0017105877652428274 0.020646751776318098 0 -0.00038511204205960413 0.018900465289929256 0 -0.00038511204205960413 0.018900465289929256 0 -0.00374467579909946 0.019966177104258548 0 -0.0034829983582393672 0.017223660914755353 0 -0.00046470368392705368 0.021505621108278396 0 -0.00038511204205960413 0.018900465289929256 0 -0.00374467579909946 0.019966177104258548 0 -0.0011253994777881942 0.020347307687655605 0 -0.0041584080465154258 0.019254892585720485 0 -0.003142965603956765 0.02032063553591866 0 -0.0018293284660578035 0.01916960120315905 0 -0.0046079565535548763 0.018577253966565073 0 -0.0050336423562011333 0.020087538739315965 0 -0.003142965603956765 0.02032063553591866 0 -0.0046079565535548763 0.018577253966565073 0 -0.0050336423562011333 0.020087538739315965 0 -0.0046079565535548763 0.018577253966565073 0 -0.0065568164184705222 0.019742784604240324 0 -0.00374467579909946 0.019966177104258548 0 -0.0034829983582393672 0.017223660914755353 0 -0.0068744113916740608 0.018065288221086457 0 -0.0034829983582393672 0.017223660914755353 0 -0.0041667413921610361 0.014880549014548225 0 -0.0061366153840543116 0.01593837812733799 0 -0.0026636662870864044 0.01335999070975839 0 -0.0041667413921610361 0.014880549014548225 0 -0.0025080647249364754 0.015553814855201511 0 -0.0034829983582393672 0.017223660914755353 0 -0.0041667413921610361 0.014880549014548225 0 -0.0025080647249364754 0.015553814855201511 0 -0.0013090359521505752 0.014467510642894197 0 -0.0025080647249364754 0.015553814855201511 0 -0.00082146470574561499 0.016498583523878365 0 -0.0026636662870864044 0.01335999070975839 0 -0.0013090359521505752 0.014467510642894197 0 -0.0025080647249364754 0.015553814855201511 0 -0.00038511204205960413 0.018900465289929256 0 -0.0034829983582393672 0.017223660914755353 0 -0.00082146470574561499 0.016498583523878365 0 -0.0034829983582393672 0.017223660914755353 0 -0.0025080647249364754 0.015553814855201511 0 -0.00082146470574561499 0.016498583523878365 0 -0.00038511204205960413 0.018900465289929256 0 -0.00082146470574561499 0.016498583523878365 0 0.0015216287381823481 0.017075296186851895 0 -0.00082146470574561499 0.016498583523878365 0 0.00031289203124054579 0.015247188442825459 0 0.0015216287381823481 0.017075296186851895 0 -0.00023413322936377396 0.013069627431093777 0 0.00031289203124054579 0.015247188442825459 0 0.0026167031351452311 0.015241578015618923 0 -0.00023413322936377396 0.013069627431093777 0 -0.0013090359521505752 0.014467510642894197 0 0.00031289203124054579 0.015247188442825459 0 -0.0013090359521505752 0.014467510642894197 0 -0.00082146470574561499 0.016498583523878365 0 0.00031289203124054579 0.015247188442825459 0 0.00031289203124054579 0.015247188442825459 0 0.0026167031351452311 0.015241578015618923 0 0.0015216287381823481 0.017075296186851895 0 0.0053622509211054123 0.017784801805282836 0 0.0026167031351452311 0.015241578015618923 0 0.0015216287381823481 0.017075296186851895 0 0.0053622509211054123 0.017784801805282836 0 0.0024075459556421011 0.019036110002040963 0 0.0015216287381823481 0.017075296186851895 0 -0.010161731677852184 0.018130087074188492 0 -0.008573747761883143 0.019102469190291602 0 -0.0084148710931526323 0.016890611456395841 0 -0.010161731677852184 0.018130087074188492 0 -0.01108000976161443 0.016963005257398894 0 -0.011874137211234719 0.017945969015706706 0 -0.010161731677852184 0.018130087074188492 0 -0.011433665876175041 0.019690857064965189 0 -0.011874137211234719 0.017945969015706706 0 -0.010161731677852184 0.018130087074188492 0 -0.011433665876175041 0.019690857064965189 0 -0.0099174600510068423 0.020215826482071823 0 -0.0082196565835681423 0.020970599674347109 0 -0.008573747761883143 0.019102469190291602 0 -0.0099174600510068423 0.020215826482071823 0 -0.010161731677852184 0.018130087074188492 0 -0.008573747761883143 0.019102469190291602 0 -0.0099174600510068423 0.020215826482071823 0 -0.008573747761883143 0.019102469190291602 0 -0.0065568164184705222 0.019742784604240324 0 -0.0068744113916740608 0.018065288221086457 0 -0.0082196565835681423 0.020970599674347109 0 -0.008573747761883143 0.019102469190291602 0 -0.0065568164184705222 0.019742784604240324 0 -0.0046079565535548763 0.018577253966565073 0 -0.0065568164184705222 0.019742784604240324 0 -0.0068744113916740608 0.018065288221086457 0 -0.0041584080465154258 0.019254892585720485 0 -0.0066892991860111528 0.018148612168694466 0 -0.008573747761883143 0.019102469190291602 0 -0.0068744113916740608 0.018065288221086457 0 -0.0084148710931526323 0.016890611456395841 0 -0.0084148710931526323 0.016890611456395841 0 -0.0061366153840543116 0.01593837812733799 0 -0.0077397869173281364 0.015067415345323302 0 -0.0068744113916740608 0.018065288221086457 0 -0.0084148710931526323 0.016890611456395841 0 -0.0061366153840543116 0.01593837812733799 0 -0.0034829983582393672 0.017223660914755353 0 -0.0068744113916740608 0.018065288221086457 0 -0.0061366153840543116 0.01593837812733799 0 -0.0060489319338760351 0.01350692948969073 0 -0.0041667413921610361 0.014880549014548225 0 -0.0061366153840543116 0.01593837812733799 0 -0.0060489319338760351 0.01350692948969073 0 -0.0061366153840543116 0.01593837812733799 0 -0.0077397869173281364 0.015067415345323302 0 -0.0084148710931526323 0.016890611456395841 0 -0.0077397869173281364 0.015067415345323302 0 -0.0092222496806396471 0.014863026365446244 0 -0.0077377794553017843 0.013508359777285242 0 -0.0077397869173281364 0.015067415345323302 0 -0.0092222496806396471 0.014863026365446244 0 -0.0092222496806396471 0.014863026365446244 0 -0.0099371595365866719 0.016607051959033135 0 -0.010716378503898597 0.015804058969448635 0 -0.010161731677852184 0.018130087074188492 0 -0.0084148710931526323 0.016890611456395841 0 -0.0099371595365866719 0.016607051959033135 0 -0.0084148710931526323 0.016890611456395841 0 -0.0092222496806396471 0.014863026365446244 0 -0.0099371595365866719 0.016607051959033135 0 -0.010161731677852184 0.018130087074188492 0 -0.0099371595365866719 0.016607051959033135 0 -0.01108000976161443 0.016963005257398894 0 -0.01108000976161443 0.016963005257398894 0 -0.010716378503898597 0.015804058969448635 0 -0.012286504843977284 0.016292650082906691 0 -0.0099371595365866719 0.016607051959033135 0 -0.01108000976161443 0.016963005257398894 0 -0.010716378503898597 0.015804058969448635 0 -0.011878095267658931 0.01653517546757443 0 -0.012492149695872909 0.017313739386956177 0 -0.010780908241568368 0.014174277036898207 0 -0.010716378503898597 0.015804058969448635 0 -0.012286504843977284 0.016292650082906691 0 -0.010780908241568368 0.014174277036898207 0 -0.0092222496806396471 0.014863026365446244 0 -0.010716378503898597 0.015804058969448635 0 -0.012964750004462412 0.018785155597076296 0 -0.012644856548713041 0.018753207655348294 0 -0.01278804379687969 0.018407336633409963 0 -0.012644856548713041 0.018753207655348294 0 -0.012573121845189029 0.018554269203656323 0 -0.01278804379687969 0.018407336633409963 0 -0.012573121845189029 0.018554269203656323 0 -0.012732992201642049 0.018255447405167376 0 -0.01278804379687969 0.018407336633409963 0 -0.012492149695872909 0.017313739386956177 0 -0.012801757110999068 0.017858201854338337 0 -0.012286504843977284 0.016292650082906691 0 -0.012755116109261479 0.017909304386890791 0 -0.012832694981801061 0.017946996357047024 0 -0.012732992201642049 0.018255447405167376 0 -0.01278804379687969 0.018407336633409963 0 -0.012832694981801061 0.017946996357047024 0 -0.012573121845189029 0.018554269203656323 0 -0.012732992201642049 0.018255447405167376 0 -0.012818580017680419 0.017973613417885337 0 -0.018281315535404376 0.020813629373096599 0 -0.017919578747417491 0.020301891639504487 0 -0.012732992201642049 0.018255447405167376 0 -0.012832694981801061 0.017946996357047024 0 -0.012818580017680419 0.017973613417885337 0 -0.012286504843977284 0.016292650082906691 0 -0.011874137211234719 0.017945969015706706 0 -0.012755116109261479 0.017909304386890791 0 -0.01108000976161443 0.016963005257398894 0 -0.012286504843977284 0.016292650082906691 0 -0.011874137211234719 0.017945969015706706 0 -0.011874137211234719 0.017945969015706706 0 -0.013562497618743037 0.017838603456136398 0 -0.012859078977471414 0.019166789747353002 0 -0.012248204552180517 0.017927679617575978 0 -0.012489975440591314 0.017977647233873708 0 -0.012755116109261479 0.017909304386890791 0 -0.012832694981801061 0.017946996357047024 0 -0.012818580017680419 0.017973613417885337 0 -0.013562497618743037 0.017838603456136398 0 -0.014205683966882831 0.018704752803067253 0 -0.01518481334017001 0.01777160008035732 0 -0.012489975440591314 0.017977647233873708 0 -0.017919578747417491 0.020301891639504487 0 -0.013562497618743037 0.017838603456136398 0 -0.014205683966882831 0.018704752803067253 0 -0.012859078977471414 0.019166789747353002 0 -0.014205683966882831 0.018704752803067253 0 -0.013971045010381589 0.020080001953718219 0 -0.012859078977471414 0.019166789747353002 0 -0.015075105210885627 0.019175625054414988 0 -0.018699391322650426 0.019548386433691826 0 -0.014205683966882831 0.018704752803067253 0 -0.013971045010381589 0.020080001953718219 0 -0.01545602982804966 0.018649987027716506 0 -0.011433665876175041 0.019690857064965189 0 -0.012859078977471414 0.019166789747353002 0 -0.012637804536050103 0.021457067123244369 0 -0.011433665876175041 0.019690857064965189 0 -0.011874137211234719 0.017945969015706706 0 -0.012859078977471414 0.019166789747353002 0 -0.013971045010381589 0.020080001953718219 0 -0.012859078977471414 0.019166789747353002 0 -0.012637804536050103 0.021457067123244369 0 -0.022617012762816482 0.022004822921348702 0 -0.021777959931155833 0.021671943338702711 0 -0.02144064253623593 0.022672306092907192 0 -0.016305023961766297 0.018574057107176984 0 -0.018536500537442956 0.016377807688668141 0 -0.019527157364415928 0.019436595488762459 0 -0.018699391322650426 0.019548386433691826 0 -0.020516161731243064 0.021025799801589987 0 -0.021777959931155833 0.021671943338702711 0 -0.021059539580969781 0.021454250826852775 0 -0.02144064253623593 0.022672306092907192 0 -0.021777959931155833 0.021671943338702711 0 -0.021059539580969781 0.021454250826852775 0 -0.021660328536535562 0.020774859234275887 0 -0.018699391322650426 0.019548386433691826 0 -0.02272390429512245 0.021373453658585791 0 -0.018699391322650426 0.019548386433691826 0 -0.017919578747417491 0.020301891639504487 0 -0.014205683966882831 0.018704752803067253 0 -0.01545602982804966 0.018649987027716506 0 -0.01518481334017001 0.01777160008035732 0 -0.017919578747417491 0.020301891639504487 0 -0.02272390429512245 0.021373453658585791 0 -0.019602534569712334 0.021270757645116028 0 -0.019277626670653067 0.020233754934706895 0 -0.020718222525333705 0.020168584213465499 0 -0.02325742781839242 0.023509876565234362 0 -0.023644812296061066 0.023505639193662765 0 -0.023653741998237117 0.023198442621957537 0 -0.02272390429512245 0.021373453658585791 0 -0.025034229775011192 0.021316645890532174 0 -0.022617012762816482 0.022004822921348702 0 -0.021777959931155833 0.021671943338702711 0 -0.021660328536535562 0.020774859234275887 0 -0.022617012762816482 0.022004822921348702 0 -0.021660328536535562 0.020774859234275887 0 -0.023834373743652139 0.020754812150500779 0 -0.024650737218487505 0.021894422828980357 0 -0.025263323810378598 0.021297587411076149 0 -0.026013502805040539 0.021796232023390046 0 -0.02272390429512245 0.021373453658585791 0 -0.024641508268850365 0.022232175775567204 0 -0.023644812296061066 0.023505639193662765 0 -0.024023845613456104 0.023183046719926128 0 -0.023653741998237117 0.023198442621957537 0 -0.024023845613456104 0.023183046719926128 0 -0.023653741998237117 0.023198442621957537 0 -0.023863028220498527 0.022953568326549906 0 -0.023653741998237117 0.023198442621957537 0 -0.023863028220498527 0.022953568326549906 0 -0.023501841323904319 0.02284574860524043 0 -0.024023845613456104 0.023183046719926128 0 -0.023863028220498527 0.022953568326549906 0 -0.024156128763852272 0.02288034556412933 0 -0.02325742781839242 0.023509876565234362 0 -0.023653741998237117 0.023198442621957537 0 -0.023501841323904319 0.02284574860524043 0 -0.023010652527115882 0.022672125501221167 0 -0.02325742781839242 0.023509876565234362 0 -0.023501841323904319 0.02284574860524043 0 -0.023373657855628324 0.022230140601898964 0 -0.023501841323904319 0.02284574860524043 0 -0.023986902098363697 0.022659612012886628 0 -0.023373657855628324 0.022230140601898964 0 -0.023010652527115882 0.022672125501221167 0 -0.023501841323904319 0.02284574860524043 0 -0.023863028220498527 0.022953568326549906 0 -0.024156128763852272 0.02288034556412933 0 -0.023986902098363697 0.022659612012886628 0 -0.023863028220498527 0.022953568326549906 0 -0.023501841323904319 0.02284574860524043 0 -0.023986902098363697 0.022659612012886628 0 -0.023986902098363697 0.022659612012886628 0 -0.024417919976342177 0.022851898739232449 0 -0.024593272284220549 0.022690707306344211 0 -0.024076389308919456 0.022187007857505069 0 -0.023986902098363697 0.022659612012886628 0 -0.024593272284220549 0.022690707306344211 0 -0.024156128763852272 0.02288034556412933 0 -0.023986902098363697 0.022659612012886628 0 -0.024417919976342177 0.022851898739232449 0 -0.024422512943545235 0.023053727780232829 0 -0.026326430822028409 0.02293554311799733 0 -0.02583649744981369 0.02074555899937805 0 -0.026147546722980183 0.020854434278865915 0 -0.026254746845152475 0.020666056762640959 0 -0.026326430822028409 0.02293554311799733 0 -0.030419720637378141 0.022504679857112776 0 -0.028224669556965065 0.023030362364413286 0 -0.029432271129600347 0.021822943123942548 0 -0.030260534390399503 0.022732902078912789 0 -0.026147546722980183 0.020854434278865915 0 -0.026254746845152475 0.020666056762640959 0 -0.026257924585669397 0.020894596723763186 0 -0.026326430822028409 0.02293554311799733 0 -0.030956280295824666 0.02281194765120096 0 -0.030956280295824666 0.02281194765120096 0 -0.030419720637378141 0.022504679857112776 0 -0.026254746845152475 0.020666056762640959 0 -0.026763405384790388 0.021216313869969281 0 -0.027641784352579232 0.020488287420207387 0 -0.034869656751080919 0.02341766155179496 0 -0.030956280295824666 0.02281194765120096 0 -0.03474437154687815 0.023369071534230422 0 -0.035025766334142443 0.023015628326093409 0 -0.034936115573251623 0.022910623495018802 0 -0.03474437154687815 0.023369071534230422 0 -0.034936115573251623 0.022910623495018802 0 -0.034369639216396408 0.022960662923946749 0 -0.030419720637378141 0.022504679857112776 0 -0.031056314254901109 0.021685378877217991 0 -0.026254746845152475 0.020666056762640959 0 -0.026380990209162951 0.021052891886478645 0 -0.026257924585669397 0.020894596723763186 0 -0.026380990209162951 0.021052891886478645 0 -0.026257924585669397 0.020894596723763186 0 -0.026115752497109245 0.021253991199024075 0 -0.026380990209162951 0.021052891886478645 0 -0.026763405384790388 0.021216313869969281 0 -0.026115752497109245 0.021253991199024075 0 -0.026763405384790388 0.021216313869969281 0 -0.026115752497109245 0.021253991199024075 0 -0.026013502805040539 0.021796232023390046 0 -0.026254746845152475 0.020666056762640959 0 -0.026380990209162951 0.021052891886478645 0 -0.026763405384790388 0.021216313869969281 0 -0.026763405384790388 0.021216313869969281 0 -0.027104351514956441 0.02160895919392648 0 -0.026013502805040539 0.021796232023390046 0 -0.025263323810378598 0.021297587411076149 0 -0.02583649744981369 0.02074555899937805 0 -0.026115752497109245 0.021253991199024075 0 -0.025263323810378598 0.021297587411076149 0 -0.026115752497109245 0.021253991199024075 0 -0.026013502805040539 0.021796232023390046 0 -0.024023845613456104 0.023183046719926128 0 -0.024156128763852272 0.02288034556412933 0 -0.024409059746575069 0.022849791308355093 0 -0.024641508268850365 0.022232175775567204 0 -0.026326430822028409 0.02293554311799733 0 -0.02583649744981369 0.02074555899937805 0 -0.026147546722980183 0.020854434278865915 0 -0.026115752497109245 0.021253991199024075 0 -0.026147546722980183 0.020854434278865915 0 -0.026257924585669397 0.020894596723763186 0 -0.026115752497109245 0.021253991199024075 0 -0.031697872300534724 0.021886065369265364 0 -0.031056314254901109 0.021685378877217991 0 -0.03034113368475088 0.021844153399874913 0 -0.029775217108894071 0.020736708264524537 0 -0.02846342333199459 0.021442104932386106 0 -0.029775217108894071 0.020736708264524537 0 -0.027641784352579232 0.020488287420207387 0 -0.02846342333199459 0.021442104932386106 0 -0.034135428166703299 0.023391881623934803 0 -0.033806916232710857 0.022849618624088658 0 -0.034369639216396408 0.022960662923946749 0 -0.026763405384790388 0.021216313869969281 0 -0.027641784352579232 0.020488287420207387 0 -0.02846342333199459 0.021442104932386106 0 -0.026763405384790388 0.021216313869969281 0 -0.02846342333199459 0.021442104932386106 0 -0.027104351514956441 0.02160895919392648 0 -0.03034113368475088 0.021844153399874913 0 -0.02846342333199459 0.021442104932386106 0 -0.029508328703763808 0.022478242411718342 0 -0.02846342333199459 0.021442104932386106 0 -0.029508328703763808 0.022478242411718342 0 -0.027104351514956441 0.02160895919392648 0 -0.029508328703763808 0.022478242411718342 0 -0.027104351514956441 0.02160895919392648 0 -0.027283368076904749 0.022932511864543269 0 -0.033750488062330657 0.020927554956884042 0 -0.031893086855293039 0.021261536915242778 0 -0.027104351514956441 0.02160895919392648 0 -0.027283368076904749 0.022932511864543269 0 -0.025310584747781705 0.022208757366933889 0 -0.037646940334216027 0.019748949942703747 0 -0.037895042291174803 0.019370524915635741 0 -0.036645094757196767 0.019499189149349179 0 -0.027104351514956441 0.02160895919392648 0 -0.023834373743652139 0.020754812150500779 0 -0.025310584747781705 0.022208757366933889 0 -0.02685909083321503 0.021529005764443419 0 -0.025034229775011192 0.021316645890532174 0 -0.027283368076904749 0.022932511864543269 0 -0.025310584747781705 0.022208757366933889 0 -0.024794573980832395 0.023587071348565893 0 -0.025310584747781705 0.022208757366933889 0 -0.0237512187008075 0.022677768961434031 0 -0.024794573980832395 0.023587071348565893 0 -0.022617012762816482 0.022004822921348702 0 -0.0237512187008075 0.022677768961434031 0 -0.02188443523090303 0.0229077771169683 0 -0.023834373743652139 0.020754812150500779 0 -0.025310584747781705 0.022208757366933889 0 -0.0237512187008075 0.022677768961434031 0 -0.022617012762816482 0.022004822921348702 0 -0.023834373743652139 0.020754812150500779 0 -0.0237512187008075 0.022677768961434031 0 -0.0237512187008075 0.022677768961434031 0 -0.02295715892656847 0.023337464470334173 0 -0.02188443523090303 0.0229077771169683 0 -0.0237512187008075 0.022677768961434031 0 -0.02295715892656847 0.023337464470334173 0 -0.024794573980832395 0.023587071348565893 0 -0.035155715471398237 0.0211103091116275 0 -0.036054991632169214 0.020935003325431252 0 -0.035445394942923501 0.021934628735447548 0 -0.035301888119714825 0.020235244032743648 0 -0.035155715471398237 0.0211103091116275 0 -0.036054991632169214 0.020935003325431252 0 -0.035301888119714825 0.020235244032743648 0 -0.035155715471398237 0.0211103091116275 0 -0.034125125168788933 0.021242094924145211 0 -0.02295715892656847 0.023337464470334173 0 -0.024794573980832395 0.023587071348565893 0 -0.02259014758969901 0.02410859940806169 0 -0.030587420800106208 0.021712958392422474 0 -0.025554635688078014 0.022787637947588774 0 -0.021783595233514849 0.02351668986931903 0 -0.021640638983051318 0.023587282967403832 0 -0.021763883335026556 0.02346800387405663 0 -0.025554635688078014 0.022787637947588774 0 -0.022631935418386488 0.022480257162533983 0 -0.02295715892656847 0.023337464470334173 0 -0.02188443523090303 0.0229077771169683 0 -0.021763883335026556 0.02346800387405663 0 -0.02295715892656847 0.023337464470334173 0 -0.02259014758969901 0.02410859940806169 0 -0.021763883335026556 0.02346800387405663 0 -0.037646940334216027 0.019748949942703747 0 -0.036575465948967621 0.020211288667259832 0 -0.037033566666017523 0.020679568760569249 0 -0.037646940334216027 0.019748949942703747 0 -0.036645094757196767 0.019499189149349179 0 -0.036575465948967621 0.020211288667259832 0 -0.031893086855293039 0.021261536915242778 0 -0.030587420800106208 0.021712958392422474 0 -0.036645094757196767 0.019499189149349179 0 -0.035301888119714825 0.020235244032743648 0 -0.036575465948967621 0.020211288667259832 0 -0.035301888119714825 0.020235244032743648 0 -0.036575465948967621 0.020211288667259832 0 -0.036054991632169214 0.020935003325431252 0 -0.036054991632169214 0.020935003325431252 0 -0.037033566666017523 0.020679568760569249 0 -0.036412266219157316 0.0216538272962058 0 -0.037344546937753013 0.021323586546761197 0 -0.037033566666017523 0.020679568760569249 0 -0.036412266219157316 0.0216538272962058 0 -0.036575465948967621 0.020211288667259832 0 -0.036054991632169214 0.020935003325431252 0 -0.037033566666017523 0.020679568760569249 0 -0.036412266219157316 0.0216538272962058 0 -0.036922340716730756 0.022012042869918935 0 -0.036491682525962355 0.022591895950534076 0 -0.037344546937753013 0.021323586546761197 0 -0.036412266219157316 0.0216538272962058 0 -0.036922340716730756 0.022012042869918935 0 -0.036412266219157316 0.0216538272962058 0 -0.036491682525962355 0.022591895950534076 0 -0.035445394942923501 0.021934628735447548 0 -0.036054991632169214 0.020935003325431252 0 -0.036412266219157316 0.0216538272962058 0 -0.035445394942923501 0.021934628735447548 0 -0.026029980676587731 0.024491646173146371 0 -0.028633866406741492 0.023976452725713106 0 -0.024782709508135513 0.023599188041750433 0 -0.032557581744789309 0.023305769022675511 0 -0.030683929326006679 0.02277572522334188 0 -0.025432040294354977 0.025414152248650967 0 -0.026148659131182146 0.025586515214934637 0 -0.026029980676587731 0.024491646173146371 0 -0.028327072289196183 0.025184032068922089 0 -0.026125438561514554 0.024390228899990565 0 -0.037260652293850081 0.022599661099976718 0 -0.036922340716730756 0.022012042869918935 0 -0.036491682525962355 0.022591895950534076 0 -0.030032509392923998 0.024927812379526518 0 -0.026029980676587731 0.024491646173146371 0 -0.028633866406741492 0.023976452725713106 0 -0.023425075056521857 0.0238962556805563 0 -0.022538001522250377 0.023895651554389739 0 -0.023112718727199118 0.02454403839558536 0 -0.021965843736938166 0.024396880419998553 0 -0.022538001522250377 0.023895651554389739 0 -0.023112718727199118 0.02454403839558536 0 -0.021965843736938166 0.024396880419998553 0 -0.022538001522250377 0.023895651554389739 0 -0.021640638983051318 0.023587282967403832 0 -0.022406852018591383 0.02284011787197807 0 -0.022538001522250377 0.023895651554389739 0 -0.021640638983051318 0.023587282967403832 0 -0.025554635688078014 0.022787637947588774 0 -0.022614208927927835 0.024214585920121517 0 -0.022406852018591383 0.02284011787197807 0 -0.023425075056521857 0.0238962556805563 0 -0.022538001522250377 0.023895651554389739 0 -0.022406852018591383 0.02284011787197807 0 -0.023425075056521857 0.0238962556805563 0 -0.024782709508135513 0.023599188041750433 0 -0.035155715471398237 0.0211103091116275 0 -0.034125125168788933 0.021242094924145211 0 -0.035445394942923501 0.021934628735447548 0 -0.025554635688078014 0.022787637947588774 0 -0.030683929326006679 0.02277572522334188 0 -0.023425075056521857 0.0238962556805563 0 -0.024782709508135513 0.023599188041750433 0 -0.024278436517009172 0.024587294713221578 0 -0.023425075056521857 0.0238962556805563 0 -0.024278436517009172 0.024587294713221578 0 -0.023112718727199118 0.02454403839558536 0 -0.024278436517009172 0.024587294713221578 0 -0.023434688883051457 0.025314932330773022 0 -0.023112718727199118 0.02454403839558536 0 -0.026029980676587731 0.024491646173146371 0 -0.024782709508135513 0.023599188041750433 0 -0.024278436517009172 0.024587294713221578 0 -0.025432040294354977 0.025414152248650967 0 -0.026029980676587731 0.024491646173146371 0 -0.024278436517009172 0.024587294713221578 0 -0.025432040294354977 0.025414152248650967 0 -0.024278436517009172 0.024587294713221578 0 -0.02435775136334235 0.025436354180866774 0 -0.024278436517009172 0.024587294713221578 0 -0.02435775136334235 0.025436354180866774 0 -0.023434688883051457 0.025314932330773022 0 -0.023434688883051457 0.025314932330773022 0 -0.023112718727199118 0.02454403839558536 0 -0.022309740141370101 0.024997939546135297 0 -0.021965843736938166 0.024396880419998553 0 -0.023112718727199118 0.02454403839558536 0 -0.022309740141370101 0.024997939546135297 0 -0.022846189085745996 0.025919077125621796 0 -0.023434688883051457 0.025314932330773022 0 -0.022309740141370101 0.024997939546135297 0 -0.022846189085745996 0.025919077125621796 0 -0.022309740141370101 0.024997939546135297 0 -0.019775489139690589 0.024761299230983913 0 -0.017868344317311803 0.026461488192584121 0 -0.018419072990242567 0.026033114697458896 0 -0.019775489139690589 0.024761299230983913 0 -0.020280689522140596 0.025998432334597033 0 -0.01964940239023855 0.024698900419443667 0 -0.021965843736938166 0.024396880419998553 0 -0.022309740141370101 0.024997939546135297 0 -0.019775489139690589 0.024761299230983913 0 -0.021965843736938166 0.024396880419998553 0 -0.021640638983051318 0.023587282967403832 0 -0.019775489139690589 0.024761299230983913 0 -0.019775489139690589 0.024761299230983913 0 -0.019707783669336124 0.023673181519161084 0 -0.020822291379289513 0.02358777809611072 0 -0.021640638983051318 0.023587282967403832 0 -0.019775489139690589 0.024761299230983913 0 -0.020822291379289513 0.02358777809611072 0 -0.018305357532851979 0.023691733620110251 0 -0.017686063927195985 0.025443481490709217 0 -0.016410837330255588 0.023539786406364553 0 -0.019775489139690589 0.024761299230983913 0 -0.018305357532851979 0.023691733620110251 0 -0.017686063927195985 0.025443481490709217 0 -0.019775489139690589 0.024761299230983913 0 -0.019707783669336124 0.023673181519161084 0 -0.018305357532851979 0.023691733620110251 0 -0.018419072990242567 0.026033114697458896 0 -0.019775489139690589 0.024761299230983913 0 -0.017686063927195985 0.025443481490709217 0 -0.017653190753484489 0.02637662053761379 0 -0.018419072990242567 0.026033114697458896 0 -0.017686063927195985 0.025443481490709217 0 -0.016609296452716246 0.02648635837567298 0 -0.017653190753484489 0.02637662053761379 0 -0.017686063927195985 0.025443481490709217 0 -0.015273579071519492 0.026662219984737178 0 -0.016609296452716246 0.02648635837567298 0 -0.016010551287147758 0.025216206308724586 0 -0.016609296452716246 0.02648635837567298 0 -0.017686063927195985 0.025443481490709217 0 -0.016010551287147758 0.025216206308724586 0 -0.015273579071519492 0.026662219984737178 0 -0.016010551287147758 0.025216206308724586 0 -0.014616311048494137 0.025511757211705573 0 -0.01170284444720977 0.024327252258548305 0 -0.016010551287147758 0.025216206308724586 0 -0.014292615256234148 0.023532740137483802 0 -0.013892383511052687 0.023620007317101475 0 -0.016010551287147758 0.025216206308724586 0 -0.014616311048494137 0.025511757211705573 0 -0.012800444203678433 0.023953725668777473 0 -0.015775403916827569 0.025134216989048584 0 -0.016010551287147758 0.025216206308724586 0 -0.014292615256234148 0.023532740137483802 0 -0.016410837330255588 0.023539786406364553 0 -0.017686063927195985 0.025443481490709217 0 -0.016010551287147758 0.025216206308724586 0 -0.016410837330255588 0.023539786406364553 0 -0.016410837330255588 0.023539786406364553 0 -0.016870941773484676 0.021664518364480686 0 -0.014149215998469741 0.020700729134949664 0 -0.018305357532851979 0.023691733620110251 0 -0.016410837330255588 0.023539786406364553 0 -0.016870941773484676 0.021664518364480686 0 -0.014292615256234148 0.023532740137483802 0 -0.016410837330255588 0.023539786406364553 0 -0.014149215998469741 0.020700729134949664 0 -0.011676307705770803 0.022904738049642877 0 -0.014292615256234148 0.023532740137483802 0 -0.014149215998469741 0.020700729134949664 0 -0.011789531049132501 0.022762401733104072 0 -0.013356134099398868 0.021143687624030016 0 -0.016305023961766297 0.018574057107176984 0 -0.016870941773484676 0.021664518364480686 0 -0.018857147248389418 0.021549771656164906 0 -0.016305023961766297 0.018574057107176984 0 -0.016870941773484676 0.021664518364480686 0 -0.014149215998469741 0.020700729134949664 0 -0.015075105210885627 0.019175625054414988 0 -0.013356134099398868 0.021143687624030016 0 -0.016305023961766297 0.018574057107176984 0 -0.019527157364415928 0.019436595488762459 0 -0.018857147248389418 0.021549771656164906 0 -0.019527157364415928 0.019436595488762459 0 -0.020753751875972403 0.022965453001812117 0 -0.018857147248389418 0.021549771656164906 0 -0.022617012762816482 0.022004822921348702 0 -0.02144064253623593 0.022672306092907192 0 -0.02188443523090303 0.0229077771169683 0 -0.02144064253623593 0.022672306092907192 0 -0.02188443523090303 0.0229077771169683 0 -0.020753751875972403 0.022965453001812117 0 -0.020516161731243064 0.021025799801589987 0 -0.020801476041516644 0.022882254805776867 0 -0.02188443523090303 0.0229077771169683 0 -0.021763883335026556 0.02346800387405663 0 -0.020753751875972403 0.022965453001812117 0 -0.021640638983051318 0.023587282967403832 0 -0.020822291379289513 0.02358777809611072 0 -0.021763883335026556 0.02346800387405663 0 -0.020822291379289513 0.02358777809611072 0 -0.021763883335026556 0.02346800387405663 0 -0.020753751875972403 0.022965453001812117 0 -0.019707783669336124 0.023673181519161084 0 -0.020822291379289513 0.02358777809611072 0 -0.020753751875972403 0.022965453001812117 0 -0.018305357532851979 0.023691733620110251 0 -0.016870941773484676 0.021664518364480686 0 -0.018857147248389418 0.021549771656164906 0 -0.019707783669336124 0.023673181519161084 0 -0.018305357532851979 0.023691733620110251 0 -0.018857147248389418 0.021549771656164906 0 -0.019707783669336124 0.023673181519161084 0 -0.020753751875972403 0.022965453001812117 0 -0.018857147248389418 0.021549771656164906 0 
</DataArray>
</PointData>
<CellData Scalars="region_id,cross_section_updated," Vectors="" Tensors="stress,">
<DataArray type="Float64" Name="region_id" format="ascii">
5 5 5 6 5 6 5 5 5 6 5 6 5 5 6 5 5 5 5 5 5 5 5 5 5 5 5 5 5 5 6 5 5 6 5 5 5 5 5 5 5 5 5 5 5 5 5 6 5 6 5 5 6 5 5 5 5 5 5 5 5 5 5 5 6 6 5 5 5 5 5 5 5 5 5 5 5 5 6 5 5 5 5 5 5 5 6 5 5 5 5 6 5 5 5 5 5 5 5 6 5 5 6 5 5 5 5 6 5 5 5 6 6 5 5 5 5 5 5 5 6 5 5 5 5 6 5 5 5 5 5 5 6 5 5 5 5 6 5 6 5 5 5 5 6 5 5 5 5 5 5 6 6 5 5 5 6 5 6 5 5 5 5 5 5 5 5 5 5 5 5 5 6 5 5 6 5 5 5 5 6 5 6 5 5 6 5 5 5 5 5 6 5 5 6 6 5 6 5 5 5 5 5 5 6 6 5 5 6 5 5 5 5 5 5 5 5 5 5 5 5 5 5 5 5 5 5 5 5 5 5 5 6 5 5 5 6 5 5 5 5 5 5 5 5 5 6 5 5 5 5 5 5 5 5 5 5 5 5 5 5 5 5 6 5 5 5 5 5 5 5 5 5 5 5 5 5 5 5 5 5 5 5 5 6 5 6 5 5 5 5 5 5 5 5 5 5 5 5 5 5 5 5 6 5 5 5 6 5 5 5 5 5 5 5 6 5 5 6 5 5 5 5 5 5 5 6 5 5 6 5 5 5 5 5 6 5 5 5 5 5 5 5 6 5 5 5 5 5 5 5 5 5 6 5 5 5 5 6 5 5 5 6 5 6 5 5 6 5 5 5 5 5 5 5 5 5 5 5 5 5 6 5 5 5 5 6 5 5 5 5 5 5 5 5 5 5 5 5 5 5 5 5 5 5 5 5 5 5 5 5 5 5 6 5 6 5 5 6 5 5 5 5 5 5 6 5 5 5 5 5 5 6 5 5 5 6 5 6 5 5 5 5 5 5 5 5 5 5 5 5 5 5 5 5 5 5 5 5 5 5 5 5 5 6 5 5 5 5 5 5 5 5 6 5 5 5 5 5 5 5 6 5 5 5 5 5 5 5 6 5 5 5 5 5 6 5 5 5 5 6 6 5 5 6 5 5 5 5 5 5 5 5 5 6 5 5 5 5 5 5 5 5 5 5 5 5 5 5 5 6 5 6 5 6 5 6 5 5 5 5 5 6 5 5 5 5 5 5 5 5 5 5 5 5 6 5 5 5 5 5 5 5 6 6 5 5 5 5 5 5 6 5 5 5 6 6 6 5 5 5 5 6 5 6 5 5 6 5 5 5 6 5 5 5 5 5 5 5 5 5 5 5 5 5 5 5 5 5 5 5 6 6 6 5 6 5 5 5 6 5 6 5 5 5 5 5 5 5 6 5 5 5 5 5 5 5 5 6 5 5 5 5 5 5 5 5 5 5 5 5 5 5 6 5 5 5 5 5 5 5 5 5 5 5 5 6 5 5 5 6 5 5 6 6 5 5 5 6 6 5 5 5 5 5 5 6 5 5 6 6 5 5 5 5 6 5 5 5 5 5 5 5 5 5 5 5 5 5 5 5 5 6 5 5 5 5 5 6 5 5 5 5 5 5 6 5 5 5 5 5 5 5 5 5 5 5 5 5 5 5 5 5 6 5 5 5 6 5 5 5 5 5 5 5 5 5 5 5 5 5 5 5 5 5 5 5 5 5 5 5 5 5 5 5 5 5 5 5 5 5 5 5 5 5 5 5 6 5 5 5 5 5 5 6 5 5 5 5 5 5 5 5 5 5 5 5 5 5 5 5 5 5 5 5 6 5 5 5 5 5 6 5 5 5 5 5 5 5 5 5 5 5 5 5 6 5 5 6 6 5 5 5 5 5 5 5 5 5 5 5 5 5 5 5 5 5 5 5 5 5 5 5 5 5 5 5 5 5 5 5 5 5 5 6 5 5 5 6 5 5 5 5 5 5 6 6 5 6 5 6 5 5 5 5 5 5 5 5 6 5 5 5 5 5 5 5 5 5 5 5 5 5 6 5 6 5 5 5 5 5 5 5 5 5 5 5 5 5 6 5 5 5 5 5 5 5 5 5 6 5 5 6 5 5 6 6 5 5 6 5 6 5 5 5 6 6 5 5 5 5 5 6 5 5 5 5 5 6 6 5 5 5 5 5 5 5 6 5 5 6 5 5 6 6 5 5 5 5 5 5 5 5 5 5 5 5 6 5 5 5 5 5 5 5 5 5 5 5 5 5 5 5 5 5 5 5 5 5 5 5 5 5 5 5 5 6 5 5 5 5 5 5 5 5 5 5 5 5 5 5 5 5 5 5 5 5 5 5 6 5 5 6 5 5 5 6 5 5 5 5 5 5 5 5 5 5 5 6 5 5 5 5 5 5 5 5 6 5 5 5 5 5 5 5 5 5 6 6 5 5 5 5 5 5 5 5 5 5 5 5 5 5 5 5 5 5 5 5 5 5 5 5 5 5 5 5 5 5 5 5 5 5 6 5 5 5 5 5 5 5 5 5 5 5 5 5 5 6 5 6 5 5 5 5 5 5 5 5 5 5 5 5 5 5 5 5 5 5 5 5 6 5 5 5 6 5 6 6 5 5 5 5 5 5 5 5 5 5 5 5 5 5 5 5 5 5 5 5 6 5 6 5 5 5 6 5 5 5 5 5 5 5 5 5 6 5 5 6 6 5 6 5 6 5 5 5 5 5 5 6 5 5 5 6 5 5 5 5 5 5 5 6 5 5 5 5 5 6 6 5 5 5 5 5 5 5 5 5 5 5 5 5 5 5 5 5 5 5 5 5 5 6 5 5 5 5 5 6 6 6 5 5 5 5 6 5 5 5 5 5 5 5 5 5 6 5 5 5 5 5 5 5 5 5 5 5 5 5 6 5 5 5 5 5 5 5 5 5 5 5 5 5 6 5 5 5 5 5 5 5 5 5 5 5 5 5 5 5 5 6 5 5 5 5 5 5 5 5 6 5 5 5 5 5 5 5 5 6 5 5 5 6 5 6 5 5 5 5 5 5 5 5 5 5 5 6 5 6 5 5 5 5 6 5 5 5 5 6 5 5 5 5 5 5 5 5 5 5 5 5 5 5 5 5 5 5 5 5 5 5 5 5 5 5 5 5 5 5 6 5 6 5 5 5 5 5 5 6 5 5 5 5 5 5 5 6 5 5 5 5 5 5 5 5 5 5 5 5 5 6 5 5 5 5 5 5 5 5 6 5 5 5 5 6 5 5 6 5 5 5 5 5 5 5 5 5 5 5 5 5 5 5 5 5 5 5 5 5 5 5 5 5 5 5 5 5 5 5 6 5 5 5 5 5 5 5 5 5 5 5 5 5 5 5 5 5 5 5 5 5 5 6 6 5 6 5 6 5 5 5 6 6 5 5 5 5 5 5 5 5 5 5 5 6 5 5 5 5 6 5 5 5 5 5 5 5 5 5 5 5 5 5 5 5 5 5 6 5 5 5 5 5 5 5 5 5 5 6 5 5 5 5 5 6 6 5 5 5 5 5 5 5 5 5 6 5 5 5 5 5 5 5 5 6 5 5 5 5 5 5 5 5 6 5 5 5 5 5 5 5 6 5 5 6 6 5 5 5 5 5 5 6 5 5 5 5 5 5 5 5 5 5 5 5 6 5 5 5 5 6 5 5 6 5 5 5 6 5 6 5 6 5 5 5 6 5 5 5 5 5 5 5 5 5 5 5 5 5 5 6 5 5 5 6 5 6 5 5 5 5 5 5 5 6 5 5 5 6 5 5 5 5 5 5 5 5 5 5 5 5 5 5 5 5 5 5 5 5 5 5 5 5 5 5 5 6 5 5 5 6 6 5 5 5 5 5 5 5 5 6 5 5 5 5 5 5 5 5 5 5 6 5 5 5 6 5 5 5 5 5 5 5 5 5 5 5 5 5 5 5 5 5 5 5 5 5 5 5 5 5 5 5 6 5 5 5 5 5 5 5 5 6 5 5 5 5 5 5 5 6 5 5 5 5 5 5 5 5 5 5 5 6 5 6 5 5 6 5 6 6 5 5 5 5 5 5 5 5 5 6 5 5 5 6 5 5 6 5 5 5 5 5 5 6 5 5 5 5 6 5 6 5 5 6 6 6 6 5 5 5 5 5 6 5 5 5 5 5 6 5 5 5 5 6 5 6 5 5 6 5 5 5 5 5 5 5 6 5 5 5 6 5 5 5 5 6 5 5 5 6 5 5 5 6 5 5 6 6 5 5 5 5 6 5 5 5 5 5 5 5 5 5 5 5 5 5 5 5 5 5 5 5 5 5 5 5 5 6 5 5 5 5 5 5 5 5 5 6 5 5 5 5 5 5 5 6 5 5 5 5 5 5 5 5 5 5 5 5 5 5 5 5 5 6 5 5 5 5 5 6 6 5 5 5 5 5 6 5 5 5 6 5 5 5 5 5 5 6 5 5 6 6 5 5 5 5 5 5 6 5 5 5 5 5 6 5 5 6 5 5 5 5 6 5 6 5 5 5 6 5 5 6 5 5 5 5 5 5 5 5 6 5 5 5 5 5 6 5 5 5 5 5 5 5 5 5 6 5 6 5 5 5 5 5 5 5 5 5 5 5 6 5 5 5 5 5 5 5 5 5 5 5 5 6 5 5 6 5 5 6 5 5 5 6 5 5 5 5 5 6 5 5 6 5 5 5 6 5 5 5 5 6 5 5 5 5 5 5 5 5 5 5 5 5 6 5 5 5 6 5 5 5 5 5 5 6 5 5 5 5 5 5 6 5 5 5 5 5 5 5 5 5 5 5 5 5 5 5 5 6 5 5 5 5 5 5 6 5 5 5 5 5 5 5 5 5 5 5 5 5 6 5 5 5 5 5 5 5 5 6 5 5 5 5 5 5 6 5 5 5 5 5 5 5 5 5 5 5 5 5 5 5 5 5 5 5 5 5 5 5 5 5 5 5 5 5 5 6 5 5 5 6 5 5 5 6 5 5 6 5 5 5 5 6 5 5 5 5 5 5 5 6 5 5 5 5 5 5 5 5 5 5 5 5 5 5 5 5 5 5 5 5 5 5 5 5 6 5 5 5 5 5 6 5 6 5 5 6 5 5 5 5 5 5 6 5 5 5 5 5 6 5 5 5 6 5 5 5 5 5 5 5 6 5 5 6 5 5 5 5 6 5 5 5 5 5 6 5 5 6 5 5 5 5 5 5 5 5 5 6 5 5 6 6 5 5 5 5 5 5 5 5 5 5 5 5 5 5 5 5 5 5 5 5 5 5 5 5 5 5 5 5 5 6 5 5 5 5 5 5 5 5 5 5 5 5 5 5 5 5 5 6 5 5 6 5 5 5 5 6 6 5 5 5 5 5 5 5 5 5 5 5 5 5 5 5 5 5 5 5 5 5 5 6 5 5 6 5 5 5 5 5 5 5 5 5 5 5 5 5 5 5 5 5 5 6 5 5 5 6 5 5 5 5 5 5 5 5 5 5 5 5 5 5 5 5 5 5 5 5 5 5 5 5 5 5 5 5 5 6 5 6 5 6 5 5 5 5 5 6 5 5 5 6 5 5 5 5 5 6 5 5 6 5 5 5 5 6 5 5 5 5 5 5 5 5 5 5 5 5 5 5 5 5 5 5 5 5 6 5 5 5 6 5 5 5 5 5 5 5 5 5 5 5 5 5 5 5 6 5 5 5 5 5 5 5 5 5 5 5 5 5 5 5 5 5 5 5 5 5 5 5 5 5 5 5 5 5 5 5 5 5 5 5 5 5 5 5 5 5 5 5 5 5 5 5 6 5 5 5 5 5 6 5 5 5 5 5 5 5 5 5 5 5 5 5 5 5 5 5 5 5 5 5 5 5 5 5 5 5 5 6 5 5 5 5 6 5 5 6 5 5 5 5 5 5 5 5 5 6 5 5 5 6 5 5 5 5 5 5 5 6 5 5 5 5 5 5 5 6 5 5 5 5 5 5 5 6 5 5 5 5 6 5 5 6 5 6 5 5 6 5 5 5 5 5 6 5 6 6 5 5 5 5 5 5 5 6 5 5 5 6 5 5 5 5 5 6 5 5 6 5 5 6 5 6 5 5 5 5 5 5 5 5 5 5 5 5 5 5 5 5 5 5 5 5 5 5 5 6 5 5 5 5 6 5 5 5 5 5 5 6 5 5 5 5 5 5 5 5 5 5 5 5 5 5 5 5 5 5 5 5 5 5 5 5 5 5 5 5 5 5 5 5 5 5 5 5 5 5 5 5 5 5 5 5 5 5 5 5 5 5 5 5 5 5 5 5 5 5 5 5 5 5 5 5 5 5 5 6 5 5 5 5 5 5 5 5 5 5 5 5 5 5 5 5 5 5 5 5 5 5 5 5 5 5 5 5 5 5 5 5 5 5 5 5 5 5 5 5 5 5 5 5 5 5 5 5 5 5 5 5 5 5 5 5 5 5 5 5 5 5 6 5 5 5 5 5 5 5 5 5 5 5 5 5 6 5 5 5 5 5 5 5 5 5 5 5 6 5 5 5 5 5 5 5 5 5 6 6 5 6 5 6 5 6 5 5 6 5 5 5 5 5 5 5 6 5 5 5 5 6 6 5 5 5 5 5 5 6 6 5 5 5 6 5 5 5 5 5 5 5 5 5 5 5 5 5 5 5 5 5 5 5 5 5 5 6 5 5 5 6 5 5 5 5 6 5 5 5 5 5 5 5 5 5 5 6 5 5 5 5 5 5 5 5 5 5 5 5 6 5 5 5 5 5 5 5 5 5 6 5 5 5 5 5 5 6 5 5 5 5 5 5 5 5 5 5 6 6 5 5 5 6 5 5 5 5 6 5 5 5 5 5 5 5 5 5 5 5 5 5 6 5 5 5 5 5 5 6 5 5 5 5 6 5 6 5 5 5 5 5 5 5 5 5 5 5 5 5 5 5 5 5 5 5 5 5 5 5 5 6 5 5 5 5 5 5 5 5 5 6 5 5 5 5 5 5 5 5 5 5 6 5 5 6 5 5 5 5 5 6 5 5 6 6 5 5 6 5 5 5 5 5 5 5 5 5 5 5 5 5 5 5 5 6 5 6 5 5 5 5 5 6 5 5 5 5 5 6 5 5 5 5 5 5 5 5 5 6 5 5 6 5 6 5 5 5 6 5 5 6 5 5 5 5 6 5 5 5 5 5 6 5 5 5 5 5 5 5 5 5 5 5 5 5 5 5 5 5 5 5 5 5 5 5 5 5 5 6 5 5 5 6 5 5 5 5 5 5 5 5 5 5 5 6 5 5 6 5 5 5 5 5 6 5 5 5 5 5 5 5 5 5 5 5 5 5 5 5 5 5 5 6 5 5 5 5 5 5 6 5 5 5 5 5 6 5 5 5 5 5 5 5 5 5 5 5 5 5 5 5 6 5 5 5 5 5 5 5 5 5 5 5 5 6 5 5 5 5 5 5 5 5 5 5 5 5 5 5 5 5 5 5 5 5 5 5 5 6 5 5 5 5 5 6 5 5 6 5 6 5 5 6 5 5 5 5 5 5 5 5 5 5 6 5 5 5 5 5 5 5 5 5 5 5 5 5 5 5 5 5 5 5 5 5 5 5 5 5 5 5 5 5 6 5 5 5 5 5 5 5 5 5 5 5 6 5 5 5 5 5 5 6 5 5 5 5 5 5 5 5 5 5 5 5 5 6 5 5 6 5 5 5 6 5 6 5 5 5 5 5 5 6 5 5 6 5 6 5 5 5 5 5 5 6 6 5 5 6 5 5 5 5 5 5 5 5 5 5 5 5 5 5 5 5 5 5 5 5 5 5 5 6 5 5 5 5 6 6 5 5 5 5 5 5 5 5 5 6 5 5 6 6 5 5 5 6 5 5 5 5 5 5 6 5 5 5 5 5 5 6 5 5 5 5 5 5 5 5 6 5 5 5 6 5 5 5 6 5 5 6 5 6 5 5 5 5 5 5 5 5 5 5 5 5 5 5 5 5 5 5 5 5 5 5 5 5 6 5 5 5 5 5 5 6 5 5 5 6 5 5 5 5 5 5 5 5 5 5 5 5 5 5 5 5 6 5 5 5 5 6 5 5 6 5 5 5 5 5 5 6 5 5 5 5 5 5 6 5 5 5 5 5 5 5 5 5 5 5 5 5 5 5 6 5 6 5 5 6 5 5 5 5 5 5 5 5 5 5 5 5 5 6 5 5 5 5 5 5 5 5 5 5 5 5 5 5 5 5 5 5 5 5 5 5 5 5 5 5 5 6 5 5 6 5 5 5 6 5 5 6 5 5 5 5 6 5 5 5 5 6 5 5 5 6 5 6 6 5 5 5 5 5 5 5 5 5 5 5 5 5 5 6 5 5 5 6 5 5 5 5 5 5 5 6 5 5 5 5 5 5 5 5 5 6 5 5 5 5 5 5 5 5 5 6 5 5 5 5 5 5 5 5 5 5 6 5 5 5 5 5 5 5 5 5 5 5 5 5 6 5 5 6 5 5 5 5 5 5 5 5 5 5 5 5 5 5 6 5 5 5 5 6 5 5 5 6 6 5 5 5 5 5 5 5 5 5 5 5 5 5 5 5 5 5 5 5 5 5 5 6 5 5 5 5 5 5 5 5 5 5 5 5 5 5 5 5 5 5 5 5 5 5 5 5 5 6 5 5 5 5 6 6 5 5 5 5 5 5 5 6 5 5 5 5 5 5 6 5 5 5 5 5 5 5 5 6 5 5 5 5 5 5 5 5 5 5 5 5 5 5 5 5 5 5 5 6 5 5 5 5 5 5 5 6 5 5 5 6 5 5 5 5 5 5 5 5 5 5 5 6 5 6 5 6 5 5 5 6 5 5 5 5 5 5 5 5 5 6 5 5 5 5 5 5 5 5 5 5 5 5 5 5 6 6 5 5 6 5 5 5 5 6 5 6 6 6 5 6 6 5 5 5 5 5 6 5 5 6 5 5 5 5 5 5 6 5 5 5 6 5 5 5 6 5 5 5 5 6 5 6 5 5 5 6 6 6 5 6 5 5 5 5 6 5 6 5 6 5 5 6 6 5 6 6 5 5 5 5 5 5 5 6 5 5 6 5 5 5 5 6 5 5 5 5 5 5 5 6 6 5 5 5 6 5 5 5 6 5 6 5 5 5 6 5 5 6 5 5 6 6 5 5 5 6 5 5 5 5 5 6 5 5 5 5 5 5 5 5 5 5 5 5 5 5 5 5 5 5 5 5 5 5 5 5 5 5 5 5 5 5 5 5 5 5 5 5 5 5 5 6 5 5 6 5 6 5 6 5 5 5 6 6 5 5 6 6 5 5 5 5 6 6 5 5 5 6 5 5 5 5 5 5 5 5 5 5 5 5 6 5 5 5 5 5 5 5 5 5 5 5 5 5 6 6 5 5 5 5 5 5 6 6 6 5 5 5 5 5 5 5 5 5 5 5 6 6 5 5 6 5 6 5 5 5 6 5 5 5 5 5 5 5 5 5 5 6 5 5 5 5 5 5 5 5 6 5 5 5 5 5 5 5 5 5 6 5 5 5 5 5 5 5 6 5 5 5 5 5 5 5 5 5 5 5 5 5 6 5 5 5 5 5 5 6 5 5 5 5 5 5 5 6 5 6 5 6 5 5 5 6 5 5 5 5 5 5 5 6 5 5 6 5 6 5 5 5 5 5 5 6 5 5 5 5 5 5 5 5 5 5 5 6 6 5 6 5 5 6 5 5 5 5 5 6 5 5 5 5 5 5 5 5 6 5 5 6 5 5 5 5 6 5 5 5 5 5 5 6 5 5 5 6 5 5 5 5 6 5 6 6 5 5 5 5 5 5 5 5 6 5 5 5 5 5 5 5 5 5 5 5 5 5 6 5 5 5 5 5 5 5 5 5 5 5 5 5 6 5 5 5 5 5 5 6 5 5 5 5 5 5 5 5 5 6 5 5 5 5 5 5 5 5 5 5 5 5 5 6 5 5 5 5 6 5 5 5 6 5 5 5 6 5 5 6 6 5 5 5 6 5 5 5 5 5 5 5 5 5 5 5 5 6 5 6 5 5 5 5 5 6 6 5 5 5 5 6 5 6 5 6 5 5 5 5 5 5 5 5 5 5 5 5 5 5 5 5 5 5 5 5 5 5 5 5 5 5 5 5 5 5 5 5 5 5 5 5 5 5 5 5 5 5 5 5 5 5 5 6 5 6 5 5 5 5 6 5 5 5 5 5 5 5 5 5 5 5 5 5 5 5 5 5 5 5 6 5 5 5 5 5 5 5 6 5 5 6 5 5 6 5 5 5 5 5 5 5 5 6 5 5 5 5 5 5 6 5 5 5 5 5 5 5 5 6 5 5 5 5 5 6 5 6 6 5 5 5 6 5 6 5 5 5 5 5 5 5 5 5 5 5 5 5 5 5 5 6 6 5 5 5 5 5 5 5 5 5 5 5 5 6 5 5 6 5 5 5 5 6 5 5 5 5 5 5 5 5 5 5 5 5 5 5 5 5 5 5 5 5 5 5 5 5 5 5 5 5 5 5 5 5 5 5 5 5 6 5 6 5 5 5 5 5 5 5 6 5 5 5 5 6 5 5 6 5 5 5 5 5 5 5 5 5 5 5 5 5 5 5 5 5 5 6 6 5 5 5 5 5 5 5 5 5 5 5 5 5 5 5 5 5 5 5 5 5 5 5 6 5 5 5 5 5 5 5 5 5 5 5 5 5 5 5 5 6 5 5 5 6 5 5 5 6 5 6 5 5 6 5 5 6 5 5 5 5 5 5 5 5 5 6 5 5 5 5 5 5 6 6 5 5 5 5 5 5 5 5 6 5 5 6 5 5 5 5 5 5 5 6 5 5 5 6 5 5 5 6 6 5 5 5 5 5 5 5 5 5 5 5 6 5 6 5 5 6 5 5 5 6 5 5 5 5 5 5 5 6 5 5 5 6 5 5 5 6 6 5 5 5 5 6 5 5 5 5 5 5 5 5 6 6 5 5 5 5 6 6 6 5 6 5 6 6 5 6 5 5 5 6 5 5 5 5 5 5 6 5 6 5 6 6 6 6 5 5 5 5 6 6 5 5 5 6 6 5 5 5 5 6 5 5 6 5 5 5 5 6 6 5 5 5 5 6 5 6 5 5 5 5 6 5 5 5 5 5 5 5 5 5 5 5 5 5 5 5 5 5 5 5 5 5 5 6 5 5 5 5 5 5 5 5 5 5 5 5 5 5 5 5 5 5 5 5 5 5 5 5 5 6 5 5 5 5 6 5 5 6 5 5 5 6 5 6 5 5 5 5 5 5 5 5 6 5 5 5 6 5 5 5 5 5 5 5 6 5 6 5 5 6 5 6 5 5 5 5 5 5 5 5 5 5 5 5 5 5 6 6 5 5 5 5 5 5 5 5 5 5 5 5 6 5 5 5 5 5 5 5 5 5 5 5 5 5 5 6 5 6 5 5 5 5 5 5 5 5 5 6 5 5 5 5 5 5 5 6 5 6 5 5 5 6 5 6 5 5 5 5 5 6 5 5 6 6 5 5 5 5 6 5 5 5 5 5 5 5 5 5 5 5 5 5 5 5 5 5 6 6 5 5 6 5 5 5 6 5 5 5 5 5 5 5 6 5 6 5 5 5 6 5 5 5 5 5 5 5 5 5 6 5 5 5 6 5 5 5 5 5 5 6 5 5 5 5 5 5 6 5 5 5 5 5 6 5 5 6 5 5 5 6 5 5 5 5 5 5 5 6 6 5 5 5 5 5 5 5 5 6 5 5 5 5 6 5 5 6 5 5 5 5 5 5 5 5 5 5 5 5 5 5 5 5 5 5 5 5 5 5 5 5 5 5 5 5 5 5 5 5 5 5 5 5 5 5 6 5 5 5 5 5 5 5 5 5 5 5 5 5 5 5 5 5 6 5 5 5 5 5 5 5 5 5 5 5 5 5 5 5 5 5 5 5 5 5 5 5 5 5 5 5 5 5 5 5 5 5 5 5 5 5 5 5 5 5 5 5 5 5 5 5 5 5 5 5 5 5 5 5 5 5 5 5 5 5 5 5 5 5 5 5 5 5 5 5 5 5 5 5 5 5 5 5 5 5 5 5 5 5 5 5 5 5 5 5 6 5 5 5 5 5 5 5 6 5 5 5 5 5 5 6 5 5 5 5 5 5 5 5 5 5 5 5 5 5 6 5 6 5 5 5 5 5 5 5 5 5 5 5 5 5 5 5 5 6 5 5 6 5 5 5 5 5 5 6 5 5 5 5 5 6 5 5 5 5 5 5 5 6 5 6 5 5 5 5 5 6 5 6 5 6 5 6 5 5 5 5 5 5 5 5 5 5 5 5 5 5 5 5 5 5 5 5 5 5 5 5 5 5 5 5 5 6 5 5 5 5 5 5 5 5 5 5 5 5 5 5 5 5 5 5 5 5 5 5 5 5 5 5 6 5 5 5 6 5 5 6 5 5 5 5 5 5 6 5 5 6 5 5 6 5 5 5 5 5 5 5 5 5 5 6 5 5 5 5 5 5 5 6 5 5 5 5 5 5 5 5 5 6 5 5 5 5 5 5 5 5 5 5 5 5 5 5 5 5 6 5 5 5 5 5 5 5 5 5 5 5 5 5 5 5 5 5 5 5 5 5 5 5 5 6 5 5 5 5 5 5 5 5 5 5 6 6 5 5 5 5 5 5 5 5 5 5 5 5 6 5 5 5 5 6 5 5 5 5 5 5 5 5 6 5 5 5 5 5 5 5 5 6 5 5 5 6 5 5 5 5 5 5 5 5 5 6 6 5 5 5 5 5 5 5 5 5 5 5 5 5 5 5 5 5 5 5 5 5 5 5 5 5 5 5 5 5 5 5 5 5 5 5 5 5 5 5 5 5 5 5 5 5 5 5 5 5 5 5 5 5 5 5 5 5 5 5 5 5 5 5 5 5 5 5 5 5 5 5 5 5 5 5 5 5 5 5 5 5 5 5 5 5 5 5 5 5 5 5 5 5 5 5 5 5 5 5 5 5 5 5 5 5 5 5 5 5 5 5 5 5 5 5 5 5 5 5 5 5 6 5 5 6 5 6 6 5 5 5 6 5 5 6 5 5 5 5 5 5 6 5 5 5 5 5 5 5 5 5 5 5 5 5 5 5 5 5 5 5 5 5 5 5 5 5 5 5 5 5 5 5 5 5 5 5 5 5 5 5 5 5 5 5 5 5 5 5 5 5 5 6 6 5 5 5 5 5 5 6 5 5 5 5 5 6 5 5 5 5 5 6 5 5 5 5 5 5 5 5 5 5 6 5 6 5 5 5 5 5 6 5 5 5 5 5 6 5 6 5 5 5 5 5 6 5 5 5 5 5 5 5 5 5 5 5 5 5 5 5 5 5 5 6 5 5 5 6 6 5 5 5 5 5 5 5 5 6 5 5 5 5 5 5 5 5 5 5 5 5 5 6 5 5 5 5 5 5 5 5 5 5 5 5 5 5 5 5 5 5 5 5 5 5 5 5 5 5 5 5 5 5 5 5 5 5 5 5 5 5 5 5 5 5 5 5 5 5 5 5 5 5 5 5 6 5 5 5 5 5 5 5 6 5 5 5 6 5 5 5 5 5 5 5 5 5 5 5 5 5 5 5 6 5 5 5 6 5 5 5 5 5 5 5 6 5 5 5 5 5 5 6 5 5 6 5 5 5 5 5 5 5 5 5 5 6 5 5 5 6 5 5 5 5 6 5 5 5 5 5 5 5 5 5 5 6 5 5 5 5 5 5 5 6 5 5 5 5 5 5 5 5 5 5 5 5 5 6 5 6 5 5 5 5 5 5 6 5 6 5 5 5 5 5 5 5 5 5 6 5 5 5 5 5 5 5 5 5 5 5 5 5 5 5 5 5 5 5 5 5 5 5 5 5 5 5 5 5 5 5 5 5 5 5 6 5 5 5 5 5 5 6 5 5 5 5 6 5 5 5 6 5 5 5 6 5 5 5 5 5 5 5 5 5 5 5 5 5 5 5 5 5 5 5 5 5 6 5 5 5 5 5 5 5 5 5 5 6 5 5 6 5 5 5 5 5 5 5 5 5 5 5 5 5 5 5 5 5 5 5 5 5 5 5 5 6 6 5 5 6 6 5 5 5 5 5 5 5 5 5 5 5 5 5 5 6 5 5 5 5 6 5 5 5 5 5 5 5 5 5 5 5 5 5 6 5 5 5 5 5 5 5 5 5 5 6 5 5 5 5 5 6 5 5 5 5 5 5 5 5 5 5 5 5 5 5 5 6 5 5 5 6 6 5 5 5 6 6 5 5 6 5 5 5 5 6 5 5 5 5 5 5 5 5 6 5 5 5 5 6 6 5 6 5 5 5 5 6 5 6 5 5 5 5 6 5 6 5 5 5 5 5 5 5 5 5 5 5 5 5 6 5 5 5 5 5 6 5 5 5 5 5 6 5 6 5 5 5 5 5 5 5 5 6 5 5 5 5 5 5 5 5 5 5 5 5 5 6 5 5 5 5 6 5 5 5 5 5 5 5 5 5 5 5 5 6 5 5 5 5 5 5 5 5 5 5 5 5 5 5 5 5 5 5 5 5 5 5 5 5 5 5 5 5 5 5 5 6 5 5 5 5 5 5 5 6 5 5 5 5 6 5 5 5 5 5 6 5 5 5 5 5 5 5 5 6 5 5 5 5 5 5 5 5 5 5 5 5 5 5 5 6 5 5 5 5 5 5 5 5 5 5 5 6 5 5 6 5 5 5 5 5 5 5 5 5 5 5 5 5 5 5 5 6 5 5 5 5 5 5 5 5 5 5 5 5 5 6 5 5 5 5 5 5 5 5 5 5 5 5 5 5 5 5 5 5 5 6 5 5 5 5 5 6 5 5 5 5 6 5 5 5 5 5 5 6 6 5 5 5 5 5 5 5 5 5 5 5 5 5 5 5 5 5 5 5 5 5 6 5 5 5 5 5 5 5 5 5 5 5 5 5 5 5 5 5 5 5 5 5 5 5 5 5 5 5 5 5 5 5 5 5 5 5 5 5 6 5 5 5 6 5 5 6 5 5 5 5 5 5 5 5 5 5 6 5 5 5 5 6 5 5 5 5 5 5 5 5 5 5 6 5 5 5 6 5 5 6 6 5 5 5 5 5 5 5 5 5 5 5 5 5 5 5 5 6 5 5 5 6 5 6 5 5 5 5 6 5 5 5 5 5 6 5 5 5 5 6 6 5 6 5 5 6 5 6 5 5 5 5 6 5 5 5 5 5 5 6 5 5 6 6 5 5 5 5 5 5 5 5 5 5 5 5 5 5 5 5 6 5 6 5 6 5 5 5 5 5 5 5 5 5 5 5 5 5 5 5 5 5 5 5 5 6 5 5 5 5 5 5 6 5 6 5 5 6 5 5 6 5 5 5 5 5 5 5 6 5 5 5 5 6 5 5 5 5 5 5 6 5 5 5 5 6 5 5 5 5 5 5 5 5 5 6 5 5 5 5 5 5 5 5 5 5 5 5 5 6 5 5 6 5 5 5 6 6 5 6 5 5 5 6 5 5 5 5 6 5 5 6 5 6 5 5 5 5 5 6 6 5 5 5 5 5 5 5 5 5 5 5 5 5 5 5 5 6 5 5 5 5 5 5 5 5 5 5 5 5 5 5 5 5 5 5 5 5 5 5 5 5 5 5 5 5 5 5 5 5 5 5 5 5 5 5 5 5 5 5 5 5 5 5 6 5 5 5 5 5 5 6 5 5 5 5 5 5 5 5 6 6 5 5 5 5 5 5 5 5 5 5 5 5 5 5 5 5 5 5 5 5 5 5 6 6 5 5 5 5 5 5 5 5 5 5 5 5 5 5 5 6 5 5 5 5 5 5 5 5 5 5 5 5 5 5 6 5 5 5 5 5 5 5 5 5 5 5 5 5 5 5 5 5 5 5 5 5 5 5 5 5 5 5 5 5 5 5 5 5 5 5 5 5 5 5 5 5 5 5 5 5 5 5 5 5 5 5 5 5 5 5 5 5 5 5 5 5 5 5 5 5 5 5 5 5 6 5 5 5 5 5 5 5 5 5 5 5 5 5 5 5 5 6 5 5 5 5 6 5 5 5 5 5 5 6 5 5 5 5 6 5 6 5 6 5 5 5 5 6 5 5 6 5 6 5 5 5 5 5 5 5 5 5 5 5 5 5 5 5 5 5 5 5 5 5 5 5 5 5 5 5 5 6 5 5 6 5 5 5 5 5 5 5 5 5 5 5 5 6 5 5 5 5 5 5 5 5 5 5 5 5 5 5 6 5 5 5 5 5 5 5 6 5 6 5 5 6 5 6 5 6 5 5 5 5 5 5 5 5 5 5 6 5 5 5 5 5 5 5 5 5 5 6 5 5 5 6 5 6 6 5 5 6 5 5 5 5 6 5 5 5 5 6 5 5 6 5 5 5 5 5 5 5 6 5 5 5 6 5 5 5 5 5 5 5 5 5 5 5 5 5 5 6 5 5 5 6 5 5 5 5 5 5 5 5 5 6 5 5 5 5 6 5 5 5 6 5 5 6 5 5 5 5 5 5 5 5 5 5 5 5 5 5 6 5 5 5 5 5 5 5 5 5 5 5 5 5 5 5 5 5 5 5 5 5 5 5 5 5 6 5 5 5 5 5 5 6 5 5 5 5 5 5 5 5 5 5 5 5 5 5 5 5 5 5 5 5 5 5 5 6 5 5 5 5 5 5 5 6 5 5 5 5 5 5 5 6 5 5 6 5 5 5 5 5 5 5 5 5 5 5 5 5 5 5 5 5 5 5 5 5 5 5 5 5 5 5 5 5 5 5 5 5 5 5 5 5 5 5 5 5 5 5 5 5 6 5 5 6 5 5 5 5 6 6 5 5 5 5 5 5 6 5 5 5 6 5 5 5 5 6 5 5 5 5 5 6 5 5 5 5 5 5 6 5 5 5 5 5 5 5 5 5 6 5 5 5 5 5 6 5 5 6 6 5 5 5 5 5 5 5 5 5 5 5 5 6 5 5 5 5 5 5 5 5 5 5 5 5 5 5 5 5 5 5 5 5 5 5 6 5 5 5 5 5 5 5 5 6 5 5 5 5 6 5 5 6 6 5 5 5 5 5 5 5 5 5 5 5 5 5 5 5 5 5 5 5 5 5 5 5 5 5 5 5 5 5 5 5 5 5 5 5 5 5 5 5 5 5 5 5 5 6 5 6 5 5 5 5 5 5 5 5 5 5 5 5 5 5 5 5 5 5 6 5 5 5 6 5 5 5 5 5 5 5 5 5 5 5 5 5 6 5 5 5 5 5 5 5 5 5 5 5 5 5 5 5 5 6 5 6 5 5 5 5 5 5 5 5 5 5 5 6 5 5 5 6 5 5 5 5 6 5 5 6 6 5 6 5 5 5 5 5 5 5 5 5 5 5 5 5 5 5 5 5 5 5 5 5 5 5 5 5 5 6 5 6 5 5 5 6 5 5 5 5 5 5 6 5 5 5 5 5 5 5 6 6 5 5 6 6 5 6 5 5 6 6 5 5 6 5 5 6 5 5 5 5 5 6 5 5 5 5 6 5 5 5 5 5 5 5 5 5 5 5 6 5 5 5 6 5 6 6 5 5 5 5 6 5 5 5 6 5 5 5 6 5 5 5 5 5 5 6 5 5 5 5 5 5 5 5 5 6 6 5 5 5 5 5 5 5 5 5 5 5 5 5 5 5 5 5 6 5 5 5 5 5 5 5 5 5 5 5 5 5 5 6 5 5 5 6 5 5 5 5 5 5 5 5 5 5 5 5 5 5 5 5 5 5 6 5 5 5 5 5 5 6 5 5 5 5 5 5 5 6 5 5 5 5 5 5 5 5 5 5 5 5 6 5 5 5 5 5 5 5 6 5 5 5 5 5 5 5 5 5 5 5 5 5 5 5 5 5 5 5 5 5 5 5 5 5 5 5 5 5 5 5 5 5 5 6 5 5 5 6 5 5 5 5 5 5 5 5 5 5 5 6 5 5 5 5 6 5 5 5 5 5 5 5 5 5 6 6 5 6 5 5 5 5 5 5 5 5 5 5 6 5 5 5 5 5 6 5 6 5 5 5 5 5 5 5 5 5 5 5 5 5 5 6 5 5 5 5 5 5 5 5 5 6 5 5 5 5 5 6 5 5 5 5 5 6 6 5 5 6 5 5 5 6 6 6 5 5 5 6 5 6 5 5 5 5 5 5 5 5 6 5 5 5 6 5 5 6 6 5 5 5 5 5 5 5 5 5 5 5 5 5 5 5 5 5 5 5 5 6 5 5 5 5 5 5 5 5 6 5 5 6 5 5 6 6 6 5 5 5 5 5 5 5 5 5 5 5 5 5 5 5 5 6 5 6 5 6 5 5 6 5 5 5 6 5 6 5 6 5 5 5 5 5 5 5 6 5 5 5 5 5 5 5 5 5 5 5 5 5 5 5 5 5 5 5 5 5 5 5 5 5 5 5 5 5 5 5 5 5 6 5 6 5 5 5 5 5 5 5 5 5 5 5 5 5 5 5 5 5 5 5 5 5 5 6 6 5 5 5 6 6 5 5 6 5 5 5 6 5 6 5 5 5 5 6 5 6 5 5 6 6 5 5 5 5 5 5 5 5 5 5 6 5 5 5 5 5 5 5 5 5 5 5 5 5 5 5 6 5 5 5 5 5 5 6 5 5 5 5 5 5 5 5 6 5 5 6 6 6 5 5 5 5 6 6 5 5 6 5 5 5 5 5 5 5 6 5 5 5 5 5 6 6 5 5 5 6 5 5 5 6 5 6 5 5 5 5 5 5 5 5 5 5 5 5 5 5 5 5 5 5 5 5 5 5 5 5 6 5 5 5 5 5 5 5 5 6 5 5 5 5 5 6 5 6 5 6 5 5 5 5 6 5 5 5 5 5 6 5 5 6 5 6 5 5 5 5 6 6 5 5 5 5 6 5 5 5 5 6 5 5 6 5 5 6 5 5 5 6 5 6 5 5 5 6 5 5 6 5 5 5 6 5 5 5 5 5 5 5 5 5 5 5 5 5 5 5 6 5 5 5 5 5 6 5 5 6 5 5 5 6 5 5 5 5 5 5 6 5 5 5 5 5 5 5 5 5 5 5 5 5 5 5 5 5 5 5 5 5 5 5 5 5 5 5 5 5 6 5 5 5 5 6 5 5 5 5 5 5 5 5 5 5 5 5 6 5 5 6 5 5 5 6 5 5 6 5 5 5 6 5 5 6 5 5 6 5 6 5 5 5 6 6 5 5 5 5 5 5 5 6 5 6 6 5 5 6 5 6 5 5 5 5 5 5 5 6 5 5 6 6 5 5 5 5 5 6 5 5 5 5 5 5 5 5 5 5 5 5 5 5 5 5 5 6 5 5 5 5 6 5 5 5 6 5 6 6 5 5 5 5 5 5 5 5 5 5 6 5 5 6 5 5 5 5 5 5 6 5 5 5 5 5 5 5 5 5 5 5 5 5 5 5 5 5 6 5 5 5 6 5 6 5 5 5 5 5 5 5 5 6 5 5 5 6 5 6 5 5 5 6 5 5 5 5 5 5 5 5 5 6 5 5 5 5 6 5 5 5 5 5 5 5 6 5 6 5 6 5 5 5 5 5 5 5 5 5 5 5 5 5 5 5 5 5 6 5 6 5 5 5 6 5 5 5 5 5 5 5 6 6 5 5 5 6 5 6 5 6 5 5 5 6 5 5 5 6 5 5 5 6 5 5 5 5 5 6 5 5 5 5 6 5 5 5 5 6 5 5 5 5 5 5 5 5 6 5 5 5 5 6 5 5 5 5 5 5 5 6 5 5 5 5 5 5 5 5 5 5 5 6 6 5 5 5 5 5 5 5 6 5 5 5 5 5 5 5 5 6 5 5 5 5 5 5 5 5 5 5 5 6 5 5 5 5 6 5 6 6 5 5 5 6 5 5 5 5 5 5 6 5 5 5 5 5 5 5 5 5 6 6 5 6 5 5 6 5 5 5 6 5 6 6 6 5 6 5 6 5 5 5 5 6 6 6 6 5 6 5 5 5 5 6 5 5 5 5 6 5 6 5 5 5 5 5 5 5 5 6 5 5 6 5 5 5 6 5 5 5 5 5 5 5 5 5 5 5 5 6 5 5 5 5 5 6 5 6 6 5 6 5 5 5 5 5 5 5 5 6 5 5 6 5 5 5 6 5 5 5 5 5 5 5 5 5 5 5 5 5 5 5 5 5 5 5 5 5 5 5 6 6 5 5 5 5 5 6 5 5 5 5 5 5 6 5 5 5 5 5 5 5 5 5 5 5 5 5 5 5 6 5 5 5 5 6 5 5 5 5 5 5 5 5 6 5 5 5 6 6 5 5 5 6 5 5 5 5 5 5 5 6 5 5 5 5 5 5 5 5 5 5 5 5 6 5 5 5 5 5 5 6 5 5 5 5 6 5 5 5 5 5 6 5 5 5 5 6 5 5 5 5 5 5 5 5 5 5 5 5 5 5 5 5 6 5 6 5 5 5 6 5 6 5 5 5 5 5 5 6 5 5 5 5 5 5 5 5 5 5 5 5 5 5 5 5 5 5 5 5 5 5 5 5 5 5 5 5 5 5 5 5 5 5 5 5 6 5 5 6 5 5 5 5 5 5 5 5 6 5 5 5 5 5 5 5 5 5 5 5 5 5 5 6 5 6 5 5 5 5 5 5 6 5 5 5 5 5 5 5 5 5 5 5 5 5 5 6 5 5 6 5 5 5 5 5 5 6 6 5 6 5 5 5 5 5 6 5 5 5 5 6 5 5 5 5 5 6 5 5 5 5 5 5 5 6 5 5 5 5 5 5 5 5 5 5 5 5 5 5 6 5 6 5 5 5 5 5 5 6 5 5 5 5 5 5 5 5 5 5 5 6 5 5 5 5 5 5 5 6 5 5 5 5 5 5 5 6 5 5 6 5 5 6 6 5 5 5 5 5 5 5 5 5 5 5 5 5 5 5 6 5 5 5 5 5 5 6 5 6 5 5 5 5 5 5 5 5 5 5 6 5 5 5 5 5 5 5 5 5 5 5 5 5 5 5 5 5 5 5 5 5 6 5 5 5 5 5 5 6 5 5 5 5 5 6 5 5 5 5 5 6 5 5 6 5 5 5 5 5 5 5 5 6 5 5 5 6 5 5 5 5 5 5 5 5 5 5 6 5 5 5 5 5 5 5 5 5 5 5 5 5 5 5 5 5 5 5 5 5 5 5 5 6 5 6 5 5 5 5 5 5 5 5 5 6 5 6 5 5 5 5 6 5 5 5 6 5 6 5 5 6 5 5 5 5 5 5 5 5 6 5 5 5 5 6 5 5 5 6 5 5 5 6 5 5 5 5 5 5 5 5 6 5 5 5 5 5 5 5 5 5 5 5 5 5 5 6 5 5 5 6 5 5 6 5 5 5 5 5 5 6 5 5 5 5 5 5 5 5 5 5 5 5 5 5 5 5 5 5 5 5 5 5 6 5 5 5 5 5 5 5 5 5 5 5 5 5 5 5 5 5 5 5 5 5 6 5 6 5 5 5 5 5 5 5 5 5 5 5 5 5 5 5 5 5 6 5 5 5 5 5 5 5 5 5 5 5 5 6 5 5 5 5 5 5 5 5 5 5 6 5 5 5 6 5 5 5 5 5 6 5 5 5 5 5 6 5 5 5 5 5 5 6 5 5 6 5 5 5 5 5 6 5 5 5 5 5 5 5 5 5 5 5 5 5 5 5 5 5 5 5 5 5 5 5 5 6 5 5 5 5 5 5 6 5 5 6 6 5 5 5 5 5 5 5 5 5 5 5 5 5 5 5 5 5 5 5 6 5 5 6 5 5 6 5 5 5 5 5 5 5 5 6 6 5 5 5 5 5 5 6 5 5 5 5 5 6 5 5 5 5 5 5 5 5 5 5 5 5 5 5 5 5 5 5 5 5 5 5 5 5 5 5 5 5 5 5 5 5 5 5 5 5 5 5 5 5 5 5 5 5 5 5 5 5 5 5 5 5 5 5 5 5 5 5 5 5 5 5 6 5 5 5 5 5 5 5 6 5 5 5 5 5 5 5 5 5 5 6 5 5 5 5 6 5 5 5 5 6 5 5 5 5 5 5 6 5 5 5 5 5 5 5 5 5 5 6 5 5 5 5 5 5 5 6 5 5 5 5 5 5 5 5 6 5 5 6 5 5 5 5 5 5 5 5 6 5 5 5 5 5 6 5 6 5 5 5 5 5 6 5 5 5 6 5 5 5 5 5 5 5 5 5 6 5 5 5 5 6 5 5 5 5 5 5 5 5 5 5 5 5 5 6 5 5 5 5 5 5 5 5 5 6 5 5 5 5 5 5 5 5 5 5 5 5 5 5 5 5 5 5 6 6 5 5 5 5 5 5 5 5 5 5 5 5 6 5 5 5 5 5 5 5 5 5 5 5 5 5 5 5 6 5 5 5 5 5 6 5 5 6 5 5 5 5 5 5 6 5 5 5 5 5 5 5 5 5 5 5 5 5 5 5 5 5 5 5 5 5 5 5 5 5 5 5 5 5 5 5 5 5 5 6 5 5 5 5 6 5 5 5 5 5 6 5 5 5 5 5 5 5 5 5 5 5 5 5 5 5 5 5 5 5 5 5 5 5 5 5 5 5 5 5 5 5 6 5 5 6 5 5 5 5 5 5 6 5 5 5 5 6 5 5 5 5 5 5 5 5 5 5 5 5 6 5 5 5 5 6 5 5 5 5 5 5 5 5 5 5 5 5 5 5 5 5 5 5 6 5 5 5 5 5 5 5 5 5 5 5 5 5 5 5 5 5 5 5 5 5 5 5 5 5 5 5 5 5 5 5 5 5 5 5 5 5 5 5 5 5 6 5 5 5 5 5 5 6 6 6 6 5 5 5 5 6 5 5 5 5 6 5 5 5 5 5 5 5 5 5 5 5 5 5 6 5 5 5 5 5 5 5 5 6 5 5 5 5 5 5 5 6 5 5 5 6 5 6 5 5 5 6 6 5 5 5 5 5 5 5 5 5 5 5 5 5 5 5 5 5 5 5 5 5 5 5 5 5 6 5 5 5 5 5 5 5 6 5 5 5 5 5 5 5 5 5 5 5 5 5 5 5 5 5 5 5 5 5 5 5 5 6 5 5 5 5 5 5 6 5 5 5 5 5 5 5 5 5 6 5 5 5 5 5 5 5 5 5 5 5 5 5 5 5 5 5 5 5 5 5 5 5 5 5 5 5 5 6 5 5 5 5 5 5 5 5 5 5 5 5 5 5 6 5 5 5 5 5 6 5 5 5 6 5 5 5 5 6 5 5 6 5 5 6 5 5 5 5 5 5 6 5 5 6 6 5 6 5 5 6 5 5 5 6 5 5 5 5 5 5 5 5 5 5 5 5 5 6 5 6 5 5 6 6 5 6 5 5 6 5 5 5 5 5 5 5 5 5 6 5 5 6 5 5 5 5 5 5 5 5 6 5 5 5 6 5 5 5 5 5 5 5 5 5 5 5 6 5 6 5 5 5 5 6 5 5 5 5 5 5 5 5 5 5 6 5 6 5 5 5 5 5 5 6 5 5 5 6 5 5 5 5 5 5 5 5 5 5 5 5 6 5 5 5 5 5 5 5 5 5 5 5 5 5 5 5 6 5 5 5 5 5 5 6 5 5 6 5 5 5 5 6 5 5 5 5 5 5 5 
</DataArray>
<DataArray type="Float64" Name="stress" NumberOfComponents="9" format="ascii">
2.375912868497835 3945.5115355714661 0 3945.5115355714661 -3825.3843650392955 0 0 0 0 110.34637915206258 3446.5507886726555 0 3446.5507886726555 -3034.0521986051754 0 0 0 0 -3875.9187416528439 3922.7659698199786 0 3922.7659698199786 -4.5134346481790999 0 0 0 0 2.1017258828481999 11.249396606766084 0 11.249396606766084 -0.50163544493852896 0 0 0 0 -1895.0558356640686 2093.494575998584 0 2093.494575998584 -2403.5192528246553 0 0 0 0 4.0542640549096518 11.460381484154652 0 11.460381484154652 -2.0111954859254979 0 0 0 0 -977.9116358057363 669.3218423721919 0 669.3218423721919 -2446.2069315321569 0 0 0 0 -2876.4585216918786 4340.5556398133631 0 4340.5556398133631 -4565.9514140522806 0 0 0 0 -254.01249476717203 1963.1433850000467 0 1963.1433850000467 -5630.86821387288 0 0 0 0 -49.552454951521895 40.407527960928803 0 40.407527960928803 -19.528014441674486 0 0 0 0 1480.2298724896973 3555.3252757502923 0 3555.3252757502923 -10272.940895781037 0 0 0 0 -19.594284804536983 13.252919475594098 0 13.252919475594098 -12.805358962765354 0 0 0 0 -0.68212815342121758 631.354024356624 0 631.354024356624 272.97355440797401 0 0 0 0 -532.85823496202056 708.57983597426391 0 708.57983597426391 -2437.7652765113744 0 0 0 0 4.2416060540991793 8.7668407848092329 0 8.7668407848092329 -39.79837378369507 0 0 0 0 56.894911651179427 61.217508297711902 0 61.217508297711902 -129.22600162711751 0 0 0 0 -566.1779757279146 1285.3581793863996 0 1285.3581793863996 -1828.5560350661472 0 0 0 0 -613.35367705425597 1950.6534182327596 0 1950.6534182327596 -3506.9341163644203 0 0 0 0 -795.43859910346509 1711.904874103675 0 1711.904874103675 -1772.6435125645803 0 0 0 0 -2329.4409876066893 2700.0973559294762 0 2700.0973559294762 -1561.5138821051514 0 0 0 0 325.28846103182877 2344.9037508207111 0 2344.9037508207111 -2393.2940870752377 0 0 0 0 -1582.50289777547 2479.68104151437 0 2479.68104151437 -1651.888938733493 0 0 0 0 -1128.2151489424796 3357.5760563754811 0 3357.5760563754811 -3.9894304975168779 0 0 0 0 -1300.5057610539952 1648.1328533294582 0 1648.1328533294582 -0.23796122753992677 0 0 0 0 -1659.4952704773168 2998.5607066129105 0 2998.5607066129105 -1858.0557074095123 0 0 0 0 -1240.0506838524961 1675.7485709012908 0 1675.7485709012908 -437.10708251706092 0 0 0 0 -1062.0223226616654 1384.1910946511198 0 1384.1910946511198 -0.90801331598777324 0 0 0 0 -831.49740953100263 1369.265922227074 0 1369.265922227074 -664.26948811533657 0 0 0 0 561.58689934284484 781.76642936292046 0 781.76642936292046 -423.70833206672978 0 0 0 0 -2278.228233361905 3184.0159599983663 0 3184.0159599983663 -1713.171941316803 0 0 0 0 2.2865567049329911 -0.39041140532850704 0 -0.39041140532850704 -7.6498430926809533 0 0 0 0 1004.2442175598262 -67.917299529923184 0 -67.917299529923184 -212.89782762818504 0 0 0 0 13.005062099080533 27.703948669310194 0 27.703948669310194 0.038536699110409245 0 0 0 0 -3.6531628351017957 4.5601363390616712 0 4.5601363390616712 -6.292311719189172 0 0 0 0 -753.45568239089334 1218.6451071516203 0 1218.6451071516203 -392.79374875056965 0 0 0 0 -1536.5565656505642 -82.384575961419614 0 -82.384575961419614 33.152810325307655 0 0 0 0 -208.75635221166885 39.322336393335718 0 39.322336393335718 33.289098863449908 0 0 0 0 -137.33990757398715 124.72325677210756 0 124.72325677210756 93.875128276304167 0 0 0 0 -448.31841437290132 71.630283638151013 0 71.630283638151013 86.104170103048091 0 0 0 0 -167.50625195150769 130.66809850504342 0 130.66809850504342 100.0669011149439 0 0 0 0 -67.954577932599932 143.62426974452683 0 143.62426974452683 98.708626999956323 0 0 0 0 123.25160025827063 158.94381801581767 0 158.94381801581767 -93.608917101857514 0 0 0 0 -588.31744688386607 547.14455240470306 0 547.14455240470306 52.569623890536604 0 0 0 0 175.94092650787206 392.53413379694393 0 392.53413379694393 34.821079547480622 0 0 0 0 -152.80925074189145 287.79239229891527 0 287.79239229891527 21.539321177784586 0 0 0 0 36.265645448875148 158.41675407364528 0 158.41675407364528 -44.551270254407427 0 0 0 0 -142.89174643639853 65.3622719408595 0 65.3622719408595 221.37929830281064 0 0 0 0 -35.028925274283438 75.728693293730174 0 75.728693293730174 -41.79834182045056 0 0 0 0 32.277774804708315 145.55952431925834 0 145.55952431925834 -63.830587970645865 0 0 0 0 -44.602800374167714 78.788673190122722 0 78.788673190122722 -21.344337755997373 0 0 0 0 13.42520922262338 201.20676094426017 0 201.20676094426017 65.800226678649778 0 0 0 0 33.276044557504065 218.70291408199773 0 218.70291408199773 -298.95961047318997 0 0 0 0 0.35589077819514614 8.4196897635344783 0 8.4196897635344783 -17.039994029104708 0 0 0 0 -433.95361820582184 -204.69837207550154 0 -204.69837207550154 1292.5591119505989 0 0 0 0 57.681905264151283 49.909361698315479 0 49.909361698315479 516.88175589381717 0 0 0 0 -7.8565738498873543 11.516093251411803 0 11.516093251411803 232.98200154158258 0 0 0 0 43.465878907300066 -159.6286497884139 0 -159.6286497884139 97.988392610212031 0 0 0 0 -27.291694591927808 96.256862946938782 0 96.256862946938782 129.28535727752023 0 0 0 0 -138.44064886380511 86.67046380382817 0 86.67046380382817 128.45868910985882 0 0 0 0 -88.34658041477087 119.9267513386294 0 119.9267513386294 169.84766051836777 0 0 0 0 -57.536152364540612 117.82546815984824 0 117.82546815984824 120.5629148700682 0 0 0 0 -89.709269189857878 189.36592831657617 0 189.36592831657617 106.55819713081291 0 0 0 0 56.234135195380077 -367.93868397139886 0 -367.93868397139886 526.6901174750019 0 0 0 0 -627.62258057866711 310.37911224589334 0 310.37911224589334 2052.4099185862869 0 0 0 0 -2.722130843505056 -4.983395498069001 0 -4.983395498069001 26.529222209163692 0 0 0 0 -47.926213394537342 85.299276702493387 0 85.299276702493387 -15.912623348785722 0 0 0 0 -49.662715425831266 -158.50975022852072 0 -158.50975022852072 981.53184446689556 0 0 0 0 -27.267570876341779 713.25844508744922 0 713.25844508744922 690.93581402275595 0 0 0 0 -132.75619141981588 516.58196905923251 0 516.58196905923251 521.4857739762374 0 0 0 0 -333.29756284393079 750.72934909318428 0 750.72934909318428 630.92572376140743 0 0 0 0 -188.67308568999579 400.52113442518021 0 400.52113442518021 512.56662473489996 0 0 0 0 -269.6848905258812 376.18924665963277 0 376.18924665963277 1377.8965187057329 0 0 0 0 -2041.1075502671592 947.84191032200761 0 947.84191032200761 429.87280041025952 0 0 0 0 283.0869548349292 1760.8332028183067 0 1760.8332028183067 -1602.265088493572 0 0 0 0 -346.28097014731611 -68.931392481783405 0 -68.931392481783405 422.05193657300697 0 0 0 0 -1159.4715158169929 -1080.7980581779084 0 -1080.7980581779084 -595.92348048710846 0 0 0 0 99.19967460060434 144.25136004135129 0 144.25136004135129 -2112.9839739914023 0 0 0 0 47.174007705936674 -692.45254163915524 0 -692.45254163915524 -1914.8428054735123 0 0 0 0 -9.1049530421078657 10.611616951373335 0 10.611616951373335 -28.229114842996637 0 0 0 0 208.27961849432904 -152.28470240396564 0 -152.28470240396564 -117.74727003324369 0 0 0 0 145.44283450717921 -95.225209920974521 0 -95.225209920974521 0.59956518281251192 0 0 0 0 208.27338318611146 -150.37076808407437 0 -150.37076808407437 -681.98647127646836 0 0 0 0 -250.51558594024391 -593.54318518591754 0 -593.54318518591754 85.236164969632227 0 0 0 0 163.99348809973162 26.658335857151542 0 26.658335857151542 -255.14112128353736 0 0 0 0 66.75590302888304 122.98793117249443 0 122.98793117249443 -349.3647941750969 0 0 0 0 296.74075925821671 47.20460141976946 0 47.20460141976946 -350.63100369556923 0 0 0 0 -49.114561766411612 43.143182611390969 0 43.143182611390969 -33.676590668545771 0 0 0 0 541.39264907860343 1265.9088568692605 0 1265.9088568692605 1083.7349014199863 0 0 0 0 310.47572905557172 173.45574726293853 0 173.45574726293853 -26.072512913009632 0 0 0 0 106.49494693134329 18.321670979921691 0 18.321670979921691 -47.804864403820829 0 0 0 0 3.0012587125529535 213.73932989611058 0 213.73932989611058 1313.4202412978993 0 0 0 0 -35.806593898774793 32.910822136412293 0 32.910822136412293 -19.733273767689184 0 0 0 0 390.28266313389759 1033.5490314788913 0 1033.5490314788913 1198.7320322495398 0 0 0 0 1044.565496362542 679.01063405202876 0 679.01063405202876 1120.6911630943323 0 0 0 0 -836.73027292324696 637.04093370193732 0 637.04093370193732 1136.799751892635 0 0 0 0 -0.91527129274618346 644.50792621715664 0 644.50792621715664 2095.9646559967805 0 0 0 0 142.08197993895737 730.47284639137797 0 730.47284639137797 1046.4486906317834 0 0 0 0 186.789375017368 989.75218522033538 0 989.75218522033538 1978.6576895210892 0 0 0 0 -5.842753727483796 196.92795235004451 0 196.92795235004451 1932.7620059709443 0 0 0 0 0.2800634993731137 9.103970649282644 0 9.103970649282644 3.2837419817471414 0 0 0 0 948.26216937907157 439.37191617903591 0 439.37191617903591 177.34666264403495 0 0 0 0 202.95325076283189 -241.42157530586701 0 -241.42157530586701 -103.58656953099853 0 0 0 0 -1.708713896813606 9.316662034305466 0 9.316662034305466 4.603375091366388 0 0 0 0 808.47225854627322 1084.4914568998356 0 1084.4914568998356 682.76661350857466 0 0 0 0 185.30726353503997 508.30329143193376 0 508.30329143193376 662.33723520357989 0 0 0 0 26.466096798903891 -96.67345140258476 0 -96.67345140258476 -284.27617835236015 0 0 0 0 1.2794407274341211 172.90665023960173 0 172.90665023960173 127.03275683159882 0 0 0 0 -5.7029998844732859 0.89435542727889583 0 0.89435542727889583 3.5503606159924743 0 0 0 0 91.150839233345323 6.9119193553378864 0 6.9119193553378864 -142.33439822983928 0 0 0 0 60.795252434749273 134.37387789431523 0 134.37387789431523 -36.184658850906999 0 0 0 0 -14.599162923783297 93.112593121870304 0 93.112593121870304 15.269194440130377 0 0 0 0 24.874743639364908 43.188295899239108 0 43.188295899239108 0.86381755904858437 0 0 0 0 -23.42829250101704 77.529056481318634 0 77.529056481318634 -41.067511578776475 0 0 0 0 -6.9825046195765026 72.298095747275511 0 72.298095747275511 43.61532028581496 0 0 0 0 15.335944866092177 22.655899187426257 0 22.655899187426257 58.127076534801745 0 0 0 0 -17.359632260142462 68.071070476251407 0 68.071070476251407 45.410934932122473 0 0 0 0 18.125358404082363 48.660662751964992 0 48.660662751964992 3.5314006499975221 0 0 0 0 1457.6020690029836 935.77407037962257 0 935.77407037962257 889.56182979707955 0 0 0 0 2422.8993730039219 1351.9994902532053 0 1351.9994902532053 23.207212065066415 0 0 0 0 60.191839128299762 -120.79981681235768 0 -120.79981681235768 -225.79042147795553 0 0 0 0 13.909697229769279 3.3264124358314007 0 3.3264124358314007 -29.319809338389575 0 0 0 0 1620.5967937039022 1249.4189848657588 0 1249.4189848657588 -339.44381234330649 0 0 0 0 1853.7402393222146 894.03781314956723 0 894.03781314956723 85.210106871812968 0 0 0 0 3273.6846808536848 1489.4652440327118 0 1489.4652440327118 0.44239846101845615 0 0 0 0 1712.9683530814254 1163.8338422134766 0 1163.8338422134766 121.16459311006474 0 0 0 0 6.0326949590283334 3.594247326184643 0 3.594247326184643 6.4868229261556394 0 0 0 0 4353.4665818723915 -1074.1496770834383 0 -1074.1496770834383 -30.037018747476395 0 0 0 0 1709.9298849561746 555.33207725113607 0 555.33207725113607 -406.29947433195775 0 0 0 0 3293.9942162001826 443.42339656544209 0 443.42339656544209 -403.64198976391344 0 0 0 0 1701.9609037879709 -402.04141473179334 0 -402.04141473179334 -190.6864327431831 0 0 0 0 1085.0164856983902 141.76605451747309 0 141.76605451747309 7.105290232839252 0 0 0 0 1623.7020527331179 122.33630708953842 0 122.33630708953842 7.8041610554500949 0 0 0 0 18.616700738367427 13.618543769711891 0 13.618543769711891 6.5008766599700039 0 0 0 0 6.4179212633316638 30.079972866267781 0 30.079972866267781 -0.020710760756628588 0 0 0 0 38.333224134912598 12.682636618279503 0 12.682636618279503 -9.3357190127717331 0 0 0 0 42.973960442477619 34.145843647769652 0 34.145843647769652 0.019396312040043995 0 0 0 0 -160.1153154970234 22.831438751425594 0 22.831438751425594 43.397497897316498 0 0 0 0 10.71018362701227 4.1614744920456985 0 4.1614744920456985 -2.1319709272635237 0 0 0 0 -20.039433791549527 52.648807655285054 0 52.648807655285054 26.428173643827904 0 0 0 0 38.327982610338154 44.189679292020287 0 44.189679292020287 44.438424863498312 0 0 0 0 -10.945650834459229 131.95598823489854 0 131.95598823489854 -18.185706472839229 0 0 0 0 81.171302410788485 89.236799902617349 0 89.236799902617349 -43.136134821827 0 0 0 0 79.179554777481826 83.610103752231225 0 83.610103752231225 -42.255827599175973 0 0 0 0 79.160040642367676 83.221255895899958 0 83.221255895899958 -47.443212062236853 0 0 0 0 24.456877080078755 10.719845674130127 0 10.719845674130127 -31.762587808950514 0 0 0 0 80.859371380225639 87.595091767114354 0 87.595091767114354 -50.57845147018088 0 0 0 0 58.629551501580863 114.78224076883635 0 114.78224076883635 -16.972707808643463 0 0 0 0 158.20900794645422 100.07087555737235 0 100.07087555737235 -49.533743875770597 0 0 0 0 62.904327526586712 124.68369483010611 0 124.68369483010611 -20.299510962388013 0 0 0 0 1.6409788179007592 131.3869372115787 0 131.3869372115787 169.07791339560936 0 0 0 0 -22.811811506035156 207.06562742841197 0 207.06562742841197 45.113304996979423 0 0 0 0 -20.123587776987222 74.548580530642255 0 74.548580530642255 -53.77141957050577 0 0 0 0 23.011997501813141 66.472208313136889 0 66.472208313136889 60.18163845930826 0 0 0 0 -8.3621303616237128 103.20211766105786 0 103.20211766105786 31.278420051326975 0 0 0 0 16.9693411263288 114.6530723364267 0 114.6530723364267 45.985820731613785 0 0 0 0 62.053219874025672 100.71173588596866 0 100.71173588596866 15.720233837273554 0 0 0 0 -7.5615160875944412 47.334898726629376 0 47.334898726629376 -13.333807210223597 0 0 0 0 17.280993766733445 114.11380761749751 0 114.11380761749751 26.009849522757577 0 0 0 0 32.92227058665955 58.117747332497117 0 58.117747332497117 34.111999057514709 0 0 0 0 -42.565413793578045 95.114401725353673 0 95.114401725353673 36.153146693053714 0 0 0 0 20.597159936689422 134.37761365876941 0 134.37761365876941 30.118729374109535 0 0 0 0 -8.1575300689291907 113.53802003635792 0 113.53802003635792 26.975973504770081 0 0 0 0 -147.06287588721898 155.32804693996968 0 155.32804693996968 62.056136651139241 0 0 0 0 -4.9064030497538624 189.01069087437645 0 189.01069087437645 -0.065149608417414129 0 0 0 0 169.49936114490993 181.18701389146008 0 181.18701389146008 0.11964964994695038 0 0 0 0 85.788575309838052 108.77169992066774 0 108.77169992066774 13.933119258581428 0 0 0 0 36.351819582196185 162.9932172660483 0 162.9932172660483 27.873903406587488 0 0 0 0 114.99882146026357 79.647953152831178 0 79.647953152831178 -3.3554898715228774 0 0 0 0 138.56113397167064 120.54585271762335 0 120.54585271762335 4.4186232429929078 0 0 0 0 34.55416594309645 111.01427486315879 0 111.01427486315879 12.712931854795897 0 0 0 0 -3.2626646008284297 30.011713799805875 0 30.011713799805875 -3.0800776876276359 0 0 0 0 134.57226572837681 70.441943192403414 0 70.441943192403414 -5.1799773869570345 0 0 0 0 -1.7835514564098389 2.2610119473573889 0 2.2610119473573889 1.2237537642183725 0 0 0 0 406.00517736573238 64.604452915955335 0 64.604452915955335 -34.360964214451087 0 0 0 0 -67.598898820011527 20.639831155207503 0 20.639831155207503 14.798924727161648 0 0 0 0 -1.6131624908568725 -5.2827221337671517 0 -5.2827221337671517 2.3960136048636969 0 0 0 0 -21.967214404809056 29.902579195753788 0 29.902579195753788 -0.021900573547375863 0 0 0 0 8.3355866143901949 13.656527080111118 0 13.656527080111118 3.6982043522293679 0 0 0 0 -14.847864347102586 38.174155857021105 0 38.174155857021105 21.366791573906085 0 0 0 0 -217.51782616899618 7.7772300625765638 0 7.7772300625765638 19.890524580172496 0 0 0 0 -10.873412751985484 15.581095536624602 0 15.581095536624602 -6.2790088898552199 0 0 0 0 -69.129391743961605 28.689495214530325 0 28.689495214530325 21.79143802886756 0 0 0 0 6.4486787011531703 26.782891628510413 0 26.782891628510413 41.25091712329538 0 0 0 0 -11.335089777552639 63.426762334041996 0 63.426762334041996 50.630146278374013 0 0 0 0 75.161121069959336 64.518495107517083 0 64.518495107517083 4.2258037329302169 0 0 0 0 6.3831642219350897 21.584727651923771 0 21.584727651923771 -25.333600459844831 0 0 0 0 -7.5979906742140884 57.827925549165229 0 57.827925549165229 39.438098995058681 0 0 0 0 -159.90538824229952 36.985088970885954 0 36.985088970885954 73.707300246067462 0 0 0 0 -51.193445221870206 66.262726221451885 0 66.262726221451885 74.879463955005122 0 0 0 0 -61.343059400896891 83.747730076240259 0 83.747730076240259 113.64206765858398 0 0 0 0 -83.870864606709802 73.596591394292773 0 73.596591394292773 179.39116707249195 0 0 0 0 -5.554054253466191 46.056306040294487 0 46.056306040294487 69.068741871870316 0 0 0 0 -66.534343799619819 83.283899766916875 0 83.283899766916875 17.491542076633777 0 0 0 0 -67.783768648303521 85.926596464925751 0 85.926596464925751 26.50493322944385 0 0 0 0 1.4971853749790682 42.707933752039423 0 42.707933752039423 54.371922941430455 0 0 0 0 -61.33324221921248 63.094015485966565 0 63.094015485966565 55.311907316203317 0 0 0 0 -20.452073741529603 131.11413785410696 0 131.11413785410696 -1.3811164062644821 0 0 0 0 -8.2365145127299684 8.448628080391984 0 8.448628080391984 -7.9702566883061081 0 0 0 0 -65.811579424509546 33.385791598906508 0 33.385791598906508 58.682390692585614 0 0 0 0 -112.35038510512095 308.76778896265023 0 308.76778896265023 -440.09467038582079 0 0 0 0 -137.21471493618446 330.77387044510397 0 330.77387044510397 -253.97634157957509 0 0 0 0 -102.83840322650212 302.14377505867742 0 302.14377505867742 -366.41652229733882 0 0 0 0 631.47973213539808 439.31737596119638 0 439.31737596119638 168.49842073894979 0 0 0 0 -370.10760088407551 199.19659075656818 0 199.19659075656818 22.478844048469909 0 0 0 0 -38.154349028637398 87.425227757971584 0 87.425227757971584 15.517292387335818 0 0 0 0 -10.521106298377063 25.681561047422974 0 25.681561047422974 7.7950882055324655 0 0 0 0 112.89772786007961 391.75969933118904 0 391.75969933118904 382.99649937110826 0 0 0 0 205.11325004427636 876.9396753490073 0 876.9396753490073 -211.14130689518061 0 0 0 0 -2.6662678399443678 -7.3692300854085033 0 -7.3692300854085033 7.1924387764469202 0 0 0 0 -922.71442736086101 1034.2375082132457 0 1034.2375082132457 -701.71216810191981 0 0 0 0 2033.638657124422 261.00428586467751 0 261.00428586467751 -478.78063152191316 0 0 0 0 573.91333549763658 194.35931493246608 0 194.35931493246608 -527.5426132237917 0 0 0 0 -38.087949354761804 322.0412889307263 0 322.0412889307263 -363.30420179138309 0 0 0 0 155.09039304032922 568.84540403641586 0 568.84540403641586 -636.80241443459636 0 0 0 0 102.30643880032585 277.59649497517967 0 277.59649497517967 -540.9187666710277 0 0 0 0 -81.208593340576044 544.93192969415395 0 544.93192969415395 -696.39499294292182 0 0 0 0 -149.30660524190171 324.14181904753787 0 324.14181904753787 -353.14993377823703 0 0 0 0 -401.51008004898904 447.62484772739845 0 447.62484772739845 -413.60612304642564 0 0 0 0 -211.23465749496245 422.37658887193538 0 422.37658887193538 -446.36346068570856 0 0 0 0 -45.269683855731273 446.30152802505472 0 446.30152802505472 -612.42877915766439 0 0 0 0 -82.923999318532879 468.62451422480808 0 468.62451422480808 -564.55600063787097 0 0 0 0 -8.3575287020357791 418.42219454636506 0 418.42219454636506 -557.66533151600379 0 0 0 0 -67.316464258707128 415.15840637566725 0 415.15840637566725 -447.84394607340801 0 0 0 0 22.958833148208214 288.79472324695962 0 288.79472324695962 -441.16462303664684 0 0 0 0 -64.684727907224442 311.1836154064149 0 311.1836154064149 -277.0418677565176 0 0 0 0 8.3275875577674014 249.49233240513422 0 249.49233240513422 -307.859585013588 0 0 0 0 -141.97089493091335 368.45909059229598 0 368.45909059229598 -292.42931070335908 0 0 0 0 -100.42749983488466 398.03330507002829 0 398.03330507002829 -463.76786507631186 0 0 0 0 -38.131800257033319 404.98782252246747 0 404.98782252246747 -518.76527026775875 0 0 0 0 -104.71709796250798 445.73135334007384 0 445.73135334007384 -519.96235868801296 0 0 0 0 -61.704742672816792 408.75024119431691 0 408.75024119431691 -827.19248082503327 0 0 0 0 -145.49759824902867 517.31610114655632 0 517.31610114655632 -447.82950284791877 0 0 0 0 -25.170504107503461 15.928474101416839 0 15.928474101416839 -1.1425191651541038 0 0 0 0 -147.89596361506847 405.93504911150376 0 405.93504911150376 -825.80194192292402 0 0 0 0 -3.6223982829105807 293.36153438291876 0 293.36153438291876 -1124.9653782542591 0 0 0 0 -50.207196602219483 230.79782604781576 0 230.79782604781576 -642.39691192746977 0 0 0 0 -44.396278338938146 17.33559903266152 0 17.33559903266152 12.476770252300046 0 0 0 0 -120.34724520967575 271.31320977577707 0 271.31320977577707 -371.3743188999797 0 0 0 0 -121.96687981540163 219.70665305132934 0 219.70665305132934 -413.65489940841508 0 0 0 0 -84.335694706416689 88.092667885925039 0 88.092667885925039 115.74972808665098 0 0 0 0 -4.3609435143953306 19.57307694060728 0 19.57307694060728 92.538186244288227 0 0 0 0 -38.399859801917046 89.198909122234909 0 89.198909122234909 307.85965538542951 0 0 0 0 42.024057616043137 124.16692330507794 0 124.16692330507794 165.42967480756124 0 0 0 0 42.908608032434131 230.62931961088179 0 230.62931961088179 742.57944986280927 0 0 0 0 309.9800353134633 316.06065456560464 0 316.06065456560464 37.835757467488293 0 0 0 0 -326.45397634606343 676.08351134025725 0 676.08351134025725 253.47830700536724 0 0 0 0 -21.747473874620283 58.102085539287231 0 58.102085539287231 -71.418024594954034 0 0 0 0 239.49747566363658 278.48506244565942 0 278.48506244565942 57.632126209806302 0 0 0 0 155.2639819296819 111.56008594290324 0 111.56008594290324 -16.065832353080623 0 0 0 0 451.9814166025244 155.98571827109117 0 155.98571827109117 -41.776792071235832 0 0 0 0 114.18244153505657 695.10071511240676 0 695.10071511240676 -2340.263148412414 0 0 0 0 -393.39495213156624 485.58039664187527 0 485.58039664187527 -1421.9228071016259 0 0 0 0 136.232546729967 -1.5869874525233172 0 -1.5869874525233172 -1491.2229224307812 0 0 0 0 -447.94657502678456 -55.71339243411785 0 -55.71339243411785 -1412.6264061137044 0 0 0 0 47.975977831549244 -450.54863765674236 0 -450.54863765674236 -1157.251617631875 0 0 0 0 -1424.5120456740842 395.80608722101897 0 395.80608722101897 -995.83847969537601 0 0 0 0 -895.71583632926922 -521.861725780298 0 -521.861725780298 132.9858971955473 0 0 0 0 77.726887312775943 143.88608025354915 0 143.88608025354915 -1222.4269553095219 0 0 0 0 524.68936691861018 135.58778218037332 0 135.58778218037332 -1442.8509776336577 0 0 0 0 340.89581708749756 325.79317709439783 0 325.79317709439783 -1392.8215933667525 0 0 0 0 25.774487855262123 336.25389684326365 0 336.25389684326365 -1069.6199492284504 0 0 0 0 -30.431522997940192 442.23392929843976 0 442.23392929843976 -1109.2933594978531 0 0 0 0 282.98411428672262 311.84836640812136 0 311.84836640812136 -2153.914315340211 0 0 0 0 -7.7693007289669254 9.8931748167442493 0 9.8931748167442493 -0.6666455594911973 0 0 0 0 -84.675493175600423 333.68244117169525 0 333.68244117169525 -1136.0747824092978 0 0 0 0 69.30399090264109 594.96553274781763 0 594.96553274781763 -1399.979306913272 0 0 0 0 15.285609868442407 62.024527113884687 0 62.024527113884687 -1692.7824159638258 0 0 0 0 -86.252642897685291 566.37949821402435 0 566.37949821402435 -821.66195369960042 0 0 0 0 -227.41706973953114 172.37896346365596 0 172.37896346365596 -1182.3577028675354 0 0 0 0 -101.51281382257002 442.37351055131876 0 442.37351055131876 -739.56997405666334 0 0 0 0 -135.90744321970851 564.70997137957602 0 564.70997137957602 -378.31122492766008 0 0 0 0 40.086949375971926 613.96677477391859 0 613.96677477391859 -805.11870867479593 0 0 0 0 -48.066903889877722 450.51304031870677 0 450.51304031870677 -774.07355260028999 0 0 0 0 -23.609643250703812 607.47669525680249 0 607.47669525680249 -408.4334772049915 0 0 0 0 85.178846300230362 563.17740811777185 0 563.17740811777185 -411.22895344276913 0 0 0 0 -128.86648761456308 458.00744051786751 0 458.00744051786751 -48.822558936022688 0 0 0 0 -102.69447011518059 471.00200657403911 0 471.00200657403911 -419.57277835231798 0 0 0 0 -156.75271627676557 349.57240438566805 0 349.57240438566805 -121.19624193559866 0 0 0 0 -99.127150834203348 171.28463234014635 0 171.28463234014635 -108.67338275128714 0 0 0 0 -144.50105325054028 316.31041497873957 0 316.31041497873957 -170.43075315188617 0 0 0 0 -84.631692594528431 408.57425956171937 0 408.57425956171937 -97.31308500902378 0 0 0 0 -101.00142654354568 185.46830115662306 0 185.46830115662306 218.44349743850762 0 0 0 0 -46.812199036183301 196.28531449509319 0 196.28531449509319 -143.13829114538385 0 0 0 0 114.16451856729691 114.12329540788778 0 114.12329540788778 -234.70450195739977 0 0 0 0 -1.345957476703191 16.699001650791658 0 16.699001650791658 14.146410510280873 0 0 0 0 1243.7054280384909 -291.09212748553546 0 -291.09212748553546 -246.87944939483714 0 0 0 0 18.749976076916994 19.567888098132016 0 19.567888098132016 -5.0771125053974231 0 0 0 0 -35.797816273421631 157.8931210817027 0 157.8931210817027 930.6200050249754 0 0 0 0 64.020047687448823 -46.40585352339258 0 -46.40585352339258 252.0769107088563 0 0 0 0 -121.93330100050662 384.4536814642197 0 384.4536814642197 507.22440295715933 0 0 0 0 227.99031966392067 870.38600472660255 0 870.38600472660255 854.76211217811215 0 0 0 0 189.88652300214017 671.91539666806057 0 671.91539666806057 -123.61347331001889 0 0 0 0 100.93730919691734 433.71330814188696 0 433.71330814188696 -360.68938507520943 0 0 0 0 303.5772817384568 703.67202146508498 0 703.67202146508498 -735.29318534741469 0 0 0 0 8.4338549440726638 479.47283305932069 0 479.47283305932069 -362.9322701615165 0 0 0 0 693.97467205586145 249.66373785039468 0 249.66373785039468 -1226.5849469719542 0 0 0 0 1238.8197188882514 -1661.8676952616206 0 -1661.8676952616206 -94.336294387147063 0 0 0 0 1649.8257876333009 -168.18981401780911 0 -168.18981401780911 -1992.5498737700545 0 0 0 0 285.84242855990306 42.601974411620176 0 42.601974411620176 -1030.539239737991 0 0 0 0 2495.6527791251574 994.15641401156608 0 994.15641401156608 -928.35967112701474 0 0 0 0 -38.535901629526052 835.82980111737561 0 835.82980111737561 257.61432595550286 0 0 0 0 31.832214229718829 102.43104212101616 0 102.43104212101616 -1965.199593807949 0 0 0 0 -1088.8912809547182 -569.31619476542983 0 -569.31619476542983 -517.54427759119426 0 0 0 0 -11.591606565461035 32.955929049883395 0 32.955929049883395 -39.6702446762622 0 0 0 0 -579.41990949910905 -1652.3662515818178 0 -1652.3662515818178 -1864.3367499552551 0 0 0 0 794.375435817572 1839.6556151722834 0 1839.6556151722834 1481.1963740510764 0 0 0 0 1429.0528195514926 51.682530300342478 0 51.682530300342478 -1117.336762167397 0 0 0 0 -13.128481541482131 49.50984835345389 0 49.50984835345389 -61.397922370436277 0 0 0 0 477.6370080185734 987.83651617949363 0 987.83651617949363 388.76255600352306 0 0 0 0 229.25901143054944 -915.86802001911929 0 -915.86802001911929 -1897.0716739676136 0 0 0 0 588.49169496864806 -703.64331876181313 0 -703.64331876181313 -2066.8274364845129 0 0 0 0 348.96600164036499 92.001600005118235 0 92.001600005118235 -322.72962348756846 0 0 0 0 165.49892952747177 79.25211864139419 0 79.25211864139419 372.52479918364179 0 0 0 0 80.041792341507971 325.1029974250705 0 325.1029974250705 -0.8349907721276395 0 0 0 0 -287.84944294321758 -718.7113210674288 0 -718.7113210674288 -477.98322610546893 0 0 0 0 5.910543973476166 2.7298459321610977 0 2.7298459321610977 -10.393036659446409 0 0 0 0 2316.0232636378933 2428.6083687327409 0 2428.6083687327409 846.44366448544315 0 0 0 0 -1598.8748806762669 1304.1062201391105 0 1304.1062201391105 95.061231034407683 0 0 0 0 -4.7477050803820191 11.271705759210299 0 11.271705759210299 -27.319866231734693 0 0 0 0 575.97456957981922 378.92100766078511 0 378.92100766078511 -306.3688447301829 0 0 0 0 -649.32839809122379 500.31463952890044 0 500.31463952890044 414.48212479673748 0 0 0 0 -245.35197312603395 777.88991156107909 0 777.88991156107909 -147.32180017212522 0 0 0 0 1684.9707379548636 303.72156711673597 0 303.72156711673597 -839.12180706307117 0 0 0 0 572.20704894805385 877.77526901732199 0 877.77526901732199 -966.18341114501527 0 0 0 0 879.23037244713851 918.7119016091965 0 918.7119016091965 -341.10626383681665 0 0 0 0 1134.5031931450503 309.49407282809261 0 309.49407282809261 -450.40996502579947 0 0 0 0 -4.7128591223259946 42.738276238527973 0 42.738276238527973 -80.892841932847944 0 0 0 0 914.66231347298162 0.86995185254636453 0 0.86995185254636453 -445.18689145534881 0 0 0 0 29.763710378487303 411.60872686149014 0 411.60872686149014 -132.37756433656614 0 0 0 0 22.137933525464859 74.353059658288998 0 74.353059658288998 49.155604588121804 0 0 0 0 158.17044472748239 592.67413206929268 0 592.67413206929268 -104.91963333782041 0 0 0 0 -188.90149485194706 378.85653382557575 0 378.85653382557575 -25.364270968042547 0 0 0 0 -89.624496634773095 567.05816233732185 0 567.05816233732185 -20.941277625126531 0 0 0 0 -2.5011359778909537 410.28286354471857 0 410.28286354471857 -777.30782851442927 0 0 0 0 36.867869744091877 259.06147098581278 0 259.06147098581278 -196.522579053355 0 0 0 0 -9.9439456471146741 26.290367599327226 0 26.290367599327226 -68.219315432820963 0 0 0 0 646.87070939214027 526.80819655352752 0 526.80819655352752 -560.86151536466787 0 0 0 0 155.35549539371277 -279.00074802368181 0 -279.00074802368181 -342.76627667256253 0 0 0 0 131.74942974338774 -769.08675989849144 0 -769.08675989849144 -970.47508121548162 0 0 0 0 275.67727710463805 -329.98702960182709 0 -329.98702960182709 -1159.0909253539285 0 0 0 0 390.65979808848351 -452.230194676682 0 -452.230194676682 -2429.2394017164333 0 0 0 0 378.11813121589512 673.99659763705131 0 673.99659763705131 -3090.2484873687281 0 0 0 0 -86.973280127727776 1217.7274030327935 0 1217.7274030327935 -360.78057064782479 0 0 0 0 -1.1296579453833431 5.961566076826891 0 5.961566076826891 -27.261064015926422 0 0 0 0 -75.533312202867819 1071.6011192815349 0 1071.6011192815349 -2481.5907797278778 0 0 0 0 -646.41787642607233 -56.105779656134473 0 -56.105779656134473 253.54105849961343 0 0 0 0 -431.66863777881372 466.81887033103521 0 466.81887033103521 -421.86901997670066 0 0 0 0 -654.70216633772361 1160.6828515837988 0 1160.6828515837988 -1346.0262489139423 0 0 0 0 -1222.977443924814 68.365658794202318 0 68.365658794202318 -617.63110217639769 0 0 0 0 -554.3622600860399 641.13134936629649 0 641.13134936629649 -195.69921882399649 0 0 0 0 -557.36461507390777 64.298007002318627 0 64.298007002318627 -63.500863827626745 0 0 0 0 -164.33388837387611 378.04956869267335 0 378.04956869267335 -32.143074130799505 0 0 0 0 -240.37549593283984 17.932072386244727 0 17.932072386244727 292.51136303256499 0 0 0 0 53.814500392256662 83.038615192388846 0 83.038615192388846 65.835937147057763 0 0 0 0 -22.115044558566296 195.87243076352752 0 195.87243076352752 -219.33530312034418 0 0 0 0 206.74289593914 -178.98455743777959 0 -178.98455743777959 -108.85617581455153 0 0 0 0 -290.27011164710711 281.1267763864962 0 281.1267763864962 108.461944365612 0 0 0 0 350.83485155216476 68.343125254919869 0 68.343125254919869 60.516046760276367 0 0 0 0 82.295679143006339 107.26569903537705 0 107.26569903537705 50.166810048110506 0 0 0 0 43.622023132229515 285.80636457015498 0 285.80636457015498 -365.45786739117466 0 0 0 0 110.91828102861473 183.25861732344492 0 183.25861732344492 -238.87426987300569 0 0 0 0 108.65465728961863 142.02519856109575 0 142.02519856109575 -529.8285219933241 0 0 0 0 -0.63211657044593039 66.536491073430383 0 66.536491073430383 -41.345573293596829 0 0 0 0 -139.53190390131203 216.77364097325335 0 216.77364097325335 25.244658157593221 0 0 0 0 107.59554900855983 112.01760117139176 0 112.01760117139176 38.551617734114132 0 0 0 0 -492.0831656929513 1167.4484655552296 0 1167.4484655552296 -860.33617994723318 0 0 0 0 388.93548648044452 463.12764285297089 0 463.12764285297089 -314.16746363842685 0 0 0 0 16.83945568209748 55.731699603975329 0 55.731699603975329 -34.952386014046624 0 0 0 0 1094.5905095173512 113.77963810405345 0 113.77963810405345 -1186.0386177642285 0 0 0 0 167.58888461356037 -120.16676949543762 0 -120.16676949543762 -1215.0117844551714 0 0 0 0 -22.054096346837468 1287.0222130125767 0 1287.0222130125767 -3426.6867238031627 0 0 0 0 -1100.7017122748948 -2272.9761370471388 0 -2272.9761370471388 -1876.8012873913103 0 0 0 0 218.46787525169202 85.858979074277158 0 85.858979074277158 -330.29749537602765 0 0 0 0 678.88548471570539 1373.657517711079 0 1373.657517711079 3113.2073729168624 0 0 0 0 4210.6408236142597 4048.9309813833534 0 4048.9309813833534 -160.15659151600266 0 0 0 0 5960.7146858274646 -689.96820404726896 0 -689.96820404726896 -923.14200165914372 0 0 0 0 -807.76257122744573 266.32991270863567 0 266.32991270863567 -1259.258444224397 0 0 0 0 611.11935147689655 1738.4899192826997 0 1738.4899192826997 149.55058927244681 0 0 0 0 1743.8519672753391 1756.45680292221 0 1756.45680292221 -1294.3594434180995 0 0 0 0 921.63591760868439 158.05683807746391 0 158.05683807746391 -1059.6613266429049 0 0 0 0 3536.8073984788225 -675.85850132704581 0 -675.85850132704581 -2658.1535941126203 0 0 0 0 20.450540108927981 25.028937510614952 0 25.028937510614952 34.661411907515685 0 0 0 0 -735.30999763211003 637.99065246232203 0 637.99065246232203 -265.26569494160867 0 0 0 0 1544.3089602555701 450.07030720490002 0 450.07030720490002 200.71239664588938 0 0 0 0 2061.3224399931642 1269.982110449906 0 1269.982110449906 271.05031788698398 0 0 0 0 2787.5836638195324 1910.2563795250171 0 1910.2563795250171 -2673.1267243509647 0 0 0 0 -9.4085116605230041 14.546141170589323 0 14.546141170589323 -13.228715864672751 0 0 0 0 178.25313908673706 1042.3909934050753 0 1042.3909934050753 -2702.2624602896431 0 0 0 0 1381.961172436706 1806.8984779313396 0 1806.8984779313396 1179.8558061068325 0 0 0 0 786.41471573724994 1003.259031203128 0 1003.259031203128 1383.2535453068995 0 0 0 0 1209.2788548695244 819.79080567566416 0 819.79080567566416 278.18351063373848 0 0 0 0 839.18197563977446 698.92555263162649 0 698.92555263162649 401.06793388730875 0 0 0 0 762.56167336340877 323.75613360037096 0 323.75613360037096 -31.523812368388462 0 0 0 0 862.64085102676472 719.84707425282249 0 719.84707425282249 548.99829932511784 0 0 0 0 8.436838326670113 -1.6407123015305842 0 -1.6407123015305842 305.71781491709407 0 0 0 0 920.28499959452893 753.32428239942237 0 753.32428239942237 161.91846964323486 0 0 0 0 262.38742579676909 470.12299753041589 0 470.12299753041589 19.160757088655373 0 0 0 0 709.85871403638157 341.17130561196973 0 341.17130561196973 -11.555395244373358 0 0 0 0 528.71593421997386 140.33068924093823 0 140.33068924093823 -155.81587692044559 0 0 0 0 411.92686452100315 185.03714962408048 0 185.03714962408048 180.10965817631222 0 0 0 0 514.42266960175766 155.67747113132646 0 155.67747113132646 -7.085193404528809 0 0 0 0 599.39070757696754 340.70083427830832 0 340.70083427830832 89.215034771943465 0 0 0 0 798.14895455620717 368.69940361035697 0 368.69940361035697 16.925265339028556 0 0 0 0 655.89157550941309 520.84204583014434 0 520.84204583014434 250.57656329072779 0 0 0 0 659.90828302211594 363.22815020017151 0 363.22815020017151 147.31804478884442 0 0 0 0 924.48012488431414 402.55630965800083 0 402.55630965800083 65.694116896091145 0 0 0 0 931.94243390361271 748.63680718497039 0 748.63680718497039 320.35871787072392 0 0 0 0 765.00011065005674 730.23480000472046 0 730.23480000472046 487.92852105618658 0 0 0 0 585.28799670263834 446.70372437789047 0 446.70372437789047 152.66506697853765 0 0 0 0 793.55634431701037 618.15498679869779 0 618.15498679869779 232.00725003924163 0 0 0 0 635.3166078327049 718.68938384731882 0 718.68938384731882 281.32201408419496 0 0 0 0 847.11052983471018 662.91998720981064 0 662.91998720981064 295.20845653957804 0 0 0 0 1726.7381290597841 839.93636078541022 0 839.93636078541022 -63.687477195482643 0 0 0 0 -14.776820104688312 19.851119549146091 0 19.851119549146091 20.478581359349675 0 0 0 0 636.28236480901978 623.28429922067153 0 623.28429922067153 466.61333780303539 0 0 0 0 -24.603983864310351 33.187329710240036 0 33.187329710240036 -34.395517424171828 0 0 0 0 -7.0257315524067963 -128.84706373811787 0 -128.84706373811787 584.37668239978666 0 0 0 0 753.5360463485049 337.63608635296623 0 337.63608635296623 -520.01025488507003 0 0 0 0 -6.6484744305198262 11.569457348540354 0 11.569457348540354 -29.346500392615496 0 0 0 0 826.91111366280529 567.48977219973312 0 567.48977219973312 597.96617678536859 0 0 0 0 -69.189882213817327 931.49159837495245 0 931.49159837495245 -1264.1575327360188 0 0 0 0 -1474.5554998523039 352.39954559695343 0 352.39954559695343 -307.90935869510577 0 0 0 0 -327.65730715484369 -690.96503566258161 0 -690.96503566258161 211.10419220161566 0 0 0 0 -1035.4249371733458 2004.5409087142179 0 2004.5409087142179 -2131.9604146474594 0 0 0 0 -104.38504677657693 -777.17736762752611 0 -777.17736762752611 -1332.686832000094 0 0 0 0 2.4968336896930836 -3.2200554194064921 0 -3.2200554194064921 -17.071877543858818 0 0 0 0 -12.121248836105224 -136.93094529246446 0 -136.93094529246446 486.27316709489969 0 0 0 0 190.14764995343285 -408.88228463458654 0 -408.88228463458654 -1164.7089523780169 0 0 0 0 226.40479533508915 -253.47327332444183 0 -253.47327332444183 -617.73315365593589 0 0 0 0 125.59453519355156 43.338100100845622 0 43.338100100845622 -1483.6846017833159 0 0 0 0 -69.371170934886322 605.31879279649002 0 605.31879279649002 -722.19506580081361 0 0 0 0 331.49029299623362 37.236894742884033 0 37.236894742884033 79.149242239684099 0 0 0 0 -28.018219184982968 60.054892467376561 0 60.054892467376561 -70.318211650054423 0 0 0 0 -330.87334614795691 713.02162690607656 0 713.02162690607656 270.40517857911254 0 0 0 0 -1302.1776846020803 580.86564926752908 0 580.86564926752908 -26.870253594090173 0 0 0 0 -183.7591096189426 276.19187508503273 0 276.19187508503273 -96.529813390880008 0 0 0 0 0.83261377086807897 -1.3160516014108623 0 -1.3160516014108623 2.6756521112254745 0 0 0 0 -616.93294878903544 858.62785315321526 0 858.62785315321526 32.130824607871546 0 0 0 0 -29.86632483384173 58.233509395639985 0 58.233509395639985 -71.844689983975684 0 0 0 0 -821.98953820113093 831.69316460743721 0 831.69316460743721 36.300220820252434 0 0 0 0 -353.23769200582501 827.22390130656458 0 827.22390130656458 -242.45298846949299 0 0 0 0 -399.43367711176688 519.90134380920426 0 519.90134380920426 -137.32618305334472 0 0 0 0 -775.47406463381776 706.95414951615385 0 706.95414951615385 -212.61052442637447 0 0 0 0 -699.84563863461881 590.13140452524021 0 590.13140452524021 -87.069191580230836 0 0 0 0 -642.72383663432265 726.43658928442164 0 726.43658928442164 -20.686494930065237 0 0 0 0 -418.93742582086998 661.42526964655553 0 661.42526964655553 -70.338727787253447 0 0 0 0 -257.47368334879866 212.87749126843119 0 212.87749126843119 -141.80331879535515 0 0 0 0 -179.58719152531557 129.21934143259568 0 129.21934143259568 -93.661686937994091 0 0 0 0 -541.10086858379509 515.41016879633389 0 515.41016879633389 -76.926196148240706 0 0 0 0 -980.64895621031974 16.202248366835192 0 16.202248366835192 -164.79390755403438 0 0 0 0 -1230.9243748869812 -360.2299198095061 0 -360.2299198095061 -897.80044984618144 0 0 0 0 -1912.9459715167031 485.60497111221775 0 485.60497111221775 -226.08160418365151 0 0 0 0 -962.08276861896229 1276.2129610410157 0 1276.2129610410157 -1152.192960607892 0 0 0 0 330.61055763050172 -594.42869712873289 0 -594.42869712873289 -1852.6953092875628 0 0 0 0 378.4062776583196 148.64655197399043 0 148.64655197399043 -2438.9784230683726 0 0 0 0 -843.22955138610996 1775.8505934997884 0 1775.8505934997884 -1092.0669669546769 0 0 0 0 -1333.9725295413518 488.57907689984131 0 488.57907689984131 -53.732775378899532 0 0 0 0 -723.37472045500181 783.70792505600548 0 783.70792505600548 84.265372101814137 0 0 0 0 -744.15174408509483 1143.139501343001 0 1143.139501343001 -61.625841231609229 0 0 0 0 -646.19462789381214 1229.7338791421134 0 1229.7338791421134 -846.04774800536688 0 0 0 0 -2920.8761865794077 -872.2993931753881 0 -872.2993931753881 -2069.5078466170671 0 0 0 0 -1750.7671435044031 1048.0196506641514 0 1048.0196506641514 -632.50029552394699 0 0 0 0 -946.66706910153152 786.07497316322406 0 786.07497316322406 -1310.2437383486831 0 0 0 0 -1514.8376651909093 -336.42687269474482 0 -336.42687269474482 -2418.4937337885494 0 0 0 0 0.49377243854407737 6.6033865604144353 0 6.6033865604144353 -5.5319574555548456 0 0 0 0 1093.5413638729806 3.6024429240715108 0 3.6024429240715108 -1367.7137747847737 0 0 0 0 -926.15807971297181 895.51151677613234 0 895.51151677613234 -2118.1442556435068 0 0 0 0 0.48792713996954262 554.20861408128985 0 554.20861408128985 -1097.5955159055011 0 0 0 0 843.23125904772314 657.30001942855597 0 657.30001942855597 -2610.564754736959 0 0 0 0 -46.005799371516332 460.68117063159298 0 460.68117063159298 233.80270838001525 0 0 0 0 235.10573223396204 -80.890916360425763 0 -80.890916360425763 86.21206433865882 0 0 0 0 -1172.9955271678118 458.39447705172279 0 458.39447705172279 -116.42871678757365 0 0 0 0 -600.42565607037977 -102.48925409319781 0 -102.48925409319781 103.01925258286428 0 0 0 0 0.5232164064446998 9.9508225243932316 0 9.9508225243932316 -4.7529032861889959 0 0 0 0 -154.29774599703615 175.29697236238144 0 175.29697236238144 252.88395417464199 0 0 0 0 23.365299205470365 519.48937148836558 0 519.48937148836558 20.065436480232165 0 0 0 0 67.141484090534505 476.05555950781127 0 476.05555950781127 -170.35569461961859 0 0 0 0 -0.47139800622244366 429.59100199537352 0 429.59100199537352 50.273720150464214 0 0 0 0 -346.08015203372634 193.94733873178484 0 193.94733873178484 -234.11665851008729 0 0 0 0 0.65946569810330402 593.66497529856133 0 593.66497529856133 213.92111388398916 0 0 0 0 6.6991399000689853 194.24008216390212 0 194.24008216390212 63.973320783028612 0 0 0 0 0.33455223503530718 6.9092674136904861 0 6.9092674136904861 0.54160030120556257 0 0 0 0 1110.8862372950416 1041.0350619730355 0 1041.0350619730355 684.86988054077665 0 0 0 0 -1175.8322339218284 255.64349756130105 0 255.64349756130105 717.11382077026065 0 0 0 0 307.57422432037129 1037.3081540014136 0 1037.3081540014136 587.30596155091189 0 0 0 0 941.75512706481095 1120.8152649801559 0 1120.8152649801559 329.56721778857172 0 0 0 0 -352.57599102017411 532.28901070692518 0 532.28901070692518 252.1156326966011 0 0 0 0 106.0889518918666 1627.3853964699865 0 1627.3853964699865 110.68567926170363 0 0 0 0 172.32463528041262 922.46565837702656 0 922.46565837702656 1037.7717645037774 0 0 0 0 -53.90155844943547 49.436175017064414 0 49.436175017064414 -46.985731971463679 0 0 0 0 905.13368832616834 1402.2789690565623 0 1402.2789690565623 285.3121708316321 0 0 0 0 -93.26350979450217 999.12214841144305 0 999.12214841144305 -99.730189104428064 0 0 0 0 -1486.0520911269996 63.163831176483654 0 63.163831176483654 194.34718967790832 0 0 0 0 -1104.3524210342002 1263.8156456002107 0 1263.8156456002107 -720.14996076757961 0 0 0 0 -309.24786096558455 482.03249765410692 0 482.03249765410692 40.922000763312099 0 0 0 0 -37.559007671782581 64.56856971471538 0 64.56856971471538 -33.349488785016717 0 0 0 0 -466.69984082847077 745.31600413297565 0 745.31600413297565 125.15099729037865 0 0 0 0 -134.99679480354826 240.04738135770458 0 240.04738135770458 -27.108114956157806 0 0 0 0 -472.79789599996002 460.3725072460511 0 460.3725072460511 -131.04193305598164 0 0 0 0 -587.77178956355783 160.590549476452 0 160.590549476452 73.7711508681532 0 0 0 0 73.42044200274637 91.12985379095997 0 91.12985379095997 46.307210359575635 0 0 0 0 20.813976278994687 27.169467322156322 0 27.169467322156322 0.52059021907396641 0 0 0 0 -204.96787462556676 70.33551657236967 0 70.33551657236967 1024.1835585711669 0 0 0 0 249.41290893864061 1069.6168627149309 0 1069.6168627149309 -603.5918557181285 0 0 0 0 68.133949313198741 60.384553702154932 0 60.384553702154932 17.667129383823976 0 0 0 0 -2.1803053705953062 852.0436795251735 0 852.0436795251735 29.908400421903934 0 0 0 0 165.86955852205574 1073.1491890149482 0 1073.1491890149482 -858.03345731715672 0 0 0 0 247.85589940992213 297.32571606704732 0 297.32571606704732 -650.36905907010077 0 0 0 0 -189.36423581319832 1411.5579323449128 0 1411.5579323449128 -823.47473471600097 0 0 0 0 -1026.6816524910973 1339.7086631827406 0 1339.7086631827406 -596.154315881402 0 0 0 0 -1504.4458334255178 787.38204802857945 0 787.38204802857945 -174.29468402764178 0 0 0 0 2464.3747750400798 915.556111143218 0 915.556111143218 -1528.5011515010483 0 0 0 0 860.18280960326956 2961.5671668297437 0 2961.5671668297437 735.42527205729857 0 0 0 0 389.0962228791177 649.42251927636244 0 649.42251927636244 -511.90941713891516 0 0 0 0 24.105732949325443 19.374905361602089 0 19.374905361602089 13.201034535103332 0 0 0 0 86.060287807631539 974.02013995630114 0 974.02013995630114 168.74262979687046 0 0 0 0 -75.911530665907776 1013.7393593158777 0 1013.7393593158777 4127.70258350105 0 0 0 0 2732.8824634659468 2934.3333239693184 0 2934.3333239693184 -561.02539755095495 0 0 0 0 3631.5596312851994 433.03562830693409 0 433.03562830693409 -3018.9848279074649 0 0 0 0 989.31754189479398 -1443.443732488653 0 -1443.443732488653 -217.79813276270943 0 0 0 0 597.99088698864216 -200.53029286811943 0 -200.53029286811943 -3742.7886915826675 0 0 0 0 417.14757439298774 -1839.25006410076 0 -1839.25006410076 -3985.8570348887879 0 0 0 0 1990.6377683553583 699.10905867807014 0 699.10905867807014 -3279.5486251432449 0 0 0 0 1133.2992844186956 -755.74657645623665 0 -755.74657645623665 -3188.5438998382306 0 0 0 0 1022.4801044587075 1154.2381095884411 0 1154.2381095884411 -2885.1040509863524 0 0 0 0 349.28953376511345 881.11782295533339 0 881.11782295533339 -1777.2579754622129 0 0 0 0 593.14179454113764 2186.0592075108725 0 2186.0592075108725 -752.68545847706264 0 0 0 0 1122.3439911192982 1615.0480280017364 0 1615.0480280017364 -4463.3399768221134 0 0 0 0 -377.54536899155937 1573.2888334165909 0 1573.2888334165909 -2886.6318681755288 0 0 0 0 -505.32801310619107 -213.77760754869087 0 -213.77760754869087 -3575.4775593289087 0 0 0 0 68.537723134672888 70.360250394764989 0 70.360250394764989 -40.196248868032427 0 0 0 0 26.419381882355083 783.81659303035121 0 783.81659303035121 -711.3832588957448 0 0 0 0 24.026787705411323 26.861419216493005 0 26.861419216493005 -25.102591659765494 0 0 0 0 -748.92111617344199 182.06809665627952 0 182.06809665627952 118.97136347823835 0 0 0 0 -3.6016459065798472 9.402970692434792 0 9.402970692434792 -0.9926661811447417 0 0 0 0 -210.50176686428313 -163.97383122314204 0 -163.97383122314204 -152.19683300578617 0 0 0 0 26.927841138165718 60.757686347782993 0 60.757686347782993 -37.145094680545441 0 0 0 0 59.927372591555468 78.46061837407251 0 78.46061837407251 -49.613653785097995 0 0 0 0 151.10419396874568 -81.084894079669539 0 -81.084894079669539 -209.98292811834835 0 0 0 0 46.847850817342987 55.2681846608466 0 55.2681846608466 -66.139217983560229 0 0 0 0 32.482399452434038 71.929467893874971 0 71.929467893874971 -22.703766995458864 0 0 0 0 1101.659956231364 -361.69385356521525 0 -361.69385356521525 -4529.5232005136349 0 0 0 0 -8.2160149586279658 -1.3248027275812149 0 -1.3248027275812149 -26.164884145860754 0 0 0 0 -639.60763390440843 795.53240306712541 0 795.53240306712541 -345.37559818394948 0 0 0 0 -113.71895368836704 1088.6434814616659 0 1088.6434814616659 -532.86789706388663 0 0 0 0 -72.100500581931556 676.97325838269899 0 676.97325838269899 -457.22210033920419 0 0 0 0 -673.17543112652493 878.58789183997578 0 878.58789183997578 -522.3690985540743 0 0 0 0 -61.851637800427852 766.52334855693334 0 766.52334855693334 -1073.5954523319961 0 0 0 0 -113.71244339817031 1089.9992375266927 0 1089.9992375266927 -767.02612117448007 0 0 0 0 303.77963316143723 1041.3225521477289 0 1041.3225521477289 -889.58495428292372 0 0 0 0 218.34278835172881 597.63967171804688 0 597.63967171804688 -2678.8158518542623 0 0 0 0 18.575542821985437 470.77731041454535 0 470.77731041454535 -830.15896797434834 0 0 0 0 384.69761516943981 -76.07437979059614 0 -76.07437979059614 -333.09156722974149 0 0 0 0 -438.20387435362863 775.5250033637567 0 775.5250033637567 209.59893077920424 0 0 0 0 -673.3119335901938 408.36982152733253 0 408.36982152733253 -47.653433834348107 0 0 0 0 62.982123546935668 85.242401929118415 0 85.242401929118415 78.213321046781118 0 0 0 0 -7.1034503102127928 410.41551078585326 0 410.41551078585326 -641.34065378430387 0 0 0 0 -16.868845632969169 146.2620659571985 0 146.2620659571985 -287.67106275173137 0 0 0 0 315.95465905536548 373.47148776323593 0 373.47148776323593 -193.0035141239423 0 0 0 0 268.12989703450876 487.13650015968597 0 487.13650015968597 -475.27319792102207 0 0 0 0 -762.76730920771661 796.1190644255621 0 796.1190644255621 -214.70083719337708 0 0 0 0 -44.386890110246895 -159.39448427718889 0 -159.39448427718889 -516.51332385455316 0 0 0 0 -644.77669563094969 931.50172175293119 0 931.50172175293119 -69.450323198805563 0 0 0 0 24.317465571254388 37.186056806922579 0 37.186056806922579 9.890193198521203 0 0 0 0 90.046980674731799 55.830917761551177 0 55.830917761551177 -8.4012131878695868 0 0 0 0 -487.27363809087547 699.60036483357544 0 699.60036483357544 -312.73743751327493 0 0 0 0 -83.115753884427249 573.26860927639063 0 573.26860927639063 -347.45136182026181 0 0 0 0 -586.38700026441074 374.28323251497204 0 374.28323251497204 -114.73802196039469 0 0 0 0 -851.98658739808889 622.83062696842535 0 622.83062696842535 -78.827710266661597 0 0 0 0 370.57382618174597 83.91101513223839 0 83.91101513223839 -27.685435200168286 0 0 0 0 314.2691516749619 482.47810506461974 0 482.47810506461974 -135.80549839099331 0 0 0 0 -6.5594923210282445 5.7611671324122824 0 5.7611671324122824 -1.6753843957920935 0 0 0 0 -1050.5569072875005 -48.518874536011936 0 -48.518874536011936 7.5309682038932806 0 0 0 0 40.481119107658742 75.516682477158611 0 75.516682477158611 -46.941437370034691 0 0 0 0 41.584714156459086 69.954495440491883 0 69.954495440491883 -18.91128656854562 0 0 0 0 37.870241261397979 56.656091508721829 0 56.656091508721829 -13.412814429555567 0 0 0 0 41.219888901032903 30.832034201865127 0 30.832034201865127 -36.225828540353518 0 0 0 0 22.406991599785442 4.844042248252137 0 4.844042248252137 -16.362073621459302 0 0 0 0 42.789466317772167 102.74634202440211 0 102.74634202440211 -14.727395462876302 0 0 0 0 70.08054159997846 84.609642243398412 0 84.609642243398412 -33.792982394312276 0 0 0 0 71.812294172657857 72.679129430433932 0 72.679129430433932 -23.54567646549549 0 0 0 0 50.088729553897792 88.606657130188523 0 88.606657130188523 -20.110796432156349 0 0 0 0 27.546909745704397 49.715899917162687 0 49.715899917162687 -28.828078007768511 0 0 0 0 9.9497109617295791 274.32110297191502 0 274.32110297191502 -165.59096954466077 0 0 0 0 68.742114541087318 67.080366207804701 0 67.080366207804701 7.1748210554718526 0 0 0 0 50.341907731897663 99.487830636600847 0 99.487830636600847 -28.025874655551888 0 0 0 0 47.80432141709025 107.33782874868848 0 107.33782874868848 -26.05515968290274 0 0 0 0 -4.0315592791345409 45.974547279413912 0 45.974547279413912 -15.208879864999801 0 0 0 0 64.975967075471999 55.628651592487586 0 55.628651592487586 -11.277602534886682 0 0 0 0 47.410897646914236 67.694141106825555 0 67.694141106825555 -19.935197333150427 0 0 0 0 59.038897851773072 61.836826551007107 0 61.836826551007107 -18.790409040557279 0 0 0 0 -9.2704076659520638 59.145190399485728 0 59.145190399485728 -5.1922803100247279 0 0 0 0 54.254398282908369 94.332040641980711 0 94.332040641980711 -14.809673332514649 0 0 0 0 62.303695596579928 105.60717516941077 0 105.60717516941077 -66.322393000860757 0 0 0 0 35.839615761477035 142.4413492053136 0 142.4413492053136 -37.173315958556486 0 0 0 0 36.535887903271941 147.61985576845473 0 147.61985576845473 -4.3043366518832045 0 0 0 0 49.881487240490969 175.64116490690503 0 175.64116490690503 -74.682784093907685 0 0 0 0 37.133618829524494 150.16235528262405 0 150.16235528262405 -49.870814064051956 0 0 0 0 43.79622246461804 121.27067223499762 0 121.27067223499762 77.031807660212507 0 0 0 0 11.07673644075112 151.164639284023 0 151.164639284023 102.29561208745872 0 0 0 0 27.405790317308856 142.93520019350763 0 142.93520019350763 -5.372636316169519 0 0 0 0 -3.6637144106498454 73.203022765766946 0 73.203022765766946 -36.557986525993329 0 0 0 0 26.503452812234173 128.73792363991743 0 128.73792363991743 -12.091725115140434 0 0 0 0 37.692147372290492 100.89112620733067 0 100.89112620733067 0.63031862489879131 0 0 0 0 18.851994570461102 143.74099074343394 0 143.74099074343394 -40.494052946713055 0 0 0 0 -44.52960848598741 125.43697265148512 0 125.43697265148512 29.80694927382865 0 0 0 0 22.454286405292805 130.79365724885429 0 130.79365724885429 -11.094918330192741 0 0 0 0 23.975554254720919 140.45578397633653 0 140.45578397633653 16.269099439581623 0 0 0 0 7.1118881552247331 88.083724732612609 0 88.083724732612609 66.812686371922609 0 0 0 0 7.1444723632303067 86.124472333336598 0 86.124472333336598 -37.350776857193523 0 0 0 0 -0.34595565186464228 58.532987806313031 0 58.532987806313031 26.756578342872672 0 0 0 0 -14.499754176565432 45.755184566642043 0 45.755184566642043 -33.996036291627718 0 0 0 0 2.6477094649933406 21.376505871561761 0 21.376505871561761 -31.974425772893539 0 0 0 0 31.179754343721584 31.319582742790971 0 31.319582742790971 -47.167826498576261 0 0 0 0 -0.18393706798087806 23.313833968801191 0 23.313833968801191 -37.331385555946326 0 0 0 0 -5.89874079435765 29.70928812313818 0 29.70928812313818 -13.73875714836015 0 0 0 0 -1.7286804924951866 59.101332247344544 0 59.101332247344544 51.937860216887202 0 0 0 0 -1159.1421809686581 657.88173059120891 0 657.88173059120891 -159.11600446584998 0 0 0 0 -60.213502236016211 237.66065002000505 0 237.66065002000505 -636.34385011880659 0 0 0 0 -2.8015938789661732 10.049699030570224 0 10.049699030570224 -5.5794364386911752 0 0 0 0 -8.0831770083896117 91.813836832297966 0 91.813836832297966 124.41896253508457 0 0 0 0 -6.8236069361477121 3.7075504044844294 0 3.7075504044844294 -9.8259508413629106 0 0 0 0 -395.54167619359214 246.17270623144213 0 246.17270623144213 -3364.1642254570324 0 0 0 0 -863.69006004516268 691.75965317558439 0 691.75965317558439 -3100.9740931435372 0 0 0 0 -537.61232951949933 349.0896140647601 0 349.0896140647601 -5706.5810605743027 0 0 0 0 -551.05378754378762 1636.3981807624223 0 1636.3981807624223 -4828.1742511759949 0 0 0 0 -519.11790068767732 450.97733509774844 0 450.97733509774844 -6717.6310005949053 0 0 0 0 -594.22890890057897 475.11251949936559 0 475.11251949936559 -2541.0064324929554 0 0 0 0 -1084.1633915760322 -1367.1086911372258 0 -1367.1086911372258 -1944.8764287847735 0 0 0 0 -2.2891335315032961 7.4543453258425529 0 7.4543453258425529 -13.466560708888323 0 0 0 0 -2276.825613956491 -2979.4892270581913 0 -2979.4892270581913 -3557.3203458609496 0 0 0 0 -60.250421619217377 961.2864098746868 0 961.2864098746868 -2507.8648013251368 0 0 0 0 160.8059458725038 965.98126785726345 0 965.98126785726345 -3108.0112614369791 0 0 0 0 -192.96598026505671 682.03820886707399 0 682.03820886707399 -2551.1610428824497 0 0 0 0 -114.5492475747742 794.89302036814115 0 794.89302036814115 -3017.3408100227825 0 0 0 0 75.210920807847288 1155.3379322035544 0 1155.3379322035544 -2818.4534533446786 0 0 0 0 0.30178785935277119 1087.7429213457908 0 1087.7429213457908 -2723.4559765531158 0 0 0 0 -169.67629065195797 106.20220986337517 0 106.20220986337517 651.47227591398041 0 0 0 0 -2.4266131693659645 0.37206697691763679 0 0.37206697691763679 -1.1655127785152146 0 0 0 0 -6.8612422577862162 1101.5513336861222 0 1101.5513336861222 -2687.5107316700014 0 0 0 0 -0.12113172240788117 354.51502689155677 0 354.51502689155677 236.78016202506114 0 0 0 0 65.196878363989526 21.750261132707237 0 21.750261132707237 219.71473028120818 0 0 0 0 -30.743528090126347 204.44731007471273 0 204.44731007471273 234.48298848883314 0 0 0 0 45.241900585970143 203.95188643712754 0 203.95188643712754 -31.254579583051964 0 0 0 0 36.832250611485506 108.36206099302035 0 108.36206099302035 -202.49806354238535 0 0 0 0 57.299367448373232 309.92675461172621 0 309.92675461172621 -58.206739005079726 0 0 0 0 75.468930297764018 201.53088156561716 0 201.53088156561716 -220.01720949971059 0 0 0 0 25.911274328540458 182.44837721881777 0 182.44837721881777 -159.75261277152458 0 0 0 0 110.23895278509008 247.78438349916541 0 247.78438349916541 -532.93846719631983 0 0 0 0 -40.132922236225568 342.62051929814334 0 342.62051929814334 -109.36654942802852 0 0 0 0 99.105323520649108 641.15990363350647 0 641.15990363350647 738.59794037239044 0 0 0 0 1.0077145119430497 330.86808637021022 0 330.86808637021022 -187.23203685786575 0 0 0 0 -36.473098130052676 -43.076095653181255 0 -43.076095653181255 -247.43526044169539 0 0 0 0 -6.9376625752548762 -1.679879574081852 0 -1.679879574081852 2.2251702045659272 0 0 0 0 86.856147593469359 -89.476053621299798 0 -89.476053621299798 -582.38523254265056 0 0 0 0 485.94226191236521 371.54579470941098 0 371.54579470941098 218.87074529140955 0 0 0 0 891.13032067177119 1030.1117215652594 0 1030.1117215652594 577.0607011097436 0 0 0 0 439.83133150022331 1168.9719077312602 0 1168.9719077312602 1695.2362636221005 0 0 0 0 365.1500133627269 887.12443342887127 0 887.12443342887127 684.74083718852489 0 0 0 0 103.95160723739536 32.809336194084608 0 32.809336194084608 -50.837344883722835 0 0 0 0 65.485810460061657 87.862096068298797 0 87.862096068298797 -40.880636232672259 0 0 0 0 63.006056466401787 87.99132498610561 0 87.99132498610561 -37.57578897694475 0 0 0 0 65.201802137831692 80.783410283016565 0 80.783410283016565 -145.63104735540037 0 0 0 0 14.753245748710469 69.170451645779394 0 69.170451645779394 -61.128977016865974 0 0 0 0 348.33044864563271 102.29252918838029 0 102.29252918838029 51.774624289784697 0 0 0 0 489.93585194715706 41.040963023238874 0 41.040963023238874 -46.292914676807413 0 0 0 0 -3.2246612564841826 13.068014631687781 0 13.068014631687781 0.4765655220754752 0 0 0 0 53.671098221559078 43.360452957538655 0 43.360452957538655 -72.649961181543404 0 0 0 0 49.609675985004287 28.606532856501872 0 28.606532856501872 20.964417296345346 0 0 0 0 -339.52616484765895 25.143359013571171 0 25.143359013571171 56.854748724988895 0 0 0 0 -1.3096003184614347 62.10211676095247 0 62.10211676095247 -12.195207705465094 0 0 0 0 -13.833042243146338 32.02252053283155 0 32.02252053283155 -15.14609161845874 0 0 0 0 46.734189112088643 187.92330421964289 0 187.92330421964289 -77.937463893205859 0 0 0 0 29.37919865491358 56.959341627672529 0 56.959341627672529 -33.983522467339526 0 0 0 0 55.671991665162409 45.680291050287053 0 45.680291050287053 -11.438156753608354 0 0 0 0 -107.83412576367846 403.37596702192968 0 403.37596702192968 1553.4481502873241 0 0 0 0 -221.10373835568316 147.95262629073113 0 147.95262629073113 1232.4933635909474 0 0 0 0 169.61088462627959 228.79830983301508 0 228.79830983301508 615.91408609796781 0 0 0 0 85.777700399582329 52.381062278484194 0 52.381062278484194 -13.088640205585449 0 0 0 0 -147.4649668583707 86.513411650441356 0 86.513411650441356 86.492212103700311 0 0 0 0 166.69105877657421 163.3374498168414 0 163.3374498168414 -328.94734245011932 0 0 0 0 -223.82968637958402 255.5363755611761 0 255.5363755611761 466.48087946110172 0 0 0 0 28.016790779540315 -326.6023256945191 0 -326.6023256945191 631.7095140023157 0 0 0 0 -159.73916375817498 214.21714069442532 0 214.21714069442532 1200.8118640390458 0 0 0 0 192.10733602545224 -570.325077492118 0 -570.325077492118 1594.3369752175786 0 0 0 0 103.0970743282378 -60.281674215206294 0 -60.281674215206294 32.2853915480664 0 0 0 0 -0.4695101716957879 55.477958814765003 0 55.477958814765003 -20.163121218617633 0 0 0 0 198.83082711999305 199.00677306864236 0 199.00677306864236 -298.14186239245464 0 0 0 0 19.664220983278938 33.686720229452476 0 33.686720229452476 -31.745466165943071 0 0 0 0 39.213900644528167 29.48268680025717 0 29.48268680025717 -11.316193645803139 0 0 0 0 10.649754287643418 4.7873211006162251 0 4.7873211006162251 -11.969414087205934 0 0 0 0 172.37897654890548 1005.7737526846904 0 1005.7737526846904 1921.6952736091735 0 0 0 0 -238.55830146982771 289.43352217202391 0 289.43352217202391 2390.6288784607314 0 0 0 0 62.968001832326991 334.05397501175321 0 334.05397501175321 3560.2195897768324 0 0 0 0 422.01892585336464 29.871081395482179 0 29.871081395482179 -33.17003515941542 0 0 0 0 28.128846014360761 13.894909047554876 0 13.894909047554876 1.0822466231879488 0 0 0 0 -94.840438995423028 1562.5558283431346 0 1562.5558283431346 3363.2820530491008 0 0 0 0 615.65389001771109 1195.1936957266535 0 1195.1936957266535 972.47981201564835 0 0 0 0 764.23844677448506 533.10674891001327 0 533.10674891001327 1319.2644630823634 0 0 0 0 165.82186806123354 710.42671329571021 0 710.42671329571021 662.75979742950585 0 0 0 0 549.83777296006156 388.19567778601049 0 388.19567778601049 -68.796820826850308 0 0 0 0 82.90489489378524 493.61766091703612 0 493.61766091703612 873.54443658467062 0 0 0 0 92.822056221106322 744.85530330800248 0 744.85530330800248 1066.5347257678077 0 0 0 0 4.9926571189571405 931.79811443957078 0 931.79811443957078 2118.6341011614495 0 0 0 0 -1.5697940881800605 739.73659833430429 0 739.73659833430429 1643.5080002665927 0 0 0 0 1359.8010148483736 417.01139427111229 0 417.01139427111229 -1314.5653546265021 0 0 0 0 1494.0782649233297 2255.7734595496477 0 2255.7734595496477 526.92566388841078 0 0 0 0 1.3966944426647387 362.18882938502793 0 362.18882938502793 -733.54553993945592 0 0 0 0 -799.644176586502 -795.98341869101569 0 -795.98341869101569 1492.8648231785774 0 0 0 0 399.29745487848413 940.80211894947752 0 940.80211894947752 -131.44395101980626 0 0 0 0 -0.49769324992666952 593.3195207733188 0 593.3195207733188 285.45023743054662 0 0 0 0 -320.3156496284937 -758.40048139441205 0 -758.40048139441205 -734.98603491177892 0 0 0 0 -2.8005025025894952 8.8278854404918548 0 8.8278854404918548 -24.288035522459779 0 0 0 0 427.4753768882365 108.44833855762045 0 108.44833855762045 -272.02627442445373 0 0 0 0 214.90258991385053 307.51488422759212 0 307.51488422759212 55.551483200688381 0 0 0 0 133.21043523219123 409.82526285929271 0 409.82526285929271 -335.86836356155982 0 0 0 0 -54.933895471534925 115.11928301158332 0 115.11928301158332 -56.336012092258898 0 0 0 0 259.69765694910893 -34.997473158793582 0 -34.997473158793582 -369.22386045740132 0 0 0 0 -2.1912702320468327 18.20643571351556 0 18.20643571351556 -69.99908202695795 0 0 0 0 -176.89544769437634 177.7213695868777 0 177.7213695868777 -447.33420559373917 0 0 0 0 -155.1228589504899 473.11839703161422 0 473.11839703161422 -726.54393114255799 0 0 0 0 82.39545815809106 181.27284561725901 0 181.27284561725901 -934.2189509915188 0 0 0 0 -254.34260031592567 279.41844734968618 0 279.41844734968618 -880.2211326334218 0 0 0 0 -345.2483165054291 704.14110732419795 0 704.14110732419795 -1312.975679068586 0 0 0 0 986.62873758953356 458.99770276520485 0 458.99770276520485 -1982.8055179643998 0 0 0 0 -7.4053234783798132 33.98777395077164 0 33.98777395077164 -87.656822435884237 0 0 0 0 -16.280584552470827 360.06128999140128 0 360.06128999140128 -1749.1395861705678 0 0 0 0 564.17385820172058 -330.76010595063235 0 -330.76010595063235 -996.72866258617432 0 0 0 0 326.66053949305206 -827.46190647757976 0 -827.46190647757976 -3674.010953497731 0 0 0 0 -1.0393692285288125 772.73940698526712 0 772.73940698526712 -1461.6560614820773 0 0 0 0 310.83466212164058 -79.996864745328821 0 -79.996864745328821 -370.20013085875689 0 0 0 0 1270.5062230078256 1127.5878422593287 0 1127.5878422593287 -889.30872503606224 0 0 0 0 272.93950991053134 732.80742449592799 0 732.80742449592799 -1941.4739569572848 0 0 0 0 -576.4392462320393 756.49422370910179 0 756.49422370910179 -1522.905704192468 0 0 0 0 -71.959096377948299 666.31564050057204 0 666.31564050057204 -1536.503350746556 0 0 0 0 -317.1165641607804 630.45874366887438 0 630.45874366887438 -1068.8502699943783 0 0 0 0 -22.67095565632917 790.75265506714641 0 790.75265506714641 -993.11616334063001 0 0 0 0 -122.13155202753842 377.16914745038957 0 377.16914745038957 -830.02186681625608 0 0 0 0 -380.28747810075583 865.48588797367302 0 865.48588797367302 -757.08644416456082 0 0 0 0 1598.3129904096932 -633.34988723888819 0 -633.34988723888819 -316.45594180299668 0 0 0 0 1307.1615237387887 -269.48441463148993 0 -269.48441463148993 83.890066873311298 0 0 0 0 -173.37246091669658 1210.2157706755679 0 1210.2157706755679 -2062.3382424997035 0 0 0 0 1239.3504097365367 -832.96455306009739 0 -832.96455306009739 605.50174667498504 0 0 0 0 87.81274938827903 48.019735672422769 0 48.019735672422769 -31.369134892113451 0 0 0 0 -749.18411032870063 623.59931318621238 0 623.59931318621238 -1625.1341970011708 0 0 0 0 -64.761799921689089 855.34559098211321 0 855.34559098211321 -2229.6154680288528 0 0 0 0 -252.96651519334409 154.64148548032244 0 154.64148548032244 -77.056510845130106 0 0 0 0 -119.41099948349819 58.594732051543986 0 58.594732051543986 49.756479889687185 0 0 0 0 -213.49028873880161 476.69802684825845 0 476.69802684825845 -1435.1797606805048 0 0 0 0 -372.16578831200604 408.20413788951555 0 408.20413788951555 -2000.2532006624097 0 0 0 0 -132.42317764769541 519.97873407028965 0 519.97873407028965 -1967.9246607338864 0 0 0 0 -413.1781882418145 407.01984775486926 0 407.01984775486926 -1541.3600323746869 0 0 0 0 -392.85610820059082 951.33499651263264 0 951.33499651263264 -1729.1964035078672 0 0 0 0 -218.84295632787325 653.43756375490466 0 653.43756375490466 -1311.4874554275593 0 0 0 0 -133.60798364577931 219.11895219826692 0 219.11895219826692 -1035.4489437599186 0 0 0 0 -266.04005227892048 613.63043023762657 0 613.63043023762657 -969.18023826210992 0 0 0 0 -379.82524805300636 543.66094587105908 0 543.66094587105908 -1166.4151771498655 0 0 0 0 -165.65822221915005 433.13428406609455 0 433.13428406609455 -1526.1140993931622 0 0 0 0 -249.16404333192622 674.27624796768941 0 674.27624796768941 -1563.2802752341959 0 0 0 0 -114.88866519747535 483.51139286809484 0 483.51139286809484 -1438.0885460932404 0 0 0 0 -219.75442298932467 582.85355525565683 0 582.85355525565683 -1162.572058576945 0 0 0 0 -161.74749870543019 259.44706423058233 0 259.44706423058233 -797.05997989277967 0 0 0 0 -55.678536432125838 536.98812816448481 0 536.98812816448481 -867.85253931604529 0 0 0 0 -215.47654289921047 355.43368442510837 0 355.43368442510837 -1010.8300183673564 0 0 0 0 -144.96122762095183 608.44558678478643 0 608.44558678478643 -1148.7169356378363 0 0 0 0 58.726642765657743 399.24559115737793 0 399.24559115737793 -418.75326364097418 0 0 0 0 -269.1060123584175 567.7615742169146 0 567.7615742169146 -477.60100557240366 0 0 0 0 -77.315867573284777 302.60952950188948 0 302.60952950188948 -287.50923754032556 0 0 0 0 -145.18209844233934 608.79876285086357 0 608.79876285086357 42.370863286705571 0 0 0 0 -118.26200716759195 143.0465526814005 0 143.0465526814005 -444.85528492172307 0 0 0 0 -134.12420858061523 553.63712345885142 0 553.63712345885142 -393.0534954045288 0 0 0 0 -86.433023089484777 319.88769154284819 0 319.88769154284819 181.34418751638441 0 0 0 0 -80.687385859393544 565.00002718579401 0 565.00002718579401 137.66318522003712 0 0 0 0 59.075773126241984 458.19038958223246 0 458.19038958223246 186.71312309200584 0 0 0 0 -4.113888684369158 584.26974025628442 0 584.26974025628442 578.93566250555159 0 0 0 0 145.77761762414593 459.7911814507097 0 459.7911814507097 132.8943947664593 0 0 0 0 -158.35966187532176 364.04340994214726 0 364.04340994214726 337.90202149556717 0 0 0 0 -61.235368214984192 673.69485663743399 0 673.69485663743399 492.48022511656745 0 0 0 0 -183.05762085434981 564.72141463380831 0 564.72141463380831 620.14024478323699 0 0 0 0 435.15458156025852 199.79030410947962 0 199.79030410947962 634.97836946390453 0 0 0 0 41.066318949975539 740.47021322677028 0 740.47021322677028 928.19247695951708 0 0 0 0 -28.779506927501643 520.06559969769296 0 520.06559969769296 735.00046184081293 0 0 0 0 197.43160105691641 645.67296558631642 0 645.67296558631642 11.377062317886157 0 0 0 0 -206.63587582355831 598.42946835391922 0 598.42946835391922 18.413360353217286 0 0 0 0 224.76565648029555 326.12519154563779 0 326.12519154563779 -610.54984397963563 0 0 0 0 1398.3781295527951 1156.3928721476786 0 1156.3928721476786 -413.08892616161756 0 0 0 0 280.14026390491063 1388.05512345593 0 1388.05512345593 -451.29476220018842 0 0 0 0 -10.128900980628174 14.231390318407392 0 14.231390318407392 -17.438632980349098 0 0 0 0 -688.98714372279755 129.26542666424348 0 129.26542666424348 272.74032186645491 0 0 0 0 -643.24595303385649 -296.12760168986506 0 -296.12760168986506 48.338114913713071 0 0 0 0 -106.24398645410838 284.1233344598586 0 284.1233344598586 183.84402205943479 0 0 0 0 18.006814409338403 225.36993060196983 0 225.36993060196983 181.81630539949401 0 0 0 0 -487.08538494881941 -1.7441984829929424 0 -1.7441984829929424 123.24385342071764 0 0 0 0 927.775960118277 1125.433253865529 0 1125.433253865529 416.7922530484575 0 0 0 0 -30.027370714081712 35.917978285230618 0 35.917978285230618 -36.466078542370269 0 0 0 0 -217.27440398803446 612.11441870507406 0 612.11441870507406 801.65456715020264 0 0 0 0 -971.3278334372153 -228.70445049562841 0 -228.70445049562841 1004.9804764146829 0 0 0 0 735.13041473986232 183.54002130045774 0 183.54002130045774 -685.20842672427534 0 0 0 0 -210.29108087121858 -85.367885686879163 0 -85.367885686879163 -208.73523823163123 0 0 0 0 -223.37245350284866 42.429191722987525 0 42.429191722987525 -79.935964829302975 0 0 0 0 -184.42268329384387 107.49563509037398 0 107.49563509037398 -161.78148804084049 0 0 0 0 -213.26046005956596 54.984416215142119 0 54.984416215142119 22.923188251355896 0 0 0 0 -239.83154592332721 92.172281089347962 0 92.172281089347962 34.581365103833377 0 0 0 0 -64.62391652003862 173.94471583102131 0 173.94471583102131 27.566181065721594 0 0 0 0 -168.28465432871599 50.966205388482194 0 50.966205388482194 30.265976588168996 0 0 0 0 -117.4507758806285 275.3204703751544 0 275.3204703751544 118.3146479979473 0 0 0 0 202.34122105137067 149.07313229224837 0 149.07313229224837 138.53227511119621 0 0 0 0 141.17264922636241 522.41116681318454 0 522.41116681318454 216.22672878210142 0 0 0 0 22.47564087844512 414.54657796839456 0 414.54657796839456 160.65028052494745 0 0 0 0 -199.56657942907987 219.83100546238848 0 219.83100546238848 73.968336148303933 0 0 0 0 -86.467277457762975 141.22339350680704 0 141.22339350680704 124.10865509833093 0 0 0 0 -5.5188022080401424 646.07666533338852 0 646.07666533338852 840.44687349133892 0 0 0 0 62.217728109913878 463.80490973575797 0 463.80490973575797 667.06955868854129 0 0 0 0 244.38609534502029 410.15169115473691 0 410.15169115473691 1002.8731377713848 0 0 0 0 -172.77035171198077 690.3015391093395 0 690.3015391093395 934.08071819026372 0 0 0 0 -3.7871445743600702 5.5336652265876864 0 5.5336652265876864 -4.8556060940992865 0 0 0 0 -643.18269700684323 -610.35657866051406 0 -610.35657866051406 73.868229121682816 0 0 0 0 166.59339994448237 908.23287421910209 0 908.23287421910209 985.45976923945818 0 0 0 0 114.49721154820872 754.76669932500226 0 754.76669932500226 657.80060086110461 0 0 0 0 72.842658735055011 -40.499961244597216 0 -40.499961244597216 -190.51188786813873 0 0 0 0 108.32268104079412 407.99288803033414 0 407.99288803033414 206.51858661029837 0 0 0 0 -49.711165462826784 51.488019101298164 0 51.488019101298164 -46.805290034524518 0 0 0 0 -974.00666882342193 55.665325073234271 0 55.665325073234271 965.96381572543578 0 0 0 0 -132.07926602964289 386.84890659591474 0 386.84890659591474 443.13634450852987 0 0 0 0 19.631854638573714 412.4170253983466 0 412.4170253983466 300.0811440089019 0 0 0 0 -105.65534833061974 143.14174335759526 0 143.14174335759526 109.98858190877945 0 0 0 0 -170.67115967784412 11.079607189176386 0 11.079607189176386 45.184440377081046 0 0 0 0 5.3655985365621746 6.8818375112605281 0 6.8818375112605281 82.456668127997546 0 0 0 0 -106.51728541377815 -5.2824822079855949 0 -5.2824822079855949 81.249817719071871 0 0 0 0 111.37028009654023 191.16977576850331 0 191.16977576850331 74.270899166702293 0 0 0 0 62.169887648546137 128.63740580670128 0 128.63740580670128 27.131253384635784 0 0 0 0 -44.674552379379747 93.594161062297644 0 93.594161062297644 -125.52028434914246 0 0 0 0 -86.041314495916595 403.31164799581347 0 403.31164799581347 1072.7538767808874 0 0 0 0 -146.16130179271568 -6.7943955264636315 0 -6.7943955264636315 97.563833777589025 0 0 0 0 20.649489384508342 335.25802955114705 0 335.25802955114705 1099.4033685743489 0 0 0 0 -27.537533843974074 8.9368595717159494 0 8.9368595717159494 9.525901032591932 0 0 0 0 -170.61103959465981 46.180388058848621 0 46.180388058848621 50.18856027945003 0 0 0 0 -323.92483745882055 171.74246791834594 0 171.74246791834594 355.57015123925521 0 0 0 0 -86.100802763813306 38.490782516086739 0 38.490782516086739 11.013630493635787 0 0 0 0 38.629122910007368 50.938790457011976 0 50.938790457011976 -7.1559861233565414 0 0 0 0 -311.60295768961078 99.667702068225481 0 99.667702068225481 301.48044405292603 0 0 0 0 -434.28197805798845 406.61818073500763 0 406.61818073500763 127.06162296843831 0 0 0 0 -255.12302622408606 286.65226816755603 0 286.65226816755603 40.951364064771042 0 0 0 0 -98.622237661504187 -8.0172657779985457 0 -8.0172657779985457 97.516326806200595 0 0 0 0 -11.504820813948754 -31.653007205195536 0 -31.653007205195536 28.463343039838946 0 0 0 0 -437.40200678561814 322.00271565641742 0 322.00271565641742 258.24697119367192 0 0 0 0 -499.68248963763472 354.7751067939098 0 354.7751067939098 282.1502133187314 0 0 0 0 -435.40790702268714 -18.740734538907418 0 -18.740734538907418 -27.416039232513867 0 0 0 0 -88.452165377762867 141.81514285889716 0 141.81514285889716 270.84746326680761 0 0 0 0 -48.963397479150444 285.24010804883437 0 285.24010804883437 149.29139761844999 0 0 0 0 147.4010503384925 42.875982992212812 0 42.875982992212812 299.69948171742726 0 0 0 0 538.74019313545432 182.81740749490564 0 182.81740749490564 266.80264223591075 0 0 0 0 79.221845775813563 289.97090322012809 0 289.97090322012809 253.94764195894822 0 0 0 0 -87.798906101845205 180.91965128591983 0 180.91965128591983 186.4926455202949 0 0 0 0 -515.09516706490103 244.39195230997211 0 244.39195230997211 353.53220231772866 0 0 0 0 -137.32489259191789 299.43206476836349 0 299.43206476836349 358.90613690641476 0 0 0 0 70.381776890601031 41.644272917706985 0 41.644272917706985 97.574741563206771 0 0 0 0 -438.67641623534655 201.11165266508795 0 201.11165266508795 352.13407214410836 0 0 0 0 59.887102337321267 221.86181751941331 0 221.86181751941331 347.10584235546412 0 0 0 0 111.21953935897909 121.97763125225902 0 121.97763125225902 295.42510587158904 0 0 0 0 770.42965335538611 178.49869758920977 0 178.49869758920977 316.54282002648688 0 0 0 0 120.36653350933921 154.83645073871594 0 154.83645073871594 363.60478391754441 0 0 0 0 917.10060971637722 -393.95668562885839 0 -393.95668562885839 361.0605935672429 0 0 0 0 558.72783952765167 -559.00768484672881 0 -559.00768484672881 613.42576433508657 0 0 0 0 243.85652258445043 156.40993191971211 0 156.40993191971211 56.79598738810455 0 0 0 0 446.01399856328499 -209.60025926594972 0 -209.60025926594972 319.05465883889701 0 0 0 0 283.49120619124733 -393.22283556271577 0 -393.22283556271577 723.74233233841369 0 0 0 0 115.61965323943878 -164.40108504801174 0 -164.40108504801174 468.84986319759628 0 0 0 0 422.80214121576864 -211.26514304179 0 -211.26514304179 396.58703105935274 0 0 0 0 242.34183900256176 4.1622420301719103 0 4.1622420301719103 244.99098541426065 0 0 0 0 196.33162765283487 -101.27318978353287 0 -101.27318978353287 94.727053868293297 0 0 0 0 115.55934139965393 -146.462164558925 0 -146.462164558925 278.68080366915092 0 0 0 0 -68.732741565996548 167.02226379591957 0 167.02226379591957 -212.5440990520874 0 0 0 0 -209.38471254345495 428.37865736155072 0 428.37865736155072 -133.4902522105458 0 0 0 0 -57.528189463123795 59.223570868767773 0 59.223570868767773 -21.271871245561783 0 0 0 0 29.618913991369482 42.565940835456786 0 42.565940835456786 356.29142534258426 0 0 0 0 81.273351400799584 223.54780129718711 0 223.54780129718711 -88.312095468972984 0 0 0 0 -314.09291965140073 275.79561739013297 0 275.79561739013297 -93.736337177309906 0 0 0 0 12.548764550057683 48.127663332776024 0 48.127663332776024 5.8282331176181117 0 0 0 0 -282.72236635921581 408.05665874087572 0 408.05665874087572 -250.49837646115338 0 0 0 0 -917.44460227913805 434.4306200138235 0 434.4306200138235 -133.59187270130496 0 0 0 0 -19.640876389923505 158.63817524045589 0 158.63817524045589 -125.29348289364134 0 0 0 0 -222.7775646654336 568.71474533223591 0 568.71474533223591 -569.57698980250279 0 0 0 0 -27.888650997017976 67.822310435920372 0 67.822310435920372 -11.838992089877138 0 0 0 0 -18.072829293232644 211.63956360118755 0 211.63956360118755 -264.95139862576616 0 0 0 0 16.972201605144477 6.3974586549642538 0 6.3974586549642538 0.12906372969723634 0 0 0 0 42.656176936563185 43.448570878792367 0 43.448570878792367 -19.037720648062248 0 0 0 0 78.858701478864532 78.031675754165917 0 78.031675754165917 -35.309859568042157 0 0 0 0 15.722316850579034 53.082030589903695 0 53.082030589903695 -6.6328493722571977 0 0 0 0 15.887865190670709 63.077396159165801 0 63.077396159165801 -19.3791412240098 0 0 0 0 -67.810845628842401 40.17311237866511 0 40.17311237866511 -19.170447340281015 0 0 0 0 -130.84288252613624 103.36271478654817 0 103.36271478654817 43.314201279965346 0 0 0 0 -74.25184787361286 -13.467421461955382 0 -13.467421461955382 -29.331372656102758 0 0 0 0 -67.309624682995491 427.38708631132613 0 427.38708631132613 312.87320347782952 0 0 0 0 -201.75291125217336 -405.71018103155075 0 -405.71018103155075 1212.7138462334115 0 0 0 0 -97.185112359002233 226.03494092816254 0 226.03494092816254 -213.24202901274111 0 0 0 0 221.13711343728937 183.91110437989119 0 183.91110437989119 499.77425721139298 0 0 0 0 -459.63374521974765 15.264572733773093 0 15.264572733773093 1298.6603801349847 0 0 0 0 -53.529721273749601 289.0543666852609 0 289.0543666852609 -149.81427295592584 0 0 0 0 -1.1905822438421865 11.548832256755759 0 11.548832256755759 -13.122993889004213 0 0 0 0 -60.024990261357743 322.2894637833233 0 322.2894637833233 -57.274015345756197 0 0 0 0 -157.7541910878499 210.98271777437185 0 210.98271777437185 85.464995624191943 0 0 0 0 -162.56453960202634 129.27432359548402 0 129.27432359548402 -195.57367609630455 0 0 0 0 -162.76855066540884 158.25783567319741 0 158.25783567319741 -51.982681040419266 0 0 0 0 -439.41054839029675 558.36297373560956 0 558.36297373560956 877.281821347191 0 0 0 0 -284.22473198085208 66.923429105503601 0 66.923429105503601 56.464905502987676 0 0 0 0 -179.18075065697485 378.50267103118676 0 378.50267103118676 -139.42614415591379 0 0 0 0 93.276261428109137 292.4632980573806 0 292.4632980573806 -228.16666022650315 0 0 0 0 -394.9564604916668 22.523328038412728 0 22.523328038412728 44.823083431925625 0 0 0 0 -272.10514977572893 -59.855205138403107 0 -59.855205138403107 -61.668330364307621 0 0 0 0 -143.92612288465898 -15.141942551957982 0 -15.141942551957982 -15.430605292378459 0 0 0 0 -138.71240209274401 -12.488219024133286 0 -12.488219024133286 -47.97884516583872 0 0 0 0 427.76395552926988 267.44753338830196 0 267.44753338830196 168.45804649768343 0 0 0 0 -13.139881077043157 13.963700483825185 0 13.963700483825185 -9.5226846684038264 0 0 0 0 468.33532674450544 310.37431636650217 0 310.37431636650217 118.88729431151296 0 0 0 0 -17.310227350396843 20.140221316936582 0 20.140221316936582 -18.302011757733737 0 0 0 0 -74.905470770812826 -6.9245536286616698 0 -6.9245536286616698 -21.863724367078248 0 0 0 0 97.303263916866854 323.02116041349655 0 323.02116041349655 165.95426672098984 0 0 0 0 299.90370839499519 309.48808980398462 0 309.48808980398462 148.27390782400471 0 0 0 0 27.868119983293582 539.07454783297726 0 539.07454783297726 170.522553609022 0 0 0 0 248.88826861435882 516.40798600042763 0 516.40798600042763 123.168821957006 0 0 0 0 532.74811712445808 483.83716794647626 0 483.83716794647626 94.795634958791197 0 0 0 0 625.08329633307585 323.31097032724938 0 323.31097032724938 59.700926906960376 0 0 0 0 403.61300188837049 397.44287696557876 0 397.44287696557876 37.824608335708035 0 0 0 0 538.21549322776264 684.2779617573251 0 684.2779617573251 -473.23693404051301 0 0 0 0 494.47765014437027 557.94124100853514 0 557.94124100853514 67.501804407642339 0 0 0 0 592.325519948703 303.30713190208189 0 303.30713190208189 -141.42542337010673 0 0 0 0 -53.939143946176046 1122.3717232068084 0 1122.3717232068084 -90.828270592872286 0 0 0 0 594.70633594225001 1687.5638857414542 0 1687.5638857414542 -3213.9542609862256 0 0 0 0 3.8474570088054065 12.117519153020396 0 12.117519153020396 4.9672758362657632 0 0 0 0 80.547224390553311 731.42468902777182 0 731.42468902777182 813.69604834084748 0 0 0 0 97.083827077640308 1424.7717520446386 0 1424.7717520446386 -21.039837259741034 0 0 0 0 2.6563276724482421 322.37966838755892 0 322.37966838755892 678.78416108178499 0 0 0 0 29.285552669491153 386.30556821286154 0 386.30556821286154 559.49120541207958 0 0 0 0 -173.48522230554954 32.77689883938001 0 32.77689883938001 585.74965494626667 0 0 0 0 -531.06126595502428 -141.33424418512732 0 -141.33424418512732 1461.5712308193943 0 0 0 0 -767.1883566587494 159.10323619407063 0 159.10323619407063 5138.885790768938 0 0 0 0 1037.8271139315621 1438.5633746149069 0 1438.5633746149069 1608.0062770600634 0 0 0 0 759.03605998479179 679.13156869053273 0 679.13156869053273 632.01326229306869 0 0 0 0 -2.8152703283078608 8.8663793493103071 0 8.8663793493103071 5.6866066939150528 0 0 0 0 77.163348460395355 -28.953101921477355 0 -28.953101921477355 -24.65895188995637 0 0 0 0 27.001211554626934 -16.350773267127806 0 -16.350773267127806 4.1167850686979364 0 0 0 0 -13.523240971768473 12.277196791984068 0 12.277196791984068 -6.8762652372192292 0 0 0 0 23.323284116340801 261.53001557962853 0 261.53001557962853 -143.71952380841685 0 0 0 0 419.40358530411322 -73.804094071841973 0 -73.804094071841973 18.690663702931488 0 0 0 0 -26.595293847487596 11.827889273799414 0 11.827889273799414 -15.1333045061848 0 0 0 0 -25.513228457962782 26.716432950900533 0 26.716432950900533 -26.540020349626275 0 0 0 0 -24.224581130227307 -0.06473947454651352 0 -0.06473947454651352 -55.652806461323053 0 0 0 0 508.5729323659034 157.82130373091786 0 157.82130373091786 -48.753829970024526 0 0 0 0 -43.417799658169656 25.874914546548958 0 25.874914546548958 -13.37814692894122 0 0 0 0 13.681826657033525 36.568189429715858 0 36.568189429715858 13.012717617850285 0 0 0 0 -14.934260382419836 30.347177099702371 0 30.347177099702371 -27.49159734392174 0 0 0 0 -143.93516799583813 -151.65609027407299 0 -151.65609027407299 262.42654224301805 0 0 0 0 -43.355843073717551 11.09963491499002 0 11.09963491499002 -25.199568900792656 0 0 0 0 317.48576231318293 142.85347368280054 0 142.85347368280054 -15.109444187633926 0 0 0 0 -25.808442283712168 67.130500425986924 0 67.130500425986924 -56.033817462397337 0 0 0 0 0.3023419857385079 14.233748845739143 0 14.233748845739143 -9.957014938197581 0 0 0 0 418.96454637945862 390.44509768072021 0 390.44509768072021 67.165444911415761 0 0 0 0 -144.41987414822506 431.72120233849273 0 431.72120233849273 306.43652578673209 0 0 0 0 42.383732455959034 398.86979472918483 0 398.86979472918483 75.390028413676191 0 0 0 0 312.39259583942476 226.13289487147267 0 226.13289487147267 183.20166089790291 0 0 0 0 -86.090235160401789 21.151020021385193 0 21.151020021385193 -17.718071573355701 0 0 0 0 -57.118610046196238 34.736984364194484 0 34.736984364194484 -14.076163621913253 0 0 0 0 -9.9548652453522664 350.72640584420151 0 350.72640584420151 323.59551503589319 0 0 0 0 126.6990733397688 422.90187548735412 0 422.90187548735412 289.18471350232721 0 0 0 0 8.5336976031103404 195.37175707805181 0 195.37175707805181 73.567428588168696 0 0 0 0 -63.67417393305368 -73.25797131170475 0 -73.25797131170475 133.31260397229926 0 0 0 0 330.08515436128073 546.28083696550311 0 546.28083696550311 853.00967609570944 0 0 0 0 -21.791254637103492 44.929199470012705 0 44.929199470012705 -15.899611295858534 0 0 0 0 20.36318899541061 19.926332113843827 0 19.926332113843827 18.421126579902108 0 0 0 0 60.138247251903522 337.33363699976326 0 337.33363699976326 146.45466567418771 0 0 0 0 80.938272298677475 157.30573533022834 0 157.30573533022834 169.45111500960775 0 0 0 0 -84.256197886370501 201.58742533213808 0 201.58742533213808 220.79374511609785 0 0 0 0 -118.81226336644613 207.56498794506479 0 207.56498794506479 -6.8472711811918998 0 0 0 0 -45.473201560904272 66.832397552374459 0 66.832397552374459 146.95835309108952 0 0 0 0 121.02691295769182 306.54272985372518 0 306.54272985372518 -16.168198135979765 0 0 0 0 138.89960600883205 320.66078198315518 0 320.66078198315518 261.16444455710007 0 0 0 0 -19.430682454819532 43.211636278562146 0 43.211636278562146 52.399312884497135 0 0 0 0 -414.42313353854115 263.07188392287935 0 263.07188392287935 -86.019412815418036 0 0 0 0 -266.56269143813552 730.04425429792173 0 730.04425429792173 -101.04084662871901 0 0 0 0 -25.671022625653563 70.771024856525756 0 70.771024856525756 -46.517145626584238 0 0 0 0 75.832201420736965 479.69897556058277 0 479.69897556058277 934.94189164923591 0 0 0 0 208.44110859108332 482.84553106446401 0 482.84553106446401 930.22525224740093 0 0 0 0 14.75766850745282 45.95913142908779 0 45.95913142908779 -2.7970540316551507 0 0 0 0 10.893516130504565 28.268120231561028 0 28.268120231561028 12.69891561844701 0 0 0 0 -379.83338532409834 1035.0483538254739 0 1035.0483538254739 -1311.373603343578 0 0 0 0 -101.38017354093608 432.80212279247644 0 432.80212279247644 2454.1803333983989 0 0 0 0 -708.86672283263761 821.08035799185745 0 821.08035799185745 -343.71157489785401 0 0 0 0 -249.61686955653568 596.24438434796684 0 596.24438434796684 -515.38855763623724 0 0 0 0 -714.58946521802864 840.86925632980729 0 840.86925632980729 -348.01360792701598 0 0 0 0 -534.48024586836982 1176.6882001178819 0 1176.6882001178819 -420.85300424322486 0 0 0 0 66.433456862723688 202.08382557940786 0 202.08382557940786 -1420.0904510971886 0 0 0 0 -119.73160062667921 304.850244956805 0 304.850244956805 2642.6641753307194 0 0 0 0 7.1181288771476829 -393.01072909996583 0 -393.01072909996583 2374.1960070352216 0 0 0 0 -443.29298677794577 -11.855743751526461 0 -11.855743751526461 120.22528205984781 0 0 0 0 -223.8138236466184 315.58695138337498 0 315.58695138337498 72.851432417301112 0 0 0 0 -666.96586537019175 833.44095144493622 0 833.44095144493622 -497.52125694328788 0 0 0 0 -1.7417246236809092 7.1660967211380466 0 7.1660967211380466 4.4423101743706255 0 0 0 0 -230.59609093429026 320.1452636035574 0 320.1452636035574 2900.6836762934981 0 0 0 0 -223.02770094522566 447.39056243705636 0 447.39056243705636 2670.6063445261534 0 0 0 0 -226.47141330912541 580.28455513901633 0 580.28455513901633 1065.5422966543119 0 0 0 0 51.772468994517112 773.84211005472025 0 773.84211005472025 1200.0651368803155 0 0 0 0 -464.70231438762858 1372.4715425203613 0 1372.4715425203613 844.88610808438534 0 0 0 0 902.99078564840602 844.15093382462874 0 844.15093382462874 535.24190997031837 0 0 0 0 211.12110927650792 813.85587752010724 0 813.85587752010724 712.30128631003026 0 0 0 0 327.91909541216569 701.2823184211552 0 701.2823184211552 798.40086416005215 0 0 0 0 142.60189159951551 726.32345367482776 0 726.32345367482776 888.19752332978533 0 0 0 0 250.63897635429748 615.86218889286101 0 615.86218889286101 873.55884244438494 0 0 0 0 93.755897671473122 954.4639158214427 0 954.4639158214427 -250.97760030068457 0 0 0 0 1147.2913950063667 495.31736703517527 0 495.31736703517527 -1266.841345684119 0 0 0 0 896.4267838018568 1033.8058320825221 0 1033.8058320825221 -381.60080678005033 0 0 0 0 91.833692523068748 1392.7063919854772 0 1392.7063919854772 518.24607225392538 0 0 0 0 -1376.8798672960838 1350.3662352725805 0 1350.3662352725805 7.7275580310633813 0 0 0 0 -83.870531328273501 816.50793167139818 0 816.50793167139818 192.13806088491401 0 0 0 0 -1171.6272323510057 1890.4163012424433 0 1890.4163012424433 -1979.8352745140437 0 0 0 0 59.84340777892794 636.75389862064185 0 636.75389862064185 -772.25022075317975 0 0 0 0 -2751.3148982566199 812.1051504364732 0 812.1051504364732 -113.34001528237059 0 0 0 0 -933.00166726160751 367.13867362563542 0 367.13867362563542 -6.1388486155483406 0 0 0 0 -510.66690498748358 -205.59265037504883 0 -205.59265037504883 -98.606381435456569 0 0 0 0 -973.04639948565455 389.1641533941438 0 389.1641533941438 72.194559614648085 0 0 0 0 -237.59169578572619 93.89458766545431 0 93.89458766545431 -315.07756686854555 0 0 0 0 -1409.0635740785292 -439.65722699463731 0 -439.65722699463731 -442.02382948136074 0 0 0 0 -155.74795296428783 -119.44438189859648 0 -119.44438189859648 -1155.8642601567335 0 0 0 0 -2839.4565201209698 2136.1565519650539 0 2136.1565519650539 -608.27367010511807 0 0 0 0 -956.37966992622387 1007.8132308543791 0 1007.8132308543791 553.06782898903475 0 0 0 0 -1126.3938292932144 2551.5058628143815 0 2551.5058628143815 -2710.3747970321547 0 0 0 0 -8.7404509466382194 12.318794894500243 0 12.318794894500243 -22.325386025156291 0 0 0 0 27.012488206251874 -477.87969659712689 0 -477.87969659712689 -2980.9314346042884 0 0 0 0 871.3942183098261 425.80249632557388 0 425.80249632557388 -628.6345739546814 0 0 0 0 -142.78145288128144 -165.91988845141896 0 -165.91988845141896 -458.03799701601383 0 0 0 0 159.95113025698811 69.08839527449345 0 69.08839527449345 -807.02514542221616 0 0 0 0 -313.07337284946698 -35.058421410998562 0 -35.058421410998562 231.36406550223182 0 0 0 0 27.262850349390646 336.15450618349132 0 336.15450618349132 412.20380975173612 0 0 0 0 -14.506384316191543 330.13315345499723 0 330.13315345499723 460.35023501857358 0 0 0 0 -548.09865829930641 -219.98300727581955 0 -219.98300727581955 291.86096449977958 0 0 0 0 -327.20157742922311 -694.72194190909795 0 -694.72194190909795 -504.74272263486546 0 0 0 0 -79.527088516333606 44.872634262304928 0 44.872634262304928 -458.84717798006704 0 0 0 0 -1033.0797114288143 -495.60231109398228 0 -495.60231109398228 198.0581486649171 0 0 0 0 -3.8020106309850235 -446.79201316770923 0 -446.79201316770923 -33.054847517269081 0 0 0 0 300.64558027107705 697.11562447970937 0 697.11562447970937 507.11462275148369 0 0 0 0 3.0368769977940246 583.52748009689094 0 583.52748009689094 1002.9176429909712 0 0 0 0 14.248185622738674 248.28571438557992 0 248.28571438557992 1143.6025538119866 0 0 0 0 215.35319943737704 299.96931907515682 0 299.96931907515682 76.661541631896398 0 0 0 0 48.367725396674359 486.95292923650413 0 486.95292923650413 631.05327272933209 0 0 0 0 196.79231550624536 621.46240164297342 0 621.46240164297342 579.58161276575993 0 0 0 0 263.70445142281824 414.3864333650854 0 414.3864333650854 517.94205525104189 0 0 0 0 -34.806202072213637 21.402990036782285 0 21.402990036782285 387.24626995858853 0 0 0 0 171.69663421058794 522.40574782039039 0 522.40574782039039 625.05902986980072 0 0 0 0 366.31116640653636 26.391257304960163 0 26.391257304960163 -161.77104709428022 0 0 0 0 -31.276091591782944 39.608726187069763 0 39.608726187069763 -47.796525463127836 0 0 0 0 167.24081959275645 161.37505704945943 0 161.37505704945943 8.6017377559037413 0 0 0 0 477.09145457478007 858.58643936425187 0 858.58643936425187 628.26180948808906 0 0 0 0 17.585762548321554 1.3822011536624359 0 1.3822011536624359 -18.082247937068445 0 0 0 0 510.40265977996751 548.60927248004737 0 548.60927248004737 483.04660977185995 0 0 0 0 49.103138531980221 -76.654012634411629 0 -76.654012634411629 -83.113498902748688 0 0 0 0 12.642821057524998 10.281702772052085 0 10.281702772052085 -35.858491348597454 0 0 0 0 -21.989154334166841 36.694747758452891 0 36.694747758452891 -49.978333725519235 0 0 0 0 259.56776916133822 607.8045588435707 0 607.8045588435707 -345.98251037061345 0 0 0 0 -76.104380541968567 -150.34244843556007 0 -150.34244843556007 -5.7576272791193333 0 0 0 0 1563.856729474348 1645.4295747582037 0 1645.4295747582037 513.27574032523989 0 0 0 0 153.56948036867834 694.39466247826931 0 694.39466247826931 922.84354341696599 0 0 0 0 -95.904019306704868 395.12574001341272 0 395.12574001341272 731.03483991524263 0 0 0 0 202.5120154399483 245.82573411275371 0 245.82573411275371 704.35047964490877 0 0 0 0 -379.12018571656154 1477.8586562706414 0 1477.8586562706414 946.7580150647118 0 0 0 0 -893.09151068751453 -256.58166459411223 0 -256.58166459411223 600.48450648973812 0 0 0 0 2274.6650152437796 1259.8521958025958 0 1259.8521958025958 -3435.8472283555457 0 0 0 0 789.48922758185654 2194.205222865814 0 2194.205222865814 -3652.9733484308545 0 0 0 0 289.91625625037705 -63.383217154849262 0 -63.383217154849262 -6.6030102937584161 0 0 0 0 -7.4615989083148122 15.515610318269879 0 15.515610318269879 -25.642404617893618 0 0 0 0 -1444.4740649642581 -279.11269097431386 0 -279.11269097431386 -722.05824130072142 0 0 0 0 -1307.0445578701328 2015.4748778463254 0 2015.4748778463254 -2491.429578840718 0 0 0 0 89.675664874404902 861.12724784115562 0 861.12724784115562 -2518.5734776032141 0 0 0 0 -4583.2322195778252 -865.10756028688047 0 -865.10756028688047 -3499.7478676669998 0 0 0 0 -3805.7998407226114 681.87804764298926 0 681.87804764298926 -1028.0361158488522 0 0 0 0 -1050.7760761474492 349.48954267543013 0 349.48954267543013 -1769.7557259081077 0 0 0 0 -1455.0375604860528 -715.57557088643171 0 -715.57557088643171 -2654.7389134751138 0 0 0 0 -824.66344937300892 389.04896260543319 0 389.04896260543319 -5839.1786216676701 0 0 0 0 2.7080443652806707 -6.5239898861166807 0 -6.5239898861166807 6.0057509220444842 0 0 0 0 -1787.9612757652358 60.719102653732989 0 60.719102653732989 246.69780766121403 0 0 0 0 -1633.4978294417779 -901.78716448107207 0 -901.78716448107207 238.44050016795518 0 0 0 0 -909.92137148982147 -90.66398105405824 0 -90.66398105405824 270.53666061565309 0 0 0 0 -626.70584348606644 -839.65203611743345 0 -839.65203611743345 190.35732222515799 0 0 0 0 -320.87265290188725 -354.9642521038237 0 -354.9642521038237 317.25835633656243 0 0 0 0 -854.39115818272694 -736.64040102003491 0 -736.64040102003491 219.02191871660762 0 0 0 0 -646.08922841827734 -939.45507037771313 0 -939.45507037771313 -88.289371655904688 0 0 0 0 320.94670896946627 1484.5956184948918 0 1484.5956184948918 -642.0554392101476 0 0 0 0 4325.5118600434507 -5234.9105541610625 0 -5234.9105541610625 2611.022921576412 0 0 0 0 7.4002993531013601 -5.9614462317661747 0 -5.9614462317661747 -0.28353761605583827 0 0 0 0 38.435516393424223 1.6557869994609291 0 1.6557869994609291 2.1879556560449771 0 0 0 0 3378.7801572761964 -2474.1793619622476 0 -2474.1793619622476 3731.088155259029 0 0 0 0 6251.931693736231 -1206.8694877116359 0 -1206.8694877116359 -3156.0873538597079 0 0 0 0 1419.1948490009818 -2308.8924097685522 0 -2308.8924097685522 2381.2847137584586 0 0 0 0 3863.770301468001 1488.4302902249619 0 1488.4302902249619 -2881.1030018405309 0 0 0 0 -1652.8978002999756 282.40065267462342 0 282.40065267462342 -1137.7771978577803 0 0 0 0 1423.9732198589481 753.96802335956454 0 753.96802335956454 -2241.9992735024207 0 0 0 0 1428.4426941557613 -704.98163540005771 0 -704.98163540005771 -516.72173051701247 0 0 0 0 556.20533217121556 549.12303239005996 0 549.12303239005996 -896.61097286110453 0 0 0 0 -378.35997024847893 578.9396310691227 0 578.9396310691227 -1669.8246897582721 0 0 0 0 49.123851234704489 1492.486670946113 0 1492.486670946113 -1827.452886345156 0 0 0 0 868.44496184092714 965.99868969693489 0 965.99868969693489 -1746.7930725876504 0 0 0 0 -252.97369874583092 1085.8840200170307 0 1085.8840200170307 -920.5844733818667 0 0 0 0 -617.32817548126332 1369.1518551587797 0 1369.1518551587797 -926.18721474137635 0 0 0 0 134.61868524382589 836.31610956236 0 836.31610956236 -657.97272789652925 0 0 0 0 -2055.2435444096336 965.50796723886742 0 965.50796723886742 219.56250642381929 0 0 0 0 -1479.7469106541248 1433.1456691462008 0 1433.1456691462008 -535.21043259042199 0 0 0 0 -1072.0838484171982 1022.5850116341026 0 1022.5850116341026 -252.48935832544521 0 0 0 0 -1952.141516775504 1670.6883283008065 0 1670.6883283008065 -570.46272117168701 0 0 0 0 -1032.3703605426126 1462.4288391039008 0 1462.4288391039008 -1342.8315990672709 0 0 0 0 -2135.3038327981194 1994.4417677059682 0 1994.4417677059682 -1132.6542328229989 0 0 0 0 -2541.5849245229037 1288.7625008277355 0 1288.7625008277355 -303.18180402964936 0 0 0 0 -2156.7993546973448 1752.1372990202653 0 1752.1372990202653 -1333.1142366573913 0 0 0 0 -1675.018345805438 2182.8574282337358 0 2182.8574282337358 -2140.4824796007597 0 0 0 0 -2960.7561111052637 2850.6086813325383 0 2850.6086813325383 -2415.0087455212488 0 0 0 0 -2457.2177687835647 2300.4104442836688 0 2300.4104442836688 -2293.5227529761032 0 0 0 0 -859.78208196040941 1754.2411904768815 0 1754.2411904768815 -1505.0902732743416 0 0 0 0 -867.48114383345819 1620.1423403055669 0 1620.1423403055669 -2417.7768757385784 0 0 0 0 -1024.1037848627893 1423.0817912041675 0 1423.0817912041675 -2577.6994240487402 0 0 0 0 -348.62164151010802 1109.0928929369838 0 1109.0928929369838 -1914.4238177509833 0 0 0 0 -425.02535552997142 295.56707237247974 0 295.56707237247974 -3008.8285725752648 0 0 0 0 -1552.3073326760496 2568.9511545069108 0 2568.9511545069108 -4251.8366501053388 0 0 0 0 -512.4716342696629 796.78684187738691 0 796.78684187738691 -4505.9001765198773 0 0 0 0 382.64770647538535 673.37331194249418 0 673.37331194249418 -3467.4135061263605 0 0 0 0 -3919.5778411845458 84.264092323666773 0 84.264092323666773 -392.30755811309791 0 0 0 0 -28.967221786925649 41.105102123826498 0 41.105102123826498 -36.645803264611288 0 0 0 0 -1498.1768336548994 -1882.0791215839708 0 -1882.0791215839708 -12410.535123744397 0 0 0 0 -2974.9527473190683 2942.6547997403541 0 2942.6547997403541 -2075.5193887620117 0 0 0 0 -4620.944666312309 3905.3382152695849 0 3905.3382152695849 -2461.6179980591987 0 0 0 0 -2620.8951258455345 3248.5492944426478 0 3248.5492944426478 -4245.9852454634965 0 0 0 0 -3995.435886682244 1457.3973998181173 0 1457.3973998181173 -712.73593770677689 0 0 0 0 -5049.3599179979938 2484.9092563161139 0 2484.9092563161139 -1200.4728510320419 0 0 0 0 -2860.3520290101296 1086.0792517082009 0 1086.0792517082009 -624.30159309557348 0 0 0 0 -3094.3415169163491 1896.3418049004686 0 1896.3418049004686 -965.77427603778779 0 0 0 0 -3211.6030652549816 1872.1215996823448 0 1872.1215996823448 -970.63735099494806 0 0 0 0 -3319.7658713789424 2089.8912900927389 0 2089.8912900927389 -1402.6716148791602 0 0 0 0 -4369.4459107426519 2569.6162166206122 0 2569.6162166206122 -1597.3107572043082 0 0 0 0 -4234.973371812026 1712.7332691813353 0 1712.7332691813353 -979.21921902545728 0 0 0 0 391.36864158764365 560.48167683297652 0 560.48167683297652 -2692.0257009185661 0 0 0 0 914.81070896764868 2056.7630985294927 0 2056.7630985294927 -3569.354671809022 0 0 0 0 -27.656723639690483 65.628976613983582 0 65.628976613983582 13.540797655155288 0 0 0 0 -640.66219673848536 -200.35271898864085 0 -200.35271898864085 1629.0622114062862 0 0 0 0 -4.1573248453444762 20.854373907749761 0 20.854373907749761 -10.201343640015523 0 0 0 0 -2743.9641700949287 1439.9131443386723 0 1439.9131443386723 -66.924459918955108 0 0 0 0 -2252.0927664763294 411.0816696233087 0 411.0816696233087 389.15224648862204 0 0 0 0 -3256.0805073992524 1073.8454566806104 0 1073.8454566806104 -34.660773035982857 0 0 0 0 -1975.795389951556 -872.00290649203816 0 -872.00290649203816 -161.52390073635615 0 0 0 0 -162.52999624714721 286.93156961107888 0 286.93156961107888 370.76404301507137 0 0 0 0 57.605763181752991 -104.96928007035604 0 -104.96928007035604 33.510387792324764 0 0 0 0 -2356.2874212057795 637.36848376136913 0 637.36848376136913 695.55636666575447 0 0 0 0 765.50680088123772 -1083.4098411840387 0 -1083.4098411840387 -297.33717918279581 0 0 0 0 -2042.9527328410186 695.15116362945264 0 695.15116362945264 309.3682409884932 0 0 0 0 -1882.5293754862796 765.53005482571461 0 765.53005482571461 249.23978230133071 0 0 0 0 -1612.5165717022028 -288.08985099113488 0 -288.08985099113488 1137.1778081763841 0 0 0 0 -1587.7041333950765 340.15384806243674 0 340.15384806243674 517.37305312869285 0 0 0 0 -1007.7047604145191 350.35219874155518 0 350.35219874155518 -63.254122045706026 0 0 0 0 -920.41955968423281 223.47198945200944 0 223.47198945200944 -75.32729909090267 0 0 0 0 -823.96973065950442 649.76717833590374 0 649.76717833590374 -546.03211015535635 0 0 0 0 -153.15280330099631 282.51097677202779 0 282.51097677202779 -345.79202110832557 0 0 0 0 -976.62031109790405 378.93997963587572 0 378.93997963587572 -67.376701030108961 0 0 0 0 -1185.9978650589474 598.98236553096649 0 598.98236553096649 -295.60223955055608 0 0 0 0 -36.970443796293694 442.47909477794565 0 442.47909477794565 -401.03722060157452 0 0 0 0 -3.2919107966881711 333.1791583144477 0 333.1791583144477 -246.62322920665611 0 0 0 0 -48.002268321309373 59.690038584039428 0 59.690038584039428 -41.577824024877714 0 0 0 0 -228.86871735181194 558.51213787448069 0 558.51213787448069 -465.30259788686817 0 0 0 0 -51.441939591342816 268.7569530586552 0 268.7569530586552 -660.30644536891486 0 0 0 0 -114.71922738096328 388.3813294973188 0 388.3813294973188 -863.22865422127143 0 0 0 0 42.933918194273872 39.943649223835195 0 39.943649223835195 -52.092625096533268 0 0 0 0 -41.326030489923141 190.22579162731199 0 190.22579162731199 -141.55144083251071 0 0 0 0 55.483483810814903 53.60049744721735 0 53.60049744721735 21.479038486720732 0 0 0 0 -9.0181568040914044 0.65424634696957185 0 0.65424634696957185 3.4345882225241926 0 0 0 0 -285.77454115534783 83.195573323569988 0 83.195573323569988 140.05676158333563 0 0 0 0 -514.43753588263644 779.39367561174004 0 779.39367561174004 -1138.4197920326806 0 0 0 0 -1335.2867896652024 739.41792867350887 0 739.41792867350887 -283.55176497761568 0 0 0 0 -1067.898624710826 508.60239356762395 0 508.60239356762395 -731.56739154799288 0 0 0 0 -808.60391627755598 811.9323401326219 0 811.9323401326219 -377.92641169897979 0 0 0 0 -743.02358398260549 1204.8744503676426 0 1204.8744503676426 -588.6057968369405 0 0 0 0 -811.17467561177909 1128.4669122684281 0 1128.4669122684281 -147.92315493519163 0 0 0 0 -399.17907489603385 734.99983357797464 0 734.99983357797464 -266.63265829371085 0 0 0 0 -350.6198211920273 819.98354947073494 0 819.98354947073494 -195.60748426648206 0 0 0 0 -815.92996690026484 840.22218202790827 0 840.22218202790827 -168.10480754189484 0 0 0 0 -312.19794406025903 876.60427571261971 0 876.60427571261971 -361.5347888269971 0 0 0 0 53.405564936023438 899.57033940717611 0 899.57033940717611 -671.19656247874082 0 0 0 0 -732.89956299218466 859.92178211022838 0 859.92178211022838 -318.83523045454058 0 0 0 0 -729.17656130576506 841.10452061448268 0 841.10452061448268 -259.76364034296421 0 0 0 0 -1232.7852919240831 1034.306695183288 0 1034.306695183288 -250.30645063510383 0 0 0 0 -1441.2319625181844 735.3578075030382 0 735.3578075030382 29.041352739353897 0 0 0 0 -1586.091832488979 762.20093998196535 0 762.20093998196535 125.61962007330294 0 0 0 0 -1278.4567067040043 640.30642122573772 0 640.30642122573772 28.786118117321166 0 0 0 0 -1227.9657957006712 644.04362497521652 0 644.04362497521652 -254.63867021880287 0 0 0 0 -278.01589265252005 146.96738649876897 0 146.96738649876897 -447.77501040460629 0 0 0 0 -12.597077479422694 47.233164832840522 0 47.233164832840522 -40.436293833315261 0 0 0 0 657.93417947572016 13.180121181019786 0 13.180121181019786 -22.846598108655598 0 0 0 0 53.337072848618277 71.65421160127201 0 71.65421160127201 -2.5544782274175049 0 0 0 0 564.65785328828497 -328.43687553401833 0 -328.43687553401833 -1245.942924473442 0 0 0 0 -118.51217948293197 228.63746319570419 0 228.63746319570419 -331.67137176184769 0 0 0 0 -54.208548163638625 418.94582385801186 0 418.94582385801186 -783.04301150902029 0 0 0 0 8.9306473363641885 54.895794053628862 0 54.895794053628862 29.788274018944243 0 0 0 0 -16.758152304493706 295.23570877693419 0 295.23570877693419 -584.43989434741525 0 0 0 0 -504.60214324075059 -462.28601631678248 0 -462.28601631678248 1176.30091717506 0 0 0 0 -235.181917295733 -993.6331089032974 0 -993.6331089032974 -1217.5876553362123 0 0 0 0 -1635.4011155444168 2204.117021424845 0 2204.117021424845 -1306.8236107975172 0 0 0 0 -78.855539408426921 208.93936938261186 0 208.93936938261186 -357.64125954583869 0 0 0 0 -73.471708097757073 261.84335504336923 0 261.84335504336923 -315.92708856615718 0 0 0 0 -87.644131281194859 249.76978279419563 0 249.76978279419563 -299.2624247268177 0 0 0 0 -79.912621458159265 246.94360808551482 0 246.94360808551482 -200.66151764793904 0 0 0 0 -72.32279223218211 291.91261766451498 0 291.91261766451498 -185.29307024140144 0 0 0 0 -39.734248058379308 67.378548556740171 0 67.378548556740171 -16.356733306869117 0 0 0 0 -5.0099695139215328 199.07614216547518 0 199.07614216547518 -288.35437175117841 0 0 0 0 -29.466520326212049 96.470437599738943 0 96.470437599738943 -131.49473956474685 0 0 0 0 -12.305244142555523 16.791035467145264 0 16.791035467145264 -21.800130976430637 0 0 0 0 10.098006435121306 79.288063715547608 0 79.288063715547608 -42.918330417205567 0 0 0 0 -17.76138319275924 147.44584468214452 0 147.44584468214452 5.2002134772424142 0 0 0 0 -21.267765687044687 87.152556419796042 0 87.152556419796042 0.4788044890566594 0 0 0 0 -4.7617082439987826 209.16845461454034 0 209.16845461454034 -207.50825631292537 0 0 0 0 -31.113267182587492 110.54032287352791 0 110.54032287352791 -9.304712169007523 0 0 0 0 -75.190794682159321 93.778578328317963 0 93.778578328317963 60.250201401036065 0 0 0 0 -98.090694534039358 242.15183649581741 0 242.15183649581741 -66.894947915443481 0 0 0 0 -58.153001381753711 305.78540893234458 0 305.78540893234458 -172.55178805218748 0 0 0 0 -26.943589763963246 290.52516788210778 0 290.52516788210778 -331.59806831070455 0 0 0 0 9.8862677436263766 213.41901792597855 0 213.41901792597855 -339.14812060769327 0 0 0 0 -136.76488203660119 286.38860283762915 0 286.38860283762915 83.941143015559646 0 0 0 0 -42.067884519704876 104.48596745249415 0 104.48596745249415 8.9844507980892239 0 0 0 0 -124.25189512211364 45.3330043116257 0 45.3330043116257 87.449019864023285 0 0 0 0 1.4924473074934212 129.61449308875308 0 129.61449308875308 -9.887687180274952 0 0 0 0 -17.509382531119627 118.05021325311827 0 118.05021325311827 59.769885041983798 0 0 0 0 -35.349787665691792 81.137481664271746 0 81.137481664271746 37.851847096346788 0 0 0 0 -12.99260751168913 281.20281252047789 0 281.20281252047789 -418.37618239592848 0 0 0 0 -47.819417935257661 51.913037507381887 0 51.913037507381887 -81.003115691695712 0 0 0 0 -114.38692635222105 750.30897567028478 0 750.30897567028478 -399.28752854780851 0 0 0 0 -179.56427354125481 781.02492436683769 0 781.02492436683769 -390.55250296406484 0 0 0 0 -317.73483582273695 505.97031047624779 0 505.97031047624779 -356.15454345617127 0 0 0 0 -179.95245057245484 629.51712022947686 0 629.51712022947686 -828.76928640481083 0 0 0 0 -318.05569449611698 484.80048221965683 0 484.80048221965683 -171.59011230688225 0 0 0 0 -46.907031394465832 75.285084774249739 0 75.285084774249739 50.302663121500423 0 0 0 0 -143.22424712879001 1004.0468942607249 0 1004.0468942607249 271.74171082474641 0 0 0 0 -821.27508538600523 451.07410320038673 0 451.07410320038673 -93.381537736188989 0 0 0 0 338.1033315800014 1502.0819293073691 0 1502.0819293073691 -515.72312227129078 0 0 0 0 -3091.5762463896244 1580.5807581278623 0 1580.5807581278623 1086.9835119957359 0 0 0 0 789.9489374923578 1685.3401761810214 0 1685.3401761810214 1014.8192901002927 0 0 0 0 3.6949588916639584 1.3079617527694722 0 1.3079617527694722 19.774416349314016 0 0 0 0 16.644901473805135 21.35877374628798 0 21.35877374628798 7.9671194739181566 0 0 0 0 -4.1907061882084236 138.01819836016693 0 138.01819836016693 -81.901887740998063 0 0 0 0 -14.974822090240195 121.68556013620218 0 121.68556013620218 -72.560380754599464 0 0 0 0 -707.5815556302914 -626.07743929993171 0 -626.07743929993171 1923.2227778751239 0 0 0 0 -695.7272870738816 319.30815360389715 0 319.30815360389715 1313.3335570603895 0 0 0 0 -1493.7685819634062 -1162.2454799407433 0 -1162.2454799407433 -272.89047525233946 0 0 0 0 -120.40361544398183 688.04475312775469 0 688.04475312775469 -2622.3576560629936 0 0 0 0 -1453.9959063967399 2396.6910687360096 0 2396.6910687360096 -1226.1622968203092 0 0 0 0 -576.87538926651177 1480.5654906516388 0 1480.5654906516388 -384.3861453897207 0 0 0 0 -661.41523010467063 1463.272724492751 0 1463.272724492751 -753.54626916337747 0 0 0 0 -548.60963958292268 1701.3655845306666 0 1701.3655845306666 -467.93370054523803 0 0 0 0 -477.9532165361743 812.54050587404436 0 812.54050587404436 -27.992979373098024 0 0 0 0 -808.68926156155067 1859.0411467916829 0 1859.0411467916829 -881.67031899790982 0 0 0 0 -1485.5772795614466 1269.7162154462644 0 1269.7162154462644 270.27601150787086 0 0 0 0 -1102.9259686911246 994.58487176006474 0 994.58487176006474 -42.10599733987965 0 0 0 0 -941.43348326200794 172.8548061875747 0 172.8548061875747 296.68304539232849 0 0 0 0 -89.586082025489304 260.13254844370931 0 260.13254844370931 8.2694337142429504 0 0 0 0 -540.02181637266767 378.95026445937128 0 378.95026445937128 118.05897667283898 0 0 0 0 -274.25396252193605 55.783775632527068 0 55.783775632527068 110.22554920414223 0 0 0 0 196.29343346101814 291.1553975097886 0 291.1553975097886 -41.276193779744062 0 0 0 0 135.97241300193127 -570.65244405909471 0 -570.65244405909471 -2942.2450570269925 0 0 0 0 676.40444216199103 1599.5489562669509 0 1599.5489562669509 -2939.5998817323325 0 0 0 0 -2311.2146646626734 370.06127066365951 0 370.06127066365951 628.29973978323505 0 0 0 0 -18.158697171289418 16.252326679676813 0 16.252326679676813 -13.279773629796729 0 0 0 0 -2341.8495869286417 2019.7515474353104 0 2019.7515474353104 -359.96884463983224 0 0 0 0 272.59239335622988 620.91671794929425 0 620.91671794929425 -1254.2852826463713 0 0 0 0 391.3750543105416 227.32440185769337 0 227.32440185769337 -529.63903371039851 0 0 0 0 241.92800985859867 481.51818111511261 0 481.51818111511261 245.19672379384247 0 0 0 0 172.30707586859353 220.54923680980937 0 220.54923680980937 140.76675225130202 0 0 0 0 17.485225499708065 36.75923274553233 0 36.75923274553233 43.169993916332317 0 0 0 0 174.47843804176227 219.47796796204267 0 219.47796796204267 167.80822651360631 0 0 0 0 3.4490329747662827 108.06864506022245 0 108.06864506022245 33.332461468437764 0 0 0 0 178.41551713459194 393.20039987595374 0 393.20039987595374 -483.9784940659265 0 0 0 0 190.74173416825215 372.66620141839257 0 372.66620141839257 -573.43900630692224 0 0 0 0 96.130362520078052 307.51080488464868 0 307.51080488464868 197.50257005749518 0 0 0 0 25.516929272896959 461.75662392196682 0 461.75662392196682 231.03721945750658 0 0 0 0 175.96026488751406 190.49777652073237 0 190.49777652073237 150.8681733683639 0 0 0 0 115.28580807041726 345.32683101708062 0 345.32683101708062 -236.1401425453696 0 0 0 0 247.44041626370745 579.08643622280169 0 579.08643622280169 -407.33892086189735 0 0 0 0 109.18344169601914 680.71174714195877 0 680.71174714195877 -434.50959024822168 0 0 0 0 -158.98980578653573 550.51724154757358 0 550.51724154757358 -242.59822481626543 0 0 0 0 144.25837415768183 -252.90467897188864 0 -252.90467897188864 189.02408770454758 0 0 0 0 -42.929328316196916 -88.1501620673871 0 -88.1501620673871 1252.3815654204736 0 0 0 0 300.58133770088898 -209.55200336202142 0 -209.55200336202142 1182.3293809988008 0 0 0 0 -186.92103076871717 174.35588066474702 0 174.35588066474702 1471.0628330026286 0 0 0 0 -154.50394118197437 -357.71386950589749 0 -357.71386950589749 1425.8942390285447 0 0 0 0 10.149295697705611 11.931003543819031 0 11.931003543819031 6.4070071051715232 0 0 0 0 -173.3419884376417 -259.42272035000497 0 -259.42272035000497 1982.662328291095 0 0 0 0 -4017.9846621135366 2284.8292931600154 0 2284.8292931600154 -4081.9646140956502 0 0 0 0 -182.85627024595487 124.27449208150358 0 124.27449208150358 2077.3083683954592 0 0 0 0 -1386.5539301421377 4003.6899712283921 0 4003.6899712283921 -3123.7948655931104 0 0 0 0 -2228.0202380233823 2959.6018178852773 0 2959.6018178852773 -357.3277209099615 0 0 0 0 -394.24733116745483 2238.4430169457191 0 2238.4430169457191 -1391.7998357239121 0 0 0 0 -1546.3585311922943 1772.3765154295907 0 1772.3765154295907 -194.54993140745501 0 0 0 0 -1210.0459536712733 1205.1689971284068 0 1205.1689971284068 515.84052529936162 0 0 0 0 -1707.0361322336103 1971.6319922047951 0 1971.6319922047951 1516.2086221920981 0 0 0 0 -647.91993641169393 592.41090144465852 0 592.41090144465852 971.69693974948314 0 0 0 0 -1157.8228542857978 1193.2453723413055 0 1193.2453723413055 264.42360953586467 0 0 0 0 -474.01752165333892 750.75555268521748 0 750.75555268521748 208.51237796308124 0 0 0 0 -831.4652055878214 1196.3048057275855 0 1196.3048057275855 83.566586988672498 0 0 0 0 30.02235405415729 31.889306103686351 0 31.889306103686351 27.223531439557391 0 0 0 0 -819.34270865913277 1282.2083817629682 0 1282.2083817629682 -641.80297626649553 0 0 0 0 242.20424134080531 405.22187240063795 0 405.22187240063795 44.537242822998451 0 0 0 0 -504.43656513944734 967.39707774288127 0 967.39707774288127 -532.49992375543661 0 0 0 0 -109.44494528455834 1480.3159237072014 0 1480.3159237072014 -629.02941497514257 0 0 0 0 -1160.8836455794808 944.36735921720901 0 944.36735921720901 -532.04452092470456 0 0 0 0 -26.784576236314024 122.01137207818374 0 122.01137207818374 -132.39018385939866 0 0 0 0 7.6453102857267368 97.959009143352887 0 97.959009143352887 -245.54866856399713 0 0 0 0 -14.360615228040842 64.247180709418899 0 64.247180709418899 -131.42919892097416 0 0 0 0 50.040982419988723 139.02763754550506 0 139.02763754550506 -90.339202955463406 0 0 0 0 -46.211138724902412 79.063925767897672 0 79.063925767897672 -108.5769883273033 0 0 0 0 699.00615669311082 -252.21782154083758 0 -252.21782154083758 35.752555922821557 0 0 0 0 83.893487479159376 -810.81796781975027 0 -810.81796781975027 2127.158338953067 0 0 0 0 12.102637690870324 372.65080025203679 0 372.65080025203679 464.27827774284015 0 0 0 0 5.8295297598477305 1.5327756744385255 0 1.5327756744385255 3.061359792576134 0 0 0 0 318.59909577785584 218.33775285319371 0 218.33775285319371 1077.9297056255618 0 0 0 0 507.4469249454196 -123.290181656409 0 -123.290181656409 997.31639118309431 0 0 0 0 788.28785363858333 5.6870788377173085 0 5.6870788377173085 924.35935300373967 0 0 0 0 -264.90316368370986 379.57369985716514 0 379.57369985716514 457.94467824423009 0 0 0 0 -112.57644946229993 112.31138056475447 0 112.31138056475447 1079.7904738568232 0 0 0 0 55.705484004312893 862.67539635932553 0 862.67539635932553 -414.36153794997699 0 0 0 0 -662.41633228998398 1478.9342388247296 0 1478.9342388247296 12.560709741022038 0 0 0 0 -750.38457391507109 1674.4238888606287 0 1674.4238888606287 -245.28061075691221 0 0 0 0 -649.77086168463211 822.94732319208083 0 822.94732319208083 570.11974400248073 0 0 0 0 -1295.0226151664392 1584.1319585627216 0 1584.1319585627216 47.711619789183715 0 0 0 0 -548.2215557739255 1680.671033112747 0 1680.671033112747 -296.39693369583438 0 0 0 0 -8.6322434037574567 40.52566504300421 0 40.52566504300421 1494.0604419787724 0 0 0 0 -42.788586351161939 940.72235852298672 0 940.72235852298672 664.92885725538508 0 0 0 0 -344.38806536639458 841.33010758226737 0 841.33010758226737 372.7424554571171 0 0 0 0 -543.4857845526567 592.81631526710544 0 592.81631526710544 471.02130808582478 0 0 0 0 1262.8124574474932 209.79719164436756 0 209.79719164436756 186.81462789199418 0 0 0 0 -8.1876442427882807 7.9714822021248892 0 7.9714822021248892 2.6597500776825456 0 0 0 0 -189.29226808289241 131.24006854743629 0 131.24006854743629 1403.495488250941 0 0 0 0 461.50869263874483 544.12834455839948 0 544.12834455839948 1262.4945454641343 0 0 0 0 70.559530354090384 326.32785590137064 0 326.32785590137064 1363.7552496471653 0 0 0 0 -30.208044696591969 204.80406301790981 0 204.80406301790981 1378.3565441606479 0 0 0 0 82.826242782903137 433.7138775729436 0 433.7138775729436 957.15957180273836 0 0 0 0 -91.983596420453978 615.0363143522527 0 615.0363143522527 1644.0400464830163 0 0 0 0 61.960279439423175 -60.716637008310499 0 -60.716637008310499 760.74868890732068 0 0 0 0 -313.61017518283916 -364.59334591266543 0 -364.59334591266543 -203.08645805995639 0 0 0 0 -55.833896020948089 21.17620136137127 0 21.17620136137127 0.81626119821235221 0 0 0 0 -388.02260000440583 -311.45171011230923 0 -311.45171011230923 114.10241947828945 0 0 0 0 3.3905363757075975 -533.29787330288445 0 -533.29787330288445 -706.46135809762109 0 0 0 0 214.29818868459552 158.27347556412224 0 158.27347556412224 -261.62751474154356 0 0 0 0 -622.59213307665777 256.97484933470787 0 256.97484933470787 243.38063771309044 0 0 0 0 101.40801481893868 894.36291105332839 0 894.36291105332839 1118.9731434141158 0 0 0 0 454.0075430458237 320.90362627004379 0 320.90362627004379 84.621192223187791 0 0 0 0 322.46643697962281 672.53631514377503 0 672.53631514377503 680.50970372347547 0 0 0 0 3.6846218025748385 535.74394505183091 0 535.74394505183091 -565.71506171160763 0 0 0 0 -71.077500448368312 25.44392221376242 0 25.44392221376242 -9.5334384066277664 0 0 0 0 -106.19295060090371 743.02657436857226 0 743.02657436857226 829.0174389927206 0 0 0 0 -965.84777995974582 -499.96361610752683 0 -499.96361610752683 -234.09521977259101 0 0 0 0 -1248.1674788154778 985.50244479850517 0 985.50244479850517 2416.0473441909799 0 0 0 0 -19.382923046162716 -2.3013363295387812 0 -2.3013363295387812 -1.9498431552183604 0 0 0 0 1317.3226970069954 2733.0409587280419 0 2733.0409587280419 -6332.3437990041602 0 0 0 0 -61.721707387186427 47.917140170204888 0 47.917140170204888 -7.7648757924092564 0 0 0 0 -156.1368476201751 1216.6538162637753 0 1216.6538162637753 -629.16163899029198 0 0 0 0 106.62629925596411 672.44171884897878 0 672.44171884897878 -1185.8092318629588 0 0 0 0 545.38150329359632 357.65483452414628 0 357.65483452414628 98.025944842680474 0 0 0 0 220.80885937573476 520.58584788893859 0 520.58584788893859 327.68870032467385 0 0 0 0 393.52648737077834 502.36169583968876 0 502.36169583968876 141.6576185223912 0 0 0 0 -469.79885741226462 767.95161754849414 0 767.95161754849414 277.89865432408988 0 0 0 0 -318.52410512050847 733.55814848581213 0 733.55814848581213 285.2427748689006 0 0 0 0 51.641134998091729 65.410949056877143 0 65.410949056877143 1446.1798787609441 0 0 0 0 62.872534540016204 385.82652283425978 0 385.82652283425978 -502.12234200878083 0 0 0 0 33.146375471143983 484.455728386386 0 484.455728386386 -122.22822150258071 0 0 0 0 28.005385154989199 283.25114137384662 0 283.25114137384662 -166.08941629010224 0 0 0 0 55.721877833633556 160.56457334898158 0 160.56457334898158 -77.859013590909086 0 0 0 0 -53.978448055262561 330.73400020585905 0 330.73400020585905 197.12688360577522 0 0 0 0 2.9008047763186937 80.311349764500022 0 80.311349764500022 -44.407191745798407 0 0 0 0 -223.49134587147273 27.311873709232714 0 27.311873709232714 207.59715195669924 0 0 0 0 -401.33491674072866 1097.5300306140416 0 1097.5300306140416 138.43836367424228 0 0 0 0 -261.14410062710522 -20.992336028157297 0 -20.992336028157297 -177.41129288160664 0 0 0 0 -563.89439890556969 567.42144672171526 0 567.42144672171526 -556.13582852681429 0 0 0 0 17.853110100256799 17.76433709977853 0 17.76433709977853 -17.503027673006407 0 0 0 0 1074.4655490915757 -1773.2521867548676 0 -1773.2521867548676 -66.286784161542528 0 0 0 0 -1550.9835381382145 -2305.2012482602295 0 -2305.2012482602295 -123.09140427776219 0 0 0 0 473.24206360548851 804.8281934632264 0 804.8281934632264 1229.9722926817628 0 0 0 0 2375.1187354635913 4.3823153655339411 0 4.3823153655339411 -530.32596753932557 0 0 0 0 78.551828353257974 46.489464934179857 0 46.489464934179857 -22.173533431516727 0 0 0 0 1965.4970655055949 1207.0453030866738 0 1207.0453030866738 -3.6700888168506935 0 0 0 0 -805.53903778153472 503.79105834274378 0 503.79105834274378 -512.12984846163272 0 0 0 0 1613.8348948803614 195.23771413336362 0 195.23771413336362 -938.33276018021661 0 0 0 0 1931.5711092651982 1392.7576090305679 0 1392.7576090305679 0.70740882424797746 0 0 0 0 1512.3550670321565 447.96411336535493 0 447.96411336535493 -1567.6049919189591 0 0 0 0 -735.15141818235861 31.716786326172269 0 31.716786326172269 606.64098006777567 0 0 0 0 -624.98437742545502 -75.170098590203452 0 -75.170098590203452 624.02046756763957 0 0 0 0 1720.7069783853949 1613.2966129620195 0 1613.2966129620195 383.65490441237444 0 0 0 0 2595.2426209796467 3194.0049253880288 0 3194.0049253880288 879.96239288192373 0 0 0 0 2455.2096892771224 1960.3998636211054 0 1960.3998636211054 253.19353119497828 0 0 0 0 3019.7273311661556 1735.8894131971865 0 1735.8894131971865 -371.6180283222584 0 0 0 0 4830.6024697374378 1079.1402032910128 0 1079.1402032910128 383.78944954175313 0 0 0 0 4496.7568638080593 2957.6649203776055 0 2957.6649203776055 548.28481998544521 0 0 0 0 3500.7963923113421 3370.389395494064 0 3370.389395494064 613.68345987310749 0 0 0 0 3980.8765809737961 2211.7836510379552 0 2211.7836510379552 454.40994862353546 0 0 0 0 3731.8479055852513 2193.6824887900057 0 2193.6824887900057 711.33426236185187 0 0 0 0 3293.141590764164 2454.6227713203043 0 2454.6227713203043 466.34395945918368 0 0 0 0 3912.4140971661545 1127.2294903519578 0 1127.2294903519578 101.20530089498789 0 0 0 0 3482.113916693721 -399.40519817318273 0 -399.40519817318273 -65.141727019876271 0 0 0 0 2860.8804327141261 1971.7839948591827 0 1971.7839948591827 104.99534434542875 0 0 0 0 2803.4709297559384 856.8208356045061 0 856.8208356045061 35.784595429726323 0 0 0 0 3486.7770699703833 1695.4703134702922 0 1695.4703134702922 223.23256877720269 0 0 0 0 4310.0904989457922 1486.75909971902 0 1486.75909971902 301.23266254777991 0 0 0 0 3543.7491336977109 1906.926838547588 0 1906.926838547588 545.54517599949031 0 0 0 0 3858.5945724362973 1676.5283139870462 0 1676.5283139870462 689.52100655237882 0 0 0 0 4038.0543186673895 1746.9934490372361 0 1746.9934490372361 592.92070725847225 0 0 0 0 4467.7907045030734 1671.3530422170061 0 1671.3530422170061 687.04071370461224 0 0 0 0 4648.8503955304914 1994.3924017273039 0 1994.3924017273039 1250.6768488854887 0 0 0 0 4552.5917205945007 1919.8875127602405 0 1919.8875127602405 1132.7891819700199 0 0 0 0 4453.2483354447177 2138.9900197304214 0 2138.9900197304214 692.77732733312769 0 0 0 0 -12.147105385980439 12.114858843455011 0 12.114858843455011 6.7459878930252479 0 0 0 0 -620.57690410147188 -23.311051479149683 0 -23.311051479149683 -799.52548295429187 0 0 0 0 -73.698373294700332 46.696256561543443 0 46.696256561543443 -19.289533437300797 0 0 0 0 -1643.5474460271798 816.713763940626 0 816.713763940626 378.82145841205056 0 0 0 0 -622.42424208624288 397.11419399787519 0 397.11419399787519 395.43746652875234 0 0 0 0 -427.47303362453385 1786.4280389094843 0 1786.4280389094843 1057.271792353451 0 0 0 0 3341.127405471052 1983.5373069477237 0 1983.5373069477237 837.4515731640804 0 0 0 0 589.70466858796499 2405.3801272558785 0 2405.3801272558785 1273.9205447659369 0 0 0 0 802.44662062812131 1045.6476831948821 0 1045.6476831948821 530.23794592630566 0 0 0 0 -30.818360832747572 36.833073390476386 0 36.833073390476386 -25.872902764050703 0 0 0 0 688.98378596513089 253.50606830284039 0 253.50606830284039 -185.66650049973259 0 0 0 0 3211.4701592833153 2475.8022121992699 0 2475.8022121992699 1686.9270995461684 0 0 0 0 -184.91018063289812 216.89326132830047 0 216.89326132830047 70.151483229574296 0 0 0 0 688.62507994577402 374.09946156661709 0 374.09946156661709 11.255138447469108 0 0 0 0 144.90235472423956 281.93426685051372 0 281.93426685051372 233.70349793163905 0 0 0 0 4448.6708908932051 2097.5488888814289 0 2097.5488888814289 1627.121126410002 0 0 0 0 925.20448174260241 824.57436288571512 0 824.57436288571512 103.75577430109024 0 0 0 0 13.795996390667426 0.10918371391119308 0 0.10918371391119308 -4.6884548677003828 0 0 0 0 920.8570369608351 374.40630100771926 0 374.40630100771926 63.908951453157499 0 0 0 0 364.34680764412042 729.55085240741789 0 729.55085240741789 14.130518431743326 0 0 0 0 227.85704852483468 563.66660557186901 0 563.66660557186901 249.70538857435375 0 0 0 0 -50.560632927255938 1175.7556347308134 0 1175.7556347308134 70.705634821456883 0 0 0 0 93.266314488901116 688.849591515057 0 688.849591515057 146.79411665604948 0 0 0 0 -839.32581599615514 848.91818239012809 0 848.91818239012809 233.08681376630284 0 0 0 0 -589.21152874396648 1362.0377989028916 0 1362.0377989028916 7.5248536257086016 0 0 0 0 -63.035771320195636 1028.0762701648464 0 1028.0762701648464 -311.98858383270448 0 0 0 0 39.778478284861194 1003.2028869328902 0 1003.2028869328902 -347.45282098827136 0 0 0 0 -360.19405147089856 920.74005503251146 0 920.74005503251146 -159.50664955530965 0 0 0 0 661.27992723106581 1978.5187836136213 0 1978.5187836136213 -15.847768857225674 0 0 0 0 985.78965838324439 679.86916269146604 0 679.86916269146604 -133.84007767810544 0 0 0 0 -1894.1847030366771 212.27575190331754 0 212.27575190331754 442.05755745826445 0 0 0 0 -6.7557001981195981 13.877379724660585 0 13.877379724660585 -10.045936457601911 0 0 0 0 -1192.8543449190329 2019.4442628772085 0 2019.4442628772085 479.12704608577133 0 0 0 0 -2083.0085689549451 1294.8538273518298 0 1294.8538273518298 698.39212034510001 0 0 0 0 -517.89232972200261 1199.8793778071233 0 1199.8793778071233 246.84003285108156 0 0 0 0 1.0713899736438179 369.2065001783244 0 369.2065001783244 190.27310429692579 0 0 0 0 1.4655266797053628 279.6292768495091 0 279.6292768495091 -86.454791915355599 0 0 0 0 -959.43375896848738 421.4842272294776 0 421.4842272294776 -107.14588667098809 0 0 0 0 105.65031590953004 391.75167904140426 0 391.75167904140426 25.074157159094284 0 0 0 0 155.42402210371802 347.96347337269071 0 347.96347337269071 55.885703937607104 0 0 0 0 0.29222661559628449 11.98664985585657 0 11.98664985585657 6.6353020682131003 0 0 0 0 -8.9270765711553395 501.73070282502522 0 501.73070282502522 -26.330521655054326 0 0 0 0 -1278.4417640860154 478.68181631438779 0 478.68181631438779 584.64182351428281 0 0 0 0 -0.46285953612823505 374.70200837497123 0 374.70200837497123 -208.55824886595838 0 0 0 0 1397.5476267726847 1451.0560491601209 0 1451.0560491601209 1670.9997547526518 0 0 0 0 0.23815483354271016 8.6981957267935854 0 8.6981957267935854 5.7424672712177482 0 0 0 0 1172.6218086271547 1914.3124102681923 0 1914.3124102681923 1193.507297100281 0 0 0 0 -0.81837954506045207 1347.3274555534163 0 1347.3274555534163 1174.014878701315 0 0 0 0 23.725999055235434 -2.6443529990364016 0 -2.6443529990364016 4.0728095795440122 0 0 0 0 -1261.919209647931 964.55732276588697 0 964.55732276588697 5406.2005371535306 0 0 0 0 291.51527830705163 2750.1489863475317 0 2750.1489863475317 798.44360100538506 0 0 0 0 2107.2480395938328 171.47814012175695 0 171.47814012175695 43.185063751802318 0 0 0 0 1863.4721315808711 3032.8355948901044 0 3032.8355948901044 809.4144857511842 0 0 0 0 1688.6128925260855 1292.7707767316538 0 1292.7707767316538 -70.200437859559315 0 0 0 0 1165.7020913733868 555.50728133015764 0 555.50728133015764 -763.74413288165852 0 0 0 0 418.84811439929763 -125.39058231131639 0 -125.39058231131639 -1324.5652000186387 0 0 0 0 -15.378725255523022 251.97701616684412 0 251.97701616684412 95.281647356066969 0 0 0 0 505.01625053698081 411.98119695121386 0 411.98119695121386 16.809294361508364 0 0 0 0 818.76646125558182 573.01482643793679 0 573.01482643793679 45.359588789866393 0 0 0 0 493.14997308969032 465.07404693498938 0 465.07404693498938 106.52292703577859 0 0 0 0 316.85181783189182 459.11129118035024 0 459.11129118035024 214.65936998721372 0 0 0 0 529.17264509291272 569.0802426544933 0 569.0802426544933 125.02506472485402 0 0 0 0 34.735574486316182 325.65128149329394 0 325.65128149329394 153.09736699231144 0 0 0 0 -43.758872336708009 184.43252342945379 0 184.43252342945379 53.549108836334199 0 0 0 0 26.522648706406471 341.54272988733283 0 341.54272988733283 77.669591683676117 0 0 0 0 88.125002170243533 256.61181150374614 0 256.61181150374614 115.03066761303126 0 0 0 0 358.02922663422942 426.47364295817806 0 426.47364295817806 57.099572374332638 0 0 0 0 684.0684271594364 1262.8815237407116 0 1262.8815237407116 769.35946278315168 0 0 0 0 840.4868060398494 985.06224768182392 0 985.06224768182392 305.34003052263142 0 0 0 0 636.2455357464205 970.62788070171882 0 970.62788070171882 602.24537646421959 0 0 0 0 388.57932398060802 649.26913463227174 0 649.26913463227174 251.58342230160633 0 0 0 0 464.62328843870637 721.61697295546264 0 721.61697295546264 319.79802622049101 0 0 0 0 424.28659901805804 760.47993450702779 0 760.47993450702779 482.90196220834332 0 0 0 0 0.89791827305452898 921.00490313424416 0 921.00490313424416 614.40511571264142 0 0 0 0 266.6860692211776 569.43439901706006 0 569.43439901706006 544.87599108601171 0 0 0 0 338.59912364248885 557.2254543364561 0 557.2254543364561 464.22878824578947 0 0 0 0 359.73268711270066 573.83529091547098 0 573.83529091547098 353.61998124140155 0 0 0 0 306.00842465601454 473.01043591748203 0 473.01043591748203 276.8819853190289 0 0 0 0 248.38766180188395 376.34286056084511 0 376.34286056084511 389.2792332527315 0 0 0 0 211.87979651530623 414.0697533683815 0 414.0697533683815 501.17600527212926 0 0 0 0 -3.6583646430292447 2.8526784064065183 0 2.8526784064065183 -4.4806035546070362 0 0 0 0 0.22223600359044871 630.58042180621965 0 630.58042180621965 709.65110373040807 0 0 0 0 78.544706654298352 480.80994073249531 0 480.80994073249531 976.16708432148334 0 0 0 0 -14.508545796794351 327.72435612294794 0 327.72435612294794 -1.4570858080387552 0 0 0 0 -68.052587753278203 139.42174850380979 0 139.42174850380979 -46.015816784591152 0 0 0 0 -60.926159713359084 157.10664491354692 0 157.10664491354692 -63.92439184308023 0 0 0 0 -101.69989624037407 153.33520458050043 0 153.33520458050043 -62.4606391317011 0 0 0 0 69.588562035554787 299.13197767493511 0 299.13197767493511 36.049153278014273 0 0 0 0 -155.82510632657795 179.9195826237883 0 179.9195826237883 67.871938969998155 0 0 0 0 -12.232915188069455 296.59221957668706 0 296.59221957668706 135.23222824872937 0 0 0 0 232.19301239523338 356.21659722843469 0 356.21659722843469 64.185938557988266 0 0 0 0 243.80610649654409 452.40809948776223 0 452.40809948776223 172.75837418632727 0 0 0 0 351.55539253697498 491.02042851453734 0 491.02042851453734 162.16898719781602 0 0 0 0 161.92548751330469 322.99649716440763 0 322.99649716440763 221.87047261919724 0 0 0 0 273.19440061089699 405.80267772815932 0 405.80267772815932 403.39725379915035 0 0 0 0 217.66574511001818 292.09161635635246 0 292.09161635635246 174.6829484012851 0 0 0 0 113.58759540424217 262.31628655839449 0 262.31628655839449 18.699668130815553 0 0 0 0 131.32215643022209 357.647708612516 0 357.647708612516 185.40745170539594 0 0 0 0 205.66875149443513 326.00859796809527 0 326.00859796809527 124.8634030074827 0 0 0 0 -33.160657003463712 253.24184386163688 0 253.24184386163688 111.10581933931826 0 0 0 0 153.28263547748793 315.43115341832163 0 315.43115341832163 491.86743580006441 0 0 0 0 753.94081157661276 -260.07047878470985 0 -260.07047878470985 -2381.0653621660931 0 0 0 0 20.981332583331096 106.06117508595844 0 106.06117508595844 -65.486658313981025 0 0 0 0 -11.805027107296723 15.742934501820322 0 15.742934501820322 -9.7826240929308881 0 0 0 0 -6.639625497808197 -6.158171098898336 0 -6.158171098898336 13.228283332869111 0 0 0 0 -42.456983778974973 -37.413475984008983 0 -37.413475984008983 86.679647111915983 0 0 0 0 -0.70592381801259307 2.5233003158246277 0 2.5233003158246277 -8.0721629575881053 0 0 0 0 5.9826325486938003 193.42327695920812 0 193.42327695920812 376.51821669220226 0 0 0 0 -26.339546142829136 33.545499861661483 0 33.545499861661483 -34.11861229834885 0 0 0 0 -358.7665799469396 426.57362916862257 0 426.57362916862257 -1103.5981935256132 0 0 0 0 -80.934193407854764 768.79524888554806 0 768.79524888554806 -1895.4783580372023 0 0 0 0 -135.11778013789444 92.96500207810459 0 92.96500207810459 9.2531138139602263 0 0 0 0 -59.56711332560667 56.777822485526428 0 56.777822485526428 39.510519343566706 0 0 0 0 -26.440851632932322 23.67904343787859 0 23.67904343787859 22.7849700304767 0 0 0 0 4.3297249179449864 127.72378587409912 0 127.72378587409912 -119.58267755422276 0 0 0 0 -173.97228063989314 145.62298298035421 0 145.62298298035421 -17.447926498120069 0 0 0 0 -93.033007627265761 92.596419357662853 0 92.596419357662853 -94.16332470074849 0 0 0 0 -102.51988084201002 82.970276564294181 0 82.970276564294181 -46.469100221613189 0 0 0 0 -92.471902177654556 132.2886311073853 0 132.2886311073853 -81.669180535303894 0 0 0 0 -112.98151418677298 140.18171012189123 0 140.18171012189123 -50.787123873476958 0 0 0 0 -124.63925571418076 178.17109501635241 0 178.17109501635241 -127.72647692536702 0 0 0 0 -96.702039416704793 126.29918594493392 0 126.29918594493392 -38.952208800335939 0 0 0 0 -72.939161091344431 236.73465937462606 0 236.73465937462606 -40.102179189001049 0 0 0 0 -263.76234078971902 133.03228186628348 0 133.03228186628348 -48.751658760447754 0 0 0 0 -359.49485993906274 232.17335392956375 0 232.17335392956375 -72.487146854779894 0 0 0 0 50.615732289245599 148.87037112667571 0 148.87037112667571 -112.78430518161861 0 0 0 0 -167.32632461872709 184.51119318097881 0 184.51119318097881 -104.29883420222177 0 0 0 0 -283.28566215097089 137.65544227579812 0 137.65544227579812 -72.91771601579967 0 0 0 0 -213.1417823760421 122.69614069326417 0 122.69614069326417 -152.89334217427313 0 0 0 0 1310.7577039285243 -389.12350391877408 0 -389.12350391877408 -322.07938151993585 0 0 0 0 57.810692011264123 142.10806938474673 0 142.10806938474673 -127.65562760784891 0 0 0 0 1076.8085031317351 -335.82486153595164 0 -335.82486153595164 -78.734680962617858 0 0 0 0 1469.5664623843913 11.603343376453267 0 11.603343376453267 -1472.2478587478108 0 0 0 0 1053.712873217155 -205.98687220850115 0 -205.98687220850115 -216.58919741534555 0 0 0 0 1019.9626724675618 510.31969343254968 0 510.31969343254968 -1051.4061413916861 0 0 0 0 98.403356415765302 747.45447152921133 0 747.45447152921133 -567.56054849619977 0 0 0 0 896.45515270328906 203.09608404871688 0 203.09608404871688 -274.3472036417902 0 0 0 0 1261.4405572958713 -58.878659486872493 0 -58.878659486872493 -182.45835429895669 0 0 0 0 937.07599536726775 418.02855329654267 0 418.02855329654267 -603.74545154133375 0 0 0 0 217.57963044857024 748.49181100541318 0 748.49181100541318 -382.16907944530567 0 0 0 0 664.06940614707128 372.43064345667881 0 372.43064345667881 -344.07897507431335 0 0 0 0 41.274873925862266 804.95451415481648 0 804.95451415481648 -584.36313034466002 0 0 0 0 -39.678852781100431 596.37851257166403 0 596.37851257166403 -252.54499674665567 0 0 0 0 221.96611708949422 743.1780801443665 0 743.1780801443665 -145.21305871219374 0 0 0 0 136.98454496392515 546.69760689239411 0 546.69760689239411 -84.198921440096456 0 0 0 0 574.7110811273742 556.70277160992191 0 556.70277160992191 -320.0107019291172 0 0 0 0 578.37862063360126 417.6477450408417 0 417.6477450408417 -184.84492018641322 0 0 0 0 383.79373474074237 425.11962660315112 0 425.11962660315112 -181.52901236766775 0 0 0 0 52.137698926847008 155.11744410380226 0 155.11744410380226 -95.069030598827254 0 0 0 0 -130.38560799809056 287.49323637447924 0 287.49323637447924 -131.41472689067814 0 0 0 0 -111.91267058474477 366.54651831622687 0 366.54651831622687 79.012344668564765 0 0 0 0 16.291470373107586 389.77477583000473 0 389.77477583000473 -162.37522832382638 0 0 0 0 -151.52037157679297 224.81885795929338 0 224.81885795929338 -149.12213953898026 0 0 0 0 -154.49108429755142 220.46258246548405 0 220.46258246548405 66.390135181034566 0 0 0 0 -27.127384859893937 232.09086704579749 0 232.09086704579749 -58.931205716598924 0 0 0 0 776.3585110023414 433.12622111456221 0 433.12622111456221 -380.17473982759111 0 0 0 0 -298.74796077067731 305.6992651153887 0 305.6992651153887 3.7164625571276702 0 0 0 0 1.3234842736255814 -72.880029648670643 0 -72.880029648670643 85.343748564300768 0 0 0 0 54.799047496730054 263.18688250448054 0 263.18688250448054 121.66884675502661 0 0 0 0 -7.4998277113583072 36.395569268161836 0 36.395569268161836 -11.86997062730223 0 0 0 0 139.86236780024774 103.03790396928343 0 103.03790396928343 -215.97885501954079 0 0 0 0 96.348404353957449 135.17272878152721 0 135.17272878152721 -113.81885198338023 0 0 0 0 31.617629759333795 157.03559007524996 0 157.03559007524996 8.5388869309292659 0 0 0 0 111.95513880470753 237.30438535220395 0 237.30438535220395 -18.746881226382015 0 0 0 0 648.91401976095221 881.36978934087892 0 881.36978934087892 123.0866614779261 0 0 0 0 -26.087349506272076 7.5819799306798501 0 7.5819799306798501 17.780261279450528 0 0 0 0 -78.199353673092617 39.090553904760519 0 39.090553904760519 -24.810352538522071 0 0 0 0 -150.32040803092968 290.66848135301734 0 290.66848135301734 -404.3628450873739 0 0 0 0 -207.85622199103818 105.41439329341665 0 105.41439329341665 33.358501162576431 0 0 0 0 89.412635803942976 546.44747792656199 0 546.44747792656199 33.947861638764152 0 0 0 0 230.97172220658103 752.73171868233112 0 752.73171868233112 293.9156983252833 0 0 0 0 111.37925793303293 447.30898257589797 0 447.30898257589797 -224.97228778447788 0 0 0 0 133.61428491415654 688.69241652651522 0 688.69241652651522 -105.71245232946603 0 0 0 0 139.55622880886949 477.21011038158395 0 477.21011038158395 -395.15088158772778 0 0 0 0 273.8071286606355 879.00340752355987 0 879.00340752355987 -538.21789931321109 0 0 0 0 -260.50313676157384 307.475720557145 0 307.475720557145 103.63149309971413 0 0 0 0 -49.404945030484392 50.655244731816751 0 50.655244731816751 -60.422881541290806 0 0 0 0 138.55047491701407 508.2970015426672 0 508.2970015426672 -82.482207854125591 0 0 0 0 -156.76456049633998 138.04428105298848 0 138.04428105298848 -128.18746630302667 0 0 0 0 -373.79200347646838 349.55740088039602 0 349.55740088039602 103.14884587468197 0 0 0 0 -387.82258493432164 393.77966550326278 0 393.77966550326278 208.37217174864782 0 0 0 0 -778.04458351970243 589.72135235916903 0 589.72135235916903 119.82922366290222 0 0 0 0 -577.14003947694437 1003.0860927698959 0 1003.0860927698959 -383.55643072970997 0 0 0 0 280.52811885638948 860.8687438210527 0 860.8687438210527 -512.04493581967108 0 0 0 0 244.53073814861273 829.5164820365826 0 829.5164820365826 -745.04946313109758 0 0 0 0 -27.880586161333007 77.857683561106285 0 77.857683561106285 -37.571580830694323 0 0 0 0 23.310402552357118 374.61256451123586 0 374.61256451123586 -290.50081374939697 0 0 0 0 -78.564632773457561 1102.7541326689407 0 1102.7541326689407 -650.14443869929164 0 0 0 0 934.98083661278361 -165.98123768548248 0 -165.98123768548248 680.13166190161428 0 0 0 0 -222.75130609832559 -362.95736592324283 0 -362.95736592324283 86.699405235973245 0 0 0 0 146.32924669875501 14.378745288086066 0 14.378745288086066 471.27430172790991 0 0 0 0 -560.7914595068687 615.39906902575603 0 615.39906902575603 217.72222483743826 0 0 0 0 115.20849856656423 278.40711290500258 0 278.40711290500258 -285.92453134282732 0 0 0 0 -581.82478944394825 296.46662107345037 0 296.46662107345037 349.62833825566577 0 0 0 0 -20.865277658247933 -0.71354528428312669 0 -0.71354528428312669 3.9666578622293827 0 0 0 0 -10.616359837295022 450.05024928528474 0 450.05024928528474 -1287.409348515017 0 0 0 0 -3.9361676524786162 235.36512021315502 0 235.36512021315502 -238.33997785082465 0 0 0 0 -9.1982252172529115 251.03233563776712 0 251.03233563776712 -96.34578844355201 0 0 0 0 -26.83035045950237 331.08651677052876 0 331.08651677052876 -195.46228907222121 0 0 0 0 87.021696825224353 346.57072057997721 0 346.57072057997721 -273.9262732041534 0 0 0 0 30.081352321969462 328.64453088180562 0 328.64453088180562 -200.06330106114183 0 0 0 0 -24.928301056679629 382.29080271968269 0 382.29080271968269 -250.03834297390858 0 0 0 0 9.0831465411290413 134.02576333056302 0 134.02576333056302 -13.082639111149618 0 0 0 0 -442.63306236197241 368.34945476806024 0 368.34945476806024 85.779523452365538 0 0 0 0 -15.669552015046065 308.89362400237587 0 308.89362400237587 -166.99153329163892 0 0 0 0 46.872872506571781 46.769364650368054 0 46.769364650368054 -42.359910332301013 0 0 0 0 -35.15862918827915 84.703728941592942 0 84.703728941592942 -62.515892599075464 0 0 0 0 -138.20572882288798 169.22885855275513 0 169.22885855275513 25.10019420545359 0 0 0 0 -123.87857131404598 425.89256624601694 0 425.89256624601694 -144.37681988190889 0 0 0 0 -183.26633867772216 137.46734470630145 0 137.46734470630145 6.9620647557258053 0 0 0 0 139.03310090056402 478.34962175175315 0 478.34962175175315 189.62428741369513 0 0 0 0 136.48180615274435 610.94946361865618 0 610.94946361865618 683.06455377099337 0 0 0 0 -30.194446240431716 158.52515234789462 0 158.52515234789462 -113.00201997523982 0 0 0 0 -54.255894477960155 65.662354160003048 0 65.662354160003048 -45.579292987769989 0 0 0 0 -185.9659556631841 181.20069086828607 0 181.20069086828607 105.54938694402881 0 0 0 0 -171.82496581497617 171.36489919744054 0 171.36489919744054 94.200776285237225 0 0 0 0 -90.115800944147395 269.29005932262316 0 269.29005932262316 -57.447759980597766 0 0 0 0 204.12810250535404 275.85808802222891 0 275.85808802222891 -64.051710008653572 0 0 0 0 -200.92815938072818 176.02508350630706 0 176.02508350630706 103.75909914877684 0 0 0 0 -188.05146986495856 164.87836965978295 0 164.87836965978295 91.639767566375667 0 0 0 0 -521.33922299554069 198.8917330379918 0 198.8917330379918 121.07938539333554 0 0 0 0 -986.75334797731557 -256.68649966905832 0 -256.68649966905832 -13.218083050557652 0 0 0 0 -1651.1725281372383 494.80729703020825 0 494.80729703020825 271.11351074399136 0 0 0 0 -192.01987809223465 396.82226606403037 0 396.82226606403037 193.32365636193936 0 0 0 0 -205.04868210379595 496.37342543128386 0 496.37342543128386 -168.56841033594173 0 0 0 0 1098.4912474887842 367.63121269052408 0 367.63121269052408 -364.31847628327159 0 0 0 0 26.17183127708136 121.07336255710439 0 121.07336255710439 -5.965569822741223 0 0 0 0 -135.5592819822823 149.27372664801919 0 149.27372664801919 30.664127758791437 0 0 0 0 -47.6524667126032 134.61155073719056 0 134.61155073719056 7.8746802752102667 0 0 0 0 -91.406345438794233 115.87775544728902 0 115.87775544728902 6.1639400636049686 0 0 0 0 -153.22293072227149 -111.99092771979986 0 -111.99092771979986 11.265622175398676 0 0 0 0 13.16083515726838 125.48528802403708 0 125.48528802403708 -24.03153813341828 0 0 0 0 98.235390793447095 152.14519534975761 0 152.14519534975761 -230.46917923154433 0 0 0 0 117.96770401969479 171.02866196450486 0 171.02866196450486 -393.81132025905026 0 0 0 0 -14.782423868904999 50.96861018521993 0 50.96861018521993 -12.537396680394993 0 0 0 0 -73.252010794130911 153.9280061178888 0 153.9280061178888 31.001249925150432 0 0 0 0 95.304326152185865 139.4528926381081 0 139.4528926381081 183.9657146360405 0 0 0 0 203.52890307318057 218.52857741784828 0 218.52857741784828 -15.521552153888479 0 0 0 0 5.0204628516612892 143.65540894805511 0 143.65540894805511 -44.749564323198001 0 0 0 0 37.632050358841298 201.85371404184116 0 201.85371404184116 448.3032855885358 0 0 0 0 -2.2906718605449035 10.673581970891519 0 10.673581970891519 -27.300359694901054 0 0 0 0 0.24589922554514487 325.19711165358717 0 325.19711165358717 47.297055954004463 0 0 0 0 -42.302663945374604 99.947439910902048 0 99.947439910902048 6.3620619400446259 0 0 0 0 2.3694154902477749 359.91505800535197 0 359.91505800535197 -273.4388767210985 0 0 0 0 -526.45031803146776 40.760957352495097 0 40.760957352495097 161.15275830704923 0 0 0 0 -43.967172993486201 -55.91293520948966 0 -55.91293520948966 298.51979394461523 0 0 0 0 -15.336891063724668 0.061496547261256751 0 0.061496547261256751 35.143616496543288 0 0 0 0 28.918654174901803 145.35910982909991 0 145.35910982909991 90.454073269822402 0 0 0 0 -18.699723512712808 143.22808467742288 0 143.22808467742288 232.32669470056862 0 0 0 0 119.23479524148115 35.737946040586394 0 35.737946040586394 -112.47010137554025 0 0 0 0 -162.70871722236006 381.27626126843097 0 381.27626126843097 -203.30479495391228 0 0 0 0 2.5849132483372159 212.41404651963967 0 212.41404651963967 8.9355199771525804 0 0 0 0 62.27565871886236 238.5704179709428 0 238.5704179709428 13.991885193361668 0 0 0 0 91.611958469078786 162.47324670742455 0 162.47324670742455 83.079070042978856 0 0 0 0 70.145095469363412 211.24741207990155 0 211.24741207990155 -9.887649137788685 0 0 0 0 81.058862708412562 170.24165885961702 0 170.24165885961702 57.222066041969811 0 0 0 0 76.344383273733172 123.001163470439 0 123.001163470439 18.860863877343945 0 0 0 0 134.37550101669694 215.47866757805605 0 215.47866757805605 78.663019481551601 0 0 0 0 85.514496293069897 928.83550475711672 0 928.83550475711672 -828.9081214080943 0 0 0 0 -286.4604027505884 1671.652923431885 0 1671.652923431885 -410.6965634537919 0 0 0 0 -390.32396447710198 129.34018551366898 0 129.34018551366898 46.718118904900621 0 0 0 0 -63.139850681993927 90.356848823498595 0 90.356848823498595 31.34605841164851 0 0 0 0 1867.6283325219447 -860.95461143500142 0 -860.95461143500142 -1476.4618686702306 0 0 0 0 -4189.8174626389809 231.98499948315293 0 231.98499948315293 -606.57853369089844 0 0 0 0 -582.95123629862155 216.13630975970591 0 216.13630975970591 263.83833032103576 0 0 0 0 -20.447798520555295 2.3031492153411115 0 2.3031492153411115 -1.8925740640366584 0 0 0 0 272.5374171574349 78.439538930026174 0 78.439538930026174 36.258939441777329 0 0 0 0 -2.9725240718585795 0.91735012073512223 0 0.91735012073512223 0.80209511515643328 0 0 0 0 -70.044486912112006 287.48838945103853 0 287.48838945103853 -435.87681547216198 0 0 0 0 -514.83093982661194 91.784101479017409 0 91.784101479017409 82.136687395719491 0 0 0 0 -647.09799424258563 488.80726120778127 0 488.80726120778127 -248.57513578268845 0 0 0 0 -495.67382638319395 136.916112616389 0 136.916112616389 -317.25767183476273 0 0 0 0 -529.81640357451272 566.94104330454616 0 566.94104330454616 -158.49835991680447 0 0 0 0 -743.42364368881681 188.65597352483928 0 188.65597352483928 -205.42627089115558 0 0 0 0 -1046.2041400658018 560.79112355985126 0 560.79112355985126 -31.109702189045493 0 0 0 0 0.60870854221320392 5.6304100706790265 0 5.6304100706790265 -5.2450504183556461 0 0 0 0 -655.81293784478839 313.21552764893568 0 313.21552764893568 -448.82386314544419 0 0 0 0 -696.72319769310525 86.423633782804245 0 86.423633782804245 -79.47141035713139 0 0 0 0 -292.28324305235219 99.702100170277845 0 99.702100170277845 -48.519818606386252 0 0 0 0 1.659445291561553 10.924178623787755 0 10.924178623787755 -10.351488958241049 0 0 0 0 -328.42833073313614 63.050513743317424 0 63.050513743317424 -79.275877608655719 0 0 0 0 -452.26674294483746 157.283875426132 0 157.283875426132 -26.464729580933636 0 0 0 0 -369.25107850980567 374.29418359057217 0 374.29418359057217 -112.56647949274338 0 0 0 0 -186.81961725964175 277.87503743965499 0 277.87503743965499 -164.17423132815748 0 0 0 0 -193.90025014841831 273.40064325089043 0 273.40064325089043 -77.816386520396918 0 0 0 0 -185.9612456764371 148.15767499784306 0 148.15767499784306 -25.799946250859648 0 0 0 0 -221.83149471410343 249.26973173547958 0 249.26973173547958 -29.456936922419118 0 0 0 0 -132.18266502871484 296.9802329234335 0 296.9802329234335 -76.36466906091664 0 0 0 0 859.68006949046253 -288.58304217539217 0 -288.58304217539217 -205.65904207338463 0 0 0 0 -256.73934481179094 182.60950926879741 0 182.60950926879741 -23.243372316639579 0 0 0 0 -283.92605881426516 77.378423634650062 0 77.378423634650062 10.106711086031282 0 0 0 0 -192.88696134365091 146.49145623369986 0 146.49145623369986 -8.445067354128696 0 0 0 0 -159.25909869847783 28.921599211304056 0 28.921599211304056 5.3816241106542293 0 0 0 0 -8.9658696444026873 273.09377673771814 0 273.09377673771814 -80.899743467743974 0 0 0 0 3.2511343893914102 174.85273279008106 0 174.85273279008106 14.249860807802179 0 0 0 0 58.703096567594912 186.20143306263344 0 186.20143306263344 -29.313059164000151 0 0 0 0 -24.92035344587309 279.3751326966667 0 279.3751326966667 -64.431585490368889 0 0 0 0 23.36481209138492 263.38905863121181 0 263.38905863121181 -153.06225959885342 0 0 0 0 -153.62874286448823 369.65277066465205 0 369.65277066465205 -108.09980408451156 0 0 0 0 -51.369360572211917 334.30948412881844 0 334.30948412881844 -103.73810941969714 0 0 0 0 -66.012870580480467 321.20628113851126 0 321.20628113851126 -53.204179018815921 0 0 0 0 -65.32206218567535 298.54878779191131 0 298.54878779191131 -55.681603204273415 0 0 0 0 -145.78390644900878 321.17991185856772 0 321.17991185856772 -58.284648201719392 0 0 0 0 -48.748604766829885 231.06950526496348 0 231.06950526496348 -35.99454884219449 0 0 0 0 -77.111479557135482 302.29646429094282 0 302.29646429094282 -73.872000508650672 0 0 0 0 1246.5758506916245 647.80090849270891 0 647.80090849270891 -1225.5037089344805 0 0 0 0 241.44904300312191 387.44259398015674 0 387.44259398015674 371.39294548222824 0 0 0 0 9.4676465851369187 3.7270148815240951 0 3.7270148815240951 -0.088200948496528042 0 0 0 0 653.64902296005312 1696.0274689746393 0 1696.0274689746393 -2447.2699703427643 0 0 0 0 231.60060998367044 1054.1694074748266 0 1054.1694074748266 342.27182027920935 0 0 0 0 -48.858834701432215 228.64103155703197 0 228.64103155703197 -40.001531517620606 0 0 0 0 44.999407385019055 132.46796600265122 0 132.46796600265122 26.2230076852953 0 0 0 0 35.191765777932538 156.48263164224289 0 156.48263164224289 56.715133460589925 0 0 0 0 -497.19492923184589 307.71045615153253 0 307.71045615153253 617.47477314290154 0 0 0 0 15.217470319897984 -169.72887014949447 0 -169.72887014949447 517.47624092522892 0 0 0 0 492.43521912740471 1049.0563820185457 0 1049.0563820185457 1239.8531759143007 0 0 0 0 721.70337383090373 274.75898436646639 0 274.75898436646639 202.95589681341517 0 0 0 0 371.2300112216617 398.00052896195848 0 398.00052896195848 456.88975395822126 0 0 0 0 -11.493134300439124 493.85915091365541 0 493.85915091365541 455.15590366340621 0 0 0 0 -54.105845133140974 520.71135917234824 0 520.71135917234824 264.90286676793767 0 0 0 0 180.26597560481787 -8.4952921242054344 0 -8.4952921242054344 -237.77351380366963 0 0 0 0 -56.569784390319455 71.141257820908123 0 71.141257820908123 -17.834081032488864 0 0 0 0 81.214869473820727 586.14786428242951 0 586.14786428242951 695.21735150542554 0 0 0 0 57.336063080823806 494.58351830352331 0 494.58351830352331 482.06610407956578 0 0 0 0 255.9590441932487 677.99373466418456 0 677.99373466418456 737.39809567524571 0 0 0 0 214.02868295376993 830.78445016480532 0 830.78445016480532 617.20775799441617 0 0 0 0 4.1566513341822429 87.144346086977748 0 87.144346086977748 1148.8468175388862 0 0 0 0 -50.408669478561933 39.667637539152565 0 39.667637539152565 584.85417089874682 0 0 0 0 15.432320913016156 209.2023836173139 0 209.2023836173139 451.12078478025069 0 0 0 0 -115.31024720127607 195.95665186095175 0 195.95665186095175 2351.8941155838456 0 0 0 0 -555.69161100527344 754.75030541844717 0 754.75030541844717 -708.27687587038963 0 0 0 0 256.30921515088994 -85.690939483589318 0 -85.690939483589318 -1704.5958590702685 0 0 0 0 7.4118617386993151 16.00449221935024 0 16.00449221935024 10.108814103441887 0 0 0 0 -2.6901012320595328 1053.8978098569496 0 1053.8978098569496 -2579.9057815779088 0 0 0 0 -54.510561377812337 90.895891274268706 0 90.895891274268706 131.59572126631974 0 0 0 0 -184.31286221974005 215.99467360790004 0 215.99467360790004 352.08037658670946 0 0 0 0 -7.877998419721564 18.080456499192579 0 18.080456499192579 15.902810680244528 0 0 0 0 -79.926600155311462 106.71060531406329 0 106.71060531406329 124.12530348276778 0 0 0 0 -215.46427545153711 132.65973533223951 0 132.65973533223951 32.299826103426312 0 0 0 0 -81.431217698311229 146.88479894076954 0 146.88479894076954 -146.6207570907136 0 0 0 0 -307.47464538316126 133.38801908944879 0 133.38801908944879 -66.87815394505742 0 0 0 0 -322.14575019144104 141.58084415513076 0 141.58084415513076 1.110414186376147 0 0 0 0 -220.89317330767881 174.03012110026611 0 174.03012110026611 -107.64093391257484 0 0 0 0 -217.70759277662 193.64044743731938 0 193.64044743731938 -8.4814384119281385 0 0 0 0 -231.02453134846837 181.33001759407307 0 181.33001759407307 80.491640388056112 0 0 0 0 -195.66018353405161 243.57777970241659 0 243.57777970241659 90.176934040778178 0 0 0 0 -186.2963974564118 194.14201047843198 0 194.14201047843198 203.0267111648609 0 0 0 0 -192.58773889657459 323.7160938250363 0 323.7160938250363 235.01229210097517 0 0 0 0 -177.93595115269272 325.34447965066465 0 325.34447965066465 218.26650733170391 0 0 0 0 -188.69232884864687 268.22532619261256 0 268.22532619261256 170.33927187872177 0 0 0 0 -195.63297184146336 192.18464741373464 0 192.18464741373464 75.926381429424509 0 0 0 0 -184.51782460637332 294.76127456726499 0 294.76127456726499 133.26410613798544 0 0 0 0 -106.68899327353938 338.89865935612124 0 338.89865935612124 122.73590540421537 0 0 0 0 -126.477802219566 273.85298407599203 0 273.85298407599203 107.82727187251294 0 0 0 0 -138.35791103996962 318.50931655463182 0 318.50931655463182 133.16819416802173 0 0 0 0 -177.62365522416076 401.47495538948533 0 401.47495538948533 153.35049566589805 0 0 0 0 -177.88858697956675 403.45186874571118 0 403.45186874571118 317.83791828717995 0 0 0 0 -96.097686302262673 493.86086476269071 0 493.86086476269071 99.259780697058886 0 0 0 0 -34.109489991667942 590.14877364635413 0 590.14877364635413 469.80581315266318 0 0 0 0 -97.395969252698706 474.64662093062725 0 474.64662093062725 327.53057851514495 0 0 0 0 -126.20361211107229 237.05637050303631 0 237.05637050303631 608.25832833072491 0 0 0 0 -164.1588426341259 296.72921174207295 0 296.72921174207295 277.56095255861419 0 0 0 0 -146.05096497546947 315.83729167583897 0 315.83729167583897 295.89369940682082 0 0 0 0 121.68308863445054 298.0242735923548 0 298.0242735923548 -267.81789607946121 0 0 0 0 130.55012769609704 135.79727377291147 0 135.79727377291147 133.96586781515484 0 0 0 0 -61.601906363346643 444.34346036122201 0 444.34346036122201 -200.04709813182399 0 0 0 0 47.334893019491574 140.14634035677591 0 140.14634035677591 35.119393818167737 0 0 0 0 81.394198507565306 460.39450074898195 0 460.39450074898195 298.82227160671027 0 0 0 0 -45.832867703240481 380.34078328114992 0 380.34078328114992 253.91799018211896 0 0 0 0 87.479702272314171 250.04847804382007 0 250.04847804382007 469.95347484293961 0 0 0 0 361.21628028515261 284.05189616988355 0 284.05189616988355 100.66628557066724 0 0 0 0 258.83930368968868 490.06373329031339 0 490.06373329031339 303.42421922228823 0 0 0 0 465.4519634994067 415.68950341172604 0 415.68950341172604 151.16783329681493 0 0 0 0 -3.5667521859746216 -3.5540128455725153 0 -3.5540128455725153 5.9292948932272367 0 0 0 0 322.77661745668411 762.54494899670317 0 762.54494899670317 887.59039360492898 0 0 0 0 45.972834868458449 -86.938763754544198 0 -86.938763754544198 -513.10228901550909 0 0 0 0 110.45302393393649 399.1902560181843 0 399.1902560181843 889.51225429587453 0 0 0 0 69.333305042389838 206.61234816152501 0 206.61234816152501 -423.60127883138102 0 0 0 0 -4.244450022073579 243.0763155484492 0 243.0763155484492 -58.348513255084981 0 0 0 0 -13.749872681910347 -42.159175055340711 0 -42.159175055340711 -104.90313192272151 0 0 0 0 162.94681574962669 37.149416343290795 0 37.149416343290795 -131.57154430377341 0 0 0 0 -41.343141576445618 66.326750179474999 0 66.326750179474999 -29.30118376930676 0 0 0 0 -414.64986530456008 112.0180019262225 0 112.0180019262225 -16.577195935722557 0 0 0 0 -386.57651532847649 77.399958850277471 0 77.399958850277471 21.68066160025046 0 0 0 0 -277.92246719848208 62.177427727970098 0 62.177427727970098 -8.3311615044003702 0 0 0 0 -77.91160860378659 155.61003764126144 0 155.61003764126144 21.334399662323449 0 0 0 0 -70.449662582262135 169.91097002269635 0 169.91097002269635 31.630691755632142 0 0 0 0 -24.197870905374202 148.47050663132268 0 148.47050663132268 26.596521613966615 0 0 0 0 -54.311565700169012 253.24909181791372 0 253.24909181791372 101.35452675846682 0 0 0 0 -54.884647978760768 243.36735562163085 0 243.36735562163085 59.549384618032491 0 0 0 0 -45.014280354611401 327.3224058875021 0 327.3224058875021 113.53536842764152 0 0 0 0 61.942946318504255 256.78317314715605 0 256.78317314715605 47.832964781642659 0 0 0 0 15.574898247839883 255.36196460334759 0 255.36196460334759 88.754927929810947 0 0 0 0 -4.70080785611556 26.408396049268401 0 26.408396049268401 57.120247010050569 0 0 0 0 90.482126231223731 167.37827618075218 0 167.37827618075218 25.048170240632317 0 0 0 0 72.634660428410143 111.9559944125771 0 111.9559944125771 -11.415744318947109 0 0 0 0 88.859013900320861 281.02834993792567 0 281.02834993792567 36.519931670001824 0 0 0 0 31.786459993661992 210.84625714844697 0 210.84625714844697 -150.83849314178951 0 0 0 0 4.8555872799898623 113.84571453377899 0 113.84571453377899 -50.020072867286359 0 0 0 0 -376.52452201671986 637.711469528409 0 637.711469528409 -535.60657723659187 0 0 0 0 -17.756503568631985 83.551066534273389 0 83.551066534273389 -28.565304853765667 0 0 0 0 56.761692254786965 105.48667152716541 0 105.48667152716541 104.64016630409728 0 0 0 0 79.35173940045388 203.19613092782311 0 203.19613092782311 -39.858325012843125 0 0 0 0 -94.455725657113362 105.87070935948532 0 105.87070935948532 -86.786419873202703 0 0 0 0 -590.45187896958669 468.79375989979712 0 468.79375989979712 -100.3694342411527 0 0 0 0 -434.35156135279976 791.49461591535373 0 791.49461591535373 -636.58052079202844 0 0 0 0 -337.20677702475223 418.01598534200775 0 418.01598534200775 -605.58923285130641 0 0 0 0 -380.61775689537171 556.6300041023087 0 556.6300041023087 -317.4389238004228 0 0 0 0 -278.21150113066687 649.95784037239218 0 649.95784037239218 -266.79942046693031 0 0 0 0 -316.21938626450719 550.57094094651893 0 550.57094094651893 -170.52486356987083 0 0 0 0 -268.4254544913565 331.65471149640143 0 331.65471149640143 39.03501180409512 0 0 0 0 -49.652550224957054 97.645929939109934 0 97.645929939109934 69.552618067878797 0 0 0 0 -249.08401118499751 750.85916874088343 0 750.85916874088343 -888.69304505125274 0 0 0 0 -291.53627261189104 118.07922634649367 0 118.07922634649367 446.35224525423837 0 0 0 0 -306.37491636724008 597.69545554410684 0 597.69545554410684 -991.9256567137254 0 0 0 0 -0.086130977442337553 -9.3533855421619947 0 -9.3533855421619947 68.871448966558475 0 0 0 0 -761.68994426124846 1179.0913951063158 0 1179.0913951063158 -1064.5074895239081 0 0 0 0 -388.90455848086276 995.52949220478786 0 995.52949220478786 -2123.4324749745369 0 0 0 0 -69.289185482241521 162.56111521401681 0 162.56111521401681 29.327649707449979 0 0 0 0 -681.7666587534477 663.50051386290943 0 663.50051386290943 -919.48272183427616 0 0 0 0 -410.12209292915213 482.8648192557921 0 482.8648192557921 -971.2116803152785 0 0 0 0 -521.00824452043162 778.10869755151725 0 778.10869755151725 -839.55603275541216 0 0 0 0 -632.40827922108292 956.11901784876864 0 956.11901784876864 -1409.3791640934851 0 0 0 0 -774.39703254235064 725.30691598959993 0 725.30691598959993 -731.84270382982504 0 0 0 0 -696.6159125361819 68.438053920149741 0 68.438053920149741 738.72064833207696 0 0 0 0 18.355316355251546 20.344120733556082 0 20.344120733556082 -35.998337943369307 0 0 0 0 -230.20100444287527 -121.31761517559789 0 -121.31761517559789 113.48085928452201 0 0 0 0 -734.4234787459136 -427.78002707751148 0 -427.78002707751148 -75.646556711180892 0 0 0 0 176.68905577411351 411.04614927319926 0 411.04614927319926 883.73770541592239 0 0 0 0 95.147687328673783 613.00387908717676 0 613.00387908717676 -1992.0508459020093 0 0 0 0 -13.691780685427268 22.876838160519029 0 22.876838160519029 8.5900923747763045 0 0 0 0 143.44062321667298 580.9933538511832 0 580.9933538511832 1644.7409739586001 0 0 0 0 21.391564008745434 32.908185065746977 0 32.908185065746977 -10.970297431243239 0 0 0 0 -2144.5342291361594 307.24858300302003 0 307.24858300302003 -2455.5283134400743 0 0 0 0 186.56702783527726 107.82357569191663 0 107.82357569191663 -1804.6400185399616 0 0 0 0 -122.67912274084279 27.749270111234779 0 27.749270111234779 -73.084326352668242 0 0 0 0 81.563009594026539 80.237524558867335 0 80.237524558867335 -119.56085707565087 0 0 0 0 111.41346390940194 80.996578459175481 0 80.996578459175481 -147.45351562786752 0 0 0 0 -8.5103345076392429 169.51609286378147 0 169.51609286378147 -21.61140912715183 0 0 0 0 42.071299510076642 594.10064544247871 0 594.10064544247871 -1099.9879260555463 0 0 0 0 -227.70316845663183 401.79671319728368 0 401.79671319728368 -1074.1502671059716 0 0 0 0 53.336295744960353 500.84907510164294 0 500.84907510164294 -1318.8232296298738 0 0 0 0 491.5109046457801 313.65905195348023 0 313.65905195348023 -1546.6350837882637 0 0 0 0 -207.30765255728329 282.19971557335521 0 282.19971557335521 -1312.6610307746159 0 0 0 0 12.453850117735414 4.7813323532494678 0 4.7813323532494678 2.6098806835855299 0 0 0 0 -218.54830365325324 628.60226516023249 0 628.60226516023249 -1551.5741841546842 0 0 0 0 -173.71380860689715 405.85300632998951 0 405.85300632998951 3404.4717962180002 0 0 0 0 -174.24888603805812 221.34173021279639 0 221.34173021279639 1737.9296555658511 0 0 0 0 451.50605460512452 613.20954546027497 0 613.20954546027497 1886.1181624629462 0 0 0 0 -489.84976345505856 1061.6650484059501 0 1061.6650484059501 -1953.8844992238046 0 0 0 0 -47.225326319918025 28.753192785913882 0 28.753192785913882 9.1185178579260295 0 0 0 0 21.02793611256493 376.45311526299884 0 376.45311526299884 1649.316381207027 0 0 0 0 0.17998556075326633 641.98177558652242 0 641.98177558652242 2159.9430051255331 0 0 0 0 365.90368889259116 1410.5074672436458 0 1410.5074672436458 645.35197935142787 0 0 0 0 -1023.5748837627834 515.05566572680982 0 515.05566572680982 4644.1057201049116 0 0 0 0 -14.889235957550397 12.824548623061276 0 12.824548623061276 2.6051310058319288 0 0 0 0 2817.8189001136343 4432.7537833718234 0 4432.7537833718234 -5468.9183610780747 0 0 0 0 28.906125666588622 21.193005858530228 0 21.193005858530228 -20.287487340710356 0 0 0 0 451.60012411001662 581.1903409355873 0 581.1903409355873 475.67220232162072 0 0 0 0 -1211.6290332290228 1172.9625154600944 0 1172.9625154600944 -1202.4581111726438 0 0 0 0 12.628373838332294 60.91180766003805 0 60.91180766003805 -90.026427035999774 0 0 0 0 159.13563598277688 785.71871886246663 0 785.71871886246663 -1108.9719394686399 0 0 0 0 38.878216910827177 512.00699239477899 0 512.00699239477899 -54.217924012136791 0 0 0 0 7.9836060830784845 439.32554310016621 0 439.32554310016621 -219.24978774277588 0 0 0 0 67.781156177443336 654.56166688089434 0 654.56166688089434 22.395962549951946 0 0 0 0 -135.55824557079904 462.15769090167032 0 462.15769090167032 80.397416731622798 0 0 0 0 -117.05036950804424 375.69775145494714 0 375.69775145494714 80.392194335970999 0 0 0 0 -110.90056429002561 514.68545145848952 0 514.68545145848952 -74.306225664377052 0 0 0 0 129.0627138816653 193.93091425677304 0 193.93091425677304 199.26251857739635 0 0 0 0 326.85241896160733 534.5573901458265 0 534.5573901458265 -1314.9453434887546 0 0 0 0 -88.449046702411579 343.53657827644838 0 343.53657827644838 76.600131562885963 0 0 0 0 839.72539411687467 617.36738568635337 0 617.36738568635337 -1548.2686899533364 0 0 0 0 109.08710794119798 180.92323395269045 0 180.92323395269045 208.00332790239716 0 0 0 0 -443.39120355231717 1892.3143976089777 0 1892.3143976089777 349.94537314991612 0 0 0 0 -96.302878652102663 13.769097334465187 0 13.769097334465187 538.50865431732564 0 0 0 0 -695.36063780541008 126.36885527519189 0 126.36885527519189 743.70116455271636 0 0 0 0 1037.5368004506381 1097.3535967253993 0 1097.3535967253993 1483.2391653209706 0 0 0 0 -79.382720521874631 26.47024923179427 0 26.47024923179427 6.5832667842630741 0 0 0 0 -176.19530613831012 -65.542399080994073 0 -65.542399080994073 1202.1953014988667 0 0 0 0 108.05732771995827 99.992160810448695 0 99.992160810448695 736.61069021280855 0 0 0 0 -189.80161676432181 -157.68101087717514 0 -157.68101087717514 637.26101952565659 0 0 0 0 -114.11983847487745 36.559744670687962 0 36.559744670687962 43.310846447192901 0 0 0 0 -517.00021715011098 42.927411818331166 0 42.927411818331166 551.35935569194407 0 0 0 0 -589.47073059404738 486.49741570923743 0 486.49741570923743 263.76396596159611 0 0 0 0 40.8803631253395 425.19336954224809 0 425.19336954224809 -217.06286397639963 0 0 0 0 72.904586031939516 164.63708011893237 0 164.63708011893237 206.26580596248212 0 0 0 0 6.341008288818557 149.75630769535928 0 149.75630769535928 353.67761731075916 0 0 0 0 -231.58444055862492 132.60112695902353 0 132.60112695902353 320.48684050319753 0 0 0 0 -48.662223764427978 14.990234373252555 0 14.990234373252555 48.533483638647489 0 0 0 0 -93.44919192902131 44.063725608534149 0 44.063725608534149 249.51368000258782 0 0 0 0 559.51739595594699 821.67394792013874 0 821.67394792013874 114.1332797306095 0 0 0 0 -592.67196208645328 1071.8105242956808 0 1071.8105242956808 133.02035192470976 0 0 0 0 -341.17818780677771 1306.6800922548282 0 1306.6800922548282 -610.63861897957395 0 0 0 0 -127.26210719568189 1119.1614067532064 0 1119.1614067532064 -782.23841487772006 0 0 0 0 -11.041080191012938 24.552941398826164 0 24.552941398826164 30.182061053762197 0 0 0 0 -861.12663227284429 278.75873032733216 0 278.75873032733216 -11.380039181145548 0 0 0 0 -324.5206322150334 581.21617727755802 0 581.21617727755802 -870.80396019115506 0 0 0 0 -237.57237051810807 465.57905830243908 0 465.57905830243908 -800.20264867712103 0 0 0 0 -285.43491494665795 382.76153687771875 0 382.76153687771875 -1450.1401093507156 0 0 0 0 -476.36472603842049 1309.0427841884193 0 1309.0427841884193 -1359.5757240003004 0 0 0 0 -395.54152489236003 1156.1812379063194 0 1156.1812379063194 -564.92999415972736 0 0 0 0 -350.99869594965276 1069.0780785835123 0 1069.0780785835123 -910.63413126321393 0 0 0 0 -235.53486707848788 1188.6119206492331 0 1188.6119206492331 -1200.8885062937916 0 0 0 0 -328.29974068838055 1216.2843093092961 0 1216.2843093092961 -936.25103930902151 0 0 0 0 -545.26026251620351 1140.2147582679791 0 1140.2147582679791 -827.8869341868849 0 0 0 0 -405.81937708675832 813.06074114841613 0 813.06074114841613 -637.83536069421825 0 0 0 0 -372.50072771487612 836.20483094302472 0 836.20483094302472 -1271.7070197865178 0 0 0 0 -106.07795071579312 1089.758786324528 0 1089.758786324528 -1665.2817948036536 0 0 0 0 -101.85936999818659 1034.6639756648365 0 1034.6639756648365 -1126.3777697917249 0 0 0 0 -169.4573009626256 994.9938205455619 0 994.9938205455619 -1539.2119402994504 0 0 0 0 -1232.7216068672569 1811.1366539787778 0 1811.1366539787778 -1494.4391769952344 0 0 0 0 -169.1886431329489 973.54028567810406 0 973.54028567810406 -2971.6239383825159 0 0 0 0 -549.07769581511548 1055.6253800170298 0 1055.6253800170298 -759.62565652113699 0 0 0 0 -347.59986532418407 1245.2458612402697 0 1245.2458612402697 -764.61813465226987 0 0 0 0 -404.68138916964472 1554.6264505996678 0 1554.6264505996678 -1280.7415400206519 0 0 0 0 844.74180904015975 593.30641426575676 0 593.30641426575676 -1093.3049708336039 0 0 0 0 1161.2180324423871 1787.3120898792827 0 1787.3120898792827 -2267.9593779011338 0 0 0 0 1173.8891716245853 1309.5483697088566 0 1309.5483697088566 -236.1503060878822 0 0 0 0 1567.3473962818971 35.711135092860786 0 35.711135092860786 -807.24901170774319 0 0 0 0 -2.6590128863115012 8.1533135186169545 0 8.1533135186169545 -19.17814014158597 0 0 0 0 2010.0136031804504 486.65490285749547 0 486.65490285749547 -1982.6765886441208 0 0 0 0 -2401.8737823285701 739.02691748807047 0 739.02691748807047 -146.10001377598383 0 0 0 0 -1384.9534529002558 808.36476258207404 0 808.36476258207404 -1954.7206769329568 0 0 0 0 -1389.9895809163161 588.18089214678048 0 588.18089214678048 -1855.1668672853266 0 0 0 0 -741.48738429642253 1151.7487032814679 0 1151.7487032814679 -859.73206139779359 0 0 0 0 -1185.5718471716755 1857.7680494419765 0 1857.7680494419765 -1962.8428621512348 0 0 0 0 -473.52229403441743 1073.3334196013893 0 1073.3334196013893 -842.21148572926359 0 0 0 0 -1014.1965257840238 651.23101062138812 0 651.23101062138812 -219.93442860530922 0 0 0 0 -327.11979097274889 -29.267558400733833 0 -29.267558400733833 2.2924366939405445 0 0 0 0 -14.003178284228667 25.993947062708614 0 25.993947062708614 -35.423294422036577 0 0 0 0 -94.816594259464182 254.79894107858854 0 254.79894107858854 -87.862189787978423 0 0 0 0 2244.472384813289 1222.0059203573583 0 1222.0059203573583 -142.88491634658567 0 0 0 0 961.91458145318029 786.64720322092035 0 786.64720322092035 551.14700432306199 0 0 0 0 1117.2025147903187 731.61713095052983 0 731.61713095052983 125.39020398563298 0 0 0 0 129.60954904231767 134.1867525483176 0 134.1867525483176 52.311199004689115 0 0 0 0 73.679178083722945 88.089674839451618 0 88.089674839451618 18.092064125321485 0 0 0 0 1317.9777172483009 1567.9067665099428 0 1567.9067665099428 625.98475069199912 0 0 0 0 -20.777504245799648 30.25104002369887 0 30.25104002369887 -37.636482991016919 0 0 0 0 148.17720294497849 127.14113296779396 0 127.14113296779396 -4.2331362438417273 0 0 0 0 134.75664221907209 53.124322712930734 0 53.124322712930734 -42.071918582427315 0 0 0 0 -39.684775384870591 -32.164951779654075 0 -32.164951779654075 -18.282004339494961 0 0 0 0 -21.127801492461003 56.753853970913042 0 56.753853970913042 30.851500807533739 0 0 0 0 67.632488842013117 100.29740850410599 0 100.29740850410599 37.165884445683332 0 0 0 0 -58.61707950130949 90.37152209955093 0 90.37152209955093 63.785402277608227 0 0 0 0 -88.563647636940004 164.94049319890473 0 164.94049319890473 96.608008424693253 0 0 0 0 -24.002155058196422 98.253790424442514 0 98.253790424442514 32.756601513319765 0 0 0 0 -222.67619354513226 111.6906554710331 0 111.6906554710331 56.3597352632205 0 0 0 0 -302.86663561084424 237.89277140047489 0 237.89277140047489 14.239991324619041 0 0 0 0 -166.68183736389619 179.25446750217088 0 179.25446750217088 -94.541234599317249 0 0 0 0 -21.90746464626136 203.27286589893265 0 203.27286589893265 17.435964969001361 0 0 0 0 -8.5446292356791673 170.60560043891019 0 170.60560043891019 82.0567736732919 0 0 0 0 -1.4655354709739186 189.85077313927468 0 189.85077313927468 68.688606877287384 0 0 0 0 5.788399617846153 165.56039203801629 0 165.56039203801629 69.029904154856922 0 0 0 0 79.991503263947379 250.03533089298435 0 250.03533089298435 86.725971507912618 0 0 0 0 197.7680770510924 283.44680050210445 0 283.44680050210445 7.2554022093827371 0 0 0 0 -9.4142011614870817 23.020038130280071 0 23.020038130280071 -0.60877579021382644 0 0 0 0 197.76807705110696 283.44680050216266 0 283.44680050216266 7.2554022092663217 0 0 0 0 197.76807705115061 283.44680050219176 0 283.44680050219176 7.2554022094263928 0 0 0 0 13.476564932672773 186.50602495671774 0 186.50602495671774 -41.649305137965712 0 0 0 0 77.020567866202327 192.90855844215548 0 192.90855844215548 -84.676062917671516 0 0 0 0 127.32039064008859 117.81867297210556 0 117.81867297210556 0.96605011311839917 0 0 0 0 84.368151264618689 109.205180521649 0 109.205180521649 6.5383896529397703 0 0 0 0 14.473701936061881 90.225316359332936 0 90.225316359332936 -103.59853158635616 0 0 0 0 23.866346125745622 146.51864122838742 0 146.51864122838742 12.583621050864167 0 0 0 0 26.325209695914509 109.56202056252641 0 109.56202056252641 58.119325108884368 0 0 0 0 3.4897778267768444 115.33150106199901 0 115.33150106199901 56.700869934356888 0 0 0 0 57.344261494610691 88.675185589832836 0 88.675185589832836 50.66395074303 0 0 0 0 6.8041774815355893 88.096648375336372 0 88.096648375336372 67.673547123878961 0 0 0 0 71.514033242951228 84.73700678559652 0 84.73700678559652 32.865424501566693 0 0 0 0 39.577207577249283 -72.086694678328513 0 -72.086694678328513 -95.613946137367748 0 0 0 0 93.024369633538299 35.628140747110592 0 35.628140747110592 76.973901179902896 0 0 0 0 30.197601217201736 105.39397690463738 0 105.39397690463738 41.419429938876419 0 0 0 0 49.728040379492256 92.165573755325141 0 92.165573755325141 15.488815898919974 0 0 0 0 -89.108025979396189 80.19130788691109 0 80.19130788691109 194.07074644890963 0 0 0 0 51.731673980524647 142.98614305714727 0 142.98614305714727 101.86780754577921 0 0 0 0 57.480254940106533 85.566567874667044 0 85.566567874667044 95.324277421532315 0 0 0 0 89.361771246010903 86.494297191835358 0 86.494297191835358 75.843396359774488 0 0 0 0 130.9216490250692 126.12244697347342 0 126.12244697347342 97.895379634166602 0 0 0 0 -401.52570776739958 592.38840715207334 0 592.38840715207334 397.39736613550485 0 0 0 0 5.4384904733187085 24.807293157188383 0 24.807293157188383 -32.244807019132026 0 0 0 0 -172.47258159356898 179.46614923368907 0 179.46614923368907 23.142357115168124 0 0 0 0 -606.26924514480652 231.13208311665221 0 231.13208311665221 137.57230806276493 0 0 0 0 -60.369024119700313 53.6608206916234 0 53.6608206916234 -31.416484614330756 0 0 0 0 -8.24234389631658 8.5708837913331877 0 8.5708837913331877 -2.9676296022523729 0 0 0 0 -921.75995904015599 762.70489636423736 0 762.70489636423736 -581.7516386310308 0 0 0 0 241.29306321316471 355.35819659433037 0 355.35819659433037 -2373.086608890022 0 0 0 0 -3.4381347708258545 765.65950359075214 0 765.65950359075214 -1797.3415340639694 0 0 0 0 613.66869229920667 -95.911159032322757 0 -95.911159032322757 -1061.0898236284993 0 0 0 0 50.922332409960291 465.21400604863993 0 465.21400604863993 -1026.8791685331962 0 0 0 0 -1626.9431342348616 613.88445162765856 0 613.88445162765856 -414.64969239651691 0 0 0 0 1.1051329156879035 -4.8855109671394388 0 -4.8855109671394388 -4.2469757501946219 0 0 0 0 -67.044750592911441 856.36133213121502 0 856.36133213121502 -691.86597757681011 0 0 0 0 852.38142588939809 242.53197227024066 0 242.53197227024066 -282.11314662837685 0 0 0 0 32.307726437269594 294.59520392519335 0 294.59520392519335 135.45711584009405 0 0 0 0 -221.80283458796475 52.304800613150292 0 52.304800613150292 -236.07318543524889 0 0 0 0 -989.41979522222391 336.91201060377352 0 336.91201060377352 385.55949011264602 0 0 0 0 -54.874257970911657 55.132449757095458 0 55.132449757095458 -41.897035913338101 0 0 0 0 -377.97665485605239 181.12408053242325 0 181.12408053242325 93.954717747226823 0 0 0 0 275.67339251408703 296.04931159565604 0 296.04931159565604 40.298301665083272 0 0 0 0 -17.800485768434129 17.131458233256382 0 17.131458233256382 -6.891582204948179 0 0 0 0 121.11950554155919 195.97057621347267 0 195.97057621347267 48.767355942865834 0 0 0 0 -62.984464588450237 129.81746274714078 0 129.81746274714078 46.439819990089745 0 0 0 0 -23.762751716138155 101.17871255883074 0 101.17871255883074 -25.401565835694782 0 0 0 0 137.51077551182061 770.57177950292134 0 770.57177950292134 -693.44341067678761 0 0 0 0 -33.596870899361875 68.790008231314985 0 68.790008231314985 -46.656019380164309 0 0 0 0 -17.782414739602245 95.938870216516079 0 95.938870216516079 -23.994569558737567 0 0 0 0 -22.768698993438036 55.718751302935843 0 55.718751302935843 -56.430871784411892 0 0 0 0 16.650662894383231 89.304538196611702 0 89.304538196611702 -34.86156791029498 0 0 0 0 915.99061750150577 333.54909690146451 0 333.54909690146451 187.22366078801861 0 0 0 0 1244.0437004314153 -201.0544337927131 0 -201.0544337927131 145.02229782000359 0 0 0 0 -1.7353172337115836 8.2099191855157017 0 8.2099191855157017 -1.5516039402505299 0 0 0 0 -271.09617260198138 53.863079501621542 0 53.863079501621542 -72.199594496421923 0 0 0 0 -7.780273597323685 102.55181744418223 0 102.55181744418223 -42.041495822224533 0 0 0 0 -92.364259012030203 69.170701841706574 0 69.170701841706574 -4.0828316737045895 0 0 0 0 -187.2413264866118 -81.41208432696294 0 -81.41208432696294 169.20951262428753 0 0 0 0 -579.68620254756934 187.09022285969695 0 187.09022285969695 140.30478231864981 0 0 0 0 -394.82391773439304 -83.582388955677743 0 -83.582388955677743 21.53885290841572 0 0 0 0 -638.60138028682559 218.00137321541843 0 218.00137321541843 128.02530236890743 0 0 0 0 -1697.9897390531114 423.00464772927808 0 423.00464772927808 108.01235051020922 0 0 0 0 -1342.0200748215211 -622.20524075767025 0 -622.20524075767025 1041.6732725726761 0 0 0 0 -727.43013901994709 1825.1871914881049 0 1825.1871914881049 -1536.6973898775177 0 0 0 0 -698.87731686577172 -29.532100481752423 0 -29.532100481752423 165.00081355575821 0 0 0 0 -24.186055072069713 77.599341871974389 0 77.599341871974389 -3.4485128910929461 0 0 0 0 28.833921147412184 95.458127325939131 0 95.458127325939131 -9.1639053118560696 0 0 0 0 -163.17971213774581 149.08184154966148 0 149.08184154966148 70.773049927112879 0 0 0 0 289.82632570589294 97.764932125399355 0 97.764932125399355 -129.8758848769794 0 0 0 0 80.475902481532103 141.27321134660451 0 141.27321134660451 -182.55170743080089 0 0 0 0 -317.29644889086012 60.622540228236176 0 60.622540228236176 76.773025512651657 0 0 0 0 -40.059388189562341 86.826627711586383 0 86.826627711586383 -28.699712813618021 0 0 0 0 52.031416609283497 352.1267004456513 0 352.1267004456513 -113.26865703018848 0 0 0 0 102.00563473464445 39.726451591675868 0 39.726451591675868 -9.9060198761362699 0 0 0 0 -59.93634945518852 463.76947110439687 0 463.76947110439687 -307.91466506419238 0 0 0 0 -476.00306144084971 381.61565630487166 0 381.61565630487166 -90.354012322379276 0 0 0 0 -411.17448040092495 860.98154935181083 0 860.98154935181083 -322.0126754756493 0 0 0 0 -257.27292582294649 756.03845460893353 0 756.03845460893353 -251.74825523272739 0 0 0 0 -1410.2958402860604 1158.4929471831856 0 1158.4929471831856 -76.658745640146662 0 0 0 0 -440.67015503097718 610.03145503299311 0 610.03145503299311 -167.62583350034402 0 0 0 0 -1589.042108947674 1746.4078746079249 0 1746.4078746079249 -921.15484946827928 0 0 0 0 15.886599986414907 25.960918616901495 0 25.960918616901495 23.639407409080718 0 0 0 0 -230.89287593735753 760.8519901728796 0 760.8519901728796 -998.35127410512632 0 0 0 0 9.1255198931721822 12.963752235598321 0 12.963752235598321 7.0713188512353895 0 0 0 0 -186.0666515300436 1680.4772461299726 0 1680.4772461299726 -1103.3878752652226 0 0 0 0 -234.90314293899064 1093.9651097159003 0 1093.9651097159003 127.75493132094562 0 0 0 0 -1879.7903646637205 1025.8874962548034 0 1025.8874962548034 132.40437336533796 0 0 0 0 -95.258595025208706 1570.632562091494 0 1570.632562091494 -684.59747895539476 0 0 0 0 -1006.5228366722549 391.76775797207665 0 391.76775797207665 239.07685727557691 0 0 0 0 -599.99619425242963 277.39000718585885 0 277.39000718585885 268.778229759846 0 0 0 0 -3348.1253248066114 1952.2698545767707 0 1952.2698545767707 506.89169418403253 0 0 0 0 -544.34137297534562 2102.9110582656194 0 2102.9110582656194 474.22735509317135 0 0 0 0 -46.679211846016187 1429.1537578513889 0 1429.1537578513889 -3732.6622206156026 0 0 0 0 -3398.2921607009371 -702.77160426915282 0 -702.77160426915282 254.96159831927798 0 0 0 0 1.7400537101384543 1464.3050937713488 0 1464.3050937713488 -5508.7209413148739 0 0 0 0 -30.675399060887024 14.551911044459359 0 14.551911044459359 -9.2583320881678333 0 0 0 0 -1152.7191663511617 719.48979338548384 0 719.48979338548384 -988.70765878581733 0 0 0 0 -3860.5720129273468 2236.6422779566274 0 2236.6422779566274 -1822.4831378986564 0 0 0 0 -1279.3429520863447 1083.5886356854171 0 1083.5886356854171 -439.94790940955136 0 0 0 0 -1044.0313570205035 -556.37794832981308 0 -556.37794832981308 -148.72913719099597 0 0 0 0 -2350.7201147556152 -900.98008949831819 0 -900.98008949831819 -1856.6254059268686 0 0 0 0 -322.56054525520449 -284.05482740502339 0 -284.05482740502339 -535.79463892293279 0 0 0 0 -432.51719409554971 204.3905096721428 0 204.3905096721428 -1235.1146342428401 0 0 0 0 358.43009614850962 160.22105212108727 0 160.22105212108727 -1544.6060530468785 0 0 0 0 71.862490018957033 60.617526012414601 0 60.617526012414601 -247.11855240532168 0 0 0 0 -250.73488529542192 195.04201472199566 0 195.04201472199566 486.25613088869432 0 0 0 0 125.39625792448896 -511.6957983259781 0 -511.6957983259781 164.16464522290335 0 0 0 0 90.020659323738073 -331.5423862428288 0 -331.5423862428288 838.34211147011956 0 0 0 0 -70.863392808595307 146.34918518732218 0 146.34918518732218 32.901014893120745 0 0 0 0 -49.382218219769129 362.21035062775445 0 362.21035062775445 -181.85639402082779 0 0 0 0 -525.7020316855087 316.16801661499812 0 316.16801661499812 615.24351282182033 0 0 0 0 -38.543492481396527 122.57248824990792 0 122.57248824990792 39.126337204081018 0 0 0 0 -546.47611245027292 -481.59808506625268 0 -481.59808506625268 1521.1427180536703 0 0 0 0 -512.81881929615156 334.39434631552649 0 334.39434631552649 1271.5717767194874 0 0 0 0 1.2368771530548486 146.39180279131563 0 146.39180279131563 60.991163696409345 0 0 0 0 24.008602608379078 671.02691426431556 0 671.02691426431556 403.55732822179561 0 0 0 0 -857.14695214405765 369.53151545562832 0 369.53151545562832 301.64314574914169 0 0 0 0 140.87433339092604 -368.17871367983753 0 -368.17871367983753 48.900729284454428 0 0 0 0 6.720031726767985 -10.576593064810183 0 -10.576593064810183 -2.2899416760035436 0 0 0 0 592.7530329090423 742.21533836541585 0 742.21533836541585 550.13136988227052 0 0 0 0 725.17054814737639 266.32378497271202 0 266.32378497271202 -1182.64976190374 0 0 0 0 -285.28487070482151 346.49975119801456 0 346.49975119801456 -156.13513822828827 0 0 0 0 -67.207657763188763 196.90983575111022 0 196.90983575111022 -288.70858860286171 0 0 0 0 11.247111057060465 436.38297928648899 0 436.38297928648899 -608.04152884794166 0 0 0 0 63.254223062425027 157.91796006097832 0 157.91796006097832 -155.71644303363044 0 0 0 0 -198.73884632470435 272.21115360902331 0 272.21115360902331 -224.97699682238544 0 0 0 0 -186.42220070249459 271.20322297882558 0 271.20322297882558 -393.28105275002054 0 0 0 0 24.400185903127149 132.76215193839295 0 132.76215193839295 72.784759051681874 0 0 0 0 676.42397114814594 -235.97587350183676 0 -235.97587350183676 99.145159369247267 0 0 0 0 -571.88874626531833 36.112989800894866 0 36.112989800894866 159.88896887574811 0 0 0 0 -246.21164852799848 -10.712014330005331 0 -10.712014330005331 -239.81079047096136 0 0 0 0 -8.5130168327652029 29.38789498164607 0 29.38789498164607 -3.7478274724300391 0 0 0 0 -452.97787758641607 -144.5491447344175 0 -144.5491447344175 425.40515245103597 0 0 0 0 342.12179303783523 -402.69855902299423 0 -402.69855902299423 18.377602269058116 0 0 0 0 892.74518957282271 8.8514295298118668 0 8.8514295298118668 -231.33656697080005 0 0 0 0 337.46958490863108 321.32292908775526 0 321.32292908775526 -234.72922325403488 0 0 0 0 38.993308093818968 115.33500322259307 0 115.33500322259307 40.029876474797618 0 0 0 0 -604.07838729664581 604.58029089661431 0 604.58029089661431 651.93433483780245 0 0 0 0 411.49167075574405 64.892027810077707 0 64.892027810077707 1007.6965906913392 0 0 0 0 1321.9468049399366 1265.2710130154592 0 1265.2710130154592 588.80192378176798 0 0 0 0 230.53393197256446 471.80381897130428 0 471.80381897130428 110.49468447131221 0 0 0 0 1342.0875863733672 663.85284706402308 0 663.85284706402308 390.22847312148951 0 0 0 0 2506.933140052879 1165.9352733409469 0 1165.9352733409469 489.17998707391962 0 0 0 0 552.08982906371784 405.01113746828196 0 405.01113746828196 46.672573306641425 0 0 0 0 1938.4495349449189 632.18201337455685 0 632.18201337455685 -203.82850539407809 0 0 0 0 1434.0347013658684 905.36518677935601 0 905.36518677935601 -167.58575368703168 0 0 0 0 392.79476946632349 326.950060504867 0 326.950060504867 -216.81344310400891 0 0 0 0 976.06891603268741 921.93428514903644 0 921.93428514903644 547.62574184584082 0 0 0 0 1378.1870874793676 1396.471692137784 0 1396.471692137784 989.85601939633489 0 0 0 0 -15.497480636764912 21.91965106939864 0 21.91965106939864 -24.788859186712585 0 0 0 0 219.41452872503214 28.428380794604891 0 28.428380794604891 -1270.0657966072322 0 0 0 0 930.50027178711844 745.58366650627431 0 745.58366650627431 292.9442846528691 0 0 0 0 -543.88460777653745 610.4275786878643 0 610.4275786878643 52.294266394736042 0 0 0 0 38.920537215700755 116.0688925645596 0 116.0688925645596 -3.0434770098761987 0 0 0 0 1023.3402945916496 1010.3276542114181 0 1010.3276542114181 461.29022299134522 0 0 0 0 612.49342883994177 163.87070604909604 0 163.87070604909604 -158.89262026239885 0 0 0 0 -816.14718118044402 255.85861711619145 0 255.85861711619145 250.91608642229403 0 0 0 0 -343.00708506850788 513.08201549586374 0 513.08201549586374 -523.13820643913641 0 0 0 0 -723.86843873992984 1073.6205093224416 0 1073.6205093224416 -751.72776266543588 0 0 0 0 -840.42625448695981 628.49134980286181 0 628.49134980286181 144.95542064532492 0 0 0 0 38.436165172296214 105.80856810642072 0 105.80856810642072 -29.918091825039767 0 0 0 0 3041.490803973571 -918.15997497032367 0 -918.15997497032367 -2508.9115095170855 0 0 0 0 353.24514677716252 229.79790498786679 0 229.79790498786679 -608.06483628005662 0 0 0 0 -2063.2544238607588 1303.9435184758186 0 1303.9435184758186 -400.62097708951478 0 0 0 0 22.383980956930259 13.897032673414287 0 13.897032673414287 -1208.5322611530428 0 0 0 0 632.63314654573333 178.73342825133295 0 178.73342825133295 -1594.183522573454 0 0 0 0 1957.4699473502988 1259.5007568654109 0 1259.5007568654109 1017.6907380575794 0 0 0 0 -7.1024331634417024 5.8687596697968729 0 5.8687596697968729 -5.6467768106999188 0 0 0 0 156.27727933716233 -1756.9887339743145 0 -1756.9887339743145 -3202.0567949617252 0 0 0 0 2402.112542285744 358.35698103495815 0 358.35698103495815 1123.3600045704152 0 0 0 0 1326.6194690340562 574.40380085095239 0 574.40380085095239 1079.9624086915574 0 0 0 0 2049.3605992312878 75.449739187002706 0 75.449739187002706 -2757.0281270103005 0 0 0 0 2344.5000090614303 962.2902953679295 0 962.2902953679295 -851.22628244903171 0 0 0 0 1265.8468546076328 -9.2739852955128299 0 -9.2739852955128299 -591.86444833042333 0 0 0 0 638.46053710654087 35.098712744555087 0 35.098712744555087 -554.75740477858199 0 0 0 0 751.67729784860512 676.80423173021518 0 676.80423173021518 -1248.6427824906132 0 0 0 0 1037.9760198367421 116.35677236982156 0 116.35677236982156 -734.32049635486328 0 0 0 0 831.07136936863026 258.10606119509612 0 258.10606119509612 -59.858538738568313 0 0 0 0 1404.6987305345556 -413.26130522264066 0 -413.26130522264066 215.79652273247484 0 0 0 0 1530.9492989037863 -388.32599298634159 0 -388.32599298634159 14.51626299896634 0 0 0 0 1191.0692064132381 159.00554445256057 0 159.00554445256057 -69.323836373689119 0 0 0 0 1096.8656212475398 -46.45204552965879 0 -46.45204552965879 1102.9354438777518 0 0 0 0 1657.9950757812949 -976.71813184519124 0 -976.71813184519124 619.26923102382716 0 0 0 0 2156.1155456756005 -870.91912232522009 0 -870.91912232522009 137.31400226865662 0 0 0 0 33.05115425378257 97.424876724419804 0 97.424876724419804 -15.815869249294792 0 0 0 0 1899.7192351422254 -610.0677635192842 0 -610.0677635192842 14.396945578890154 0 0 0 0 2104.0349749456072 -195.01473581734172 0 -195.01473581734172 54.876081769412849 0 0 0 0 1911.6383231915897 -556.76657036793767 0 -556.76657036793767 178.56793542406376 0 0 0 0 1726.4572439823132 -415.81379679048405 0 -415.81379679048405 311.56115780820255 0 0 0 0 2077.271662803299 10.162914301243291 0 10.162914301243291 484.3711780559679 0 0 0 0 2859.0957941729321 -697.98078660634201 0 -697.98078660634201 1125.7724116005702 0 0 0 0 26.571639644346234 90.407315975886519 0 90.407315975886519 14.936058619904657 0 0 0 0 1173.6941187832253 39.668185218077269 0 39.668185218077269 915.79142962725018 0 0 0 0 2016.0257811037591 -262.20862373878481 0 -262.20862373878481 -86.87098979287839 0 0 0 0 -3433.6690316930617 1852.9763121068718 0 1852.9763121068718 1862.1979089839151 0 0 0 0 -1900.3350238002604 1546.502778256865 0 1546.502778256865 -1178.5011255541276 0 0 0 0 3120.6015736319605 944.35963656601962 0 944.35963656601962 -61.950909643157502 0 0 0 0 2257.9996450216895 568.44164221993924 0 568.44164221993924 2113.9536278179148 0 0 0 0 1791.5311580552989 -319.94808443044894 0 -319.94808443044894 572.52846553336713 0 0 0 0 -1830.2786792517727 1540.0324265582822 0 1540.0324265582822 -176.01127836680098 0 0 0 0 -1133.2232154433586 976.68691749828577 0 976.68691749828577 212.21737123067578 0 0 0 0 -1894.9853404693422 1310.6721981913433 0 1310.6721981913433 -486.22792168080923 0 0 0 0 -2498.9647784234512 1881.8066173865955 0 1881.8066173865955 805.03607650715276 0 0 0 0 -2223.164845603289 988.20926742209849 0 988.20926742209849 961.40695485596552 0 0 0 0 -2644.8510536615358 917.66964967719468 0 917.66964967719468 -727.93405143513519 0 0 0 0 5.777782570462584 11.185202611395852 0 11.185202611395852 7.1294306380712555 0 0 0 0 -1715.0254519113914 1211.1738072052831 0 1211.1738072052831 268.25804394160514 0 0 0 0 -2152.0657459846893 816.81623395766474 0 816.81623395766474 -24.399334317015018 0 0 0 0 -2178.9670103347871 1911.0396089482165 0 1911.0396089482165 -768.43658390952623 0 0 0 0 -1520.4903581788167 757.47897680252208 0 757.47897680252208 -893.77418050626147 0 0 0 0 -1209.4677488697162 389.73920902839745 0 389.73920902839745 137.11846913960471 0 0 0 0 -1018.8493530065289 1159.3191724639055 0 1159.3191724639055 -620.51074464607518 0 0 0 0 -861.40141961415338 985.98900045025584 0 985.98900045025584 -1212.4853143054061 0 0 0 0 -1569.1911799230916 1696.6807088119144 0 1696.6807088119144 -581.19381295723724 0 0 0 0 13.366612674883733 24.430752443688021 0 24.430752443688021 22.985900534301322 0 0 0 0 -695.72214204437114 802.22218340366089 0 802.22218340366089 -737.75860664168249 0 0 0 0 110.72358982980495 1597.3719562022125 0 1597.3719562022125 -43.036360525511554 0 0 0 0 -2050.4021370254522 1137.3365065163234 0 1137.3365065163234 67.732161720661679 0 0 0 0 42.341637550735868 567.36515754250286 0 567.36515754250286 -580.98084677929728 0 0 0 0 1313.5970793611359 -142.87490164447809 0 -142.87490164447809 -199.43972260601004 0 0 0 0 381.70965921663674 129.40201750224514 0 129.40201750224514 -221.21738763660869 0 0 0 0 21.837547393358214 6.7758270605224595 0 6.7758270605224595 3.0625520510621982 0 0 0 0 414.57389976002924 825.14832726031455 0 825.14832726031455 858.35690128845454 0 0 0 0 1790.3497281908403 567.44906062162045 0 567.44906062162045 -482.85380024752521 0 0 0 0 1027.4617852933225 547.96606009619427 0 547.96606009619427 -458.80858155925671 0 0 0 0 -705.94783430927419 1112.2359362485877 0 1112.2359362485877 -253.7233620127372 0 0 0 0 -1612.3663557440086 751.42323186631256 0 751.42323186631256 398.06493609589234 0 0 0 0 -670.69233451796754 785.27404844110424 0 785.27404844110424 1088.58800134169 0 0 0 0 193.21733514048901 -125.7150357964274 0 -125.7150357964274 648.16568956478295 0 0 0 0 -290.74797353721806 675.90527359920452 0 675.90527359920452 107.56745007639984 0 0 0 0 -1133.96457925082 961.89443610768649 0 961.89443610768649 29.367311811991385 0 0 0 0 -145.85852410033476 551.72217940076371 0 551.72217940076371 -246.0380111094637 0 0 0 0 -939.73620120446685 1164.6852365676896 0 1164.6852365676896 -384.495494557661 0 0 0 0 437.2515883436663 943.72383994534175 0 943.72383994534175 -357.33730361203197 0 0 0 0 142.85604405194317 359.91676122212812 0 359.91676122212812 -344.9547687808265 0 0 0 0 327.41122833800364 763.60792878756183 0 763.60792878756183 356.51239846361568 0 0 0 0 -216.73824642086402 698.01110787355719 0 698.01110787355719 -216.27209304693679 0 0 0 0 -502.20441048015709 375.36042818475107 0 375.36042818475107 -539.84368431626353 0 0 0 0 1257.4363991317114 553.10146109315247 0 553.10146109315247 -529.824666588931 0 0 0 0 1080.4794571101975 585.17800365961011 0 585.17800365961011 -517.85580575931817 0 0 0 0 536.7174162068286 655.21543676410147 0 655.21543676410147 -397.93935332322144 0 0 0 0 1210.4782069298599 766.02962814064813 0 766.02962814064813 -451.87042703086627 0 0 0 0 1131.6278471556288 592.72792921081782 0 592.72792921081782 -425.25698286446277 0 0 0 0 1736.3428273905861 86.460256181806471 0 86.460256181806471 -487.64611437200801 0 0 0 0 2194.3667085597917 1241.9188592778373 0 1241.9188592778373 -104.66206405961566 0 0 0 0 488.55122123932961 652.5809611133991 0 652.5809611133991 189.91035245056264 0 0 0 0 652.73776385995734 1337.1023806732701 0 1337.1023806732701 2185.864064235182 0 0 0 0 684.59695615328383 -731.79462325171335 0 -731.79462325171335 1726.6962775255779 0 0 0 0 1081.3555043053893 -266.3803705261962 0 -266.3803705261962 -840.56090330617735 0 0 0 0 140.27954408433288 300.7825160567736 0 300.7825160567736 308.62888167476922 0 0 0 0 -1074.4655595059776 831.0919844568707 0 831.0919844568707 816.66813757966884 0 0 0 0 2312.5207964903384 1623.1081426208293 0 1623.1081426208293 986.3302223032224 0 0 0 0 4.2123580312964322 10.194272769376937 0 10.194272769376937 -6.915328101900343 0 0 0 0 -115.50902243940436 -354.03352686598373 0 -354.03352686598373 -166.53576014620194 0 0 0 0 -167.41847493000932 -261.47697954492833 0 -261.47697954492833 272.82250989107706 0 0 0 0 -277.26022291164372 -231.34433016043477 0 -231.34433016043477 942.2939649022519 0 0 0 0 -48.3900063481845 35.815439199567209 0 35.815439199567209 -2.0353296221198711 0 0 0 0 -602.74098974699427 187.61709137808066 0 187.61709137808066 689.70329971471801 0 0 0 0 -2474.4753039267744 1411.1260453573486 0 1411.1260453573486 -807.56974453829753 0 0 0 0 320.36394144639962 168.00803908625676 0 168.00803908625676 -1575.4134189577926 0 0 0 0 -38.809251725120241 36.469914501794335 0 36.469914501794335 -2.4023991061384251 0 0 0 0 -433.56955755407034 1825.5550720149331 0 1825.5550720149331 -4112.017354464042 0 0 0 0 -2663.6213227144303 1985.9923173966527 0 1985.9923173966527 -153.06927091283433 0 0 0 0 -13.314708404770528 18.531500666692807 0 18.531500666692807 -2.3575685026484443 0 0 0 0 2344.6913748256625 4747.7292315337399 0 4747.7292315337399 -4211.1059140910656 0 0 0 0 2596.4289652285293 971.20018533622351 0 971.20018533622351 -6479.5015180537157 0 0 0 0 4122.4007048169124 3861.562227907445 0 3861.562227907445 -3890.4868691810407 0 0 0 0 9104.5706516053069 803.83714904792578 0 803.83714904792578 -2985.3800264722813 0 0 0 0 8.0359410687521553 25.148371877524923 0 25.148371877524923 2.602853513266723 0 0 0 0 3845.2240924101943 -282.99666521754261 0 -282.99666521754261 162.06859191933472 0 0 0 0 -3139.0553194088443 751.32398546075274 0 751.32398546075274 -1001.5836936888809 0 0 0 0 -7475.8192050017242 3384.9059440589335 0 3384.9059440589335 -571.29535648725869 0 0 0 0 -3391.0867442779836 1675.4796525870042 0 1675.4796525870042 -1046.5793000828562 0 0 0 0 2893.6376942112774 968.52875001775101 0 968.52875001775101 494.87136962579098 0 0 0 0 3868.9976226301615 960.55535848964973 0 960.55535848964973 -232.48930606050999 0 0 0 0 -5261.5408228790584 1227.3019268621065 0 1227.3019268621065 -207.18935576314107 0 0 0 0 19.990031106507793 68.848882675201253 0 68.848882675201253 15.505956293662393 0 0 0 0 -3309.098606456766 302.75304836922442 0 302.75304836922442 -1096.3356443624771 0 0 0 0 -2394.8532028292575 806.3214199829381 0 806.3214199829381 -984.37944697170315 0 0 0 0 -2565.8318906713866 1667.2719013691349 0 1667.2719013691349 -540.47990698035574 0 0 0 0 -1084.3065939608132 933.43436450786248 0 933.43436450786248 -651.2904273352251 0 0 0 0 -687.75666060068852 1133.3301117601186 0 1133.3301117601186 -1167.8317953747464 0 0 0 0 -2120.4343103622032 1377.9825121223112 0 1377.9825121223112 -483.06189246405847 0 0 0 0 -207.80492801424407 716.3316366694271 0 716.3316366694271 -48.441611823029234 0 0 0 0 -204.96739748293476 681.41791525403823 0 681.41791525403823 -2050.6596878858618 0 0 0 0 393.07150398485828 850.91781312288367 0 850.91781312288367 -644.34323232367751 0 0 0 0 181.88395614422916 -222.99602448822407 0 -222.99602448822407 -445.07509201814901 0 0 0 0 -326.02140587451868 121.25113756410428 0 121.25113756410428 -641.61414419813809 0 0 0 0 -353.66889240880118 26.611268247041153 0 26.611268247041153 -219.93583886980196 0 0 0 0 49.089067904555122 -94.189026124411612 0 -94.189026124411612 -375.60495151649229 0 0 0 0 -327.90035979463573 26.206776299193734 0 26.206776299193734 -36.926932959002443 0 0 0 0 -118.97971766239252 -8.5547349585973365 0 -8.5547349585973365 -32.532486720185261 0 0 0 0 184.28047718424932 62.437629099062178 0 62.437629099062178 -131.72812074724061 0 0 0 0 583.55704009994952 129.85340945464486 0 129.85340945464486 -450.32344499873579 0 0 0 0 62.749949559653032 -26.309352750154176 0 -26.309352750154176 -195.73941314226249 0 0 0 0 438.39384338636228 405.7892332663032 0 405.7892332663032 -87.347777903894894 0 0 0 0 161.83707576613233 228.38605794620526 0 228.38605794620526 -186.63519367282015 0 0 0 0 200.67487500816424 93.548428127363877 0 93.548428127363877 -105.27149415473104 0 0 0 0 116.61658786268526 74.351149992180581 0 74.351149992180581 -109.46142513585801 0 0 0 0 174.51800149968767 156.05651158424735 0 156.05651158424735 -189.33239146289998 0 0 0 0 153.37231617789803 151.31520648065634 0 151.31520648065634 -79.421718613622943 0 0 0 0 1.172115419894407 132.16763163718787 0 132.16763163718787 -32.615728961135346 0 0 0 0 173.28983002525729 144.91996777534177 0 144.91996777534177 -103.43117929674918 0 0 0 0 -35.215874432498822 208.79666546925 0 208.79666546925 48.144086749322014 0 0 0 0 163.23021773855908 213.22923539622207 0 213.22923539622207 -105.05621099498239 0 0 0 0 16.197328134490817 129.30756936500165 0 129.30756936500165 -109.65391547663603 0 0 0 0 -25.906535784983134 309.20228121727996 0 309.20228121727996 318.9496061320533 0 0 0 0 10.808152449044314 0.16110526658297886 0 0.16110526658297886 -1.0657910946962659 0 0 0 0 444.75399233786447 105.22907803129783 0 105.22907803129783 -411.41094957614405 0 0 0 0 -11.003927055740576 41.839031522235473 0 41.839031522235473 -16.072394092007585 0 0 0 0 -125.01345957044396 147.93638253365498 0 147.93638253365498 -50.232196032535285 0 0 0 0 792.99558707259712 109.6584182260558 0 109.6584182260558 -415.14924720989075 0 0 0 0 17.612813289840393 120.58655717700064 0 120.58655717700064 -83.841149699600862 0 0 0 0 -1370.5090630207142 -126.16262257723429 0 -126.16262257723429 -78.590624953256338 0 0 0 0 -115.73082327313932 450.50609592019919 0 450.50609592019919 -1256.0794368503557 0 0 0 0 -2352.3303706899787 350.98104447279184 0 350.98104447279184 47.086310708880774 0 0 0 0 -135.50353557975097 -8.8424997141892163 0 -8.8424997141892163 -52.477234256308293 0 0 0 0 324.76188042211288 663.42742622015066 0 663.42742622015066 -385.54327989939338 0 0 0 0 663.86323351495412 392.50800935341977 0 392.50800935341977 -287.75144027569331 0 0 0 0 4.5341962539503484 117.54747332129678 0 117.54747332129678 -60.051176742193434 0 0 0 0 258.90876354769682 154.07097913630969 0 154.07097913630969 115.88401839899598 0 0 0 0 253.34973506560354 431.37482083578743 0 431.37482083578743 181.82637138446444 0 0 0 0 -247.67859110503559 267.91777247769642 0 267.91777247769642 76.535585231613368 0 0 0 0 -391.79542465650229 318.49572709598579 0 318.49572709598579 165.36347316766114 0 0 0 0 854.75459566645031 93.304290926134854 0 93.304290926134854 -205.73341125110164 0 0 0 0 -14.048365320122873 14.354973615470092 0 14.354973615470092 6.9523902378457478 0 0 0 0 -498.80758640796648 174.00712127640872 0 174.00712127640872 128.82325005857274 0 0 0 0 -168.45471774884868 177.7356330969169 0 177.7356330969169 -49.544140001176856 0 0 0 0 -414.91308779898827 99.007286219726666 0 99.007286219726666 9.2511130498023704 0 0 0 0 -17.187251718303457 -1.5932576368916216 0 -1.5932576368916216 -12.939266587628424 0 0 0 0 -1319.5845341637685 1083.8426492879025 0 1083.8426492879025 -123.24387040401052 0 0 0 0 -508.73429567850144 376.9927413619298 0 376.9927413619298 -303.6891934297746 0 0 0 0 -188.01536693553135 754.90496195745072 0 754.90496195745072 36.928674686874729 0 0 0 0 -697.0159770679802 460.02136183502444 0 460.02136183502444 25.456784655660158 0 0 0 0 -617.64718647718428 49.221754138630786 0 49.221754138630786 -159.42074513444095 0 0 0 0 -658.21522051077045 324.94439059434808 0 324.94439059434808 472.26914655613655 0 0 0 0 -717.33075345195539 354.88391004357254 0 354.88391004357254 96.506383583473507 0 0 0 0 -0.56010311288018499 20.916785309986576 0 20.916785309986576 -31.65325595097363 0 0 0 0 33.199616054809212 86.007691894998061 0 86.007691894998061 -5.6275264883151976 0 0 0 0 -1160.2965648166282 142.6105917962559 0 142.6105917962559 -16.440132923977217 0 0 0 0 43.289532950438229 36.210194361925033 0 36.210194361925033 7.8975087834729152 0 0 0 0 261.11659666797686 -78.572469247905246 0 -78.572469247905246 73.531604593328666 0 0 0 0 115.89453427461376 183.57609355766181 0 183.57609355766181 -200.39668410239392 0 0 0 0 113.37728390104712 143.50867296398064 0 143.50867296398064 -31.883229785613366 0 0 0 0 203.31742477558328 4.9063215081550879 0 4.9063215081550879 -584.23418048437452 0 0 0 0 -3.6394244109420466 6.0458785378346427 0 6.0458785378346427 -10.391190401653432 0 0 0 0 -342.91176260597786 898.25221208242874 0 898.25221208242874 -625.1011145323946 0 0 0 0 111.03749854379839 370.32413667189394 0 370.32413667189394 -132.02605989750009 0 0 0 0 455.48052680950423 774.51317991263932 0 774.51317991263932 76.729597757715965 0 0 0 0 -143.44660290180946 590.94576472954213 0 590.94576472954213 -42.716827927899431 0 0 0 0 -350.66982693613318 344.77346712928556 0 344.77346712928556 44.190818035422126 0 0 0 0 60.897749551602523 27.421634150836638 0 27.421634150836638 15.792191237156032 0 0 0 0 145.62738677497327 972.98159786140604 0 972.98159786140604 -1055.1752442679935 0 0 0 0 464.21853583201391 -41.676910374815634 0 -41.676910374815634 -298.65867439722933 0 0 0 0 21.880160245190943 14.870214469847497 0 14.870214469847497 8.2315551960504081 0 0 0 0 214.45724528406936 1846.363331210785 0 1846.363331210785 1579.1724440693943 0 0 0 0 -744.01663180433388 983.09692793287832 0 983.09692793287832 1645.310299104196 0 0 0 0 -80.836122862790944 1395.0596429206344 0 1395.0596429206344 1730.6288536429092 0 0 0 0 1182.5023270071324 1093.7963189154689 0 1093.7963189154689 944.26770657883026 0 0 0 0 -245.82376074494459 1110.9047677575145 0 1110.9047677575145 3825.4601984031615 0 0 0 0 98.284957128253154 -66.892831809458585 0 -66.892831809458585 -34.031141555460636 0 0 0 0 1168.1392418013129 1777.1771443220568 0 1777.1771443220568 1234.3610097319252 0 0 0 0 1264.3510084984046 -14.32160723265406 0 -14.32160723265406 -202.29758816960384 0 0 0 0 104.39072162683078 241.21421606142394 0 241.21421606142394 48.553242785957991 0 0 0 0 1.2887254598434144 79.64697905167084 0 79.64697905167084 -82.167144025809876 0 0 0 0 238.5524891734276 -171.11958713237982 0 -171.11958713237982 -413.77443737033173 0 0 0 0 -2.4217732175620768 226.01831070242042 0 226.01831070242042 -43.622775870775513 0 0 0 0 17.564324947905369 83.073012548022959 0 83.073012548022959 -103.3180280062499 0 0 0 0 57.394793857567642 58.522572531147375 0 58.522572531147375 -2.1925960440891004 0 0 0 0 -316.54155446902405 -284.19417597558277 0 -284.19417597558277 220.75106039879029 0 0 0 0 122.75534603371489 307.3378780683197 0 307.3378780683197 -947.66519514494576 0 0 0 0 -92.16889789787092 146.66323315312184 0 146.66323315312184 -518.45784254398313 0 0 0 0 -10.10063959720128 81.9209853469672 0 81.9209853469672 -468.2791926383361 0 0 0 0 -181.09581966026963 400.37205043526228 0 400.37205043526228 -544.64420767736738 0 0 0 0 -687.94001507734174 633.89333335159336 0 633.89333335159336 -399.86011461752059 0 0 0 0 -585.57336767968081 55.025452292909904 0 55.025452292909904 -281.12167182609846 0 0 0 0 -80.268910001158474 148.34706518933433 0 148.34706518933433 -567.94321363206836 0 0 0 0 -1046.9195774263935 394.35714119071781 0 394.35714119071781 -3.544411147813662 0 0 0 0 -994.90777394624456 278.01667108299443 0 278.01667108299443 -1220.6989331694494 0 0 0 0 -935.55601592404855 469.4770737262661 0 469.4770737262661 -477.98033663170281 0 0 0 0 -943.7130670054612 1211.6452776375627 0 1211.6452776375627 -2816.8546026436379 0 0 0 0 -1808.0574702520971 971.53952435172687 0 971.53952435172687 -600.33925680442189 0 0 0 0 -1048.5268852853042 916.0827783387067 0 916.0827783387067 -646.44382655437221 0 0 0 0 -251.91407353344789 945.32991792619327 0 945.32991792619327 -757.94598620782199 0 0 0 0 -987.94394426359941 1040.0072256930143 0 1040.0072256930143 -108.19339881879569 0 0 0 0 -752.1871158474105 1230.5760154683803 0 1230.5760154683803 -242.0295824639179 0 0 0 0 -605.02479974408925 1017.8368929726239 0 1017.8368929726239 -565.99837978073629 0 0 0 0 -70.560460231543402 534.72549875870754 0 534.72549875870754 -384.39076233518063 0 0 0 0 -528.45029115273792 1158.9153115489971 0 1158.9153115489971 -360.56621551470016 0 0 0 0 1840.3437718971345 1125.9342344725283 0 1125.9342344725283 -103.14692640895373 0 0 0 0 -1211.3756161111232 1513.6172994248482 0 1513.6172994248482 378.27841769249062 0 0 0 0 -396.77071802375576 674.16813699070917 0 674.16813699070917 -251.48715727969829 0 0 0 0 -565.17466993736889 1493.2827295263778 0 1493.2827295263778 565.37954390395316 0 0 0 0 375.49579987717334 861.79938042989124 0 861.79938042989124 269.40862471680157 0 0 0 0 1455.136950263317 1070.9880296107585 0 1070.9880296107585 324.98710751695035 0 0 0 0 524.91539078093774 1272.2816155883775 0 1272.2816155883775 336.62962817994412 0 0 0 0 -898.38241940450098 -316.02226615184918 0 -316.02226615184918 -925.97074477848219 0 0 0 0 -767.13316922446666 -944.65921102307584 0 -944.65921102307584 -3792.8239833896223 0 0 0 0 -8.1501486221388859 11.701727521207289 0 11.701727521207289 -12.452293047824924 0 0 0 0 531.3959236889059 513.79612323808396 0 513.79612323808396 1418.4377854120685 0 0 0 0 -830.93248950985435 2134.8077302209131 0 2134.8077302209131 2386.9438115369994 0 0 0 0 -883.0873869539937 2470.9270100803369 0 2470.9270100803369 282.80955844995333 0 0 0 0 -1132.5070100479497 1015.5641567269777 0 1015.5641567269777 772.34208143360593 0 0 0 0 -1120.1660503839084 1570.9458724461074 0 1570.9458724461074 -1459.1551518048364 0 0 0 0 -986.62673306813667 916.91827039408963 0 916.91827039408963 -625.79187197137071 0 0 0 0 -1033.520290361932 1196.6234239925579 0 1196.6234239925579 -6.2015010999602964 0 0 0 0 -2323.4086481333979 711.33279905348536 0 711.33279905348536 -24.311601001187228 0 0 0 0 -3316.1422787980919 979.42849300590751 0 979.42849300590751 450.3742640233686 0 0 0 0 -1614.4107420802175 1543.6144122991755 0 1543.6144122991755 418.1222204301157 0 0 0 0 -2134.8574121233323 605.73852725459437 0 605.73852725459437 404.28299703471714 0 0 0 0 -4587.186569892343 532.92614600139495 0 532.92614600139495 289.06718844969146 0 0 0 0 -2252.7973491707817 893.58906486464912 0 893.58906486464912 -264.31699087595916 0 0 0 0 3533.2366120416373 206.73435832314863 0 206.73435832314863 -228.19906453930162 0 0 0 0 1744.5932670189504 328.98596485692542 0 328.98596485692542 164.11162099989451 0 0 0 0 1824.6682704502255 533.47658350894744 0 533.47658350894744 -451.71822497973335 0 0 0 0 2631.2894970171292 658.34219050392858 0 658.34219050392858 -561.08786417969532 0 0 0 0 1.9846402191559607 69.279515316033113 0 69.279515316033113 -39.091421342487706 0 0 0 0 1852.3197115246403 269.60550105145376 0 269.60550105145376 -618.06012961866509 0 0 0 0 1582.2230965090894 1297.0029128017632 0 1297.0029128017632 -620.63978273911925 0 0 0 0 3.0833824440963253 80.321267560866602 0 80.321267560866602 -59.700171236378026 0 0 0 0 710.45505154308285 864.42342892888655 0 864.42342892888655 754.94501535446034 0 0 0 0 -124.19122694649923 748.66823356365785 0 748.66823356365785 -801.63243384157249 0 0 0 0 660.41532295446086 824.96417458014912 0 824.96417458014912 -797.19528620788333 0 0 0 0 1189.6840076939297 328.49170994024462 0 328.49170994024462 -2730.7126427518087 0 0 0 0 15.038611283936163 6.8111239880919925 0 6.8111239880919925 0.61781589547565474 0 0 0 0 40.768556652169011 23.891721140266782 0 23.891721140266782 -7.3196107199557794 0 0 0 0 -175.35345034663442 646.89595814704444 0 646.89595814704444 -1004.0776002286293 0 0 0 0 -150.82936517331473 1016.2937413300169 0 1016.2937413300169 -298.95046247343998 0 0 0 0 656.37597277898021 906.95677429571515 0 906.95677429571515 -272.75953163181839 0 0 0 0 703.56315734723103 739.96983782611642 0 739.96983782611642 107.98466225613083 0 0 0 0 688.03535939527501 630.16330554446904 0 630.16330554446904 -651.80868103580724 0 0 0 0 -212.97207955452905 759.0521413920942 0 759.0521413920942 74.203027325682342 0 0 0 0 444.65720691667866 420.44668657236798 0 420.44668657236798 -161.85456299432553 0 0 0 0 1992.4639701424021 432.29552714571764 0 432.29552714571764 -140.18392840258457 0 0 0 0 541.48740788109262 735.83056754111567 0 735.83056754111567 387.22322851093486 0 0 0 0 1385.2443725349658 359.51973116064619 0 359.51973116064619 234.93397661733616 0 0 0 0 -566.35964701420016 352.97602658197866 0 352.97602658197866 504.33164840258542 0 0 0 0 -286.29344928723003 290.54628269656678 0 290.54628269656678 472.71069226208783 0 0 0 0 363.40310225593748 699.80637911673875 0 699.80637911673875 357.02417831911589 0 0 0 0 153.98605431052783 554.07388547151641 0 554.07388547151641 486.95925648411503 0 0 0 0 1415.99334141289 485.73146276274201 0 485.73146276274201 98.80823344354576 0 0 0 0 709.12036433467438 849.61439558048005 0 849.61439558048005 -1.2793274376599584 0 0 0 0 407.84971017750831 559.21939327779728 0 559.21939327779728 547.67716148856562 0 0 0 0 3901.0494253264478 1297.0862755806593 0 1297.0862755806593 -116.01083534531062 0 0 0 0 1214.2483295623997 1613.5439852816626 0 1613.5439852816626 -78.071376114559826 0 0 0 0 -624.39737348868221 846.02397194421064 0 846.02397194421064 -0.07007353009248618 0 0 0 0 3479.8063480319324 1.8588823473619414 0 1.8588823473619414 303.51466961328697 0 0 0 0 5341.5428295626043 525.23279706763878 0 525.23279706763878 -650.16681561560836 0 0 0 0 -1.0044644778368621 15.593085264695162 0 15.593085264695162 -5.9073330167846052 0 0 0 0 1414.027385913927 891.80768870789325 0 891.80768870789325 611.53887974108511 0 0 0 0 2031.2861545769774 606.03705830046965 0 606.03705830046965 360.35130583647697 0 0 0 0 0.67600993214720262 47.5323791930102 0 47.5323791930102 -20.693324944717119 0 0 0 0 -2427.7219518369384 885.18434942820022 0 885.18434942820022 -631.91585286615009 0 0 0 0 -2425.3067602690076 1350.0698716547433 0 1350.0698716547433 172.51600556884659 0 0 0 0 -1499.5087371533591 378.23669355769016 0 378.23669355769016 -316.82082893908955 0 0 0 0 -2187.652520483025 1411.6361817753423 0 1411.6361817753423 -771.0400846064731 0 0 0 0 -7388.6243582842335 1510.1012611385045 0 1510.1012611385045 600.36459248929168 0 0 0 0 -4240.2160437108978 103.16684233634442 0 103.16684233634442 -447.47440479607758 0 0 0 0 -3463.6487323462934 2394.4064788597898 0 2394.4064788597898 -630.40159754184424 0 0 0 0 -2166.3759117904556 1069.0647387095923 0 1069.0647387095923 0.90779773924441542 0 0 0 0 -1204.6965527267603 1715.2096832872921 0 1715.2096832872921 -458.87167423997016 0 0 0 0 -1344.4225233942998 974.80257160290057 0 974.80257160290057 -432.90551688868436 0 0 0 0 -2869.6141723558649 386.36742174257779 0 386.36742174257779 -335.09033299374278 0 0 0 0 -1136.1627183428336 349.36710661263169 0 349.36710661263169 -162.6043675221008 0 0 0 0 338.09683891941677 1363.6746411755521 0 1363.6746411755521 -0.63712979671254288 0 0 0 0 1070.8577163531736 475.44702854899515 0 475.44702854899515 -408.48262616628199 0 0 0 0 374.1601552730499 556.71121383077843 0 556.71121383077843 -115.91774906538194 0 0 0 0 -210.88064889985253 1344.8334442667765 0 1344.8334442667765 -433.29729266174581 0 0 0 0 -169.99999662594928 1391.2506673253156 0 1391.2506673253156 651.76488965908356 0 0 0 0 1363.3987193006324 1295.8009472066624 0 1295.8009472066624 -375.6328396074241 0 0 0 0 12.968889451258438 5.7275637101949997 0 5.7275637101949997 -2.4923148801227057 0 0 0 0 773.66009365553407 1572.841820520498 0 1572.841820520498 2285.9393443366134 0 0 0 0 642.81676662936661 782.31703412802017 0 782.31703412802017 831.02553833127604 0 0 0 0 68.570785937899018 204.06961762844003 0 204.06961762844003 -543.96532742556883 0 0 0 0 30.00352391237745 7.5364410152392338 0 7.5364410152392338 -5.0347216783544866 0 0 0 0 563.71636682803683 934.02603257353621 0 934.02603257353621 550.53630502751912 0 0 0 0 818.52306771755866 1014.5755444978713 0 1014.5755444978713 575.14721727767028 0 0 0 0 675.42503357731312 956.20646777597722 0 956.20646777597722 565.56231548133292 0 0 0 0 221.41638963796208 668.1107385809446 0 668.1107385809446 596.28407123746001 0 0 0 0 679.23910135925439 894.68291563298044 0 894.68291563298044 525.58072922195424 0 0 0 0 -26.702625036227118 649.0803336318495 0 649.0803336318495 730.74957501934841 0 0 0 0 973.75092965208546 527.54488627996398 0 527.54488627996398 538.02309374467586 0 0 0 0 1542.7548178264856 1252.3717199837993 0 1252.3717199837993 498.89753590566033 0 0 0 0 1312.8213658497989 1443.2307761062002 0 1443.2307761062002 504.1443900129816 0 0 0 0 1007.2762097190554 1292.7486984776333 0 1292.7486984776333 435.61362582004222 0 0 0 0 1470.45660333302 1089.0617378457318 0 1089.0617378457318 -66.551553400233388 0 0 0 0 749.84444275483168 1068.7373551810888 0 1068.7373551810888 1164.6273883947288 0 0 0 0 731.04542290310133 882.46508672623077 0 882.46508672623077 167.64853448022041 0 0 0 0 96.980196066167991 926.13599568359496 0 926.13599568359496 633.57750709982065 0 0 0 0 -455.70502837225058 2235.7569673914113 0 2235.7569673914113 4920.2234665504511 0 0 0 0 1107.1888777159784 1404.1985473926325 0 1404.1985473926325 127.72539354226319 0 0 0 0 904.20918525979778 1430.9070238006971 0 1430.9070238006971 1412.0025457172305 0 0 0 0 727.11015667984509 513.39957950558164 0 513.39957950558164 1843.9572173247579 0 0 0 0 414.27398413628407 556.05659517273307 0 556.05659517273307 1052.0805901480689 0 0 0 0 746.49906444235057 419.53298110720061 0 419.53298110720061 22.741031756653683 0 0 0 0 1077.1998561461558 992.46557260218833 0 992.46557260218833 1014.8938319485751 0 0 0 0 734.86663576609908 453.3357984116883 0 453.3357984116883 880.67429218403413 0 0 0 0 52.459396429417666 320.85611091027386 0 320.85611091027386 900.79879276599968 0 0 0 0 37.422561376189833 164.92304978506581 0 164.92304978506581 95.551038685371168 0 0 0 0 735.97972887231936 -4.2898149297689088 0 -4.2898149297689088 -1540.0132137211549 0 0 0 0 -169.27080380313873 222.57439713000349 0 222.57439713000349 88.031516115152044 0 0 0 0 -121.13856433409728 140.82730502393679 0 140.82730502393679 431.96141942576833 0 0 0 0 18.202642403123718 161.68088839135453 0 161.68088839135453 -50.772607645223616 0 0 0 0 -17.766939792872108 128.55448982126836 0 128.55448982126836 136.50128599006439 0 0 0 0 -39.0072096332473 32.747666403797894 0 32.747666403797894 -2.7241471469560352 0 0 0 0 9.0990677999352556 113.42312743287766 0 113.42312743287766 -37.223253621683398 0 0 0 0 42.292785144190951 38.493645276218189 0 38.493645276218189 -17.590196091947405 0 0 0 0 -29.20069289793355 97.004144323211221 0 97.004144323211221 -13.644662288854306 0 0 0 0 -29.720191523980063 41.658681411616783 0 41.658681411616783 -2.9627333932323126 0 0 0 0 -13.796023889671233 90.117598533583077 0 90.117598533583077 -39.119533705088543 0 0 0 0 -895.07837028300855 906.25409809238045 0 906.25409809238045 -354.41502398817283 0 0 0 0 -362.81410253524882 670.76068056688746 0 670.76068056688746 -330.31707601579546 0 0 0 0 -1395.8231075576259 1195.881989044974 0 1195.881989044974 -306.3936615291168 0 0 0 0 -147.01851987573855 1025.8190484040806 0 1025.8190484040806 -830.80948183682631 0 0 0 0 41.803991085702521 41.435405526616165 0 41.435405526616165 0.73652988112439743 0 0 0 0 36.174171686383488 91.695800603927637 0 91.695800603927637 -39.821148798560898 0 0 0 0 -1330.5707115896912 44.103794380178442 0 44.103794380178442 4.7956579337187577 0 0 0 0 -1047.4846989546641 1527.3288037669263 0 1527.3288037669263 -2079.074131386471 0 0 0 0 0.9695117441408172 21.496172771529473 0 21.496172771529473 -2.9512906324822268 0 0 0 0 -2737.7038396877833 1025.1164332832705 0 1025.1164332832705 -570.28106158712762 0 0 0 0 -1081.7360356419013 615.4952444920782 0 615.4952444920782 -655.05379992041708 0 0 0 0 -320.55825550689769 400.93479230375669 0 400.93479230375669 -1117.1999259383738 0 0 0 0 -726.98412257498421 1003.4101922060217 0 1003.4101922060217 -220.1967167929688 0 0 0 0 -719.01858522860857 997.97983907310118 0 997.97983907310118 -1678.3379552531114 0 0 0 0 43.568643038334663 14.252836788871832 0 14.252836788871832 -6.9709292507143914 0 0 0 0 39.934235312012788 108.95252471041022 0 108.95252471041022 -131.62437890545698 0 0 0 0 -822.32514612648811 1065.0451828016012 0 1065.0451828016012 -1155.3982899494295 0 0 0 0 15.482697624236174 12.64633099183942 0 12.64633099183942 1.5834982948774723 0 0 0 0 453.85499432020151 253.57203287859738 0 253.57203287859738 102.08683302885038 0 0 0 0 373.10484436545812 100.15909238380846 0 100.15909238380846 -9.6609581419761525 0 0 0 0 62.209030924052058 242.7531625090196 0 242.7531625090196 355.04888914042385 0 0 0 0 916.58532706703954 680.77396168201813 0 680.77396168201813 230.4905439659633 0 0 0 0 0.89600763362044944 4.2298356209752228 0 4.2298356209752228 5.6295986359489802 0 0 0 0 2573.9756908628451 504.78982545555482 0 504.78982545555482 -96.587823387599201 0 0 0 0 455.772146837317 285.34681541508326 0 285.34681541508326 -107.73618719959632 0 0 0 0 -1773.0493351972073 725.90276559790618 0 725.90276559790618 93.363770684314659 0 0 0 0 -1946.6692365372819 2067.8075194864095 0 2067.8075194864095 171.77554033807246 0 0 0 0 -579.85408812336391 1085.1500268754608 0 1085.1500268754608 185.3791208932671 0 0 0 0 -877.10669887811673 1046.1832739824167 0 1046.1832739824167 710.1842378321162 0 0 0 0 424.10144850065262 2045.9823569394357 0 2045.9823569394357 41.551477508372045 0 0 0 0 1296.174509332217 1459.7951992940652 0 1459.7951992940652 247.08907030351111 0 0 0 0 1549.1524706029686 986.05543662930722 0 986.05543662930722 974.61004804307595 0 0 0 0 615.26340390694168 719.828207969098 0 719.828207969098 1097.6794070790347 0 0 0 0 -1038.989443448454 936.96893037011614 0 936.96893037011614 -46.684025948256021 0 0 0 0 -815.62278579855774 313.74068108241772 0 313.74068108241772 -1.3799024836771423 0 0 0 0 -1403.7474393390876 1294.2603151923686 0 1294.2603151923686 -747.61760927959403 0 0 0 0 -1000.8421831964661 657.34933547783294 0 657.34933547783294 -629.36245372415215 0 0 0 0 -958.84489942805521 366.76347211522807 0 366.76347211522807 646.56896706171392 0 0 0 0 -1105.3766403681839 852.65021961310413 0 852.65021961310413 134.61498426867183 0 0 0 0 -332.20182948160073 544.00183313057641 0 544.00183313057641 436.33794576553191 0 0 0 0 -624.47741465766012 614.61197651945986 0 614.61197651945986 458.168723437062 0 0 0 0 -861.61093786158744 508.97861172171542 0 508.97861172171542 906.93149382957199 0 0 0 0 -746.33723284494044 687.73686299248584 0 687.73686299248584 877.26072709431173 0 0 0 0 0.7156455192955633 7.0537684283183637 0 7.0537684283183637 -6.3752236117209122 0 0 0 0 -931.65788080501943 866.49561326102048 0 866.49561326102048 1805.240262764506 0 0 0 0 -968.96975623081744 1057.8979926203756 0 1057.8979926203756 980.13791740430861 0 0 0 0 -201.77987621711327 1095.6981368079614 0 1095.6981368079614 3.312666934056324 0 0 0 0 2.1823813547391921 11.902525820643604 0 11.902525820643604 -11.482562219838258 0 0 0 0 825.99820969714347 855.26861679075228 0 855.26861679075228 624.30895815582335 0 0 0 0 657.47773592177509 1666.7412351875537 0 1666.7412351875537 998.17283985009999 0 0 0 0 -268.09617970759064 230.87284634804382 0 230.87284634804382 1311.1558282884071 0 0 0 0 960.79950221531544 1270.1717056091147 0 1270.1717056091147 733.31233902251552 0 0 0 0 405.24627806096032 271.08393928401347 0 271.08393928401347 0.820345045799732 0 0 0 0 565.08861409467772 588.90871077182237 0 588.90871077182237 561.67793972793152 0 0 0 0 997.87288281089968 662.58922063072532 0 662.58922063072532 0.19729911966715008 0 0 0 0 1027.0464051073686 877.7155836206075 0 877.7155836206075 336.66444063783274 0 0 0 0 1029.5090676574891 905.74677273395355 0 905.74677273395355 538.83464986938634 0 0 0 0 1047.9384212555278 1025.0973388154853 0 1025.0973388154853 0.24592013923393097 0 0 0 0 922.26002340710261 1273.7048933155545 0 1273.7048933155545 287.4922804688249 0 0 0 0 917.29829864536805 672.95933633043023 0 672.95933633043023 490.2954748971315 0 0 0 0 921.39179550281551 725.46817324183939 0 725.46817324183939 662.25030004906148 0 0 0 0 913.08106906273133 1509.134898454402 0 1509.134898454402 1287.0654969163079 0 0 0 0 790.78257808412764 265.66206071069973 0 265.66206071069973 -390.52262277679984 0 0 0 0 4.7027846116305412 6.5464356151173888 0 6.5464356151173888 -7.367356158902453 0 0 0 0 875.45479935705646 939.73072382413284 0 939.73072382413284 333.68546199036064 0 0 0 0 827.74798748849344 1385.4027404593535 0 1385.4027404593535 161.64586833919748 0 0 0 0 1248.7145640019517 1022.2281142947904 0 1022.2281142947904 -453.84993239721371 0 0 0 0 675.68359468097697 984.27701803427044 0 984.27701803427044 387.8127827020362 0 0 0 0 686.22863762126553 1125.7464096310214 0 1125.7464096310214 195.49903343507322 0 0 0 0 304.64840814922354 1272.402248790153 0 1272.402248790153 392.32429130695527 0 0 0 0 610.05252721382112 998.27068659287761 0 998.27068659287761 393.69576095770026 0 0 0 0 742.34560084348777 1020.686095605568 0 1020.686095605568 443.55099177662487 0 0 0 0 641.85789938456173 1266.7027261027633 0 1266.7027261027633 0.27256077945639845 0 0 0 0 99.813655035273769 1448.5064934948896 0 1448.5064934948896 260.01927479350707 0 0 0 0 273.16901380875242 1479.8587681846184 0 1479.8587681846184 0.34284691537322942 0 0 0 0 -99.973425947491705 1769.5784604677174 0 1769.5784604677174 384.38441112100918 0 0 0 0 397.09482537729991 1240.5502509201979 0 1240.5502509201979 387.81490387377562 0 0 0 0 -636.61593943581579 1220.4942013575437 0 1220.4942013575437 -121.4635739759251 0 0 0 0 -44.249389506188891 1647.6355851826665 0 1647.6355851826665 -0.44321483720439936 0 0 0 0 -594.70500071155402 1590.702187522038 0 1590.702187522038 73.905740656286071 0 0 0 0 250.36433426308213 1673.6266633760461 0 1673.6266633760461 -134.27152127269073 0 0 0 0 -113.38161441840202 1937.2681067090743 0 1937.2681067090743 1505.6409856231767 0 0 0 0 567.74022392109327 2434.1516251038847 0 2434.1516251038847 707.86439421174873 0 0 0 0 -89.44387584794913 1885.5128839793651 0 1885.5128839793651 883.25932320751599 0 0 0 0 -56.667312520083215 1998.8095779704599 0 1998.8095779704599 941.02942744816391 0 0 0 0 -944.50962428300772 1677.1901217572449 0 1677.1901217572449 2088.8620072168414 0 0 0 0 1018.9047862708139 2448.3102855690231 0 2448.3102855690231 1735.6520982024667 0 0 0 0 -686.3102473284107 2026.2056394667161 0 2026.2056394667161 2556.1322791919811 0 0 0 0 -86.403303719871019 1103.346417743327 0 1103.346417743327 694.07301635485783 0 0 0 0 -167.68535405062994 1417.5117620732417 0 1417.5117620732417 1005.6426675287366 0 0 0 0 -736.60767620961724 1194.1902799283343 0 1194.1902799283343 1003.4471402655327 0 0 0 0 25.102058134730441 1003.5227880591847 0 1003.5227880591847 741.93101040327019 0 0 0 0 -460.25223997178637 712.76326156516734 0 712.76326156516734 789.35796225417289 0 0 0 0 -16.587069605505803 691.89689413900487 0 691.89689413900487 207.26389438021579 0 0 0 0 -612.68106169628481 811.5434387052228 0 811.5434387052228 793.84981874740333 0 0 0 0 -900.7548090154105 1003.7725449764112 0 1003.7725449764112 332.74681981246249 0 0 0 0 -523.89445336456447 865.70180378419172 0 865.70180378419172 279.84993037686945 0 0 0 0 -853.82410832154619 800.0491989023285 0 800.0491989023285 897.59412245231215 0 0 0 0 -541.23090362986943 1085.730416791549 0 1085.730416791549 1063.1453327011841 0 0 0 0 -1775.8117315520431 416.26563102364889 0 416.26563102364889 1709.882012752365 0 0 0 0 -813.74586358156012 1009.0509846151108 0 1009.0509846151108 631.95387160974497 0 0 0 0 -952.52985737215567 650.00221682907431 0 650.00221682907431 123.25703889067518 0 0 0 0 -664.27590970045912 834.61628398605535 0 834.61628398605535 259.93417995006894 0 0 0 0 -775.25239724178573 1013.3979640963953 0 1013.3979640963953 214.41623357534991 0 0 0 0 -684.51361240303231 552.26486510039786 0 552.26486510039786 -783.3811504394107 0 0 0 0 -671.77062405910874 756.67817265653866 0 756.67817265653866 -447.72202391187602 0 0 0 0 -621.80854225996336 784.01211375999264 0 784.01211375999264 -473.36052370333346 0 0 0 0 -263.0431634913275 472.75007481532521 0 472.75007481532521 -526.17565215924697 0 0 0 0 -622.68920431258448 758.94458103497163 0 758.94458103497163 -61.254518157642451 0 0 0 0 -478.18473274883854 276.48791882825026 0 276.48791882825026 1316.3360675907752 0 0 0 0 -398.55721265781813 732.06992068098043 0 732.06992068098043 -825.60601693199715 0 0 0 0 -50.046274609025666 16.03458019821926 0 16.03458019821926 4.4998263741813957 0 0 0 0 -306.01681839372168 144.08322950301226 0 144.08322950301226 436.91678733436856 0 0 0 0 -202.04617196725758 918.57741203560727 0 918.57741203560727 486.31938322984206 0 0 0 0 407.10558155320086 -610.28320424511912 0 -610.28320424511912 553.53935467614792 0 0 0 0 -756.31876047246169 148.69004284680705 0 148.69004284680705 3151.949350274539 0 0 0 0 -629.85942248445463 2517.9024603115686 0 2517.9024603115686 -3217.6444797352051 0 0 0 0 -19.633297691866627 7.5975865380676169 0 7.5975865380676169 1.611545434729635 0 0 0 0 -337.89207352534186 1571.6760134504293 0 1571.6760134504293 1389.670056739531 0 0 0 0 559.79585950796536 3847.7913114032708 0 3847.7913114032708 1373.8651949278083 0 0 0 0 920.45778645764858 3561.9234428426134 0 3561.9234428426134 -500.61369657966861 0 0 0 0 163.58323813562856 1415.5672855123703 0 1415.5672855123703 1520.2520372728159 0 0 0 0 335.15282614994294 979.68797949884902 0 979.68797949884902 -882.67033033388361 0 0 0 0 -1544.8256079781954 1472.740535185927 0 1472.740535185927 171.38010893645696 0 0 0 0 -909.16936159165857 809.53311842152925 0 809.53311842152925 514.56791257020086 0 0 0 0 100.64630207522987 793.55293417844223 0 793.55293417844223 -345.51383597907261 0 0 0 0 -841.95453320977128 1418.2538239118758 0 1418.2538239118758 -775.48798852658365 0 0 0 0 -354.70293275666518 706.60707980385632 0 706.60707980385632 -1747.9417956765246 0 0 0 0 -658.93490746142561 1142.9347570865502 0 1142.9347570865502 -624.48079204862006 0 0 0 0 345.64107320096809 -31.065322921480401 0 -31.065322921480401 2662.5607558254123 0 0 0 0 1082.6212712470769 3015.915989649031 0 3015.915989649031 4538.2699015797407 0 0 0 0 -581.7406676569517 1924.2559291421494 0 1924.2559291421494 1981.6292348933057 0 0 0 0 147.46362473268528 1399.4518346078985 0 1399.4518346078985 2246.3208612684975 0 0 0 0 1042.0526517790568 3147.4338797490927 0 3147.4338797490927 3173.4332433473901 0 0 0 0 1586.6795830422416 2957.1058779592277 0 2957.1058779592277 2744.5775271686725 0 0 0 0 2728.7894028347509 4387.639500371326 0 4387.639500371326 3781.7418061483186 0 0 0 0 3903.0541025631828 3679.2444098322449 0 3679.2444098322449 3494.2601694319164 0 0 0 0 230.82911426418286 -140.63049081715872 0 -140.63049081715872 4399.2505430484889 0 0 0 0 190.98707827757607 738.77870549076761 0 738.77870549076761 1490.9378679939546 0 0 0 0 -128.33229008798116 2387.6475872470946 0 2387.6475872470946 2405.4424453229294 0 0 0 0 -32.105476445547538 3067.5170737917651 0 3067.5170737917651 5478.3971614659749 0 0 0 0 2045.3501992390047 3555.2597815691515 0 3555.2597815691515 1691.115900385601 0 0 0 0 1026.9593011305406 1927.1845279112749 0 1927.1845279112749 -278.11062110791681 0 0 0 0 708.113748956981 1760.7004268467281 0 1760.7004268467281 9.5266661930654664 0 0 0 0 1707.9119670843384 1677.2178358672654 0 1677.2178358672654 -932.01274617534364 0 0 0 0 635.54669450326764 218.8079945990612 0 218.8079945990612 -1420.051234925566 0 0 0 0 11.198186804373307 37.688133369167502 0 37.688133369167502 23.004043661801234 0 0 0 0 -116.13749971769721 -1230.2556692283106 0 -1230.2556692283106 -421.50407108012587 0 0 0 0 -199.12697605220723 254.30113980715396 0 254.30113980715396 -335.44160213993746 0 0 0 0 16.22519573950629 589.16710453065753 0 589.16710453065753 174.63839735463262 0 0 0 0 -521.48734124500174 18.408864635275677 0 18.408864635275677 364.49107371729042 0 0 0 0 -14.194938405015991 83.480472663490531 0 83.480472663490531 -4.9028125517342005 0 0 0 0 -145.20456071313617 68.712219230010305 0 68.712219230010305 -28.631172490247991 0 0 0 0 -617.17633188559967 -203.99519669215078 0 -203.99519669215078 -14.025272431521444 0 0 0 0 -72.147941998964967 24.752407234198301 0 24.752407234198301 7.5127149621264806 0 0 0 0 310.27381398577847 212.1426138903189 0 212.1426138903189 127.27385154878721 0 0 0 0 1001.4547477460702 -87.251525372761535 0 -87.251525372761535 241.71131836104905 0 0 0 0 875.39562631350952 844.28490419697482 0 844.28490419697482 267.74305155975162 0 0 0 0 -54.878265167450195 579.75335704738973 0 579.75335704738973 819.18869511777302 0 0 0 0 -299.66284784325916 323.02391310384428 0 323.02391310384428 469.04451922920998 0 0 0 0 -309.15539435809478 134.84196373166924 0 134.84196373166924 -3.5738686287950259 0 0 0 0 -188.65432473082728 56.821021227917299 0 56.821021227917299 -66.45464872935554 0 0 0 0 -309.11782278270039 49.970807914825855 0 49.970807914825855 84.414090266858693 0 0 0 0 544.48498992706254 788.08631956345198 0 788.08631956345198 1714.5044526736601 0 0 0 0 -19.347505948553366 2.4557036206159637 0 2.4557036206159637 27.675994607267796 0 0 0 0 501.64761470393569 512.60767256098916 0 512.60767256098916 -24.739104569191113 0 0 0 0 -1385.3916099195922 90.303142999706324 0 90.303142999706324 807.76202683331212 0 0 0 0 31.386323644364893 -656.14232979652297 0 -656.14232979652297 -2327.5583839620231 0 0 0 0 -12.313077010710231 28.123056572407762 0 28.123056572407762 7.5712377237843498 0 0 0 0 485.67001600197545 1666.9395939972601 0 1666.9395939972601 2134.8025838401518 0 0 0 0 -492.75399557908531 1596.7118197702803 0 1596.7118197702803 2585.6107542697573 0 0 0 0 1511.7305522064607 2758.1043561099896 0 2758.1043561099896 3172.0677875266992 0 0 0 0 1655.4446717271267 894.27820030143721 0 894.27820030143721 682.43997284548823 0 0 0 0 -273.16433744673486 208.37747087808384 0 208.37747087808384 -199.79731874637946 0 0 0 0 -795.83106548919432 128.50851582170799 0 128.50851582170799 -45.533311888808385 0 0 0 0 -2056.2550570210597 -353.16732918231355 0 -353.16732918231355 523.04145188431721 0 0 0 0 0.2094127066953817 0.95684588474478005 0 0.95684588474478005 12.869108415061135 0 0 0 0 2879.663692684042 2576.0724570853199 0 2576.0724570853199 3804.6574285416282 0 0 0 0 2597.229243714577 3213.1488707882891 0 3213.1488707882891 2856.6514886931109 0 0 0 0 3271.8342701838301 2679.0664687526587 0 2679.0664687526587 1303.5963628147729 0 0 0 0 -267.19649180358101 280.99391780648148 0 280.99391780648148 25.757195058838988 0 0 0 0 3367.0143746348294 4223.4421609428828 0 4223.4421609428828 2844.7793448966695 0 0 0 0 3137.9550022231379 4544.8678216295448 0 4544.8678216295448 3267.2498264460301 0 0 0 0 2884.4852994641042 2650.1662848847191 0 2650.1662848847191 1625.6131613233883 0 0 0 0 -15.122894149754373 11.704002338323306 0 11.704002338323306 0.16182820330453751 0 0 0 0 -2469.2231618624646 -443.03535327434656 0 -443.03535327434656 571.61564049348817 0 0 0 0 -1189.1516166616202 1218.7687348595864 0 1218.7687348595864 1428.7971963387099 0 0 0 0 -1187.0791884375649 486.40166161375237 0 486.40166161375237 460.83004556625383 0 0 0 0 -791.8813633879472 -7.1989230568142375 0 -7.1989230568142375 -83.114995051248115 0 0 0 0 -167.83466590076569 220.6420572997049 0 220.6420572997049 278.13914556211967 0 0 0 0 -733.31334468196292 434.08596747840056 0 434.08596747840056 240.22077866745531 0 0 0 0 -410.30907561237473 67.066675611000392 0 67.066675611000392 195.98206198096159 0 0 0 0 0.6241554026062488 2.873654097272464 0 2.873654097272464 1.4049539461428822 0 0 0 0 -474.33490997409535 74.020228980771208 0 74.020228980771208 773.51647329251864 0 0 0 0 62.102427620629896 547.57099109713454 0 547.57099109713454 -818.38190764268074 0 0 0 0 3700.1182537807545 3737.9954281583487 0 3737.9954281583487 3235.7379584590381 0 0 0 0 625.37424401833778 1505.3176136736438 0 1505.3176136736438 1809.8363795382029 0 0 0 0 -33.7847916006302 38.962761381287009 0 38.962761381287009 3.5126409035851225 0 0 0 0 252.77487432103953 381.75729847999173 0 381.75729847999173 81.81106500219903 0 0 0 0 521.29905146205783 1609.1052653831575 0 1609.1052653831575 4278.7131852441526 0 0 0 0 -10.024303833779943 5.3655625215564982 0 5.3655625215564982 11.42302012722314 0 0 0 0 -183.24691994683235 301.29823336214758 0 301.29823336214758 265.53453248750884 0 0 0 0 -4.8874051429442638 56.244183262681211 0 56.244183262681211 32.029697152936137 0 0 0 0 -280.13951326354436 524.88628646072175 0 524.88628646072175 -246.02021822149982 0 0 0 0 491.01524306626015 2000.1473279350757 0 2000.1473279350757 1583.4279871064427 0 0 0 0 13.895075629678367 9.8860264517256837 0 9.8860264517256837 -5.4635466801315715 0 0 0 0 71.386745878651482 39.482470904063121 0 39.482470904063121 -174.35247393371537 0 0 0 0 -1097.3727055612726 1128.8192484956962 0 1128.8192484956962 -502.34101474444833 0 0 0 0 -479.64297300701764 1503.3897524479034 0 1503.3897524479034 -536.01931980077643 0 0 0 0 -134.14823773269745 14.201464531579404 0 14.201464531579404 28.173628602467943 0 0 0 0 227.3070557820929 83.425871263018053 0 83.425871263018053 -193.78669183855527 0 0 0 0 19.016131320985338 52.90787797952445 0 52.90787797952445 21.072818185922642 0 0 0 0 -1614.0528460854875 1176.6268880612188 0 1176.6268880612188 -792.86846652241002 0 0 0 0 16.108190456048042 0.87093062893960038 0 0.87093062893960038 -3.1026990090127811 0 0 0 0 -10.563486954121814 19.896065904049181 0 19.896065904049181 9.1108169671827 0 0 0 0 -597.93028501378194 1065.8119675341477 0 1065.8119675341477 -524.87306802085368 0 0 0 0 -1769.1803542169437 1345.0652402472042 0 1345.0652402472042 -0.063940112988348119 0 0 0 0 -160.24299995640104 304.41416841789032 0 304.41416841789032 -299.6353957655374 0 0 0 0 12.586287424048351 -25.857203476232826 0 -25.857203476232826 -370.94455820810981 0 0 0 0 -97.374103206442669 43.816860154634924 0 43.816860154634924 60.874986796508892 0 0 0 0 79.436922290842631 254.93405892848386 0 254.93405892848386 -778.28561966255802 0 0 0 0 -35.480697030667216 80.733352231240133 0 80.733352231240133 -128.85343989871035 0 0 0 0 77.121086687756474 26.105240436636223 0 26.105240436636223 2.4231277536481457 0 0 0 0 91.358272791797845 37.22054408187978 0 37.22054408187978 -17.371163259536843 0 0 0 0 59.952572499263624 27.38532479260175 0 27.38532479260175 -0.036318674450740218 0 0 0 0 59.500897178120795 24.680676321128885 0 24.680676321128885 -6.6165847235242836 0 0 0 0 56.819483472336486 15.773501897086987 0 15.773501897086987 3.6092465526490543 0 0 0 0 44.219666696080822 16.905087056016782 0 16.905087056016782 -0.0020324323169067394 0 0 0 0 -122.73173202824546 178.59129101932922 0 178.59129101932922 -161.03296578100708 0 0 0 0 43.91705884545172 15.214353546891289 0 15.214353546891289 -1.9191950309468666 0 0 0 0 15.791414426879783 213.03952915816626 0 213.03952915816626 -421.94450820834027 0 0 0 0 -29.872810701930575 350.21211856342416 0 350.21211856342416 -525.63806073358865 0 0 0 0 1.6432701956173617 6.5637489599042453 0 6.5637489599042453 2.7945899374662133 0 0 0 0 -284.53266468058791 335.60785961230431 0 335.60785961230431 0.55490689194994047 0 0 0 0 172.11249933802173 1061.414105014439 0 1061.414105014439 -1513.27744050193 0 0 0 0 1.1857848384883027 3.6074851472727403 0 3.6074851472727403 0.45896458828582354 0 0 0 0 -45.80808107037592 328.96491757371768 0 328.96491757371768 -631.45703422174847 0 0 0 0 23.925577425892698 10.751148065028246 0 10.751148065028246 -0.012517174560343847 0 0 0 0 36.617692802125163 13.19039910779901 0 13.19039910779901 2.4274443977464273 0 0 0 0 23.93137503813432 9.5460718923795866 0 9.5460718923795866 -25.947086255589966 0 0 0 0 13.390128752301081 6.1586518463019218 0 6.1586518463019218 0.25631371084338639 0 0 0 0 875.07324581740249 102.93351313131279 0 102.93351313131279 -1363.8572154216272 0 0 0 0 1857.4612470194625 685.97395645775396 0 685.97395645775396 -1800.0760881932219 0 0 0 0 -456.40612952991796 1958.3475954088935 0 1958.3475954088935 -1668.7274688074704 0 0 0 0 -22.328899131462094 1202.1522527153502 0 1202.1522527153502 -368.08812821823813 0 0 0 0 -93.36752079139842 498.39023873841506 0 498.39023873841506 -263.79931327491977 0 0 0 0 198.27745577413589 837.29113938787486 0 837.29113938787486 87.211461144179339 0 0 0 0 27.018127889987227 1011.1911764413308 0 1011.1911764413308 2465.9911006623879 0 0 0 0 259.7135021920476 1048.3535144509297 0 1048.3535144509297 808.3819471525494 0 0 0 0 130.87101003034331 268.99020266986918 0 268.99020266986918 603.30905338114098 0 0 0 0 406.92466159688047 465.91323032329819 0 465.91323032329819 442.33987372840056 0 0 0 0 -153.11508788063657 331.89161235421489 0 331.89161235421489 460.23427409612486 0 0 0 0 72.211539088842983 405.94324546080315 0 405.94324546080315 338.2054838584445 0 0 0 0 -326.06047898235556 475.58288113036542 0 475.58288113036542 154.11470453786023 0 0 0 0 -243.32932622222143 589.01870015343593 0 589.01870015343593 301.43042610798148 0 0 0 0 -438.17288876571547 695.71783752214833 0 695.71783752214833 221.90406003296084 0 0 0 0 -366.21364064166482 500.64373911665461 0 500.64373911665461 -80.430184408469358 0 0 0 0 -391.01091537233151 636.89887561129581 0 636.89887561129581 -181.24397140299698 0 0 0 0 -349.28831887517299 318.04425115433696 0 318.04425115433696 -722.56094595012837 0 0 0 0 -188.1996278727911 836.11003110379716 0 836.11003110379716 -37.996657396986848 0 0 0 0 -70.420066766353557 26.3345932825614 0 26.3345932825614 349.92770138470951 0 0 0 0 -109.28185624380239 243.19470310277757 0 243.19470310277757 586.47270005199243 0 0 0 0 -117.12082960743282 214.36344070755877 0 214.36344070755877 705.72605928935809 0 0 0 0 6.4762690785428276 157.05705022309849 0 157.05705022309849 274.21928733973618 0 0 0 0 -36.97647058751167 24.459081249354369 0 24.459081249354369 20.513308701415411 0 0 0 0 -621.97376227817949 393.15452654613364 0 393.15452654613364 -1.3753194988385076 0 0 0 0 -183.94862679933431 250.55216675781412 0 250.55216675781412 -348.50392884702887 0 0 0 0 -676.75245753765012 719.95303958766635 0 719.95303958766635 -997.50615435672808 0 0 0 0 -78.205585505373165 -65.261551840885659 0 -65.261551840885659 769.79901920011616 0 0 0 0 -19.922759575488641 23.324377132722162 0 23.324377132722162 22.105215373873222 0 0 0 0 -105.15583157190849 -45.135326061339583 0 -45.135326061339583 1106.3007432279992 0 0 0 0 -880.20280157756497 1689.9894387810491 0 1689.9894387810491 -1797.6702607578627 0 0 0 0 -1475.8871355248993 1166.2136108502746 0 1166.2136108502746 0.14596122085640673 0 0 0 0 -1379.0243484341117 1696.3442127562448 0 1696.3442127562448 -778.35497392278921 0 0 0 0 -1358.4933517185127 1092.8058734699662 0 1092.8058734699662 -1744.9835752780637 0 0 0 0 -66.942770642013784 2618.7869627399523 0 2618.7869627399523 9.340789356501773 0 0 0 0 -5.4927236374431345 11.122479225407176 0 11.122479225407176 8.3964374230160672 0 0 0 0 591.96166884508057 2823.716149326141 0 2823.716149326141 -3726.246466375218 0 0 0 0 197.01819607550715 -286.0717512993433 0 -286.0717512993433 1774.3131941374741 0 0 0 0 -274.12212445156183 -321.1211939593195 0 -321.1211939593195 3380.8218752444227 0 0 0 0 11.633356888632989 661.79736232080177 0 661.79736232080177 1727.9738610164786 0 0 0 0 307.24625416462368 483.1885102478409 0 483.1885102478409 930.6371214252722 0 0 0 0 143.57311084042158 540.11378090162907 0 540.11378090162907 925.59434456814779 0 0 0 0 188.49574881437729 377.92938938435691 0 377.92938938435691 541.53231848962605 0 0 0 0 -11.228002183095668 348.96016283283825 0 348.96016283283825 864.35001902349904 0 0 0 0 33.486556343414122 654.22937987055047 0 654.22937987055047 714.63672805592796 0 0 0 0 67.741064869176626 58.543563561695919 0 58.543563561695919 963.97651717974804 0 0 0 0 -239.94989554126369 330.72993013638188 0 330.72993013638188 1363.3670491305238 0 0 0 0 -223.67744370468426 407.53741442041428 0 407.53741442041428 808.32039237066056 0 0 0 0 -294.74972033235827 229.75124968083401 0 229.75124968083401 1054.0514466322056 0 0 0 0 -220.55041802488995 340.28897199708445 0 340.28897199708445 666.6092622471042 0 0 0 0 -360.01011776193627 428.08491159456025 0 428.08491159456025 689.49969857818724 0 0 0 0 -324.23571191184601 492.09624960805741 0 492.09624960805741 703.2343992551323 0 0 0 0 -324.2593326359638 420.79728208035522 0 420.79728208035522 630.04610144409526 0 0 0 0 -166.89044937272411 378.67941970039101 0 378.67941970039101 746.88397806471039 0 0 0 0 -293.78520268983948 280.46245343184955 0 280.46245343184955 681.11594929144485 0 0 0 0 -403.58397174854326 515.84482050713268 0 515.84482050713268 -190.26014204413514 0 0 0 0 -199.1722298283421 663.13168164029776 0 663.13168164029776 -622.6011113950226 0 0 0 0 -275.27771853368904 604.88476270993124 0 604.88476270993124 -132.41358771159139 0 0 0 0 -429.22017712738307 454.79086769244168 0 454.79086769244168 321.49193968492909 0 0 0 0 -319.95764420079468 573.99587588866416 0 573.99587588866416 385.50997353959247 0 0 0 0 -89.502258541586343 486.34010409867187 0 486.34010409867187 286.55416499526473 0 0 0 0 -306.41167530453822 486.0265131920969 0 486.0265131920969 195.86334719185834 0 0 0 0 -220.94432874888298 653.52487108406785 0 653.52487108406785 357.78800252647488 0 0 0 0 -228.14464673442853 635.21707950238488 0 635.21707950238488 214.54567659142776 0 0 0 0 -104.08787368991034 644.21933576941228 0 644.21933576941228 -409.44376148900483 0 0 0 0 -159.21792885802279 596.16805872420082 0 596.16805872420082 -166.90204305219231 0 0 0 0 -259.33424923825078 661.38636847135786 0 661.38636847135786 -170.84629379225771 0 0 0 0 -56.514543548051734 518.71082268700411 0 518.71082268700411 40.47401813500619 0 0 0 0 -252.81601259017771 678.95747266721446 0 678.95747266721446 -8.4606214452796848 0 0 0 0 -31.979460957365518 581.93658797765238 0 581.93658797765238 -217.89652726132772 0 0 0 0 -150.39123290571297 442.56360930533992 0 442.56360930533992 534.11630157503532 0 0 0 0 -13.481261877546785 659.46687817739439 0 659.46687817739439 286.53914137466927 0 0 0 0 42.714687157031221 402.84809389949805 0 402.84809389949805 263.77253936228226 0 0 0 0 194.01956746187352 569.04905238446372 0 569.04905238446372 405.69153014579206 0 0 0 0 59.003069141748711 391.18862957708916 0 391.18862957708916 19.350870390655473 0 0 0 0 165.59291976883469 328.02283878369053 0 328.02283878369053 190.5211044238531 0 0 0 0 79.942930538862129 530.05426324842847 0 530.05426324842847 102.73405137402005 0 0 0 0 -141.10322432682733 535.43361813286901 0 535.43361813286901 116.40480343216041 0 0 0 0 7.8915323143519345 596.90199265924457 0 596.90199265924457 -84.178233390572132 0 0 0 0 -116.86284269225962 476.75277851682768 0 476.75277851682768 -192.70412684621988 0 0 0 0 -158.65287945518594 773.5491705465538 0 773.5491705465538 -507.2752474649169 0 0 0 0 -219.01189935184084 821.23947305709589 0 821.23947305709589 -400.70410708828422 0 0 0 0 -517.95981175557245 1351.3863868852495 0 1351.3863868852495 -1252.2692521933641 0 0 0 0 -43.662845895909413 766.91792108592927 0 766.91792108592927 -1304.7906733441632 0 0 0 0 -486.84734267607564 1014.1807616995939 0 1014.1807616995939 -1789.86454503407 0 0 0 0 -168.99223133666965 656.7572745528596 0 656.7572745528596 -2985.5455503148842 0 0 0 0 -170.98016523139086 698.8911479931121 0 698.8911479931121 -761.03522782973596 0 0 0 0 -600.46399472035409 1010.1637835650617 0 1010.1637835650617 -841.49021590856137 0 0 0 0 -144.88763088530686 863.11870424612425 0 863.11870424612425 -1106.8464923742795 0 0 0 0 -319.18873560757493 969.75982595986716 0 969.75982595986716 -1146.2611941960931 0 0 0 0 -179.90299218418659 863.43915756962087 0 863.43915756962087 -1720.7180266091891 0 0 0 0 -38.486805246357108 660.29062951513333 0 660.29062951513333 -1777.4413530729362 0 0 0 0 -21.980792896414641 754.99243703427783 0 754.99243703427783 -1245.0859293808462 0 0 0 0 -199.98602038702666 804.734940856506 0 804.734940856506 -705.16158943710616 0 0 0 0 -163.12378867747611 840.46396899166939 0 840.46396899166939 -703.43620468332665 0 0 0 0 -454.11577263863001 873.40884350145643 0 873.40884350145643 -513.99644715586328 0 0 0 0 -261.49920215163729 680.74159124867583 0 680.74159124867583 -223.9081175965548 0 0 0 0 -134.06198114941799 703.26080111030024 0 703.26080111030024 -740.7499673399725 0 0 0 0 -251.65230666556454 834.09861274977447 0 834.09861274977447 -475.28320930329937 0 0 0 0 -134.40196878645656 572.28662396538857 0 572.28662396538857 -966.39427619057824 0 0 0 0 -125.28361784723893 865.39657978418109 0 865.39657978418109 -992.12686675559962 0 0 0 0 4.7991391141404165 630.57256827229867 0 630.57256827229867 -1061.3476281872136 0 0 0 0 -250.82887337350985 639.06736046813239 0 639.06736046813239 -777.18475737448898 0 0 0 0 35.239314108107948 25.900193904848138 0 25.900193904848138 3.6475406912940116 0 0 0 0 -247.60584967898467 648.9809927293245 0 648.9809927293245 -846.36984447171562 0 0 0 0 -321.01607696329302 736.82816437407746 0 736.82816437407746 -608.74747217158438 0 0 0 0 -142.46110057459919 749.99921298979825 0 749.99921298979825 -774.5467848724511 0 0 0 0 -397.38987802366682 608.4397955479144 0 608.4397955479144 -754.1745905119169 0 0 0 0 -226.78920363732323 577.89419266607729 0 577.89419266607729 678.20650151465816 0 0 0 0 0.15737598892883398 747.61060467205243 0 747.61060467205243 656.61007556289769 0 0 0 0 31.040593153389636 575.78436014165345 0 575.78436014165345 432.53351212886628 0 0 0 0 -19.120214213624422 740.82484693566221 0 740.82484693566221 673.0607577766641 0 0 0 0 -390.9428702264122 741.4017198872607 0 741.4017198872607 1159.3404588052072 0 0 0 0 -482.67762120975385 392.15402472168353 0 392.15402472168353 791.1989146124688 0 0 0 0 -453.97247195760428 812.74084757720993 0 812.74084757720993 518.58083327152417 0 0 0 0 -341.81686571343744 958.12584714234981 0 958.12584714234981 1515.3377433728019 0 0 0 0 -202.83678892644093 493.77922061444406 0 493.77922061444406 423.89168550434988 0 0 0 0 -497.28953464750521 608.04863119293441 0 608.04863119293441 297.2140040602535 0 0 0 0 -486.46784738915449 592.16339278381201 0 592.16339278381201 307.87072391310357 0 0 0 0 -65.997134954013745 415.11055694600509 0 415.11055694600509 333.65499842574354 0 0 0 0 -225.38601260176802 668.14978384631104 0 668.14978384631104 289.70819170546019 0 0 0 0 -255.72441495662133 516.71980643401912 0 516.71980643401912 425.02384161954978 0 0 0 0 89.006896443330334 313.03221103409305 0 313.03221103409305 367.43009646236169 0 0 0 0 -31.936937535931065 451.71969926233578 0 451.71969926233578 358.37049001079868 0 0 0 0 214.51738452070322 296.82722359650916 0 296.82722359650916 351.89049905515276 0 0 0 0 172.02822507072415 357.40909464451397 0 357.40909464451397 226.00901198061183 0 0 0 0 133.91518120608816 402.11163512198254 0 402.11163512198254 272.99718459534051 0 0 0 0 116.92793431994505 467.92149910796434 0 467.92149910796434 83.601965372639825 0 0 0 0 144.38731076996919 381.32244234717655 0 381.32244234717655 231.55078232544474 0 0 0 0 169.40859105615527 434.0340033629036 0 434.0340033629036 140.07963749015471 0 0 0 0 274.3567000238254 594.48390698694857 0 594.48390698694857 161.45915928072645 0 0 0 0 19.530056298229738 450.31882087268787 0 450.31882087268787 354.39031222515041 0 0 0 0 254.2537500805629 650.54156458913349 0 650.54156458913349 312.67207796244475 0 0 0 0 169.19363077329763 527.68975194952509 0 527.68975194952509 394.02533901376592 0 0 0 0 201.51867211093486 609.91342001401063 0 609.91342001401063 281.68061773816589 0 0 0 0 493.53983310629701 866.02824160635646 0 866.02824160635646 149.98408726436901 0 0 0 0 250.94464730366599 1018.41584382976 0 1018.41584382976 550.04058474695194 0 0 0 0 160.72334171802504 439.60545084287878 0 439.60545084287878 -49.590124439215288 0 0 0 0 319.3867858839003 766.7918624329468 0 766.7918624329468 118.97778394489433 0 0 0 0 347.19663568634132 797.58127646100183 0 797.58127646100183 -157.98250481468858 0 0 0 0 89.618558275629766 530.06241241859243 0 530.06241241859243 -421.96242374292342 0 0 0 0 12.546830717175908 1062.1661459525349 0 1062.1661459525349 -456.25278658556635 0 0 0 0 727.02647387252364 1538.8864702560386 0 1538.8864702560386 296.96084996442369 0 0 0 0 659.83587486163015 1052.0825034726731 0 1052.0825034726731 -1065.7660640724353 0 0 0 0 549.20895403368922 1386.7081081579527 0 1386.7081081579527 485.15126964947558 0 0 0 0 750.881688643698 1148.226067595373 0 1148.226067595373 -180.80271360748156 0 0 0 0 672.10529208653315 1553.5539814988151 0 1553.5539814988151 680.09515206320793 0 0 0 0 516.71811598879867 1599.8476771420392 0 1599.8476771420392 672.50293612034875 0 0 0 0 619.23138825139904 1836.5151854708965 0 1836.5151854708965 986.3331847557638 0 0 0 0 232.73153342927981 1850.2336735888675 0 1850.2336735888675 1409.7535063237592 0 0 0 0 295.12684954649012 1628.9539705996722 0 1628.9539705996722 1094.9136277213693 0 0 0 0 222.3356227788172 1518.4620818162803 0 1518.4620818162803 928.61510009019912 0 0 0 0 -70.277219434654398 1238.3782705601552 0 1238.3782705601552 1112.4413939329388 0 0 0 0 -164.30502736536437 1223.0366263144242 0 1223.0366263144242 1211.8677353083149 0 0 0 0 265.87208755582833 1068.7329934995068 0 1068.7329934995068 645.45900723163504 0 0 0 0 -557.68772064201767 970.35844311708934 0 970.35844311708934 1537.8193749930215 0 0 0 0 -677.36843897298968 1091.1315489544213 0 1091.1315489544213 3443.5747929511126 0 0 0 0 -61.956024994608015 1954.1125913803262 0 1954.1125913803262 1656.0929879857431 0 0 0 0 -357.0399909691987 1393.1986709177872 0 1393.1986709177872 2054.4300672487589 0 0 0 0 -168.51140631764429 2073.3649256424687 0 2073.3649256424687 1917.8021577704058 0 0 0 0 418.05963667658943 1887.0461288635852 0 1887.0461288635852 268.62974479910918 0 0 0 0 740.19387603932591 2645.2493566672092 0 2645.2493566672092 1327.5759624671191 0 0 0 0 -23.77153460077534 1805.0116191384877 0 1805.0116191384877 1237.1864190478809 0 0 0 0 270.59076460178767 1826.4410808523535 0 1826.4410808523535 1228.4893565228376 0 0 0 0 236.55768228606757 1293.2039516597215 0 1293.2039516597215 1010.7135202666541 0 0 0 0 111.34362273137231 1124.1295266143861 0 1124.1295266143861 782.42578111658077 0 0 0 0 25.249566261345507 88.224533869474158 0 88.224533869474158 -16.544922786233677 0 0 0 0 -127.84572224034491 186.90072211568622 0 186.90072211568622 282.2639845169324 0 0 0 0 35.579055832131417 6.7201100903657789 0 6.7201100903657789 26.610662080507609 0 0 0 0 242.57969873508409 1205.6877703146311 0 1205.6877703146311 1229.2050061564369 0 0 0 0 1012.0365004291671 2340.077382668911 0 2340.077382668911 1295.840377649467 0 0 0 0 -252.78020733784069 1875.6132300211611 0 1875.6132300211611 4255.0392284525442 0 0 0 0 213.82981517813278 1218.9213935786247 0 1218.9213935786247 2538.7067118717823 0 0 0 0 917.66579391372215 1633.4777400101839 0 1633.4777400101839 142.18014257808682 0 0 0 0 73.383599237087765 1828.0162267054548 0 1828.0162267054548 -148.00328964964137 0 0 0 0 896.02241941663306 2183.6715617481423 0 2183.6715617481423 -670.10230540193152 0 0 0 0 1330.9331884167186 3307.6665378285106 0 3307.6665378285106 1618.1286783786927 0 0 0 0 4816.290740149474 8174.9162382631621 0 8174.9162382631621 4198.4748028070462 0 0 0 0 -1602.8149897459953 1546.2117667951097 0 1546.2117667951097 9350.6259000008286 0 0 0 0 -74.134581911552232 375.97918055536138 0 375.97918055536138 -177.49316013174757 0 0 0 0 49.010995105682468 79.792836360176409 0 79.792836360176409 -13.663911707260439 0 0 0 0 -1516.2879501339339 801.43861813352851 0 801.43861813352851 3665.4981493858068 0 0 0 0 -293.90263298716309 647.86799721952048 0 647.86799721952048 -277.73799585425877 0 0 0 0 7.347581784320937 414.0595930987547 0 414.0595930987547 -339.94588766775269 0 0 0 0 -271.46308147445961 884.77035392068501 0 884.77035392068501 -453.14081580574566 0 0 0 0 -181.16869292128831 1108.9453188746265 0 1108.9453188746265 -709.68196718397667 0 0 0 0 66.451445400940429 341.86529241489188 0 341.86529241489188 -1077.8918145703792 0 0 0 0 -454.41900793788955 1004.0262754682772 0 1004.0262754682772 -325.34600968582527 0 0 0 0 -397.52716028581199 891.79317869397346 0 891.79317869397346 -246.16682588644835 0 0 0 0 -191.96830757305725 735.94960912895476 0 735.94960912895476 -295.76967608119594 0 0 0 0 -189.49213824469189 534.14452932801214 0 534.14452932801214 -159.72749010199004 0 0 0 0 -557.89423937327228 597.66917169941735 0 597.66917169941735 -153.22571759014318 0 0 0 0 1.3785601083366714 0.86872678938217973 0 0.86872678938217973 1.3637428199739929 0 0 0 0 -1043.0406528726744 154.52608251960191 0 154.52608251960191 2.4473769478936447 0 0 0 0 -176.85814920691701 60.983349883634219 0 60.983349883634219 12.535826742416248 0 0 0 0 -12.91058556225471 101.15000557305757 0 101.15000557305757 32.083626221981831 0 0 0 0 -429.25126688587261 381.17195967769294 0 381.17195967769294 -81.769538109452697 0 0 0 0 761.26525303770904 721.58223814220037 0 721.58223814220037 246.40199851362559 0 0 0 0 91.169351252436172 879.76158923248295 0 879.76158923248295 1728.3361083946129 0 0 0 0 1163.4768990101584 2060.4920201704954 0 2060.4920201704954 1653.2406633552682 0 0 0 0 139.5699431511166 621.97672389779473 0 621.97672389779473 1156.4861153208185 0 0 0 0 615.12680717553303 222.07914146258554 0 222.07914146258554 59.318076864365139 0 0 0 0 15.632622368536431 36.22982150800533 0 36.22982150800533 11.7178358454087 0 0 0 0 30.658354589345606 41.242638912030486 0 41.242638912030486 -20.043930171598063 0 0 0 0 38.612079803206143 42.664771305113391 0 42.664771305113391 -33.770005524434964 0 0 0 0 53.029179744458304 20.956885928185741 0 20.956885928185741 -54.352399875499884 0 0 0 0 -1067.0721593350754 360.65405739058042 0 360.65405739058042 1579.2934350701398 0 0 0 0 40.128064875498069 39.962399535857116 0 39.962399535857116 -3.1625243808426973 0 0 0 0 273.64990822433901 425.64193190258811 0 425.64193190258811 743.81530992969056 0 0 0 0 65.678189204576654 65.348382175374866 0 65.348382175374866 12.647379556308934 0 0 0 0 -52.10422553466924 309.18548374157399 0 309.18548374157399 -736.3456363807054 0 0 0 0 41.19704737765278 52.949652145376604 0 52.949652145376604 -79.166174723563017 0 0 0 0 23.313985692354294 6.3128514375979563 0 6.3128514375979563 -29.409515911194035 0 0 0 0 60.479799636901589 286.78474563776399 0 286.78474563776399 -1481.1348682339303 0 0 0 0 1579.1470648131217 -402.15078128658934 0 -402.15078128658934 1200.4583506563649 0 0 0 0 -700.5099722964369 1090.5903467377866 0 1090.5903467377866 6826.4160305309051 0 0 0 0 2389.4301854814439 6231.513754318139 0 6231.513754318139 7250.4636942587094 0 0 0 0 -580.6571195371871 2004.7670472149657 0 2004.7670472149657 3614.9847378840786 0 0 0 0 862.51724380502128 3414.150694408585 0 3414.150694408585 2755.8412623982586 0 0 0 0 3140.9131497456401 2055.7991615286883 0 2055.7991615286883 2020.443478083529 0 0 0 0 28.349030822179259 30.421832517124358 0 30.421832517124358 -0.62203922515425347 0 0 0 0 1663.0904726384324 1233.0431826866261 0 1233.0431826866261 -6784.6856691885841 0 0 0 0 -1326.3869872263531 4321.3938060185246 0 4321.3938060185246 13694.652069350821 0 0 0 0 -774.29959949912154 357.38847346688272 0 357.38847346688272 9789.0206384667981 0 0 0 0 989.68357963574817 2503.0416259728809 0 2503.0416259728809 6915.3041018281365 0 0 0 0 -47.437927844011341 33.318328506300048 0 33.318328506300048 17.535573424307941 0 0 0 0 120.984120930279 58.072691690584605 0 58.072691690584605 4.6540998320914468 0 0 0 0 208.47113483989961 779.8067621839291 0 779.8067621839291 -163.79346221227024 0 0 0 0 10.967810578229546 431.86804614232824 0 431.86804614232824 -1808.8222101067367 0 0 0 0 -335.67888726686942 104.80894787308353 0 104.80894787308353 -2718.4489039061591 0 0 0 0 -202.21867843014479 500.36563482992642 0 500.36563482992642 -1626.9639733586664 0 0 0 0 453.18252292089164 1033.5598938030016 0 1033.5598938030016 -686.47924432269065 0 0 0 0 -728.30523358777282 -354.23080908600605 0 -354.23080908600605 1091.4059250835271 0 0 0 0 42.151998244721 21.498043318505609 0 21.498043318505609 14.353797481537867 0 0 0 0 -19.467566351366827 -0.22528750712012879 0 -0.22528750712012879 -0.60139101674397466 0 0 0 0 581.0363084634082 292.93546595895896 0 292.93546595895896 -5083.1370988562703 0 0 0 0 435.11072046778281 1909.1739169423527 0 1909.1739169423527 -3902.3998487781791 0 0 0 0 30.488554315277725 2168.3978658315609 0 2168.3978658315609 -2597.7365693066095 0 0 0 0 59.659080515841595 65.266042560548982 0 65.266042560548982 -7.6797524326777022 0 0 0 0 109.5347231011765 738.40125802795228 0 738.40125802795228 -2043.3750354835793 0 0 0 0 -1045.0960831167176 252.72142420623277 0 252.72142420623277 15343.189419317619 0 0 0 0 5998.7109262782469 3349.1346303306418 0 3349.1346303306418 7861.673192116461 0 0 0 0 -411.5460562700755 1095.5892572517769 0 1095.5892572517769 -1388.8891422980232 0 0 0 0 -191.1396745269858 890.09632044423688 0 890.09632044423688 -1242.4400833945256 0 0 0 0 -292.41043646666549 872.47880291344427 0 872.47880291344427 -464.84765511428122 0 0 0 0 -594.09014734778611 1044.7810720989946 0 1044.7810720989946 417.78040399166639 0 0 0 0 -340.35669005045202 1579.0396160042437 0 1579.0396160042437 -514.12073463890556 0 0 0 0 -634.1532230944722 1884.1194115552062 0 1884.1194115552062 1781.676989405416 0 0 0 0 -334.30934737849384 906.5680963374507 0 906.5680963374507 -939.85334692610195 0 0 0 0 39.485062035470037 2128.3953868826648 0 2128.3953868826648 -1588.845189140804 0 0 0 0 -643.02486969972051 21.978482531405461 0 21.978482531405461 -2940.5328068348463 0 0 0 0 742.71807362114487 4239.881338298379 0 4239.881338298379 -2676.7898056465347 0 0 0 0 880.60772496895515 2685.6228018123729 0 2685.6228018123729 318.05912288613035 0 0 0 0 780.74804348961334 1746.4680444763071 0 1746.4680444763071 -457.82275430882873 0 0 0 0 726.31354726901918 1679.5874967527052 0 1679.5874967527052 1224.7329645349309 0 0 0 0 3314.4714395115225 1398.9357826920459 0 1398.9357826920459 526.80884376910399 0 0 0 0 1489.8167019644643 2782.6404927342555 0 2782.6404927342555 2562.8242546237307 0 0 0 0 2007.6091054466451 1581.4903840331563 0 1581.4903840331563 142.559101084742 0 0 0 0 1892.2587431545253 2437.8766514760064 0 2437.8766514760064 66.977890675814706 0 0 0 0 746.537946479526 1299.6154412853793 0 1299.6154412853793 303.66293727990706 0 0 0 0 -796.63340309045452 -343.44281661545392 0 -343.44281661545392 505.84505821908533 0 0 0 0 1.9845990886288405 9.7332153528171546 0 9.7332153528171546 35.418820564664827 0 0 0 0 -419.79433459787106 1057.3172628840475 0 1057.3172628840475 2633.2600319959856 0 0 0 0 -441.2449536450149 410.36002519568865 0 410.36002519568865 74.997380372165935 0 0 0 0 -72.448191667761421 -124.49887373831734 0 -124.49887373831734 -315.40858238471992 0 0 0 0 1.8394562744730365 9.4938637203755292 0 9.4938637203755292 9.4807102326042809 0 0 0 0 -445.10266602109118 578.29747784381334 0 578.29747784381334 -957.91381035633094 0 0 0 0 -334.65518622921081 -344.37568014811404 0 -344.37568014811404 2866.8794764835002 0 0 0 0 -460.0947666174925 760.5937576379024 0 760.5937576379024 205.13383225857979 0 0 0 0 -255.3795444275529 57.29613351066655 0 57.29613351066655 244.850857687401 0 0 0 0 11.411816438744324 23.05334676568819 0 23.05334676568819 17.738993609402883 0 0 0 0 387.06988480061409 462.61456328925124 0 462.61456328925124 -1404.0790601707558 0 0 0 0 -18.78002006871975 160.40097917461753 0 160.40097917461753 229.66926720409538 0 0 0 0 -35.790397027405561 -316.30439275584649 0 -316.30439275584649 1998.8786187347723 0 0 0 0 -73.67740910295106 1282.4398890521916 0 1282.4398890521916 2140.6779831946524 0 0 0 0 -200.06305212915322 520.7669265516015 0 520.7669265516015 1264.5526615496055 0 0 0 0 -170.85038145673025 0.027867340926604811 0 0.027867340926604811 224.51972724175721 0 0 0 0 -74.144818367349217 427.96936365914735 0 427.96936365914735 191.87452353408389 0 0 0 0 -408.73571226854983 52.698186346588045 0 52.698186346588045 16.275700850135763 0 0 0 0 -1088.1189659848897 372.07681219675578 0 372.07681219675578 410.67626568452397 0 0 0 0 -2973.7123667481846 -200.4425816774683 0 -200.4425816774683 1980.148367885573 0 0 0 0 -1.9240929426641884 9.4347847023051372 0 9.4347847023051372 65.834448017661543 0 0 0 0 309.6150668400187 294.9007560707978 0 294.9007560707978 -1586.7190550620871 0 0 0 0 -857.20438586408272 466.70549129196297 0 466.70549129196297 -167.97610924071341 0 0 0 0 803.72110784235701 1183.1994751085585 0 1183.1994751085585 -27.000515520572662 0 0 0 0 1876.3412786801136 452.81480586745965 0 452.81480586745965 -76.314711855520727 0 0 0 0 1957.5690695215017 1033.9267314802128 0 1033.9267314802128 -1280.412956705637 0 0 0 0 1080.2202031166235 513.06309613549092 0 513.06309613549092 -458.14268012992397 0 0 0 0 1526.3371735193723 1787.5245604308075 0 1787.5245604308075 568.9522347622551 0 0 0 0 79.470330422067491 890.52273512601823 0 890.52273512601823 -80.647364171105437 0 0 0 0 -574.17262710517389 574.77879791161104 0 574.77879791161104 -60.582433692456107 0 0 0 0 -438.36359624610486 779.50445823288101 0 779.50445823288101 -80.994163574287086 0 0 0 0 -507.35976147009933 541.62497637330671 0 541.62497637330671 -231.7150027769967 0 0 0 0 -507.56595164239116 535.16058612853521 0 535.16058612853521 400.62918981615076 0 0 0 0 17.071604887716859 28.800922124706744 0 28.800922124706744 20.459674199065091 0 0 0 0 -820.99318548212614 1074.5387802618498 0 1074.5387802618498 -746.7792985248816 0 0 0 0 352.02822869981901 992.7882472583151 0 992.7882472583151 -662.17524872967624 0 0 0 0 -443.63793366884056 405.93755280533151 0 405.93755280533151 678.42176378377189 0 0 0 0 1710.7774526338981 1191.5127154263791 0 1191.5127154263791 964.76784762971511 0 0 0 0 -366.68954247242073 243.70184270263417 0 243.70184270263417 1588.1856375861025 0 0 0 0 -556.19974279079906 -60.640848339928198 0 -60.640848339928198 3359.2055891073178 0 0 0 0 -685.61424634905416 508.10688065800787 0 508.10688065800787 1877.2417537009314 0 0 0 0 -527.21501461495427 944.64317278043382 0 944.64317278043382 3044.7992721110058 0 0 0 0 1162.5402532915032 1932.1203939929837 0 1932.1203939929837 -2228.3218489501014 0 0 0 0 6.9622758414659529 15.854507798865882 0 15.854507798865882 11.978681187137056 0 0 0 0 538.4416091246967 937.23720686561137 0 937.23720686561137 2067.9419756157004 0 0 0 0 1034.1518122718117 1542.311001412445 0 1542.311001412445 31.121879621612607 0 0 0 0 946.6024524798122 2044.8941747871286 0 2044.8941747871286 -520.14576778074843 0 0 0 0 1190.6012974954792 1951.8257379620045 0 1951.8257379620045 925.19321835596929 0 0 0 0 1945.8919574985339 810.28488685980119 0 810.28488685980119 -687.07630163503927 0 0 0 0 179.72951510689745 711.66389450739371 0 711.66389450739371 816.15234674245494 0 0 0 0 -5.4778983447169196 15.759885441297115 0 15.759885441297115 -13.835612084179161 0 0 0 0 -21.079091818275629 -537.90153052069945 0 -537.90153052069945 -270.84400933483266 0 0 0 0 -1124.5524644898906 -151.75431433068297 0 -151.75431433068297 -90.539975668161787 0 0 0 0 -2348.0063809468556 -406.47035035537556 0 -406.47035035537556 -8.6471627485843783 0 0 0 0 -905.55922453859239 206.86947036269703 0 206.86947036269703 -203.72842452883197 0 0 0 0 -814.17888611085255 585.1347562575038 0 585.1347562575038 138.00779555921326 0 0 0 0 -1359.7241990658586 289.73023777997878 0 289.73023777997878 208.36527450887661 0 0 0 0 -1226.1797468422592 326.26099015686123 0 326.26099015686123 202.14289399629342 0 0 0 0 -1180.5914963683317 425.87885647018265 0 425.87885647018265 -285.01188937484403 0 0 0 0 -1780.5477051265916 653.11387672392448 0 653.11387672392448 -103.54738077748334 0 0 0 0 -308.06036389225483 421.24448712739104 0 421.24448712739104 -474.21105677692685 0 0 0 0 -7.7578084917817058 14.939788909651426 0 14.939788909651426 -1.1498181471505404 0 0 0 0 3.8368045448100503 5.0168479945364197 0 5.0168479945364197 -6.4575702300830358 0 0 0 0 -2115.2696675508778 163.38441616372438 0 163.38441616372438 355.15687742162845 0 0 0 0 -1943.2718530555285 -194.4795955872396 0 -194.4795955872396 -677.9868414857774 0 0 0 0 4228.5215686076117 1355.1040348948882 0 1355.1040348948882 -905.79021824736265 0 0 0 0 0.24794359252772225 5.461964724096589 0 5.461964724096589 -2.7167901201898417 0 0 0 0 -2694.8463321277814 539.43394339377119 0 539.43394339377119 92.902286902106425 0 0 0 0 -2916.4035813068404 252.45596264695632 0 252.45596264695632 365.08902899132227 0 0 0 0 -544.46177391313904 -60.121590714406921 0 -60.121590714406921 -487.20620788222004 0 0 0 0 -1236.7193908393383 1056.9047818884064 0 1056.9047818884064 -393.46295978527633 0 0 0 0 -1.3863318888949721 0.75699238547559133 0 0.75699238547559133 4.5831726606233474 0 0 0 0 1174.8912531311362 462.80524234779296 0 462.80524234779296 -343.95618459326215 0 0 0 0 252.11571175642894 1919.8311753958405 0 1919.8311753958405 671.65734930774488 0 0 0 0 335.56612057046732 280.96877291627607 0 280.96877291627607 -321.36487237780239 0 0 0 0 -7.3139556795504177 -246.53990030824207 0 -246.53990030824207 65.167677697289037 0 0 0 0 -753.15798522961268 466.63524953875458 0 466.63524953875458 -258.65758058601932 0 0 0 0 -198.77275743469363 -51.286452941261814 0 -51.286452941261814 -130.56507020225763 0 0 0 0 -212.6841948262736 -80.011131775652757 0 -80.011131775652757 -90.833779784356011 0 0 0 0 -205.1429554694987 -63.824111201043706 0 -63.824111201043706 -111.4030193577637 0 0 0 0 -448.87776799929634 80.415672567018191 0 80.415672567018191 478.00472591396829 0 0 0 0 -544.4533545186714 298.39453598367254 0 298.39453598367254 33.452758462684869 0 0 0 0 613.52284167952348 576.61214284742891 0 576.61214284742891 935.1266433474666 0 0 0 0 685.69786742163797 310.03511740471458 0 310.03511740471458 -216.56399774225429 0 0 0 0 -455.59470291242178 384.46970017573767 0 384.46970017573767 -335.0111115077234 0 0 0 0 -0.33890109258081225 0.98190264557903362 0 0.98190264557903362 1.5075548375009475 0 0 0 0 403.44227322850929 876.24867831807933 0 876.24867831807933 326.86027215085778 0 0 0 0 909.31468902500637 648.54925368254771 0 648.54925368254771 -109.14264637223096 0 0 0 0 921.81452366840676 725.21651885678875 0 725.21651885678875 68.723367087026418 0 0 0 0 1141.7101532827182 105.67647674154796 0 105.67647674154796 -43.393320631061215 0 0 0 0 1157.1040330196356 53.614996906770102 0 53.614996906770102 106.88200152292848 0 0 0 0 1369.0493385644404 477.1878138537686 0 477.1878138537686 -156.5224163007224 0 0 0 0 18.442543303702351 42.296218176703825 0 42.296218176703825 40.105942248538099 0 0 0 0 -4427.3383136499979 4896.6936562245101 0 4896.6936562245101 1748.9208608918343 0 0 0 0 -2543.0046512681874 -20.281122699969274 0 -20.281122699969274 -843.16156520930235 0 0 0 0 -6668.4327503361419 851.19391193284537 0 851.19391193284537 -1040.8229662353842 0 0 0 0 3357.3799274879984 1983.6976027772762 0 1983.6976027772762 163.07208179408917 0 0 0 0 -2.5133358449611682 8.4954768752111995 0 8.4954768752111995 23.649100709939432 0 0 0 0 -6755.7522352638807 619.06410880980548 0 619.06410880980548 160.62070076697273 0 0 0 0 3.6390920844835932 12.962299370393161 0 12.962299370393161 19.816758506044437 0 0 0 0 4001.2505096158056 74.742189205149771 0 74.742189205149771 -269.15577269825735 0 0 0 0 2240.6339084567589 852.95521161238139 0 852.95521161238139 17.423569530146779 0 0 0 0 2015.9674373918751 -257.5532551578217 0 -257.5532551578217 217.03750371251954 0 0 0 0 1229.896417393149 41.266537413976039 0 41.266537413976039 -378.37891752726864 0 0 0 0 1027.962418197676 423.95335128341685 0 423.95335128341685 -863.38318106855149 0 0 0 0 983.97201647765723 599.9619436106077 0 599.9619436106077 -301.98330969334347 0 0 0 0 1209.210725107856 860.28663935497752 0 860.28663935497752 -48.090361219568877 0 0 0 0 335.97555312715849 564.81693699052266 0 564.81693699052266 -135.39275280127185 0 0 0 0 521.94501837941061 522.21041561165475 0 522.21041561165475 -1172.3490665368008 0 0 0 0 -1304.2652965489815 1430.4305801967275 0 1430.4305801967275 682.97294212481938 0 0 0 0 1340.7905967729021 2459.3030754718056 0 2459.3030754718056 1004.8476830769359 0 0 0 0 1563.7450870375251 1654.5741924016766 0 1654.5741924016766 877.79958294088283 0 0 0 0 404.74656520914323 1088.0025026748845 0 1088.0025026748845 784.94640857723425 0 0 0 0 1610.4602829564883 666.10188116590143 0 666.10188116590143 337.67980860962416 0 0 0 0 1065.0444363378083 284.14989762687765 0 284.14989762687765 74.564423829244333 0 0 0 0 2115.9280835689606 541.92457090402604 0 541.92457090402604 295.90305505227298 0 0 0 0 4169.5850148049012 956.40914869001426 0 956.40914869001426 263.87669353881211 0 0 0 0 2482.9944178327241 2204.8150721175625 0 2204.8150721175625 1458.1769090407324 0 0 0 0 1009.2690636914449 1371.6626498184924 0 1371.6626498184924 1120.8700057512979 0 0 0 0 1804.0181022702191 1773.5014483700234 0 1773.5014483700234 811.01836115965853 0 0 0 0 1896.917947911641 1201.6039939204456 0 1201.6039939204456 394.18123412036221 0 0 0 0 1077.9939246756012 534.88242245549645 0 534.88242245549645 213.09211917166249 0 0 0 0 295.06987232090796 -209.67302908356942 0 -209.67302908356942 -54.149377747395192 0 0 0 0 130.95926135537411 830.80159936113341 0 830.80159936113341 1953.4252435017588 0 0 0 0 22.081418708023119 13.705634746980792 0 13.705634746980792 8.9144571946034148 0 0 0 0 3551.2490095886305 1603.367666142658 0 1603.367666142658 864.19867900448298 0 0 0 0 4329.0708875296395 204.76933109253514 0 204.76933109253514 -405.90119450032944 0 0 0 0 670.07508120151033 1456.2037858255353 0 1456.2037858255353 -779.03007374162553 0 0 0 0 618.73629516476649 8.3879317362443544 0 8.3879317362443544 450.81286512221413 0 0 0 0 2177.2702547510708 1933.7079401280062 0 1933.7079401280062 1261.9982883883058 0 0 0 0 -58.653635565964578 395.95741652821744 0 395.95741652821744 1076.6328181655845 0 0 0 0 -2226.2399818627637 2813.7966300722983 0 2813.7966300722983 646.03851252513414 0 0 0 0 -4267.2122289885083 1904.4193398914213 0 1904.4193398914213 990.69451322467648 0 0 0 0 -5556.8757560871636 183.98369345926767 0 183.98369345926767 1057.9639472328709 0 0 0 0 -5.7448766628996939 22.36986336478606 0 22.36986336478606 58.800081326361578 0 0 0 0 -620.5925850051101 1656.5687315123578 0 1656.5687315123578 -419.17047850548988 0 0 0 0 -707.253916157817 -1513.8376644266973 0 -1513.8376644266973 -2038.5188185471343 0 0 0 0 -924.11315025047224 1669.9480502784572 0 1669.9480502784572 -291.75684355112026 0 0 0 0 -1262.7805462118558 1023.8580739231984 0 1023.8580739231984 -928.86809068571893 0 0 0 0 -835.24537679149216 1773.2138351875692 0 1773.2138351875692 -477.78528315271251 0 0 0 0 -250.88000398963777 801.22248147759819 0 801.22248147759819 -103.88520622132637 0 0 0 0 67.019796052663878 912.45569520564459 0 912.45569520564459 -364.30069724153145 0 0 0 0 -1328.3301728453953 1122.4541605673585 0 1122.4541605673585 -256.07781761619117 0 0 0 0 -1375.238451131765 817.28960846618429 0 817.28960846618429 -315.4046274984139 0 0 0 0 -2457.4206587789995 1475.5230514431605 0 1475.5230514431605 -19.184258178021992 0 0 0 0 -0.91314540547241307 5.233287985867392 0 5.233287985867392 15.184771121316544 0 0 0 0 -573.32942308024212 620.80867681833479 0 620.80867681833479 -396.42986944134464 0 0 0 0 -1808.867269698545 459.90531640086556 0 459.90531640086556 -375.99527450105234 0 0 0 0 24.787414238937956 49.320216360517009 0 49.320216360517009 58.155683677581919 0 0 0 0 28.11596923614087 -8.0902383312688926 0 -8.0902383312688926 -177.77219848360983 0 0 0 0 550.52227183788273 -318.22676952213078 0 -318.22676952213078 -136.46455333838821 0 0 0 0 -752.90512412715179 2032.3808724897317 0 2032.3808724897317 729.95896997575619 0 0 0 0 210.33713127104215 281.10902748837543 0 281.10902748837543 -54.574050414812518 0 0 0 0 -714.12156183387515 301.00340121323825 0 301.00340121323825 246.7078565931879 0 0 0 0 24.338164362284218 22.761930462374764 0 22.761930462374764 -25.395836706193336 0 0 0 0 -1601.2293403673684 1030.8975627298496 0 1030.8975627298496 -357.2312318664699 0 0 0 0 242.9777086039212 293.78139229724911 0 293.78139229724911 -219.34749873899636 0 0 0 0 42.321635526813495 38.49414023279607 0 38.49414023279607 19.832881027963367 0 0 0 0 78.629958513491886 91.039897975204951 0 91.039897975204951 92.081866394139013 0 0 0 0 -1294.9165453491005 715.80544086740701 0 715.80544086740701 -679.88083246459428 0 0 0 0 620.66559795416788 2.5086820502474438 0 2.5086820502474438 108.24531677675259 0 0 0 0 38.017716224242314 39.845733137637353 0 39.845733137637353 32.147543181011486 0 0 0 0 497.82004997811487 603.15412722744804 0 603.15412722744804 -98.559766718943138 0 0 0 0 97.721746967638637 22.995924392977031 0 22.995924392977031 -97.009445985604543 0 0 0 0 640.71927406193186 701.99152215049253 0 701.99152215049253 209.37374265043763 0 0 0 0 1997.6382927499699 -75.194581757226842 0 -75.194581757226842 -182.17059871472884 0 0 0 0 929.55880309744111 1100.0330236421723 0 1100.0330236421723 125.93001030010055 0 0 0 0 1117.9447916170991 424.1228864258519 0 424.1228864258519 -552.18702236720128 0 0 0 0 2743.9091201453825 749.24031730092247 0 749.24031730092247 -779.03960536731756 0 0 0 0 222.49362587527401 197.2149358158058 0 197.2149358158058 -306.56613811818534 0 0 0 0 277.06571955552261 8.2581898812495638 0 8.2581898812495638 189.86929558736347 0 0 0 0 354.3635333762976 778.09206264648674 0 778.09206264648674 -246.39259490280529 0 0 0 0 271.72183380395518 245.52362643198467 0 245.52362643198467 -184.11852365115192 0 0 0 0 118.09618909736923 489.33137350762263 0 489.33137350762263 -556.38090053442284 0 0 0 0 -342.23492939084076 215.99955596926156 0 215.99955596926156 -145.96409527974902 0 0 0 0 -224.81515420482606 1883.5841031419841 0 1883.5841031419841 -1058.8345058663981 0 0 0 0 -1563.9351388965629 2708.1435125136195 0 2708.1435125136195 -1609.1676540341577 0 0 0 0 124.13905131539241 24.222529042002861 0 24.222529042002861 29.861262797807285 0 0 0 0 41.72884656871787 26.962541902685018 0 26.962541902685018 -0.093432866941611792 0 0 0 0 -277.78673623421741 464.99793026287807 0 464.99793026287807 -28.236280306446133 0 0 0 0 -1.5912642543594195 0.28552828274438902 0 0.28552828274438902 -7.9428345462007428 0 0 0 0 917.61639392989196 256.11845491941676 0 256.11845491941676 -284.89433348816237 0 0 0 0 -1181.4802874558682 393.39826889650431 0 393.39826889650431 -15.762206076295115 0 0 0 0 129.39106005637223 361.56463498028461 0 361.56463498028461 39.587194696781808 0 0 0 0 25.996633275034867 92.928669848955906 0 92.928669848955906 -198.26060116087319 0 0 0 0 -569.97757459221179 120.67780831795244 0 120.67780831795244 484.54518147539056 0 0 0 0 -1.4719657993806994 -0.089392368015765555 0 -0.089392368015765555 8.9069684579394561 0 0 0 0 -634.13238962895525 335.54980453045573 0 335.54980453045573 486.63831029230641 0 0 0 0 1403.2442777314745 -275.41634399877876 0 -275.41634399877876 -318.3979747115518 0 0 0 0 -479.43162227969668 523.14097710669739 0 523.14097710669739 329.15922909113578 0 0 0 0 401.87445675855724 -601.29470652726741 0 -601.29470652726741 -183.31836198663223 0 0 0 0 -861.33958558072118 1921.8306542622377 0 1921.8306542622377 -1949.4983159318217 0 0 0 0 102.6306104663133 104.38949135404538 0 104.38949135404538 108.30002663892122 0 0 0 0 -974.52605286614562 1522.0249186450674 0 1522.0249186450674 -495.7974609764351 0 0 0 0 310.50845881041778 390.90995384451526 0 390.90995384451526 -275.04129640822066 0 0 0 0 -818.54183617328817 1662.8579701224662 0 1662.8579701224662 -397.86828461010009 0 0 0 0 -831.29415538455942 1253.0185234209566 0 1253.0185234209566 1793.1694772380142 0 0 0 0 -701.2152940138767 1017.5373424717982 0 1017.5373424717982 881.22374541383761 0 0 0 0 -639.37243402675085 1138.7400878064655 0 1138.7400878064655 143.03610448457766 0 0 0 0 -1358.9290263492876 2166.8277966347814 0 2166.8277966347814 218.9000723191275 0 0 0 0 -1077.162968427132 1362.0485843057359 0 1362.0485843057359 552.21599383320427 0 0 0 0 -179.81945070267756 798.73090219151345 0 798.73090219151345 60.035086066229269 0 0 0 0 -7.5939379836668763 12.400853434676492 0 12.400853434676492 -5.2868123400291864 0 0 0 0 -1505.0681777537393 1001.2724799461721 0 1001.2724799461721 -1555.3138272321667 0 0 0 0 -221.49408628050878 1331.5752150865337 0 1331.5752150865337 -3164.5547357685718 0 0 0 0 104.9538058177976 129.1798579856744 0 129.1798579856744 90.721754921426339 0 0 0 0 -944.5437583850071 -5.7590322261967231 0 -5.7590322261967231 -864.80350937810726 0 0 0 0 14.691323026252704 59.231275310648869 0 59.231275310648869 -69.431963949388546 0 0 0 0 501.845649131963 644.96507398010363 0 644.96507398010363 -1056.1065495993535 0 0 0 0 479.19026335499075 907.92096750711789 0 907.92096750711789 -1490.4185273151706 0 0 0 0 -69.417015323873784 28.87765183870215 0 28.87765183870215 207.06005830907088 0 0 0 0 3.7522899786779362 87.774091343243185 0 87.774091343243185 -28.043201111002872 0 0 0 0 838.63034066810724 946.76667127191104 0 946.76667127191104 658.92397217126563 0 0 0 0 98.233284984729835 507.69531308481237 0 507.69531308481237 1206.328706629778 0 0 0 0 -11.512086984623636 5.7790207753567415 0 5.7790207753567415 42.547261113172681 0 0 0 0 618.17892538306478 471.94422446901444 0 471.94422446901444 651.15230041906761 0 0 0 0 524.14569994958583 907.8102954072674 0 907.8102954072674 650.32395435706712 0 0 0 0 1283.2468374395467 651.43639173702104 0 651.43639173702104 435.04086826055573 0 0 0 0 1671.3405264791581 1391.4265624960026 0 1391.4265624960026 761.56006755051203 0 0 0 0 -0.62869202935497981 0.2495543699775169 0 0.2495543699775169 11.71777242660346 0 0 0 0 -199.56228514735994 47.27620585670229 0 47.27620585670229 20.366846052645997 0 0 0 0 2705.0110291951569 1723.3034813706472 0 1723.3034813706472 331.49149604067497 0 0 0 0 711.66364682749554 740.7505308194086 0 740.7505308194086 1111.6446235137846 0 0 0 0 -426.53028203170834 51.569933817299898 0 51.569933817299898 437.55494580158847 0 0 0 0 -249.92171832335589 495.04200852566282 0 495.04200852566282 816.9923071632802 0 0 0 0 -1.6890269174968182 -0.81984833765680065 0 -0.81984833765680065 3.6548459476260859 0 0 0 0 645.39975476213294 947.4886332291062 0 947.4886332291062 519.89313523865712 0 0 0 0 -298.28771758112271 -22.884840841892583 0 -22.884840841892583 153.6605930524529 0 0 0 0 -166.07085370313143 184.09436150944384 0 184.09436150944384 8.1699197649140842 0 0 0 0 -348.46504808038299 88.552600795097533 0 88.552600795097533 -92.877212946204963 0 0 0 0 -231.9123376824391 155.17145944506046 0 155.17145944506046 -292.11323928920319 0 0 0 0 -1297.2955439319812 742.25878808569905 0 742.25878808569905 -317.5077303496073 0 0 0 0 -775.21125515162566 573.02380695875036 0 573.02380695875036 -545.42551272196579 0 0 0 0 -833.63411082689709 403.93049507541582 0 403.93049507541582 -64.49247998491046 0 0 0 0 -931.95815578772454 898.39575116831111 0 898.39575116831111 -575.50877274507548 0 0 0 0 -747.07618404573441 676.90615726524265 0 676.90615726524265 -290.11762630738667 0 0 0 0 -856.70096582940459 559.97028529561067 0 559.97028529561067 -366.03586076627835 0 0 0 0 -1455.9952157097068 745.18211112366407 0 745.18211112366407 -155.43857703619869 0 0 0 0 -963.5601753131341 932.53230700401764 0 932.53230700401764 362.56704088236438 0 0 0 0 -371.25755564098654 801.39738915898488 0 801.39738915898488 -79.041894538517226 0 0 0 0 358.17847412159608 810.8120790898538 0 810.8120790898538 381.96839084755629 0 0 0 0 -374.58226506577921 777.12050545483362 0 777.12050545483362 607.97171944135334 0 0 0 0 -268.95272181311884 386.40609680354828 0 386.40609680354828 465.80225250867079 0 0 0 0 -508.48727874540782 337.86299645435793 0 337.86299645435793 129.88650366294314 0 0 0 0 -448.96136486325122 473.22763320119702 0 473.22763320119702 434.64335258518986 0 0 0 0 -168.77273794385837 1852.5442975742626 0 1852.5442975742626 339.59726327491808 0 0 0 0 1291.4246180407063 2730.6112285831732 0 2730.6112285831732 2421.2040327765662 0 0 0 0 2184.8285959036002 2792.1754824158852 0 2792.1754824158852 2415.2590058853966 0 0 0 0 2157.236646512174 2249.1574786586134 0 2249.1574786586134 1932.041988388577 0 0 0 0 3374.2620216994983 2000.0791871871988 0 2000.0791871871988 886.11070210469188 0 0 0 0 3408.2866930420278 2818.8138928334956 0 2818.8138928334956 2182.8498577656064 0 0 0 0 3488.5449243045878 2000.210045175234 0 2000.210045175234 1528.7609882252145 0 0 0 0 -6.6254978898611512 13.398295657291555 0 13.398295657291555 0.092472210812559297 0 0 0 0 3009.8229249707074 -550.33308029704494 0 -550.33308029704494 4901.223987290985 0 0 0 0 3808.6883953293436 2195.9045790950986 0 2195.9045790950986 1383.10950312567 0 0 0 0 3814.5709455519391 2116.8447153974266 0 2116.8447153974266 1228.0575660615723 0 0 0 0 -17.373724697381164 28.263347185433929 0 28.263347185433929 27.340226135327157 0 0 0 0 2847.9372298912203 1762.8802951057878 0 1762.8802951057878 -8411.6997193281422 0 0 0 0 -491.76957865836926 191.53722833371546 0 191.53722833371546 2983.5241797195922 0 0 0 0 1448.1138001852087 309.21287405316252 0 309.21287405316252 -103.02408060146263 0 0 0 0 4792.1630143969087 2415.4980441267689 0 2415.4980441267689 1786.1520830127629 0 0 0 0 3556.6884416811517 2127.9506021015841 0 2127.9506021015841 1727.3503232839867 0 0 0 0 2211.1174556881451 2561.1316342976352 0 2561.1316342976352 2853.7085299081591 0 0 0 0 3381.1337037468475 3779.087009574705 0 3779.087009574705 3986.1933423490846 0 0 0 0 3513.4521058008168 3551.5765709163311 0 3551.5765709163311 3913.2698293257563 0 0 0 0 3424.5950532294264 4599.2412914875058 0 4599.2412914875058 3943.2784533304803 0 0 0 0 6592.6458612100469 4870.5410907421028 0 4870.5410907421028 3131.8082533668639 0 0 0 0 6106.6095121277322 3741.2310148656688 0 3741.2310148656688 1088.4147692816769 0 0 0 0 8.6023350278526465 20.107884101459064 0 20.107884101459064 15.202099949540695 0 0 0 0 -2421.978693140336 3258.8578614458311 0 3258.8578614458311 4132.989758355674 0 0 0 0 0.83694718310289318 1483.365847356652 0 1483.365847356652 336.30818720876414 0 0 0 0 11.275043574948356 33.530551833260262 0 33.530551833260262 30.975071075206586 0 0 0 0 -833.96679371328719 1942.1747103932794 0 1942.1747103932794 361.34039334041881 0 0 0 0 -2424.8564494800012 937.80728582959273 0 937.80728582959273 -126.23345625952061 0 0 0 0 -2415.2769850935729 2325.5875725685328 0 2325.5875725685328 -1.0498261989123421 0 0 0 0 -3842.5944896724031 2088.7617108481754 0 2088.7617108481754 583.08423641299305 0 0 0 0 5090.3265197693836 5352.8050466476125 0 5352.8050466476125 -10.138723251089687 0 0 0 0 4.6509780017954938 16.673469941214933 0 16.673469941214933 14.230138898593168 0 0 0 0 2413.7961081216199 1669.666226767702 0 1669.666226767702 -252.99431312282104 0 0 0 0 999.58473790375865 2608.5930569998818 0 2608.5930569998818 -0.37503376581298653 0 0 0 0 -285.68752257700544 1076.3993033522856 0 1076.3993033522856 -470.76420331760892 0 0 0 0 1390.591596934566 1794.5058041380398 0 1794.5058041380398 -846.70378251003422 0 0 0 0 3329.326955936951 2392.4329832111544 0 2392.4329832111544 -628.8737653632852 0 0 0 0 1138.5542239729402 2122.145638047763 0 2122.145638047763 228.6816956501425 0 0 0 0 1597.9507491079858 1067.7133288154873 0 1067.7133288154873 -103.28513112462679 0 0 0 0 4034.1435328972657 3285.555985166382 0 3285.555985166382 -36.619550808885833 0 0 0 0 3021.4321516336713 3289.9882174958475 0 3289.9882174958475 1912.0652050470962 0 0 0 0 4561.7471372818982 2509.2971131197191 0 2509.2971131197191 2290.1278940714838 0 0 0 0 3054.9161188320868 3350.6592393889587 0 3350.6592393889587 1997.8979086885956 0 0 0 0 3955.514837219991 2357.5616009327932 0 2357.5616009327932 576.14042723569582 0 0 0 0 4181.5436662093125 2338.7181753442828 0 2338.7181753442828 574.22166515204299 0 0 0 0 3512.1475496140883 2905.1224538183997 0 2905.1224538183997 -38.750733202177798 0 0 0 0 4670.0077629406151 2457.438385182104 0 2457.438385182104 -259.0477192014805 0 0 0 0 4334.6936316027277 2392.1460843569803 0 2392.1460843569803 -203.12510524675599 0 0 0 0 4337.7618290216051 2391.7902579605434 0 2391.7902579605434 -386.40311365753587 0 0 0 0 3054.5525818574206 2737.4364788761122 0 2737.4364788761122 -0.20012001335271634 0 0 0 0 9.2866972023237508 6.962934880383898 0 6.962934880383898 7.2482060595125404 0 0 0 0 1003.6339500433787 1623.4329672931162 0 1623.4329672931162 -0.38491096333018504 0 0 0 0 7258.8259980842849 1676.2570286876216 0 1676.2570286876216 -1025.8050899811496 0 0 0 0 5219.5787208364345 3020.4763805256225 0 3020.4763805256225 -0.31764046142892066 0 0 0 0 3346.7539448477328 574.40988116673543 0 574.40988116673543 -1284.1666804241031 0 0 0 0 4770.3552489329086 2219.4234436098559 0 2219.4234436098559 174.78418857097859 0 0 0 0 -580.41096328604181 2414.7351825445367 0 2414.7351825445367 1968.8073344925069 0 0 0 0 5.3704034462496395 6.2723591483476753 0 6.2723591483476753 8.0241075902072225 0 0 0 0 5835.79685612498 2582.3761068476742 0 2582.3761068476742 200.62352070619818 0 0 0 0 3598.5641782663297 4297.9786084020889 0 4297.9786084020889 2767.167774177462 0 0 0 0 4164.8849805379978 3050.9040741967783 0 3050.9040741967783 2618.4319616309949 0 0 0 0 3503.7626443768095 1559.8182313987054 0 1559.8182313987054 597.64380349948624 0 0 0 0 6226.2862402368919 3676.338453423552 0 3676.338453423552 1833.6085791210571 0 0 0 0 39.626266978949957 3.6918983474158722 0 3.6918983474158722 -5.6679009484290646 0 0 0 0 4449.1191108854837 6311.9441161610448 0 6311.9441161610448 6494.3653372416447 0 0 0 0 3137.1862128189969 3292.0829993931256 0 3292.0829993931256 3958.9593976474134 0 0 0 0 -182.25468567773351 -1366.5046759343677 0 -1366.5046759343677 -2578.6225176595653 0 0 0 0 1517.5215396703716 107.57177939381654 0 107.57177939381654 -2204.5906579873117 0 0 0 0 452.06804475884201 393.16831089833977 0 393.16831089833977 274.0562342532503 0 0 0 0 1372.6590734967031 1003.5156984406349 0 1003.5156984406349 -196.95638167697336 0 0 0 0 4393.0080827782367 2564.4551267576608 0 2564.4551267576608 -185.33187316443946 0 0 0 0 2238.7693752200285 3185.5477811421297 0 3185.5477811421297 2414.3484786098543 0 0 0 0 3216.8023051863274 3635.6213492628667 0 3635.6213492628667 1460.4070143878635 0 0 0 0 3258.8562749762204 3459.5688288627134 0 3459.5688288627134 1903.2569759967969 0 0 0 0 -1246.8675342754141 1070.932284538856 0 1070.932284538856 1297.9089384005056 0 0 0 0 3042.6431777773687 2502.3604385522558 0 2502.3604385522558 542.38669881342503 0 0 0 0 1003.1516647971875 3053.0530546394148 0 3053.0530546394148 1413.5846224651959 0 0 0 0 1087.155073393631 2068.1467579006348 0 2068.1467579006348 472.83854474357213 0 0 0 0 1154.5403846229892 2562.2381839880836 0 2562.2381839880836 1642.8757117287023 0 0 0 0 -5.1172056216254589 14.03257070722259 0 14.03257070722259 16.331927899814673 0 0 0 0 4599.2531945877126 3200.9069541876961 0 3200.9069541876961 1669.8098343824531 0 0 0 0 -1148.1892234045081 -643.64879286877112 0 -643.64879286877112 10326.682056431659 0 0 0 0 3985.0444187669782 1056.8576526078105 0 1056.8576526078105 490.43789347709389 0 0 0 0 1642.2867367573199 1873.8365590937901 0 1873.8365590937901 810.19325312507135 0 0 0 0 3324.396430220746 -570.09487877304491 0 -570.09487877304491 4355.2944068085053 0 0 0 0 3639.3163930565643 2806.1498301219108 0 2806.1498301219108 1954.950139827386 0 0 0 0 1212.8234364421223 1226.1702770741249 0 1226.1702770741249 2519.5968879387365 0 0 0 0 1115.8074556069332 2397.6088601821975 0 2397.6088601821975 5923.8083364537451 0 0 0 0 -508.61286309281786 1328.0003034099766 0 1328.0003034099766 4727.265593893535 0 0 0 0 1605.6824651802308 1754.8056956578803 0 1754.8056956578803 2874.9170848061767 0 0 0 0 3118.0329864806408 1587.6838423719091 0 1587.6838423719091 -135.97350832977099 0 0 0 0 -241.74937753845006 1423.0032397033719 0 1423.0032397033719 2572.8227953794194 0 0 0 0 28.572633470751441 26.169229769563628 0 26.169229769563628 28.948976272862637 0 0 0 0 -294.23505823944288 117.3311391482639 0 117.3311391482639 422.20026444071118 0 0 0 0 278.01671021150833 500.2554216035569 0 500.2554216035569 91.239374402299291 0 0 0 0 39.101637106301496 274.1929068131285 0 274.1929068131285 114.30617524278932 0 0 0 0 231.9209348699369 396.88559956742392 0 396.88559956742392 436.30891781464743 0 0 0 0 578.72574901412008 943.0051533680562 0 943.0051533680562 718.95046993397409 0 0 0 0 777.07040567250806 1476.2257831670722 0 1476.2257831670722 1526.1179320958472 0 0 0 0 198.36943699565018 303.20329968568694 0 303.20329968568694 397.44092600388103 0 0 0 0 214.08401279501413 169.72706741961792 0 169.72706741961792 547.71262953089899 0 0 0 0 211.49725177779328 368.71870292234235 0 368.71870292234235 405.40816903534142 0 0 0 0 204.06886869089794 254.66534811577003 0 254.66534811577003 423.14490335102892 0 0 0 0 -69.063902518013492 384.64413111278554 0 384.64413111278554 441.32737600312976 0 0 0 0 -81.968626395304454 310.79057153360918 0 310.79057153360918 491.30779480671481 0 0 0 0 -35.834325841104146 476.61288253981911 0 476.61288253981911 -27.497861535055563 0 0 0 0 10.360055149969412 275.43339607749658 0 275.43339607749658 353.67980347703269 0 0 0 0 32.98003749497002 205.63590151070093 0 205.63590151070093 -803.44626190108829 0 0 0 0 -102.15571825689403 314.58266280940734 0 314.58266280940734 -17.696667903604066 0 0 0 0 -82.757174129626947 627.86831374654139 0 627.86831374654139 -42.30251052431413 0 0 0 0 -199.73831593095383 320.58097291622835 0 320.58097291622835 414.58333756387583 0 0 0 0 836.37458010588307 497.88624296817579 0 497.88624296817579 329.78058851778042 0 0 0 0 128.02163311953336 95.220341378371813 0 95.220341378371813 248.22209196531912 0 0 0 0 1171.0424629000481 1411.3656123082619 0 1411.3656123082619 -1518.5895260570833 0 0 0 0 -784.59770765370922 -371.35963018011535 0 -371.35963018011535 -256.48606123053469 0 0 0 0 1392.2055401474354 2392.1350846462592 0 2392.1350846462592 2153.3268688745229 0 0 0 0 -41.987450266157111 21.683379907412814 0 21.683379907412814 -30.887111447166603 0 0 0 0 1836.7932596673782 387.55212865394424 0 387.55212865394424 334.04810403136071 0 0 0 0 1785.7346848908928 1012.6513884315937 0 1012.6513884315937 486.45106186839985 0 0 0 0 1058.7494736563822 0.45830650604330003 0 0.45830650604330003 1075.7621612002913 0 0 0 0 175.72710657122661 723.78861018984753 0 723.78861018984753 1092.3262475385709 0 0 0 0 -814.47239624429494 -369.3415356084588 0 -369.3415356084588 -221.82065130688716 0 0 0 0 -135.4197840228378 73.689183635925701 0 73.689183635925701 58.47469554495467 0 0 0 0 -88.239475557926198 166.98174335779913 0 166.98174335779913 488.58843073516618 0 0 0 0 -287.47360036626924 -114.16052064677933 0 -114.16052064677933 -93.99326383578591 0 0 0 0 -95.059110956422359 35.151443455869781 0 35.151443455869781 -2.6438785643575216 0 0 0 0 563.46999252527166 8.2197515197622124 0 8.2197515197622124 143.61721907637548 0 0 0 0 -80.508279351391707 -36.562926093516751 0 -36.562926093516751 -52.3740643794481 0 0 0 0 1126.0812008600333 767.68935129611054 0 767.68935129611054 610.64098591875518 0 0 0 0 1164.3166392814601 589.87914437121071 0 589.87914437121071 380.60775083379121 0 0 0 0 -42.754785567997374 40.389019098146719 0 40.389019098146719 -2.1338986989227919 0 0 0 0 858.24653419398237 413.19826473237481 0 413.19826473237481 498.52601695574413 0 0 0 0 883.65083434793632 352.74816772821941 0 352.74816772821941 367.91491250187391 0 0 0 0 767.56444809312234 425.08415363988024 0 425.08415363988024 341.69605338721158 0 0 0 0 1244.7732710846176 538.80969802028994 0 538.80969802028994 296.26615741668502 0 0 0 0 794.82555672500166 427.31506510552572 0 427.31506510552572 196.88898507185513 0 0 0 0 479.43971113704902 313.22592743999121 0 313.22592743999121 209.68802815349773 0 0 0 0 1100.7451008839998 689.51690564601449 0 689.51690564601449 227.56095163285499 0 0 0 0 845.70678251550999 565.66365895469789 0 565.66365895469789 33.792184955498669 0 0 0 0 818.17876890461775 514.52624523946724 0 514.52624523946724 245.67081084585516 0 0 0 0 1282.5242902262435 935.88840932793619 0 935.88840932793619 499.1066596142482 0 0 0 0 -44.066438235035321 -0.82570244649633651 0 -0.82570244649633651 -6.6845351086710139 0 0 0 0 1294.8014059743291 729.26579628437321 0 729.26579628437321 225.30829187680501 0 0 0 0 -645.73474287305726 -333.24728891445557 0 -333.24728891445557 -126.98681791056879 0 0 0 0 904.03701905714115 382.73201366464491 0 382.73201366464491 230.96843163809535 0 0 0 0 1029.1393025878933 776.08186551136896 0 776.08186551136896 376.5911339558661 0 0 0 0 1089.653082927005 376.21801550586679 0 376.21801550586679 707.11531202640617 0 0 0 0 1557.503112643346 296.66262198991899 0 296.66262198991899 52.785566242586356 0 0 0 0 1033.8197202747688 553.20790912517987 0 553.20790912517987 184.66672695992747 0 0 0 0 1083.6356626935885 247.08571316953748 0 247.08571316953748 24.214969824926811 0 0 0 0 830.18294926697854 465.58244345865387 0 465.58244345865387 -154.66319061300601 0 0 0 0 737.72135666719987 179.10134230194672 0 179.10134230194672 -153.37126531372633 0 0 0 0 1065.5291939019808 433.33813384966925 0 433.33813384966925 -415.80043829802889 0 0 0 0 972.41909843104077 495.56242718223075 0 495.56242718223075 -188.13328214304056 0 0 0 0 1293.0835161143914 567.52093878013693 0 567.52093878013693 -188.85645574633963 0 0 0 0 439.7103080702218 462.33393842967052 0 462.33393842967052 -168.05601606197888 0 0 0 0 779.69063005998032 299.23329526945599 0 299.23329526945599 -558.20527505002974 0 0 0 0 650.86620742059313 258.24133738066303 0 258.24133738066303 15.390628781469786 0 0 0 0 842.70297840924468 530.40871950416476 0 530.40871950416476 -51.074001740722451 0 0 0 0 274.28267332814721 122.52708515194536 0 122.52708515194536 -135.89506843147683 0 0 0 0 164.7112315663544 291.72863263933687 0 291.72863263933687 -749.07142539689085 0 0 0 0 17.078580916306237 290.6775053274032 0 290.6775053274032 -75.374668427743018 0 0 0 0 332.72302989958553 188.41015857717139 0 188.41015857717139 -687.05274002245278 0 0 0 0 276.92234002784244 520.82012503175065 0 520.82012503175065 1.8990136776628788 0 0 0 0 256.04666420368267 254.58532986523369 0 254.58532986523369 -71.411220903653884 0 0 0 0 45.054486799548613 131.4369737598754 0 131.4369737598754 113.20794026643853 0 0 0 0 -45.240209847601363 443.56788500733091 0 443.56788500733091 308.11719432717655 0 0 0 0 -367.62685187190073 400.67443181316776 0 400.67443181316776 75.912294013995052 0 0 0 0 147.66238045204955 337.77568852891272 0 337.77568852891272 -797.26223975993344 0 0 0 0 -13.484753302007448 -68.768327533180127 0 -68.768327533180127 -817.23858170738822 0 0 0 0 253.69539624714525 223.95778057801363 0 223.95778057801363 -1446.0605131321354 0 0 0 0 100.99123808937833 1.6702456821834062 0 1.6702456821834062 -20.388712208998101 0 0 0 0 303.83154739250313 -572.68406001546828 0 -572.68406001546828 -2023.5406391062279 0 0 0 0 -171.4066580866056 -447.0478519291355 0 -447.0478519291355 -966.09821048850063 0 0 0 0 2230.4936323556467 2765.9733434415539 0 2765.9733434415539 3365.4590130870893 0 0 0 0 2654.2735332752018 2281.6663129669651 0 2281.6663129669651 3191.9581922375801 0 0 0 0 1363.8923007255216 1446.6023082443571 0 1446.6023082443571 1388.641559952317 0 0 0 0 2008.8961141387408 1323.2791818845799 0 1323.2791818845799 0.32919026500894688 0 0 0 0 2751.0520464527362 2158.3126697031839 0 2158.3126697031839 924.31818171616032 0 0 0 0 2748.0210181521543 995.39157289894501 0 995.39157289894501 -302.28431379862377 0 0 0 0 1175.0242569623661 793.06511207718722 0 793.06511207718722 0.56897216675861273 0 0 0 0 1767.7533142555767 1441.9097674655495 0 1441.9097674655495 692.99144829936995 0 0 0 0 803.70281039898691 868.79656347974378 0 868.79656347974378 1085.561164488121 0 0 0 0 165.0201382359993 -10.274719293314377 0 -10.274719293314377 -27.303033488259473 0 0 0 0 872.46807846273805 808.03833660354212 0 808.03833660354212 825.76963951357175 0 0 0 0 460.96344683822826 308.92088628574129 0 308.92088628574129 -258.08677717746468 0 0 0 0 198.1803082007682 63.570499216017197 0 63.570499216017197 -394.21933717245702 0 0 0 0 115.526394000648 -37.73149271586226 0 -37.73149271586226 -566.82003611553228 0 0 0 0 1309.8288311832912 1477.6223837973703 0 1477.6223837973703 1771.0759825791756 0 0 0 0 343.09318407301907 -322.97517161641736 0 -322.97517161641736 -1098.6993781562342 0 0 0 0 140.25471852019433 -3.0153625098731709 0 -3.0153625098731709 -26.825247789059631 0 0 0 0 221.06077570027264 -27.443403450619371 0 -27.443403450619371 -478.70701815569191 0 0 0 0 248.09401969777537 99.014315917953354 0 99.014315917953354 -838.23786674090661 0 0 0 0 797.8681199849234 340.70321264748054 0 340.70321264748054 -524.11668619043303 0 0 0 0 754.09290397452787 643.93352116956885 0 643.93352116956885 -369.2478169145179 0 0 0 0 793.3521767394268 295.28595806423982 0 295.28595806423982 -426.57630415586755 0 0 0 0 104.33549482544186 1087.9513914894778 0 1087.9513914894778 -186.49860723945039 0 0 0 0 1188.4435060385149 556.17520890457672 0 556.17520890457672 -378.73758738767356 0 0 0 0 942.37832945719128 1141.75919464053 0 1141.75919464053 -185.58698562195423 0 0 0 0 -530.97061844333075 523.69519503900665 0 523.69519503900665 -362.72158053272869 0 0 0 0 205.25005711283302 487.70225946960272 0 487.70225946960272 47.746989169478184 0 0 0 0 -658.08622225621366 710.55696250301116 0 710.55696250301116 -1.4454639791510999 0 0 0 0 750.44067953931517 641.1750905537483 0 641.1750905537483 -370.28843541693641 0 0 0 0 207.88484561565565 497.74999165903137 0 497.74999165903137 -396.1260552006861 0 0 0 0 -0.99823883320368623 48.288974477312195 0 48.288974477312195 -54.473478550934885 0 0 0 0 1126.1791910318716 -87.162899481074419 0 -87.162899481074419 -458.3436882920505 0 0 0 0 -1721.5487068330403 -1661.9442559516174 0 -1661.9442559516174 -461.85500694066286 0 0 0 0 -72.535663899927016 100.91593245859559 0 100.91593245859559 63.111086578173399 0 0 0 0 58.710094199373998 221.94639912900311 0 221.94639912900311 164.99274622910889 0 0 0 0 102.90905907074921 414.8563292400795 0 414.8563292400795 52.261455272848252 0 0 0 0 205.12490213639103 151.076994017174 0 151.076994017174 226.22239416123193 0 0 0 0 194.60977764844068 -7.819723153613154 0 -7.819723153613154 -26.86348473173237 0 0 0 0 -133.12629334411031 96.652066823269706 0 96.652066823269706 247.97059725446161 0 0 0 0 -18.047900400434997 103.26115998137558 0 103.26115998137558 53.751390069047147 0 0 0 0 431.03904896233871 48.01101421884232 0 48.01101421884232 -16.992137752771669 0 0 0 0 369.16545509567368 159.67588887327292 0 159.67588887327292 229.11757258164289 0 0 0 0 506.5168957926071 394.55420846602647 0 394.55420846602647 261.9846264081134 0 0 0 0 581.7973050630535 291.9916977067478 0 291.9916977067478 0.62459048406162765 0 0 0 0 593.289113125531 375.34365285062086 0 375.34365285062086 138.57986929747858 0 0 0 0 650.29194212326547 646.74129732904839 0 646.74129732904839 715.36645081994357 0 0 0 0 -26.305867549979894 38.284685704411601 0 38.284685704411601 -47.215093545976913 0 0 0 0 534.86060681531671 428.4439780322864 0 428.4439780322864 -203.0275680275663 0 0 0 0 -52.620940659697226 106.07828204774705 0 106.07828204774705 309.07307994356961 0 0 0 0 -10.017261099455936 16.315279961282158 0 16.315279961282158 -12.65597032655802 0 0 0 0 -31.902713395043975 19.548570854662103 0 19.548570854662103 0.0034499902394600213 0 0 0 0 -27.049385855465459 2.7709746791787211 0 2.7709746791787211 16.572078920418619 0 0 0 0 895.50955833960325 23.158807406463893 0 23.158807406463893 127.6101599301619 0 0 0 0 475.31305579315813 574.95668572322757 0 574.95668572322757 -305.6555184989702 0 0 0 0 -203.20667110252543 399.47399898435106 0 399.47399898435106 0.76799102342920378 0 0 0 0 143.92812706183759 285.3331692974607 0 285.3331692974607 -492.38425233535236 0 0 0 0 -669.3349179472425 236.0303961126483 0 236.0303961126483 -53.530572668241803 0 0 0 0 -226.86881539360911 396.45018784487911 0 396.45018784487911 -257.76893387740711 0 0 0 0 63.7115883653465 12.53519755274263 0 12.53519755274263 2.0866451455102606 0 0 0 0 30.166290603511271 34.23190285484651 0 34.23190285484651 -1.3422556723389789 0 0 0 0 -420.37286344158929 -110.58728636265732 0 -110.58728636265732 -109.01484713403624 0 0 0 0 -224.80877363801119 592.7905036455777 0 592.7905036455777 -186.6699908914452 0 0 0 0 -29.291389759679703 39.135753888255806 0 39.135753888255806 -53.691548665301752 0 0 0 0 -134.22813108040282 197.9074821054237 0 197.9074821054237 367.54620204609819 0 0 0 0 525.08252850777353 239.46059336821781 0 239.46059336821781 -50.734913234511623 0 0 0 0 227.56411176260735 415.54502283052716 0 415.54502283052716 244.22339905634726 0 0 0 0 -55.919650287745753 179.59573891657055 0 179.59573891657055 86.709204883503844 0 0 0 0 55.295094825502019 298.37837740723626 0 298.37837740723626 247.77356435695037 0 0 0 0 -59.923098695842782 379.82115299641737 0 379.82115299641737 566.78363052491841 0 0 0 0 -9.2068734962358576 540.82287426109724 0 540.82287426109724 545.04586170324183 0 0 0 0 335.53150126254332 573.06773965580214 0 573.06773965580214 475.21615842287429 0 0 0 0 257.45772102016781 54.22138943131722 0 54.22138943131722 -140.29145332428743 0 0 0 0 517.7884615038929 569.43172792618861 0 569.43172792618861 520.04952428799879 0 0 0 0 777.4332580759874 959.81110423477367 0 959.81110423477367 287.86526003872859 0 0 0 0 747.09751705627423 875.45396812306717 0 875.45396812306717 334.66559565543139 0 0 0 0 598.09313656610902 1025.7181968587684 0 1025.7181968587684 379.71779527442413 0 0 0 0 -219.08488629902422 670.83559961571882 0 670.83559961571882 561.0167897791107 0 0 0 0 -177.96241098026439 663.57238747604788 0 663.57238747604788 465.539879870601 0 0 0 0 -505.76585256609542 543.39435610962391 0 543.39435610962391 451.67568477172244 0 0 0 0 -194.14214526656724 693.86567751978873 0 693.86567751978873 49.859627326775808 0 0 0 0 -343.26416811032323 610.07951147214408 0 610.07951147214408 93.737146187981125 0 0 0 0 -563.52808978765097 372.25954875579919 0 372.25954875579919 -54.770273279529647 0 0 0 0 -355.40629019185872 544.34975912200025 0 544.34975912200025 -965.94990436267108 0 0 0 0 -425.70552125986069 737.09739286442982 0 737.09739286442982 -487.97478708226117 0 0 0 0 -550.45886829412348 833.15508375679929 0 833.15508375679929 -3.4507919059542473 0 0 0 0 -1069.6169815860194 1755.8099714042182 0 1755.8099714042182 -149.10821004692843 0 0 0 0 9.1713247691251922 8.9054979943335155 0 8.9054979943335155 5.7460578306613002 0 0 0 0 -1257.5811047335446 349.19557771722612 0 349.19557771722612 -294.12427633782499 0 0 0 0 1184.2666112562001 1871.7039939253882 0 1871.7039939253882 -223.76990778795152 0 0 0 0 345.9096556333825 1775.2389214086725 0 1775.2389214086725 208.79116348037496 0 0 0 0 -469.98795683317439 874.21040021013323 0 874.21040021013323 424.46098149919999 0 0 0 0 -45.124614218820042 14.921312387536858 0 14.921312387536858 -21.84340227991629 0 0 0 0 -114.93902232235456 100.21682479426659 0 100.21682479426659 44.575179173163519 0 0 0 0 -2443.4690642597707 1459.961600668641 0 1459.961600668641 768.80843436901705 0 0 0 0 1792.9706749217876 805.94009481393732 0 805.94009481393732 -28.741355773236137 0 0 0 0 1486.3612904639813 439.83391204090003 0 439.83391204090003 -52.721246044849977 0 0 0 0 1186.9035881106684 1066.3750029547082 0 1066.3750029547082 -130.83289520707331 0 0 0 0 -679.96991071302182 856.74140432867716 0 856.74140432867716 -142.78716254694154 0 0 0 0 2946.5407437802933 -393.45906926956377 0 -393.45906926956377 55.025848637684248 0 0 0 0 2726.3078339250042 1416.1249773394211 0 1416.1249773394211 -434.46110613871133 0 0 0 0 -838.92223993694643 -603.14260160081903 0 -603.14260160081903 -295.55501656327397 0 0 0 0 -427.79760926324525 -556.75199561729096 0 -556.75199561729096 187.27133500785567 0 0 0 0 -4.0553920578416012 7.5147311690411698 0 7.5147311690411698 -7.5363872714231093 0 0 0 0 -1364.413706023246 1087.6403372745845 0 1087.6403372745845 -496.96430972185408 0 0 0 0 1665.056890958891 931.1494881886174 0 931.1494881886174 -288.61878620722564 0 0 0 0 1.1025145539988443 6.0329981549471086 0 6.0329981549471086 -1.5367727321775533 0 0 0 0 -120.66269949608815 82.723062267735827 0 82.723062267735827 46.372017421150645 0 0 0 0 -952.13360203773482 -312.27411690956797 0 -312.27411690956797 -179.18579889612738 0 0 0 0 196.0124483598338 1278.9178644745552 0 1278.9178644745552 -570.21223287977045 0 0 0 0 -2812.8837017803016 870.36718571382517 0 870.36718571382517 382.26337543345289 0 0 0 0 -55.719673085997897 5.1560821513395467 0 5.1560821513395467 -28.488696370721186 0 0 0 0 -804.27509939367883 -43.142139069939731 0 -43.142139069939731 -433.14073140127584 0 0 0 0 29.692313277162611 -1014.3047451752645 0 -1014.3047451752645 619.57955398086051 0 0 0 0 238.07869360453333 1312.0314335464209 0 1312.0314335464209 -460.68609671588638 0 0 0 0 652.68952667195117 526.71767317823833 0 526.71767317823833 228.47552283393452 0 0 0 0 3206.3089972107809 554.79508706731576 0 554.79508706731576 -227.14527362669469 0 0 0 0 2314.4499951639737 1096.046316637221 0 1096.046316637221 494.12271460564807 0 0 0 0 -2.2599480381665131 4.5462430065341835 0 4.5462430065341835 -4.6292598237246239 0 0 0 0 898.230339617352 759.75377926260262 0 759.75377926260262 186.35121755310684 0 0 0 0 639.53327957255169 402.93334203797713 0 402.93334203797713 -214.7479233105696 0 0 0 0 920.19280905267806 213.46364926252863 0 213.46364926252863 237.96170377127874 0 0 0 0 1052.3496360495919 697.00302180643484 0 697.00302180643484 -78.444157890422503 0 0 0 0 1210.5646249937417 966.4978708132985 0 966.4978708132985 258.5922265619738 0 0 0 0 1715.5810404217191 -28.50880450605473 0 -28.50880450605473 29.072774873267917 0 0 0 0 17.40077447212326 2.0170469966367648 0 2.0170469966367648 1.4407856768862359 0 0 0 0 809.65125028564944 -195.57424730088678 0 -195.57424730088678 -86.75465237042954 0 0 0 0 302.84338243414823 605.37704020742967 0 605.37704020742967 1034.804883781806 0 0 0 0 33.156189968285616 7.9640395564965729 0 7.9640395564965729 26.87393031528336 0 0 0 0 147.66201519037713 58.231572568591218 0 58.231572568591218 -27.190785333135864 0 0 0 0 -22.081846494038473 28.90077365313482 0 28.90077365313482 44.492187459138222 0 0 0 0 -22.081846494053025 28.900773653222132 0 28.900773653222132 44.492187458861736 0 0 0 0 -22.081846494023921 28.900773653091164 0 28.900773653091164 44.49218745881808 0 0 0 0 -23.969239280791953 41.483847175477422 0 41.483847175477422 -35.053539530199487 0 0 0 0 22.734299151791191 19.994386133211208 0 19.994386133211208 11.823248454961004 0 0 0 0 172.04366010693775 63.582901645713719 0 63.582901645713719 -25.001798004341254 0 0 0 0 -835.48713420356216 1056.1963761692496 0 1056.1963761692496 -850.4500873664947 0 0 0 0 211.1861850251953 270.86289145746559 0 270.86289145746559 283.63506071157462 0 0 0 0 -0.94035255927008166 -0.3021608547296637 0 -0.3021608547296637 -13.94951638780087 0 0 0 0 88.03935050938162 7.1941526444861665 0 7.1941526444861665 -130.9243535616115 0 0 0 0 19.477406023812364 3.9362773961620405 0 3.9362773961620405 -77.53158954011451 0 0 0 0 397.88600668291474 192.10068950048299 0 192.10068950048299 -62.388888107001549 0 0 0 0 3.8762368193137746 20.792997897479722 0 20.792997897479722 -86.204839702087611 0 0 0 0 938.26903963803488 1034.1321065192387 0 1034.1321065192387 618.74080200451135 0 0 0 0 23.114372807496693 39.246879582089605 0 39.246879582089605 -27.974913329162518 0 0 0 0 3.4402955941006752 33.050311348961799 0 33.050311348961799 -16.466248325779418 0 0 0 0 46.388725257656915 13.178509753215621 0 13.178509753215621 -41.785026964673307 0 0 0 0 45.371610106999242 9.7430537061940186 0 9.7430537061940186 -4.3232643462318379 0 0 0 0 -60.305170166364405 115.93974253610213 0 115.93974253610213 -1.1523863824259024 0 0 0 0 -0.13197201804723591 110.64236552055809 0 110.64236552055809 -113.09323175049212 0 0 0 0 -69.640055790805491 89.475362985467655 0 89.475362985467655 46.970869215918356 0 0 0 0 1.3321763533458579 -153.23818050271075 0 -153.23818050271075 119.74314024190244 0 0 0 0 686.16618954348087 43.489792554133601 0 43.489792554133601 -122.5312818850507 0 0 0 0 1734.6286587643699 330.62016280089301 0 330.62016280089301 -191.6485561459267 0 0 0 0 616.01340766900103 172.27992905037536 0 172.27992905037536 -76.407519383421459 0 0 0 0 519.28611465492577 190.25382689699472 0 190.25382689699472 -17.954113364190562 0 0 0 0 768.9667332124518 193.72114580261405 0 193.72114580261405 -117.85553141408309 0 0 0 0 88.628094486513874 26.637251430613105 0 26.637251430613105 -63.58632008524728 0 0 0 0 323.38384107280581 -96.219210296287201 0 -96.219210296287201 -126.39406777013255 0 0 0 0 294.02386601333274 20.900403650557564 0 20.900403650557564 -116.3907891735289 0 0 0 0 149.76097110888804 -46.855666220828425 0 -46.855666220828425 -50.003732184753972 0 0 0 0 241.25290243679774 94.756872100657347 0 94.756872100657347 -61.632909569714684 0 0 0 0 489.08736396959284 73.158468989146058 0 73.158468989146058 -98.410960260538559 0 0 0 0 251.54294104671862 96.952642408170504 0 96.952642408170504 -264.4975559519371 0 0 0 0 313.79122556575749 57.09733406137093 0 57.09733406137093 -132.69337918447854 0 0 0 0 199.90175732127682 146.17891907686135 0 146.17891907686135 -196.06728345739248 0 0 0 0 175.47582405994763 22.62794504284102 0 22.62794504284102 -114.69617434529573 0 0 0 0 148.02186521903786 60.103374845391954 0 60.103374845391954 -162.35539158267784 0 0 0 0 910.55248463206226 391.17238778656247 0 391.17238778656247 1232.9789692930062 0 0 0 0 115.68262739802594 3.3453972843490192 0 3.3453972843490192 -76.554706692433683 0 0 0 0 150.96737515266432 28.075882334509515 0 28.075882334509515 -75.247595193010056 0 0 0 0 3254.3897722064867 1452.0362961675855 0 1452.0362961675855 -431.90730266428727 0 0 0 0 -0.41345613642494072 11.179917923174997 0 11.179917923174997 -85.664237605495657 0 0 0 0 108.49014884079952 23.470634345336293 0 23.470634345336293 -95.139170162437949 0 0 0 0 1687.882276613469 1661.7830809210136 0 1661.7830809210136 514.52807526156539 0 0 0 0 2208.5135503845668 1153.3422314182972 0 1153.3422314182972 -42.06776098916589 0 0 0 0 2216.3969609686537 2225.8006627319701 0 2225.8006627319701 3707.9288818406931 0 0 0 0 2777.0039525262255 3900.1225793213453 0 3900.1225793213453 1886.6125592081808 0 0 0 0 2579.6548562741082 1633.2061707525863 0 1633.2061707525863 1355.4021260923619 0 0 0 0 14.778896735576254 22.671009938514914 0 22.671009938514914 -92.332927104784574 0 0 0 0 140.82915903271351 85.527712046336092 0 85.527712046336092 -159.18597864615731 0 0 0 0 4563.4876224378386 4263.0286044724817 0 4263.0286044724817 4436.8870893000421 0 0 0 0 -1431.6102439185488 23.688337309074996 0 23.688337309074996 8876.2804526174295 0 0 0 0 25.683259887733925 9.8261497402920526 0 9.8261497402920526 -21.57398946198559 0 0 0 0 8649.5452785849338 1131.8633080525469 0 1131.8633080525469 -1649.2856363415194 0 0 0 0 2388.9813740313766 4111.3750221795162 0 4111.3750221795162 2685.8428831179044 0 0 0 0 3280.5662982839858 818.17988636651717 0 818.17988636651717 -2018.2706652713459 0 0 0 0 3153.3573118107888 702.41301031865441 0 702.41301031865441 5236.4754387372486 0 0 0 0 3992.6448689794124 5310.4907816095365 0 5310.4907816095365 3176.1673653713951 0 0 0 0 6462.9932924787572 1983.52904312584 0 1983.52904312584 744.16184416768374 0 0 0 0 3157.3351606164215 20.093841251982667 0 20.093841251982667 338.67475458809167 0 0 0 0 3919.236449101707 1388.4767894562774 0 1388.4767894562774 1619.0628872317902 0 0 0 0 1873.0783314347063 1188.1631697366174 0 1188.1631697366174 689.80635023408104 0 0 0 0 1218.0280834407458 1402.1637523918107 0 1402.1637523918107 1847.4200630114792 0 0 0 0 1437.2322181061027 892.99538948854024 0 892.99538948854024 1742.1483602589469 0 0 0 0 798.19028743900708 1430.3367119580871 0 1430.3367119580871 2402.2024332795772 0 0 0 0 -912.64648549766571 650.56460942605918 0 650.56460942605918 2482.1636816537139 0 0 0 0 743.71552082995186 1545.5243954491743 0 1545.5243954491743 2767.9101226463099 0 0 0 0 -255.23090293143468 1132.2485107740395 0 1132.2485107740395 370.9274975174776 0 0 0 0 -431.5305928257585 199.91650961000414 0 199.91650961000414 2761.3604233013116 0 0 0 0 81.401422313538376 92.400151878286465 0 92.400151878286465 49.239200379347125 0 0 0 0 597.7809152345726 1488.7353102653942 0 1488.7353102653942 3515.2418428567253 0 0 0 0 110.98077039384953 74.126260037446627 0 74.126260037446627 -138.10016670668847 0 0 0 0 143.97698608374048 87.321125476053567 0 87.321125476053567 -174.3238264933243 0 0 0 0 161.45642385130304 210.33021431911493 0 210.33021431911493 -330.02624929025478 0 0 0 0 135.79541672970066 113.90382594666642 0 113.90382594666642 60.396438631468527 0 0 0 0 502.38833888410591 94.506527166733576 0 94.506527166733576 -493.64395370332932 0 0 0 0 510.44660212300369 1789.9692690196462 0 1789.9692690196462 -1709.4893403500064 0 0 0 0 189.18123904037941 124.64804626777632 0 124.64804626777632 60.676085590008142 0 0 0 0 909.09211102928384 1397.528281232233 0 1397.528281232233 612.73458265301451 0 0 0 0 -784.19194458349375 888.16657215707528 0 888.16657215707528 1656.45710424961 0 0 0 0 -1053.7209717070909 1251.6560206231438 0 1251.6560206231438 3447.5976546271413 0 0 0 0 358.59665720029443 1990.440136141151 0 1990.440136141151 2319.3298141133491 0 0 0 0 1021.3782576627273 643.81618407363567 0 643.81618407363567 1281.765550168675 0 0 0 0 1395.2613738843356 2578.6929649261401 0 2578.6929649261401 769.91454620925651 0 0 0 0 -0.58005719730194016 6.8595774060046608 0 6.8595774060046608 28.60107569344234 0 0 0 0 -2832.2732606367354 224.57084462544299 0 224.57084462544299 2890.9951399635356 0 0 0 0 756.53230242327845 2670.3101764285093 0 2670.3101764285093 2336.4987009704491 0 0 0 0 479.78150032719714 1640.321193281321 0 1640.321193281321 2984.1700017503317 0 0 0 0 614.06205763942853 544.56127505753102 0 544.56127505753102 2171.726411377691 0 0 0 0 814.62236586422659 1414.2993641257781 0 1414.2993641257781 1060.5076554926636 0 0 0 0 -26.826298692452838 802.24143816270589 0 802.24143816270589 1513.3270633981374 0 0 0 0 10.582818147964474 6.194044120842932 0 6.194044120842932 -2.9257486428340798 0 0 0 0 806.83820761891548 1130.8648654919816 0 1130.8648654919816 1559.1373973136651 0 0 0 0 654.2160761981504 1196.4720944559012 0 1196.4720944559012 1742.7035870081272 0 0 0 0 517.8159793127852 -43.402092091550003 0 -43.402092091550003 -2075.2556670653721 0 0 0 0 335.51112787963939 -326.29771473584697 0 -326.29771473584697 -1073.3034228240358 0 0 0 0 175.72464877477614 7.4822000429121545 0 7.4822000429121545 -1705.9549391769106 0 0 0 0 -362.42976311023813 971.30914341421158 0 971.30914341421158 -1819.0404362206318 0 0 0 0 -1257.0550214560499 -586.18842725910508 0 -586.18842725910508 1569.7930985506973 0 0 0 0 -500.7251242792845 1153.3170390248379 0 1153.3170390248379 -1925.8156011417159 0 0 0 0 247.67577114103187 483.9384614572773 0 483.9384614572773 -2319.0214108388318 0 0 0 0 145.57769624184584 281.35887848532002 0 281.35887848532002 -2664.1641965878953 0 0 0 0 140.88395396084525 63.014224877493689 0 63.014224877493689 -4224.2462886428693 0 0 0 0 51.0207094308862 2035.6347814328983 0 2035.6347814328983 -6134.1729924768442 0 0 0 0 -23.218767443904653 1647.4521592861274 0 1647.4521592861274 -2333.909298123297 0 0 0 0 210.9247102735244 -70.076581864334003 0 -70.076581864334003 -5040.1966170164524 0 0 0 0 2653.4590028214734 2086.587870671181 0 2086.587870671181 1309.1314624575607 0 0 0 0 25.325206314679633 49.381925934029482 0 49.381925934029482 21.211990227633777 0 0 0 0 5233.5000325293513 2257.0236148745462 0 2257.0236148745462 443.27433440371533 0 0 0 0 -21.763855951196547 30.817562310507668 0 30.817562310507668 29.705196124760619 0 0 0 0 2592.8154082915862 2381.2044111216383 0 2381.2044111216383 3474.4112772217923 0 0 0 0 3787.417691132694 1919.7889228661661 0 1919.7889228661661 621.77213712356752 0 0 0 0 -142.11759111493285 91.052755741290639 0 91.052755741290639 109.93224576406425 0 0 0 0 2075.246652451824 1743.8144217202716 0 1743.8144217202716 1126.2526024531689 0 0 0 0 2667.3408619421025 2378.4509523687993 0 2378.4509523687993 1159.8224615520448 0 0 0 0 651.87698403657123 363.18691068771295 0 363.18691068771295 33.858027016191045 0 0 0 0 1154.9235922676162 1865.2959329251607 0 1865.2959329251607 1994.1792243205273 0 0 0 0 2465.9530293594726 2443.8816006779089 0 2443.8816006779089 1223.5223042583384 0 0 0 0 1869.4205649136711 876.13801324512679 0 876.13801324512679 383.75248997390736 0 0 0 0 -229.94345867326774 314.80333011758921 0 314.80333011758921 165.94976315306849 0 0 0 0 -1538.1637949031719 667.84657232547761 0 667.84657232547761 367.11976775666699 0 0 0 0 -269.52766510262154 -507.61997532541864 0 -507.61997532541864 69.260382116866822 0 0 0 0 485.72529673339159 -206.41001383982075 0 -206.41001383982075 -30.3706807801791 0 0 0 0 33.011136466666358 517.86611641288619 0 517.86611641288619 311.97419968852773 0 0 0 0 61.11541680508526 250.11010558804992 0 250.11010558804992 178.06832343497081 0 0 0 0 159.29878393054241 275.09781817597104 0 275.09781817597104 98.698708591095055 0 0 0 0 212.86735424588221 140.15959634830153 0 140.15959634830153 56.705112427376662 0 0 0 0 102.38569871247455 276.8913213978667 0 276.8913213978667 -162.6052228059998 0 0 0 0 212.84682135017647 378.18162205177941 0 378.18162205177941 -281.00934966153 0 0 0 0 79.126085472758859 194.98963966286829 0 194.98963966286829 -160.90777230172534 0 0 0 0 360.81495685546543 260.74060230885516 0 260.74060230885516 -145.98698361046263 0 0 0 0 550.95689640071942 365.54035575785383 0 365.54035575785383 3.8482785969681572 0 0 0 0 317.36072581040207 224.65494631019828 0 224.65494631019828 -54.591161936026765 0 0 0 0 398.48856513694045 462.83751351010869 0 462.83751351010869 -64.342936362016189 0 0 0 0 55.987372021103511 587.93854759373062 0 587.93854759373062 34.97282347411965 0 0 0 0 754.45652296708431 505.62036382808583 0 505.62036382808583 44.557605344438343 0 0 0 0 196.16561840838403 1057.6161869755597 0 1057.6161869755597 337.4158733500808 0 0 0 0 996.65310229861643 404.32514137319231 0 404.32514137319231 272.24451621863409 0 0 0 0 1207.2477175847307 1016.1142707208492 0 1016.1142707208492 189.66015998208604 0 0 0 0 617.35352277134371 593.26151807059068 0 593.26151807059068 234.78080454602605 0 0 0 0 671.43183382341522 515.5096367559745 0 515.5096367559745 287.68738674669294 0 0 0 0 668.05168254917953 526.96173526431085 0 526.96173526431085 545.44791257593897 0 0 0 0 581.57561050343793 371.02183705700736 0 371.02183705700736 34.356209386649425 0 0 0 0 420.37894982155558 297.83143477503472 0 297.83143477503472 90.539143478905316 0 0 0 0 604.28383324528113 521.70618234889116 0 521.70618234889116 306.16624882711039 0 0 0 0 539.40693878489765 303.50256545190496 0 303.50256545190496 132.2609042483964 0 0 0 0 786.5967903079345 546.68969535602264 0 546.68969535602264 172.48146498270216 0 0 0 0 1185.5870510204695 1135.1246815990016 0 1135.1246815990016 444.35293140588328 0 0 0 0 622.33931777303223 614.15723111435364 0 614.15723111435364 171.97505242275656 0 0 0 0 606.69282030018803 626.01665650835639 0 626.01665650835639 377.92589352995856 0 0 0 0 627.27664300664037 713.03764153974771 0 713.03764153974771 186.91664311781642 0 0 0 0 635.08653131252504 707.45091979968129 0 707.45091979968129 187.04175101558576 0 0 0 0 -708.96306080045724 -53.612119645566054 0 -53.612119645566054 -163.06157642338076 0 0 0 0 3241.4605132443248 3109.7722047225107 0 3109.7722047225107 -1081.1779291648418 0 0 0 0 -151.36147749021058 96.010508022806448 0 96.010508022806448 55.953342598971574 0 0 0 0 -1858.1052247453481 -376.54396958681173 0 -376.54396958681173 790.43653079320211 0 0 0 0 -914.35610081878258 0.74915744259487838 0 0.74915744259487838 -108.96400023589376 0 0 0 0 -16.595912436616572 18.166665847036057 0 18.166665847036057 -6.2829672045485836 0 0 0 0 722.24026783856971 580.38278481492307 0 580.38278481492307 283.5545853615622 0 0 0 0 795.19513443176402 696.17713305048528 0 696.17713305048528 408.63910799623409 0 0 0 0 278.97039002343081 642.06099928129697 0 642.06099928129697 320.28519896231592 0 0 0 0 -20.239109326773843 24.598967849771952 0 24.598967849771952 -12.060010801895658 0 0 0 0 429.42431242475868 -652.37483715492999 0 -652.37483715492999 -2701.3494187272372 0 0 0 0 3731.1478508182918 1809.3230436226513 0 1809.3230436226513 2192.2824448376778 0 0 0 0 -3.5841192172966885 5.4218713262998222 0 5.4218713262998222 -3.4732113482286024 0 0 0 0 -367.28491344531358 -54.91475916752097 0 -54.91475916752097 -603.46109999995679 0 0 0 0 104.64450942259282 -133.31791305745719 0 -133.31791305745719 -886.99885959942912 0 0 0 0 76.063259405229473 131.01329747377895 0 131.01329747377895 -555.53946461269516 0 0 0 0 -103.0678312258824 243.50551640734921 0 243.50551640734921 -625.52414610655978 0 0 0 0 -25.920942969202031 19.438045999083045 0 19.438045999083045 -17.028889982342633 0 0 0 0 1523.0516674717073 1133.5632918161209 0 1133.5632918161209 121.78742111905012 0 0 0 0 1396.8073007932544 -251.59273101278814 0 -251.59273101278814 128.76387772630551 0 0 0 0 1763.3467304156511 453.79158990773794 0 453.79158990773794 1261.9856728287123 0 0 0 0 -162.84362927745678 2536.858585710128 0 2536.858585710128 2416.5752278210712 0 0 0 0 -162.04659977919403 98.391291696304762 0 98.391291696304762 68.896844397558027 0 0 0 0 -1240.8827708072204 1021.1708178334229 0 1021.1708178334229 301.55425681893394 0 0 0 0 3160.1624325839803 2773.915044975889 0 2773.915044975889 1238.597131696908 0 0 0 0 -738.67408469275688 -1031.7816760507994 0 -1031.7816760507994 -669.23463434108999 0 0 0 0 -7.5060817529051036 7.4292023654497257 0 7.4292023654497257 -0.059772158733778724 0 0 0 0 -117.18342452197976 390.48560404996533 0 390.48560404996533 -342.37999768929876 0 0 0 0 36.340667885408948 82.41267141467101 0 82.41267141467101 74.37499707921512 0 0 0 0 -58.673668285318001 63.713836473375238 0 63.713836473375238 -0.16422460525416227 0 0 0 0 15.345414999552304 138.61472657379636 0 138.61472657379636 -253.53494818760373 0 0 0 0 3.0438640644424595 -461.37501848151442 0 -461.37501848151442 -50.632969981830684 0 0 0 0 -481.21886446839198 810.11268162966735 0 810.11268162966735 1009.2908048063691 0 0 0 0 -15.133548289486498 44.165650844999618 0 44.165650844999618 -364.60438619588967 0 0 0 0 285.6188542432792 46.812518302256649 0 46.812518302256649 -400.27622901502764 0 0 0 0 293.75999830248543 389.43384218156496 0 389.43384218156496 -360.22255922513432 0 0 0 0 2124.1211317265697 1682.7618542162545 0 1682.7618542162545 196.68884222049383 0 0 0 0 4416.9413485114201 1003.1475745968637 0 1003.1475745968637 -182.63511666262639 0 0 0 0 2534.0320007794071 297.40857326932019 0 297.40857326932019 -441.55043492331242 0 0 0 0 2630.6212597819977 1654.9348610444285 0 1654.9348610444285 34.95201197382994 0 0 0 0 1041.7138406482409 261.43860630321433 0 261.43860630321433 296.16962970477471 0 0 0 0 -33.502408793137874 389.47365550570976 0 389.47365550570976 459.25246085785329 0 0 0 0 -73.118966582973371 519.80457349729841 0 519.80457349729841 190.9364446188265 0 0 0 0 -272.33630305111001 332.00318088121458 0 332.00318088121458 636.75239257756039 0 0 0 0 -66.168187584066231 58.777713409306131 0 58.777713409306131 1.2169290491205942 0 0 0 0 -89.93886271622614 -13.889604881413106 0 -13.889604881413106 -86.44894494197797 0 0 0 0 853.33365203758876 377.91255451992402 0 377.91255451992402 15.276318041338527 0 0 0 0 1557.0965933290208 1266.2701118709556 0 1266.2701118709556 481.48865616686817 0 0 0 0 -26.514292319798756 9.7807126021930912 0 9.7807126021930912 -9.8311649352640984 0 0 0 0 629.01354628463014 -124.80516859551972 0 -124.80516859551972 -2891.7140991760971 0 0 0 0 136.76231865157024 694.1826585890085 0 694.1826585890085 -384.52142347409972 0 0 0 0 167.40914740762673 518.00131734831666 0 518.00131734831666 -914.58201516518238 0 0 0 0 -13.996584702952532 852.20318016671081 0 852.20318016671081 -387.6831745197851 0 0 0 0 -302.81546823668759 543.99672143387579 0 543.99672143387579 -713.58845267689321 0 0 0 0 -90.806108377117198 239.16225988535734 0 239.16225988535734 -1049.4328328337797 0 0 0 0 -173.63432332926459 455.63968369845315 0 455.63968369845315 -680.59873894623888 0 0 0 0 20.397414720409046 82.321048244955392 0 82.321048244955392 59.222798271717409 0 0 0 0 -833.68586067363503 436.48007876385236 0 436.48007876385236 319.15788885624352 0 0 0 0 606.11264084423601 -624.9638632363567 0 -624.9638632363567 294.47041398385772 0 0 0 0 1338.0812876821146 1269.5062361315795 0 1269.5062361315795 687.80094533317606 0 0 0 0 2897.6365323432838 1090.5864734824863 0 1090.5864734824863 178.78005147312069 0 0 0 0 4350.7184400826809 1185.8484732190263 0 1185.8484732190263 -405.20390251775098 0 0 0 0 2874.0437865733402 973.89275733242539 0 973.89275733242539 1732.7676680329896 0 0 0 0 2641.4215118341308 446.50305583129739 0 446.50305583129739 -697.55227246115101 0 0 0 0 2034.6837058292003 1582.6017125675135 0 1582.6017125675135 1310.1768089385878 0 0 0 0 2208.2525239171227 3335.223053378053 0 3335.223053378053 1596.3767840333021 0 0 0 0 22.748747896156999 25.173444099973764 0 25.173444099973764 21.390359353565486 0 0 0 0 -921.37733917963487 1357.0071885710786 0 1357.0071885710786 -239.37265871978889 0 0 0 0 4959.4382026038365 2796.0392665340478 0 2796.0392665340478 -1293.0294134842115 0 0 0 0 3240.0561191553497 6824.7553070540635 0 6824.7553070540635 -8834.9397226494038 0 0 0 0 -4766.7859438658925 5261.3732494190044 0 5261.3732494190044 1867.7604744080454 0 0 0 0 68.639768243010622 367.3662458613253 0 367.3662458613253 -524.29999724176014 0 0 0 0 3285.4874400835542 300.73641553294146 0 300.73641553294146 -710.95056784905319 0 0 0 0 549.52965648198733 1602.9830561030758 0 1602.9830561030758 -198.26436846704019 0 0 0 0 383.68038010197051 942.3274412741921 0 942.3274412741921 -183.30463985640381 0 0 0 0 -63.829197587794624 753.04090743460984 0 753.04090743460984 -261.74474680361163 0 0 0 0 17.890514555903508 9.7700573229204508 0 9.7700573229204508 -4.6457094511826043 0 0 0 0 746.79473390552448 443.10876809690672 0 443.10876809690672 -73.433685973228421 0 0 0 0 558.87228561908705 815.23928729540785 0 815.23928729540785 -121.49912414911523 0 0 0 0 -294.12205016995722 591.37315761174978 0 591.37315761174978 805.95936873186292 0 0 0 0 647.84784977979143 752.59759493761885 0 752.59759493761885 1835.4465723691537 0 0 0 0 712.30667494139925 1200.2548370611912 0 1200.2548370611912 563.93749049523467 0 0 0 0 936.17789158082451 1837.4497747488385 0 1837.4497747488385 1387.7193964054895 0 0 0 0 1093.3064742348506 924.07499198764708 0 924.07499198764708 -150.35120022513729 0 0 0 0 395.69236616083072 558.73276203379282 0 558.73276203379282 714.35245084688358 0 0 0 0 665.54757272531424 -96.639950542108636 0 -96.639950542108636 -1236.5189798472056 0 0 0 0 1178.5851422706837 162.71037790733317 0 162.71037790733317 137.35062776778796 0 0 0 0 7.7614831401081119 4.6284353142998214 0 4.6284353142998214 -1.5121134939721728 0 0 0 0 187.99934018644853 1474.2816777879525 0 1474.2816777879525 1778.324571021667 0 0 0 0 411.32241319127252 389.63967524482734 0 389.63967524482734 -221.47681843301689 0 0 0 0 1547.5840664604657 -592.88356294779624 0 -592.88356294779624 -1527.1482216161385 0 0 0 0 -309.5574315165286 788.66567894167383 0 788.66567894167383 -33.16792499690564 0 0 0 0 -1.3867151207741699 2355.9886839310748 0 2355.9886839310748 -2098.9793037216368 0 0 0 0 1868.5897463427973 648.26365946207807 0 648.26365946207807 687.35726320046524 0 0 0 0 3581.3103629855759 935.97232111242192 0 935.97232111242192 5.7680609749077121 0 0 0 0 1565.1759871551258 484.5184271953176 0 484.5184271953176 286.52399049946689 0 0 0 0 1634.0781145886431 398.93936467855019 0 398.93936467855019 135.89277515155845 0 0 0 0 1087.8891259248867 879.20246807024432 0 879.20246807024432 -63.876753199729137 0 0 0 0 1572.5910963748756 1282.6731359729783 0 1282.6731359729783 261.14195300743086 0 0 0 0 1545.3625072880386 1973.0913311991098 0 1973.0913311991098 -1713.5432260938805 0 0 0 0 2996.7070927582827 355.36053243834976 0 355.36053243834976 -1204.6816813527548 0 0 0 0 -5.9597606318223768 13.565439718816606 0 13.565439718816606 -15.621859469082779 0 0 0 0 -1193.1984222881074 551.03619477544453 0 551.03619477544453 234.54315892870363 0 0 0 0 5049.6514157674392 405.19190391210577 0 405.19190391210577 -257.26643965893891 0 0 0 0 -15.543989031690529 35.329101340892066 0 35.329101340892066 -40.072028423625568 0 0 0 0 676.38614144225721 631.72316585223962 0 631.72316585223962 217.2137865763525 0 0 0 0 914.39964866381342 817.72357815468058 0 817.72357815468058 494.81836318646674 0 0 0 0 1.493899379873826 1418.4132563553217 0 1418.4132563553217 1509.9836134822253 0 0 0 0 841.79581008551759 531.93821155802289 0 531.93821155802289 270.33994422040996 0 0 0 0 1722.1385182100348 -21.246998107075342 0 -21.246998107075342 3661.4312351786939 0 0 0 0 2561.8385762935141 1118.2160459059905 0 1118.2160459059905 -740.69913616676058 0 0 0 0 2233.1027389706578 4014.7647976020817 0 4014.7647976020817 -517.66119474764128 0 0 0 0 3663.6695516851614 3095.0761402447533 0 3095.0761402447533 178.51751949451136 0 0 0 0 3093.9142930787639 2017.2284346030865 0 2017.2284346030865 -475.7552395669627 0 0 0 0 3105.744097192277 2092.8465503390617 0 2092.8465503390617 -2487.2847972322852 0 0 0 0 1008.7775780398952 2362.8550014617413 0 2362.8550014617413 -201.57683379389346 0 0 0 0 617.40898277921951 408.97561510369997 0 408.97561510369997 636.08218783166376 0 0 0 0 3850.2784811406455 957.1417652839591 0 957.1417652839591 282.8665399476231 0 0 0 0 2309.7785051898682 1732.3339560044842 0 1732.3339560044842 942.6728391390352 0 0 0 0 -2.6589119480283614 17.553771316234304 0 17.553771316234304 -4.9552181703814426 0 0 0 0 5326.623533481441 2306.0391320953495 0 2306.0391320953495 -1041.4376276110415 0 0 0 0 4149.8352626120468 382.53571246963838 0 382.53571246963838 780.07214494232903 0 0 0 0 5279.8005310145672 2963.9404055952036 0 2963.9404055952036 -1005.3415267769888 0 0 0 0 3403.0474322979862 1402.8959946029208 0 1402.8959946029208 612.55198734591249 0 0 0 0 -24.358737295630164 44.754671836198725 0 44.754671836198725 -26.54188554932847 0 0 0 0 1983.9477717282934 1491.6720032632984 0 1491.6720032632984 868.69626473245444 0 0 0 0 1900.4831117193899 1204.2614918434811 0 1204.2614918434811 769.18711905862438 0 0 0 0 3818.4420887226588 1000.8576902556451 0 1000.8576902556451 986.40664684986405 0 0 0 0 -23.569001036109682 37.629370700750599 0 37.629370700750599 8.6927901109939398 0 0 0 0 -8.2881230896428235 26.249403510084164 0 26.249403510084164 -8.4122170767104194 0 0 0 0 3241.8364382094587 2302.5960346203065 0 2302.5960346203065 397.22478569915984 0 0 0 0 2531.3789907584433 1763.0732384687435 0 1763.0732384687435 315.95577059191419 0 0 0 0 1639.4919213803951 1003.7822286610462 0 1003.7822286610462 1073.1210444825701 0 0 0 0 2436.2280280453269 1851.0880758164712 0 1851.0880758164712 1962.8405706190151 0 0 0 0 3016.5719457436353 740.4864463328413 0 740.4864463328413 2083.7182384185144 0 0 0 0 2931.485111006361 2307.0911904768291 0 2307.0911904768291 997.23284891544608 0 0 0 0 2405.2959258485062 2008.8687084534467 0 2008.8687084534467 452.88161957018747 0 0 0 0 3094.6031152430805 2882.2452316795825 0 2882.2452316795825 -3035.3131385380402 0 0 0 0 2607.2709046612435 1831.8018766255627 0 1831.8018766255627 327.65869894737261 0 0 0 0 3234.2422762465139 1999.2070010688913 0 1999.2070010688913 -265.99108895154495 0 0 0 0 2759.6063454975665 1503.99545569162 0 1503.99545569162 -779.24085717997514 0 0 0 0 2177.0361161200235 1607.7231025938086 0 1607.7231025938086 811.52908629836747 0 0 0 0 2169.198970147816 1497.8890403519472 0 1497.8890403519472 751.467641437368 0 0 0 0 2540.8395427387441 1170.2983287447714 0 1170.2983287447714 428.05577733792597 0 0 0 0 3551.7910957772692 1602.9953271904378 0 1602.9953271904378 615.69007867097389 0 0 0 0 2654.9756957662466 1867.8375519926049 0 1867.8375519926049 1011.9256908168318 0 0 0 0 3199.5316552692093 1314.8227553764591 0 1314.8227553764591 381.51869405165053 0 0 0 0 1785.9125910211369 1650.6105691307421 0 1650.6105691307421 1331.5163467538805 0 0 0 0 1.586896261345828 436.44552565400772 0 436.44552565400772 4132.358542329559 0 0 0 0 38.574278349988163 6.8398489127794164 0 6.8398489127794164 27.733958812721539 0 0 0 0 -166.92669358034618 -745.12175492733513 0 -745.12175492733513 6355.3951027993335 0 0 0 0 596.21527893544408 2590.0944188984904 0 2590.0944188984904 4313.1632408698442 0 0 0 0 9.5074598782837825 12.257507507375408 0 12.257507507375408 13.89137341322828 0 0 0 0 -186.28026393122855 -30.594273949088347 0 -30.594273949088347 1599.5152253984998 0 0 0 0 -254.48192868132901 347.4781408666986 0 347.4781408666986 2993.7134182480549 0 0 0 0 347.07343913594377 849.24789687949669 0 849.24789687949669 1370.6242638391504 0 0 0 0 -11.819231896195561 1829.3253422384951 0 1829.3253422384951 2579.7895356278896 0 0 0 0 -18.35015456637484 1629.9481954280673 0 1629.9481954280673 3055.3672931737838 0 0 0 0 214.19926432595821 1542.2188691562114 0 1542.2188691562114 2543.9889852712186 0 0 0 0 -96.470341598269442 1671.2846930601227 0 1671.2846930601227 3624.3266091708138 0 0 0 0 1.5102016823511804 2377.1258960093328 0 2377.1258960093328 2470.400843762247 0 0 0 0 331.37744075713272 2342.5974962846885 0 2342.5974962846885 1450.6096916644601 0 0 0 0 497.70061574768624 1841.9925817855601 0 1841.9925817855601 1006.8598900671404 0 0 0 0 -184.08758018429944 2668.3960777027637 0 2668.3960777027637 296.52699266183481 0 0 0 0 730.85620936952182 1382.5479675362039 0 1382.5479675362039 278.04425384134447 0 0 0 0 513.9747211604481 2070.5937427090348 0 2070.5937427090348 1277.00238609589 0 0 0 0 555.23449620215979 1760.5585363753671 0 1760.5585363753671 1597.9096862237311 0 0 0 0 215.1285084853007 1902.8554987154748 0 1902.8554987154748 2598.4857903229458 0 0 0 0 234.14750227815421 1940.8005434697443 0 1940.8005434697443 1967.0096825615619 0 0 0 0 496.99366362560249 1900.691411045198 0 1900.691411045198 1582.3106121561195 0 0 0 0 744.12343083288579 2143.4949094323674 0 2143.4949094323674 1819.4982013187328 0 0 0 0 502.50186547158228 1402.4284645478729 0 1402.4284645478729 1821.6852400151474 0 0 0 0 745.27039376118773 1507.7675603846892 0 1507.7675603846892 1364.4984540643709 0 0 0 0 1111.2083759898378 1797.1340912679043 0 1797.1340912679043 1540.0046076258923 0 0 0 0 885.28411825551302 1648.0984855589595 0 1648.0984855589595 3444.3121779326175 0 0 0 0 3482.8830901101319 3162.029342157115 0 3162.029342157115 1975.2997535686882 0 0 0 0 1464.4756488756611 1748.3512927669781 0 1748.3512927669781 1048.7154712603442 0 0 0 0 412.57810395801789 1446.5320819252611 0 1446.5320819252611 1162.0547564840599 0 0 0 0 -5.2370809900708224 -1.5202751707780635 0 -1.5202751707780635 95.155663615778337 0 0 0 0 -38.135392100157333 1910.2584498629731 0 1910.2584498629731 685.27037350703176 0 0 0 0 785.62431894359179 393.31407844639762 0 393.31407844639762 -1395.2775491753418 0 0 0 0 -2894.7402591116843 -1569.0768208558984 0 -1569.0768208558984 3192.2477149507686 0 0 0 0 -1043.5375080923768 16.437600452331026 0 16.437600452331026 372.03749895950023 0 0 0 0 -5.9287261919709096 -9.2403830997555474 0 -9.2403830997555474 113.10627266437476 0 0 0 0 14.301013298257487 -13.069379122230998 0 -13.069379122230998 16.636898857321967 0 0 0 0 770.97195286656279 439.96118758264492 0 439.96118758264492 2119.3886446864708 0 0 0 0 1004.1628410541889 1623.9979733926702 0 1623.9979733926702 861.03111676951812 0 0 0 0 236.16017973653834 1439.8385381243488 0 1439.8385381243488 2093.8685237135651 0 0 0 0 1002.2650079376908 1500.7331777928921 0 1500.7331777928921 1801.6818024939566 0 0 0 0 823.93319120715023 1210.9652904723553 0 1210.9652904723553 2082.978120386826 0 0 0 0 748.85766502935439 1743.1199187055099 0 1743.1199187055099 2824.4924409998639 0 0 0 0 345.90221452915739 875.86740918561372 0 875.86740918561372 1963.9548618648405 0 0 0 0 50.209488378444405 -47.701952118210841 0 -47.701952118210841 45.576775662315157 0 0 0 0 49.860990417306311 85.554410984997958 0 85.554410984997958 30.210733508589328 0 0 0 0 50.917968190959073 -586.27095363294575 0 -586.27095363294575 -700.41694146133523 0 0 0 0 -1363.6913217329711 -35.86886817836421 0 -35.86886817836421 -273.17766436279635 0 0 0 0 -2368.6776847787405 -858.76775961103704 0 -858.76775961103704 107.70783710909745 0 0 0 0 -155.6181135933075 304.1850514476173 0 304.1850514476173 402.15034488769015 0 0 0 0 47.120089411415393 490.43191564148583 0 490.43191564148583 314.49851191611378 0 0 0 0 -1.9475404454487659 -11.446021809406432 0 -11.446021809406432 84.236158324553116 0 0 0 0 -1303.8420887059328 -976.91892670581001 0 -976.91892670581001 -354.34565739949903 0 0 0 0 -1437.5964562088338 443.66903935507071 0 443.66903935507071 -312.5070928355708 0 0 0 0 -220.86800413325545 143.25517725525424 0 143.25517725525424 86.011412505467888 0 0 0 0 -342.17888272416894 597.94163981876045 0 597.94163981876045 667.26812155696098 0 0 0 0 -128.28487470878463 618.03832388962473 0 618.03832388962473 576.33706597103446 0 0 0 0 188.95961666926451 665.63578885190873 0 665.63578885190873 576.01591413708229 0 0 0 0 133.40056211527553 747.75298819135787 0 747.75298819135787 493.31934606700815 0 0 0 0 1695.2012172781542 737.68607974892075 0 737.68607974892075 123.90358089430083 0 0 0 0 -0.57922073219329206 -3.4411499103619292 0 -3.4411499103619292 7.6586403100989742 0 0 0 0 -664.95296998768754 344.59600405361562 0 344.59600405361562 327.14697404457547 0 0 0 0 884.07907226009002 888.78136424543436 0 888.78136424543436 335.16106637028861 0 0 0 0 113.96688429405913 830.33872329595033 0 830.33872329595033 620.31615715335647 0 0 0 0 893.86502360510349 710.10614925514528 0 710.10614925514528 549.86832663490895 0 0 0 0 571.71973019387224 1099.631680778788 0 1099.631680778788 699.96789610999986 0 0 0 0 86.596430180929019 944.01110233321378 0 944.01110233321378 708.44326532912964 0 0 0 0 666.87132917589042 1626.5107073212384 0 1626.5107073212384 1411.8731459728879 0 0 0 0 1825.3012915190338 597.95589032413773 0 597.95589032413773 556.59011238480161 0 0 0 0 -160.00397696841537 520.146880219796 0 520.146880219796 570.80477818967483 0 0 0 0 -869.70023320135078 109.88170377753704 0 109.88170377753704 419.33915781610995 0 0 0 0 -315.04692545774742 569.13073792313298 0 569.13073792313298 650.1843553117651 0 0 0 0 -9.9722212896049314 407.52327798865554 0 407.52327798865554 350.21521694744297 0 0 0 0 -564.80254629999399 190.49717348908598 0 190.49717348908598 80.364544444688363 0 0 0 0 -615.48037276722607 508.71020224374661 0 508.71020224374661 552.88075475300138 0 0 0 0 -747.44222027694923 -178.67497826686304 0 -178.67497826686304 -75.171762351397774 0 0 0 0 -1640.3376346486766 -335.06293757794629 0 -335.06293757794629 363.40359853053087 0 0 0 0 -914.17145219277882 103.81577379350711 0 103.81577379350711 55.566817859711591 0 0 0 0 -755.89552725190879 -269.45611042184464 0 -269.45611042184464 645.77544654200028 0 0 0 0 -551.23704643244855 -238.02440578555252 0 -238.02440578555252 -11.310233957396122 0 0 0 0 0.36499527213194938 0.074530260967549111 0 0.074530260967549111 34.900815970851397 0 0 0 0 -1515.3341151720924 -675.35842600453179 0 -675.35842600453179 1116.0312489111675 0 0 0 0 -18.082017540640663 2038.3268612349748 0 2038.3268612349748 2994.0163376562632 0 0 0 0 1675.8142729940737 2564.4727112589999 0 2564.4727112589999 1188.2990814266086 0 0 0 0 1950.4278530941083 1216.726601515471 0 1216.726601515471 1741.0884321015037 0 0 0 0 -240.08440818281088 -150.65710209795725 0 -150.65710209795725 253.99079814970173 0 0 0 0 -398.0865341437966 74.695065628165139 0 74.695065628165139 7.3424588765192311 0 0 0 0 -2004.7678931857954 553.03929836409225 0 553.03929836409225 791.0503867788284 0 0 0 0 0.79627295009220234 15.115112757122802 0 15.115112757122802 50.34722461336105 0 0 0 0 -873.74453083780645 1664.8629026993949 0 1664.8629026993949 330.10158349095582 0 0 0 0 -549.48681569789869 -292.22563923785526 0 -292.22563923785526 -23.485489928891184 0 0 0 0 -650.69432555037201 -396.8732337121437 0 -396.8732337121437 121.73475664302532 0 0 0 0 0.5306103224604044 5.0147071037363276 0 5.0147071037363276 23.193643412088193 0 0 0 0 -1377.1508297524852 88.350699566897674 0 88.350699566897674 1549.1257551560207 0 0 0 0 1936.4006981298226 1856.2610560088287 0 1856.2610560088287 127.57477331341943 0 0 0 0 1616.8138894543517 1193.8563923162365 0 1193.8563923162365 -392.07600505022856 0 0 0 0 1145.6413284536393 1416.6260202107005 0 1416.6260202107005 1279.1750086238389 0 0 0 0 628.60321272451256 643.20706943877303 0 643.20706943877303 220.94058652679314 0 0 0 0 1695.4327475373066 971.52253981388822 0 971.52253981388822 236.67323499025224 0 0 0 0 1360.6736750829441 646.68679222197534 0 646.68679222197534 -134.1231497634908 0 0 0 0 1538.6908459595506 940.11119285233144 0 940.11119285233144 297.50968622151413 0 0 0 0 -801.33059379470069 1215.66520252193 0 1215.66520252193 1207.8421989496892 0 0 0 0 -1186.8939286415989 -904.38003544651292 0 -904.38003544651292 629.51239123840219 0 0 0 0 4526.0170534942299 1556.5326670349787 0 1556.5326670349787 261.38274094228836 0 0 0 0 2.5357800616104065 3.1442246283223199 0 3.1442246283223199 21.806645287344452 0 0 0 0 -2457.7412682039921 134.17744237837815 0 134.17744237837815 699.69380822899984 0 0 0 0 2.3665264534157018 20.654126474760716 0 20.654126474760716 54.245409940332024 0 0 0 0 2189.498651161106 1122.2398815066626 0 1122.2398815066626 101.62777489107248 0 0 0 0 3.2578684444519261 29.365961304789892 0 29.365961304789892 67.923176305479103 0 0 0 0 -226.77714178292081 764.72453526401659 0 764.72453526401659 -237.60151678105467 0 0 0 0 -1379.2495760576612 590.49114309699144 0 590.49114309699144 110.70712090632878 0 0 0 0 -359.21120077474916 307.90016713582008 0 307.90016713582008 -119.77037830933114 0 0 0 0 -1.680483352223451 39.365897771920572 0 39.365897771920572 66.918051807356619 0 0 0 0 -454.81454880513502 321.14121028905174 0 321.14121028905174 -39.796009807003429 0 0 0 0 -87.422070177490241 62.83754734541435 0 62.83754734541435 128.98583633721864 0 0 0 0 370.50164368307742 572.0570562663147 0 572.0570562663147 568.76197149018117 0 0 0 0 147.95650812283566 -31.644488657999318 0 -31.644488657999318 89.50881000602385 0 0 0 0 786.58957934982027 334.86160383989773 0 334.86160383989773 1111.2301946310399 0 0 0 0 647.07822010814562 901.54016559028969 0 901.54016559028969 491.67698610654406 0 0 0 0 1063.6152165567692 663.32252075897486 0 663.32252075897486 153.08784066422959 0 0 0 0 375.4020437917643 669.89163174667192 0 669.89163174667192 861.99909969653527 0 0 0 0 743.5388160040311 -10.825673664017813 0 -10.825673664017813 -164.45642168931954 0 0 0 0 2.2238801727063446 1.0837204667328066 0 1.0837204667328066 1.4226408594100803 0 0 0 0 -18.131365782784997 -61.700171427612077 0 -61.700171427612077 110.50149096858513 0 0 0 0 394.59635593173152 48.69598336150375 0 48.69598336150375 -47.589116317671142 0 0 0 0 329.31171095647005 231.6169690488623 0 231.6169690488623 -9.9439154858409893 0 0 0 0 287.57215458404971 224.05192941325367 0 224.05192941325367 63.360693675658695 0 0 0 0 102.28956550519797 210.65448602273682 0 210.65448602273682 12.184874608785321 0 0 0 0 151.19213360539288 38.379809673831915 0 38.379809673831915 -77.204113615414826 0 0 0 0 81.499621312628733 49.602423134070705 0 49.602423134070705 -22.378992175894382 0 0 0 0 32.33911443411489 42.926382957681199 0 42.926382957681199 -42.424850559156766 0 0 0 0 89.228777723881649 35.382628709799974 0 35.382628709799974 -41.536411813867744 0 0 0 0 -40.67061074837693 31.764893961502821 0 31.764893961502821 34.083833100448828 0 0 0 0 -33.032550290052313 76.686553681778605 0 76.686553681778605 -40.318942623287512 0 0 0 0 -78.9931775321229 124.60161728885896 0 124.60161728885896 -86.726494514325168 0 0 0 0 -141.33336327182769 78.084841651711031 0 78.084841651711031 -39.789069105936505 0 0 0 0 -56.96581651084125 73.541193901502993 0 73.541193901502993 -48.626642889052164 0 0 0 0 4.6058575815222156 56.442626723659032 0 56.442626723659032 -41.545328413510674 0 0 0 0 -49.783899965979003 48.407904385911635 0 48.407904385911635 61.317321178139991 0 0 0 0 -283.06547894878167 229.34530415833433 0 229.34530415833433 -42.614651140480419 0 0 0 0 -45.321386066847481 124.04705988575006 0 124.04705988575006 -68.368903818103718 0 0 0 0 -13.572171922802397 14.319395709555778 0 14.319395709555778 9.506880610809759 0 0 0 0 -56.696918736566658 79.926557665141445 0 79.926557665141445 -5.8156793937087059 0 0 0 0 -77.475917897081672 118.2006716781616 0 118.2006716781616 23.871449814003427 0 0 0 0 47.43371591498726 73.884792134216696 0 73.884792134216696 -110.45311911903264 0 0 0 0 22.661089675704716 105.44549104232283 0 105.44549104232283 22.807569755228542 0 0 0 0 21.600255035732744 76.766505813607012 0 76.766505813607012 -21.665752462264074 0 0 0 0 -5.9537587385275401 109.43493166080589 0 109.43493166080589 -39.665434300648485 0 0 0 0 -3.6265344245120765 73.224910911870694 0 73.224910911870694 21.794626663284021 0 0 0 0 -18.788935725593802 66.495809217219772 0 66.495809217219772 4.2065332566410234 0 0 0 0 -24.000242045703885 102.98514755676064 0 102.98514755676064 3.0669411391866461 0 0 0 0 -42.766929539531702 97.243661777742091 0 97.243661777742091 -21.532531513144932 0 0 0 0 24.634795483740653 50.988166634582285 0 50.988166634582285 -58.672172877177047 0 0 0 0 13.536682765810752 44.911117250164381 0 44.911117250164381 -30.784760055231686 0 0 0 0 7.6498903637775584 81.724129314588936 0 81.724129314588936 -68.313366241112817 0 0 0 0 -36.699360698170494 53.782352108988562 0 53.782352108988562 -3.8702034717025526 0 0 0 0 9.9522370374616003 53.308388867895701 0 53.308388867895701 -4.9709263913100585 0 0 0 0 29.246622190825292 52.33101921591151 0 52.33101921591151 -69.484517651377246 0 0 0 0 -31.950506142657105 78.347736718562373 0 78.347736718562373 -63.84669397964899 0 0 0 0 -21.774342062372966 6.9879440168874538 0 6.9879440168874538 -0.4820979543909516 0 0 0 0 103.45495195518015 76.563883791881381 0 76.563883791881381 -107.54485598149768 0 0 0 0 20.301616726021166 91.633751156856306 0 91.633751156856306 -102.22633235019021 0 0 0 0 11.027446395590232 74.783836676971021 0 74.783836676971021 -17.37708703685233 0 0 0 0 21.821521063749969 110.91084274143941 0 110.91084274143941 -42.592059073736891 0 0 0 0 8.8952427495678421 85.334210132663429 0 85.334210132663429 -2.6876925324104377 0 0 0 0 38.016220352423261 92.080450333221961 0 92.080450333221961 -3.2004230143502355 0 0 0 0 46.693983660181402 88.510436297387059 0 88.510436297387059 -47.638295596661919 0 0 0 0 15.920744155955617 101.26942097521169 0 101.26942097521169 28.208882568244007 0 0 0 0 46.761257524551183 92.203590585159873 0 92.203590585159873 -47.545487272822356 0 0 0 0 37.61730783403749 86.880686221521913 0 86.880686221521913 -6.6032016075034434 0 0 0 0 42.328854545921786 115.62084864370263 0 115.62084864370263 -14.623699944684631 0 0 0 0 22.341646308203053 108.83382757381332 0 108.83382757381332 -19.885999996164173 0 0 0 0 46.51091623789398 134.76811245024874 0 134.76811245024874 7.4555409524512015 0 0 0 0 24.534804640892219 93.137559319450475 0 93.137559319450475 6.9480407517929947 0 0 0 0 -47.276486154347367 174.61877527378601 0 174.61877527378601 -10.144137363487971 0 0 0 0 -17.129532127291895 109.30951776812435 0 109.30951776812435 4.9779828677492333 0 0 0 0 50.02012724080123 100.20818900020822 0 100.20818900020822 5.8054118390427902 0 0 0 0 23.852642673804596 78.476405948599194 0 78.476405948599194 7.3707105789835055 0 0 0 0 -4.0062839717720635 74.391374390717829 0 74.391374390717829 -2.8602861541585298 0 0 0 0 120.40299057883567 112.59391288361894 0 112.59391288361894 -18.318331453832798 0 0 0 0 -1.633355437004866 99.895300812946743 0 99.895300812946743 -10.230190104470239 0 0 0 0 102.12055394272102 120.31225769663683 0 120.31225769663683 -12.687182756119 0 0 0 0 -34.601525612852797 111.24440101978399 0 111.24440101978399 61.51695591086775 0 0 0 0 18.179178674996365 113.81333476717919 0 113.81333476717919 33.492076662369072 0 0 0 0 28.693345887824293 71.647922689184071 0 71.647922689184071 -36.560733364116999 0 0 0 0 45.870146479648611 145.14434706499765 0 145.14434706499765 -23.649058433591563 0 0 0 0 40.370729271808159 65.852451764735633 0 65.852451764735633 -12.632824875778169 0 0 0 0 79.857343225477962 162.91203446783038 0 162.91203446783038 -77.784950966492033 0 0 0 0 1.0490586537500661 169.5041482760877 0 169.5041482760877 9.8505176879316778 0 0 0 0 5.3635457351184641 105.95053420913939 0 105.95053420913939 -37.096666978495485 0 0 0 0 70.746864703268443 77.114252900492076 0 77.114252900492076 -87.924298539058668 0 0 0 0 56.837387492647395 108.90617572753399 0 108.90617572753399 47.263335838142666 0 0 0 0 34.493866494688632 78.048784952656376 0 78.048784952656376 -25.409132548834982 0 0 0 0 66.830082831147593 126.43752248858436 0 126.43752248858436 -59.298418822316307 0 0 0 0 65.736032317930949 118.63158379430752 0 118.63158379430752 -18.048121966145118 0 0 0 0 131.13262702542852 51.613104065334937 0 51.613104065334937 152.95584985103415 0 0 0 0 -1.415739831776591 41.478656298843816 0 41.478656298843816 -46.286059486041722 0 0 0 0 48.094489033023706 37.744286447180599 0 37.744286447180599 -36.043783446418175 0 0 0 0 72.931793609110173 60.111794369622658 0 60.111794369622658 -21.479463762170781 0 0 0 0 40.709045708662075 20.768111515796878 0 20.768111515796878 -53.292578878674114 0 0 0 0 147.18220078936429 103.96169729591384 0 103.96169729591384 22.658436208712374 0 0 0 0 49.35161335020932 95.398332877304654 0 95.398332877304654 -35.411555498301574 0 0 0 0 82.893286102291313 159.0878569382453 0 159.0878569382453 -37.889007521277563 0 0 0 0 57.452877860447188 175.87541041390023 0 175.87541041390023 -47.52484858936441 0 0 0 0 99.366213154976037 84.267837767732715 0 84.267837767732715 -41.445274868745862 0 0 0 0 57.599667801585667 70.153666094055879 0 70.153666094055879 -22.382267537393616 0 0 0 0 54.770791206829017 106.47187078490219 0 106.47187078490219 -42.845382588986922 0 0 0 0 45.967663626300237 114.20153352468385 0 114.20153352468385 -8.4686334640665422 0 0 0 0 33.857213543856076 91.410613787311007 0 91.410613787311007 -56.952036556251798 0 0 0 0 118.98643703868584 124.0144902711138 0 124.0144902711138 -80.576562896589166 0 0 0 0 331.47866182666621 -17.306002681861173 0 -17.306002681861173 7.548161103091843 0 0 0 0 151.44742145321652 -100.66268236685369 0 -100.66268236685369 30.643084799099597 0 0 0 0 111.73051456650137 5.7375836709170471 0 5.7375836709170471 64.205739287524921 0 0 0 0 -8.6057720389799215 -13.62867150315742 0 -13.62867150315742 132.23369821090819 0 0 0 0 -11.476384109613718 -123.6863797302467 0 -123.6863797302467 -71.703966101667902 0 0 0 0 -323.20203728735214 9.6289620304814889 0 9.6289620304814889 -49.058001095679856 0 0 0 0 -11.712346173234771 96.705032050003155 0 96.705032050003155 -79.332157196831162 0 0 0 0 330.88959675634396 25.536197028373863 0 25.536197028373863 -114.23262758218971 0 0 0 0 697.35940809054591 -23.895579505576279 0 -23.895579505576279 -251.99413860420736 0 0 0 0 25.966264434464755 72.559606179366199 0 72.559606179366199 -72.118779206107348 0 0 0 0 -2205.6879693400479 2596.4949935091777 0 2596.4949935091777 -892.46999472090465 0 0 0 0 -3176.3173085327726 1496.4833001557877 0 1496.4833001557877 -251.20847590546327 0 0 0 0 1011.0889773035306 203.59499996073373 0 203.59499996073373 -571.04471481899418 0 0 0 0 202.57763026893372 -10.852357391472651 0 -10.852357391472651 271.82760750318812 0 0 0 0 13.591112755010272 9.4772554730073466 0 9.4772554730073466 -20.273096374559593 0 0 0 0 526.21404274489032 947.14569369159653 0 947.14569369159653 -1166.3034555844788 0 0 0 0 -564.5281929516932 500.04231701765184 0 500.04231701765184 -544.55260209553671 0 0 0 0 -194.39295334450435 58.159676392499023 0 58.159676392499023 -101.81221199527909 0 0 0 0 -283.2415751319204 32.229882220793115 0 32.229882220793115 175.72275249642553 0 0 0 0 28.908903777366504 237.86250736104012 0 237.86250736104012 -73.974119992586111 0 0 0 0 27.885750359593658 258.2861085806253 0 258.2861085806253 348.41030182055511 0 0 0 0 129.24836400654749 118.69819161978558 0 118.69819161978558 170.88718246745429 0 0 0 0 52.608771889391278 24.859832556500237 0 24.859832556500237 -42.335321552537295 0 0 0 0 13.875608917759195 50.173780579368554 0 50.173780579368554 37.703258954803445 0 0 0 0 54.450241391154123 115.79780340675848 0 115.79780340675848 6.6590916795848898 0 0 0 0 -120.34864545353048 169.7827784124471 0 169.7827784124471 -176.27912210900467 0 0 0 0 -1885.2256000421476 -175.61418701452931 0 -175.61418701452931 -887.55656789144268 0 0 0 0 15.945198807650172 11.615878680021922 0 11.615878680021922 -7.6075548907075472 0 0 0 0 2.0717147749091964 61.40185036209914 0 61.40185036209914 33.023752332289064 0 0 0 0 79.180398847645847 81.66652823249251 0 81.66652823249251 28.572138182122217 0 0 0 0 118.96250311596668 4.8377067505407467 0 4.8377067505407467 -130.10135765087853 0 0 0 0 3.5555071976957606 7.5326320745815423 0 7.5326320745815423 15.25996637693606 0 0 0 0 9.257875902345404 153.85471320576653 0 153.85471320576653 181.10702470985507 0 0 0 0 64.033470711833843 66.984375881639068 0 66.984375881639068 13.720095198027316 0 0 0 0 50.428963956714142 103.49513819367712 0 103.49513819367712 -17.897230923186726 0 0 0 0 33.261311170921545 102.32702498084655 0 102.32702498084655 -11.681182210842962 0 0 0 0 28.029355474165641 109.29741674234901 0 109.29741674234901 3.8294426922384446 0 0 0 0 33.716554669926722 73.094945480683037 0 73.094945480683037 39.665756096165552 0 0 0 0 121.5757561690989 101.04902531724383 0 101.04902531724383 -67.558929180515406 0 0 0 0 78.98111132485792 119.99398493443732 0 119.99398493443732 -144.95997347354569 0 0 0 0 35.173759964956957 33.204203566643322 0 33.204203566643322 -3.3735302565613168 0 0 0 0 78.319314530031988 73.241695181997784 0 73.241695181997784 -100.08432357494894 0 0 0 0 268.2395864748396 416.40233938804158 0 416.40233938804158 143.94335287204376 0 0 0 0 42.657362021778567 107.5568072605616 0 107.5568072605616 41.045317980940695 0 0 0 0 14.372604697635552 -13.999405180248857 0 -13.999405180248857 -28.655086205043084 0 0 0 0 59.242996591303381 147.06767289287754 0 147.06767289287754 -43.264586549254773 0 0 0 0 234.67583624791587 -18.435552443051392 0 -18.435552443051392 66.001085573670366 0 0 0 0 72.617558036698028 71.247257010587418 0 71.247257010587418 358.62947702559177 0 0 0 0 26.848538639093476 41.467779924858391 0 41.467779924858391 28.827448725778822 0 0 0 0 -90.240332015542663 150.54153194204673 0 150.54153194204673 42.562118895404637 0 0 0 0 25.73792831087485 127.21605520813318 0 127.21605520813318 -180.64317061756446 0 0 0 0 -68.871157602297899 387.0163474622878 0 387.0163474622878 -319.05612223916103 0 0 0 0 -43.92386602028273 298.44472244169913 0 298.44472244169913 -233.69008364761339 0 0 0 0 119.6673066877338 100.07045432186817 0 100.07045432186817 -45.624201808762336 0 0 0 0 26.081372578834774 60.868154691602967 0 60.868154691602967 23.803802525048759 0 0 0 0 9.2656478843418881 74.315921701614116 0 74.315921701614116 32.354369385812333 0 0 0 0 -134.19806802691892 301.13308186116205 0 301.13308186116205 -80.445804031055161 0 0 0 0 -306.19575428124517 366.89877203420519 0 366.89877203420519 -86.361094963342111 0 0 0 0 -985.23231587652117 305.27675007749349 0 305.27675007749349 299.6803746286696 0 0 0 0 -446.95879680023063 548.64923228177781 0 548.64923228177781 -503.995347758977 0 0 0 0 -512.00328368652845 718.31242394796845 0 718.31242394796845 -478.72517994397276 0 0 0 0 -98.586686475260649 618.06760141725954 0 618.06760141725954 -843.58015224582232 0 0 0 0 -143.32016707121511 392.18989295938582 0 392.18989295938582 -305.94323695224648 0 0 0 0 -172.23327376948873 549.85065725407276 0 549.85065725407276 -445.57087530911394 0 0 0 0 65.81757378954353 452.8992402501114 0 452.8992402501114 -621.54824493032811 0 0 0 0 56.332805823243689 487.56046656119133 0 487.56046656119133 -671.86258837130754 0 0 0 0 -80.94023353245575 683.27168482512934 0 683.27168482512934 -846.02022088310787 0 0 0 0 308.82985110790469 472.41706896062897 0 472.41706896062897 -1064.4638493660386 0 0 0 0 178.76681045634905 367.94074409593941 0 367.94074409593941 -931.94547255258658 0 0 0 0 188.8650202054414 471.32654025186184 0 471.32654025186184 -970.53879489667816 0 0 0 0 262.22772871662164 916.58626934280983 0 916.58626934280983 -1342.5969660543051 0 0 0 0 -182.36578889365774 1102.8542597358655 0 1102.8542597358655 -1216.2350630597975 0 0 0 0 -1064.735083479376 1982.3563666655173 0 1982.3563666655173 -1426.773459419499 0 0 0 0 -126.64133187744301 1192.5815782965819 0 1192.5815782965819 -1258.5361147750959 0 0 0 0 -616.14649699314032 1454.477896071583 0 1454.477896071583 -1277.0994734680012 0 0 0 0 -480.36311914347607 732.5040637627651 0 732.5040637627651 -1001.3262271827662 0 0 0 0 -2010.3904425989749 913.0245013105656 0 913.0245013105656 -842.36443880102161 0 0 0 0 -638.10217527439818 869.90895463534798 0 869.90895463534798 -859.67854542594796 0 0 0 0 -1612.7433564682724 700.50556192865588 0 700.50556192865588 -522.68224245231613 0 0 0 0 -604.71804704864917 1002.0140773713724 0 1002.0140773713724 -1046.3100123132572 0 0 0 0 -285.34889848376042 545.87657674882394 0 545.87657674882394 -816.03318036409757 0 0 0 0 -33.838652334008657 345.20836296384562 0 345.20836296384562 -806.89134148226958 0 0 0 0 27.623188377765473 331.60231557097359 0 331.60231557097359 -773.96215321696218 0 0 0 0 219.14946281920129 278.40045694681066 0 278.40045694681066 -763.97007220889009 0 0 0 0 -21.323391863028519 295.31584507436673 0 295.31584507436673 -725.67445731154294 0 0 0 0 6.5209998410427943 314.97995835440878 0 314.97995835440878 -663.33885914703114 0 0 0 0 -34.802739753591595 383.28551750441386 0 383.28551750441386 -659.5716449478532 0 0 0 0 -77.672721302369609 278.51066959260311 0 278.51066959260311 -408.02515245795644 0 0 0 0 -12.939975759887602 285.1624822806973 0 285.1624822806973 -486.28478168298471 0 0 0 0 -51.816992297724937 258.19206235732463 0 258.19206235732463 -266.3539052423921 0 0 0 0 30.00374703752459 138.24069567308015 0 138.24069567308015 -232.15303483499292 0 0 0 0 -26.721744008682435 241.30723587847325 0 241.30723587847325 -422.26913104032337 0 0 0 0 -105.13457073687459 204.68627065352393 0 204.68627065352393 -310.86076714436626 0 0 0 0 22.16888837722945 173.0387966424405 0 173.0387966424405 -328.02031808346601 0 0 0 0 1.1800588564013879 47.760534192924951 0 47.760534192924951 61.390422346096145 0 0 0 0 -83.683129829543759 167.93928878065844 0 167.93928878065844 -193.71146927520113 0 0 0 0 15.148083273670636 108.01639089841046 0 108.01639089841046 -80.834001237354641 0 0 0 0 23.777811465553555 58.76909203486742 0 58.76909203486742 16.325455649865788 0 0 0 0 32.275163044629153 73.903453917489969 0 73.903453917489969 -78.626404984868714 0 0 0 0 20.029924561478538 64.035195577959229 0 64.035195577959229 -17.522699061237994 0 0 0 0 17.712227090189117 99.169096926161728 0 99.169096926161728 2.0453988806839334 0 0 0 0 33.354988624854627 37.590351914446977 0 37.590351914446977 -3.47069070544282 0 0 0 0 31.541873353533447 103.35193600490311 0 103.35193600490311 -104.52417905885886 0 0 0 0 -5.9227375662885606 34.75130973400519 0 34.75130973400519 -177.84118996564212 0 0 0 0 35.457785352438805 88.596594570492016 0 88.596594570492016 -28.553052706760354 0 0 0 0 10.407721617258289 63.134720579301728 0 63.134720579301728 20.93707184654658 0 0 0 0 26.710734181606767 40.352563236876939 0 40.352563236876939 7.5213241368319039 0 0 0 0 -5.0837036998709664 113.86251811801776 0 113.86251811801776 -88.539874147310911 0 0 0 0 40.426810134405969 -11.998509660869786 0 -11.998509660869786 -104.22036243451294 0 0 0 0 29.344823161610634 67.901467096875791 0 67.901467096875791 -4.3746585193732441 0 0 0 0 35.943823810858518 65.677151018882029 0 65.677151018882029 -29.778350671478989 0 0 0 0 14.740829706453951 87.827897065748402 0 87.827897065748402 13.623333689029096 0 0 0 0 52.690502139012096 141.40503630115927 0 141.40503630115927 -60.895836121482716 0 0 0 0 47.685280635836534 82.134516941263428 0 82.134516941263428 -37.53660990601702 0 0 0 0 37.731160558323609 110.16192991690696 0 110.16192991690696 -17.595278496060928 0 0 0 0 17.814749104246658 50.952001022593151 0 50.952001022593151 -1.5028912217990751 0 0 0 0 33.804402369211289 68.84569237303765 0 68.84569237303765 -11.230927280489894 0 0 0 0 13.354555248719407 79.715229500672649 0 79.715229500672649 43.330633802033844 0 0 0 0 169.28866967097201 220.11101417237023 0 220.11101417237023 178.73474993693526 0 0 0 0 191.36597028194228 117.27390669893794 0 117.27390669893794 7.1573536714440706 0 0 0 0 4.8132310584176281 19.368912741895457 0 19.368912741895457 10.856189124527418 0 0 0 0 -65.812503049368388 192.77476687429589 0 192.77476687429589 -106.30394442791294 0 0 0 0 -44.93814843778091 57.109334027358273 0 57.109334027358273 -123.63443024155276 0 0 0 0 616.35560948911007 314.9446231506663 0 314.9446231506663 41.467716254497645 0 0 0 0 156.54905861182488 656.98653241745342 0 656.98653241745342 446.46189018464065 0 0 0 0 427.81145621289033 834.03395074223226 0 834.03395074223226 514.38056311469336 0 0 0 0 236.06886334287992 873.30886486449162 0 873.30886486449162 856.05211097132997 0 0 0 0 128.48364301159745 687.65859167660528 0 687.65859167660528 548.45569658797103 0 0 0 0 63.799692189641064 303.53867120794166 0 303.53867120794166 398.19567215039388 0 0 0 0 -89.91613346185477 274.89509021215417 0 274.89509021215417 1143.0602516175422 0 0 0 0 78.214999508712935 397.7966758698858 0 397.7966758698858 566.22212671712623 0 0 0 0 -168.15415491303429 -285.11183235172939 0 -285.11183235172939 3528.5604885123903 0 0 0 0 1448.5451373836404 1317.7497575816196 0 1317.7497575816196 840.4621272712393 0 0 0 0 1.9424941260309367 -8.2298576855009742 0 -8.2298576855009742 29.12189885515636 0 0 0 0 -1854.4455562772782 -829.02818968190695 0 -829.02818968190695 1027.0536808383913 0 0 0 0 -1224.6805032617885 235.88677735705915 0 235.88677735705915 2655.0272713669692 0 0 0 0 667.64853774958465 440.56403962948025 0 440.56403962948025 298.58059878963104 0 0 0 0 -749.07377393817296 -734.12715553765884 0 -734.12715553765884 -336.83640609181384 0 0 0 0 -551.86828586905904 -305.01198155107704 0 -305.01198155107704 553.5809002146998 0 0 0 0 -477.68225171061931 -423.08820411699708 0 -423.08820411699708 303.24281294802495 0 0 0 0 38.439845294313272 -293.25136089824809 0 -293.25136089824809 -235.82700832920818 0 0 0 0 -131.78449131372327 -198.24595622006382 0 -198.24595622006382 422.61284904452623 0 0 0 0 -144.92456645662605 -224.35747893416192 0 -224.35747893416192 442.10412182257278 0 0 0 0 60.604883486346807 -33.691138064328698 0 -33.691138064328698 585.33482894465851 0 0 0 0 -663.7938630435965 -298.57820811189595 0 -298.57820811189595 554.72945183237061 0 0 0 0 -522.02405138037284 -95.689732209706563 0 -95.689732209706563 756.7983363942476 0 0 0 0 -1239.8014704952075 -5.5787140216270927 0 -5.5787140216270927 1106.7266677419539 0 0 0 0 -19.584322488513521 123.00145733984496 0 123.00145733984496 28.313849492383291 0 0 0 0 -2.8132321935643176 78.051638331116067 0 78.051638331116067 7.4611382198602101 0 0 0 0 16.894410041160882 279.83973610366229 0 279.83973610366229 541.89358672214439 0 0 0 0 -293.86533822497586 926.02672369898937 0 926.02672369898937 321.12048010175931 0 0 0 0 -73.631908375798957 55.590042855255888 0 55.590042855255888 766.21508385262314 0 0 0 0 -611.57954522105865 318.02984362561256 0 318.02984362561256 1263.1419262995187 0 0 0 0 -183.89085844639339 -67.120151983966934 0 -67.120151983966934 783.18695823216694 0 0 0 0 -208.56970811705105 308.68523713615286 0 308.68523713615286 -28.081412877299954 0 0 0 0 -86.989480024675231 171.20410401710581 0 171.20410401710581 117.82380001231013 0 0 0 0 -5.2004554920830515 -16.828412647483468 0 -16.828412647483468 69.203958044754415 0 0 0 0 8.4466232913156318 30.935817062304466 0 30.935817062304466 -23.157023835300738 0 0 0 0 -144.13677880665637 112.39249975988787 0 112.39249975988787 -219.43506439293196 0 0 0 0 -173.28856441358221 193.18678400655608 0 193.18678400655608 -173.80626653382478 0 0 0 0 -536.9868775284267 344.69419823202134 0 344.69419823202134 -163.3192985656562 0 0 0 0 -25.122123993991408 112.17568951640078 0 112.17568951640078 -522.20238200738152 0 0 0 0 -329.8652393700977 158.74629265584929 0 158.74629265584929 -174.66186697726425 0 0 0 0 81.054872241678822 308.71621261718622 0 308.71621261718622 -459.56981856115817 0 0 0 0 -100.24017940674094 103.22209514379756 0 103.22209514379756 -182.11394752805245 0 0 0 0 3.3296782639226876 106.67651631766785 0 106.67651631766785 -28.220397398672503 0 0 0 0 3.0525194993915648 102.44938653291115 0 102.44938653291115 -88.790145835082512 0 0 0 0 28.347467793617398 2276.7855977450672 0 2276.7855977450672 2107.110320297732 0 0 0 0 521.86997380317189 1901.9924454725842 0 1901.9924454725842 -3229.5443354086019 0 0 0 0 7.5604391515203133 -5.8689392045358346 0 -5.8689392045358346 -32.085444170810888 0 0 0 0 4.7926627019782018 69.506671216656372 0 69.506671216656372 -1.0275866380031218 0 0 0 0 9.0312656636815518 96.760585498501314 0 96.760585498501314 -75.262501084489486 0 0 0 0 412.78840675906395 488.0497226984553 0 488.0497226984553 868.89759784315538 0 0 0 0 16.829212404293514 60.33992692843556 0 60.33992692843556 0.67943076956845516 0 0 0 0 -1.230076702311635 92.868919275089866 0 92.868919275089866 -87.26429161876149 0 0 0 0 14.871987904461662 76.94577423557979 0 76.94577423557979 33.075079828982858 0 0 0 0 -48.446121772285551 283.27976559555827 0 283.27976559555827 -372.53277353170961 0 0 0 0 71.124902872834355 269.35267102200578 0 269.35267102200578 -402.33165012936479 0 0 0 0 -79.435768233102863 292.52519354235324 0 292.52519354235324 -302.28267252030491 0 0 0 0 -0.099913627778278169 4.728858632623183 0 4.728858632623183 36.270551475038282 0 0 0 0 -45.386720053676981 286.89703384038239 0 286.89703384038239 -488.61917502804744 0 0 0 0 65.224828555852582 294.80511849370077 0 294.80511849370077 -394.10767464746527 0 0 0 0 -100.00241857237415 260.0204952928284 0 260.0204952928284 -302.6819373309342 0 0 0 0 301.04071310395375 -56.556103037085677 0 -56.556103037085677 -259.43007419986293 0 0 0 0 55.320890261056775 317.78344249558836 0 317.78344249558836 -958.31788163975398 0 0 0 0 -208.05837769416394 265.03785498484103 0 265.03785498484103 -388.61235160562353 0 0 0 0 -31.128078676410951 250.67018368259579 0 250.67018368259579 -741.36334250352127 0 0 0 0 -251.35003333957866 359.93622890752249 0 359.93622890752249 -693.08962983927677 0 0 0 0 -313.24735501307259 810.34819968572299 0 810.34819968572299 -1226.3331869562867 0 0 0 0 -614.66887239314383 1354.7761280959762 0 1354.7761280959762 -1489.9937975299736 0 0 0 0 32.68702373984803 11.817800889403969 0 11.817800889403969 -7.330907930870004 0 0 0 0 82.819148234964814 595.57258814564466 0 595.57258814564466 -813.07895771276071 0 0 0 0 -282.45212832457037 398.7825121494111 0 398.7825121494111 -192.74252845227602 0 0 0 0 536.79265939540346 46.889913879127562 0 46.889913879127562 -292.30724065531194 0 0 0 0 -171.86063698417274 753.41399496820418 0 753.41399496820418 -614.26564016216435 0 0 0 0 290.20256007212447 416.48838849354979 0 416.48838849354979 -600.2767471752943 0 0 0 0 -689.00367873885261 794.43981387576537 0 794.43981387576537 -674.696148772171 0 0 0 0 -170.08326085750014 606.60223505996817 0 606.60223505996817 -1272.9281978208137 0 0 0 0 36.04624081554357 993.91879682713989 0 993.91879682713989 -1667.1258277547718 0 0 0 0 24.174517376035851 3.7262402869737059 0 3.7262402869737059 -13.89621570772195 0 0 0 0 368.32088990148623 981.39407138160186 0 981.39407138160186 -1675.2936110012165 0 0 0 0 -117.86046840128256 1016.9102413808801 0 1016.9102413808801 -915.5850515537478 0 0 0 0 -272.30714801402064 1187.0005005294149 0 1187.0005005294149 -995.42364533268483 0 0 0 0 341.228885393778 1672.2677717196916 0 1672.2677717196916 -2437.3314619472221 0 0 0 0 -1257.1635506930761 1863.6807039826895 0 1863.6807039826895 -1260.9482628533679 0 0 0 0 -957.83426718442934 844.62188316463744 0 844.62188316463744 -977.74365141718317 0 0 0 0 -984.9298867941834 1249.0360384558403 0 1249.0360384558403 -1253.1374266040311 0 0 0 0 -554.06366573834384 789.1759169583554 0 789.1759169583554 -698.73943217476744 0 0 0 0 -465.69254320178879 765.1149187544429 0 765.1149187544429 -1507.106268460409 0 0 0 0 6.7070003812510777 0.057020337694552836 0 0.057020337694552836 4.3915600072112646 0 0 0 0 -241.18065178344841 262.86580417884443 0 262.86580417884443 -967.48772949930844 0 0 0 0 -336.49615869090121 673.2493745212879 0 673.2493745212879 -669.86656504112125 0 0 0 0 -303.26095123955747 871.94464497312492 0 871.94464497312492 -1543.2135678378108 0 0 0 0 -543.20590618991992 423.0591930674309 0 423.0591930674309 -900.53218092319912 0 0 0 0 -247.33941524784314 511.81397085376784 0 511.81397085376784 -853.26517351784332 0 0 0 0 -200.84487367168185 566.27363575418894 0 566.27363575418894 -826.0668196388724 0 0 0 0 3137.6605007410981 -979.08482712262776 0 -979.08482712262776 40.864352708405931 0 0 0 0 6.8280374475337453 -0.58954590995887202 0 -0.58954590995887202 -10.9438531579195 0 0 0 0 1257.8780082313751 -377.27284807089018 0 -377.27284807089018 -1048.8391708389772 0 0 0 0 621.45037807911285 608.7620046897041 0 608.7620046897041 -2460.7439449439644 0 0 0 0 -1871.2973178001412 1561.3368511072367 0 1561.3368511072367 -1768.1748874624936 0 0 0 0 -1290.099523717101 2886.7249786304983 0 2886.7249786304983 -3374.1783644728584 0 0 0 0 -1261.4503400020476 1054.2851993225713 0 1054.2851993225713 -2197.6471983004085 0 0 0 0 927.06300468998961 -1182.4068461830002 0 -1182.4068461830002 784.47835507821492 0 0 0 0 -443.32301923813066 1340.0073672843218 0 1340.0073672843218 -2311.3178390004759 0 0 0 0 -155.21650864955154 905.48356995279119 0 905.48356995279119 -1915.697532404216 0 0 0 0 -1201.4788039601117 1839.1434711198408 0 1839.1434711198408 -1930.2575521081781 0 0 0 0 -617.60821362523711 1443.3459307810945 0 1443.3459307810945 -2271.6192785549738 0 0 0 0 -657.85277497288189 828.93278123963046 0 828.93278123963046 -1228.2150357941882 0 0 0 0 -542.37876737784245 1218.1945927370334 0 1218.1945927370334 -1882.1165353360739 0 0 0 0 2276.0759939571144 -2083.5972326116098 0 -2083.5972326116098 -1367.7433489876275 0 0 0 0 7.0745897936479878 -0.99249026371654736 0 -0.99249026371654736 -7.4662195740956712 0 0 0 0 -299.70200660674891 1664.4587840812183 0 1664.4587840812183 -2169.6403411139599 0 0 0 0 -208.14130083011696 1212.9082570425362 0 1212.9082570425362 -2829.755519271831 0 0 0 0 -1840.5541075924411 -1107.8561260457336 0 -1107.8561260457336 866.71887404015433 0 0 0 0 -124.1165097685589 980.85190285365707 0 980.85190285365707 -2321.3963468693892 0 0 0 0 -150.47958461751114 315.84771239201018 0 315.84771239201018 -1701.4506411957666 0 0 0 0 -1458.2044921050365 952.05392324838874 0 952.05392324838874 -522.18786997975076 0 0 0 0 -16.515394604867936 18.869742384053183 0 18.869742384053183 -8.7134147324089213 0 0 0 0 -669.36431287002051 157.16127963049462 0 157.16127963049462 -146.65826228040009 0 0 0 0 -834.19608534393774 635.11931920680013 0 635.11931920680013 -227.62973647629906 0 0 0 0 -450.77240774733946 286.29431864577009 0 286.29431864577009 -154.16176315389225 0 0 0 0 164.42472880479181 -381.08994029180303 0 -381.08994029180303 -523.13651554550233 0 0 0 0 -195.31391791871283 204.35871233795388 0 204.35871233795388 224.50344163955378 0 0 0 0 -3.4930565563263372 460.95467852626098 0 460.95467852626098 -1542.8080570386828 0 0 0 0 -33.321083519884269 -688.46709954971629 0 -688.46709954971629 91.861506487803126 0 0 0 0 2.1683006604830553 13.667961987231223 0 13.667961987231223 -3.2086235722037699 0 0 0 0 -17.916057591661229 44.508239269638125 0 44.508239269638125 -48.153246848854906 0 0 0 0 -0.84085227098438509 22.093069242088177 0 22.093069242088177 -0.79341976652069235 0 0 0 0 -39.392757351946784 -52.498986407412303 0 -52.498986407412303 -43.529682881939152 0 0 0 0 18.831502724187885 18.606043314905548 0 18.606043314905548 -19.771878980631232 0 0 0 0 49.05101414269302 -279.66068790873032 0 -279.66068790873032 72.951562487601223 0 0 0 0 406.20712790684775 -422.44748242082983 0 -422.44748242082983 35.473789968650635 0 0 0 0 -14.628328887221869 34.440835508858754 0 34.440835508858754 -39.721938995652863 0 0 0 0 6.2753761350597301 38.308311042089997 0 38.308311042089997 1.1540812568444085 0 0 0 0 37.407166240882361 -296.38804159975462 0 -296.38804159975462 272.97933529441957 0 0 0 0 -27.076455231930595 168.91837795415893 0 168.91837795415893 -157.40334695459069 0 0 0 0 205.7034883798915 37.925756128718604 0 37.925756128718604 54.676933846436441 0 0 0 0 -592.42623899964383 195.70692413345159 0 195.70692413345159 63.725073376881483 0 0 0 0 -326.44455279991962 98.742742270622784 0 98.742742270622784 284.22454154106134 0 0 0 0 -3.0096266697364626 19.940268843450554 0 19.940268843450554 -15.264746195124303 0 0 0 0 -3.0096266697364626 53.158219536040463 0 53.158219536040463 -22.055231357897981 0 0 0 0 -17.977230088514943 23.093808256434471 0 23.093808256434471 -15.940999452489438 0 0 0 0 -34.831418469402706 90.031051365616804 0 90.031051365616804 -457.79089645665408 0 0 0 0 -36.576802951982245 37.024834655718223 0 37.024834655718223 -34.274175202179322 0 0 0 0 8.2312974213562597 8.7980667895882618 0 8.7980667895882618 -6.3536869646523506 0 0 0 0 -1.1888068099506199 47.880286399563374 0 47.880286399563374 -44.921231836667175 0 0 0 0 7.2604006456838306 -0.55366415117521228 0 -0.55366415117521228 -2.5859183861198218 0 0 0 0 -0.013376754752243869 43.56910930340382 0 43.56910930340382 -57.564083107523402 0 0 0 0 -16.828391565359198 46.172639775741118 0 46.172639775741118 136.3910458107257 0 0 0 0 -0.19631546692107804 945.73500894378049 0 945.73500894378049 -304.41689974567771 0 0 0 0 63.734759482613299 1132.101759375224 0 1132.101759375224 -1268.2892426106628 0 0 0 0 332.69925838490599 513.74984518069959 0 513.74984518069959 -934.57292048644194 0 0 0 0 -500.94826131605078 587.42739043403344 0 587.42739043403344 -736.77168498107858 0 0 0 0 3.2389519172212431 1.3364323703881951 0 1.3364323703881951 -0.36510768426718343 0 0 0 0 190.30800867220387 -168.60900944204695 0 -168.60900944204695 -386.13833222617177 0 0 0 0 -191.56878731702454 694.12544208413601 0 694.12544208413601 -250.35998487640882 0 0 0 0 -19.051335786964046 781.62871731150608 0 781.62871731150608 -1701.5886724544143 0 0 0 0 -824.82296476871124 1586.889546079854 0 1586.889546079854 -2088.7905266799057 0 0 0 0 -517.12747999190469 1160.8907990390308 0 1160.8907990390308 -1371.4093522364965 0 0 0 0 -45.749818136871909 862.86375795251479 0 862.86375795251479 -1918.5760088821116 0 0 0 0 299.43560547059315 654.10141029280476 0 654.10141029280476 -1731.8520024746485 0 0 0 0 -240.93058658848167 1048.6021582522662 0 1048.6021582522662 -1626.6085994766531 0 0 0 0 0.47818283522792626 965.71330409879374 0 965.71330409879374 -1829.8714385554595 0 0 0 0 -173.42455356267237 763.32881608822095 0 763.32881608822095 -1677.6796807803112 0 0 0 0 -189.23748578285449 648.62677362348222 0 648.62677362348222 -2266.457860327082 0 0 0 0 -3.0829183499981809 -4.6566147418812136 0 -4.6566147418812136 -13.244088003397202 0 0 0 0 -14.355121239111043 41.594319947927914 0 41.594319947927914 -29.042815270056657 0 0 0 0 0.00072583445580676198 13.186328446430707 0 13.186328446430707 -43.807577876112191 0 0 0 0 2.0281541017189397 8.3818358974311309 0 8.3818358974311309 -20.731978587494439 0 0 0 0 -36.979132031614427 57.284869597401666 0 57.284869597401666 -110.02076719978254 0 0 0 0 32.680166593549075 70.009369174338644 0 70.009369174338644 -189.45757875976142 0 0 0 0 11.841875726178273 -12.896752679169794 0 -12.896752679169794 -47.281011207266239 0 0 0 0 16.674388723069569 22.579402185623621 0 22.579402185623621 -115.69516618737873 0 0 0 0 1.3085875074175419 42.531485640736946 0 42.531485640736946 -89.806026866305729 0 0 0 0 -707.26529844643665 1757.9452853013881 0 1757.9452853013881 -2541.4886851327174 0 0 0 0 -384.99563944086549 882.41136139643459 0 882.41136139643459 -1713.1637254644847 0 0 0 0 102.34641211028793 -49.007395494511911 0 -49.007395494511911 -76.306719341155258 0 0 0 0 14.443092303298215 -6.1409181446994126 0 -6.1409181446994126 -28.747818068444342 0 0 0 0 101.92478678987982 -81.898760108144245 0 -81.898760108144245 -58.990260234369998 0 0 0 0 -6.7059261919348501 234.77506919592815 0 234.77506919592815 -440.51990884159477 0 0 0 0 -200.99726093938807 402.73050667633856 0 402.73050667633856 -264.65970577361077 0 0 0 0 77.493668220180552 384.68304715502018 0 384.68304715502018 -321.26663616343103 0 0 0 0 487.0530044468469 94.293941260761585 0 94.293941260761585 -308.75865315537885 0 0 0 0 56.231414006557316 181.6036015487025 0 181.6036015487025 -209.03755869904671 0 0 0 0 110.37255109159742 308.84936258487778 0 308.84936258487778 -236.82117917587721 0 0 0 0 -68.078626666741911 87.345341416905285 0 87.345341416905285 79.761968931139563 0 0 0 0 -29.713471209614795 56.412852640133934 0 56.412852640133934 55.885309153812642 0 0 0 0 4.7310287762666121 203.65936943492625 0 203.65936943492625 -137.47873112889101 0 0 0 0 -156.53141027109814 285.34634200975142 0 285.34634200975142 -175.70951643568515 0 0 0 0 -61.828836384763008 98.55008123105722 0 98.55008123105722 109.89055862297045 0 0 0 0 17.844508223206503 181.66464097295921 0 181.66464097295921 -201.49685922878189 0 0 0 0 35.356435161462286 28.327956512137462 0 28.327956512137462 -154.24640785914653 0 0 0 0 -21.949306053196779 77.013684905476111 0 77.013684905476111 66.885202400299022 0 0 0 0 -37.284330997619691 35.864687771196714 0 35.864687771196714 126.83041025780403 0 0 0 0 -63.692126679302362 15.740695492240491 0 15.740695492240491 165.62975070879071 0 0 0 0 158.03737299639033 -151.7933971250568 0 -151.7933971250568 210.42110694310395 0 0 0 0 63.0003428366972 -192.89004559980958 0 -192.89004559980958 379.52770835114643 0 0 0 0 82.327039878146024 -232.53325109413709 0 -232.53325109413709 120.46358704548038 0 0 0 0 110.6290610791184 -144.54642487577803 0 -144.54642487577803 367.82569656992564 0 0 0 0 118.83357451003394 -108.73654019200694 0 -108.73654019200694 176.05215406158823 0 0 0 0 129.80282982346398 -133.37645022715878 0 -133.37645022715878 208.81619587658497 0 0 0 0 84.302899784234796 -83.443623810296913 0 -83.443623810296913 97.197918769025563 0 0 0 0 168.20547339471523 -156.869220756922 0 -156.869220756922 1107.4292579967587 0 0 0 0 63.393771245930111 160.30088265383165 0 160.30088265383165 1527.310938798556 0 0 0 0 14.117763391957851 26.520316485115472 0 26.520316485115472 163.95559549290192 0 0 0 0 31.081585994220518 17.057545581757125 0 17.057545581757125 60.261133716488274 0 0 0 0 54.583079060561431 52.326963767946495 0 52.326963767946495 90.890866092289798 0 0 0 0 54.346402543880686 41.118541899618322 0 41.118541899618322 101.44286118940727 0 0 0 0 -5.6771827495103935 32.057946861699747 0 32.057946861699747 190.36752544055707 0 0 0 0 -3.8352828279166715 59.514358247919517 0 59.514358247919517 -38.449195932036673 0 0 0 0 -1.0976219251127759 2.5401902151190718 0 2.5401902151190718 -2.8746127841896794 0 0 0 0 -3.6575788785994519 92.206201663437241 0 92.206201663437241 119.08219314480084 0 0 0 0 -27.544795048058063 -7.5075641608121941 0 -7.5075641608121941 76.593839718891999 0 0 0 0 -12.325335178889418 63.118436610783519 0 63.118436610783519 26.951503015734588 0 0 0 0 -11.703518582246033 15.444000123503429 0 15.444000123503429 160.73962173239215 0 0 0 0 1.5655931600776967 71.588851353677455 0 71.588851353677455 -78.116190163364081 0 0 0 0 234.44330462279686 -189.56189594411262 0 -189.56189594411262 59.880259447789285 0 0 0 0 -415.95046981872019 321.70090013071604 0 321.70090013071604 -1256.893268461572 0 0 0 0 687.0317310211467 18.672491914949205 0 18.672491914949205 -175.08992787527677 0 0 0 0 -457.75683326554281 630.98383647912124 0 630.98383647912124 -407.45779216178926 0 0 0 0 -793.03089133832486 844.45336519014381 0 844.45336519014381 864.49904411443276 0 0 0 0 257.07023809164821 135.16226119453495 0 135.16226119453495 30.426058988639852 0 0 0 0 -27.126908856894534 103.07871381324082 0 103.07871381324082 -47.181440674316036 0 0 0 0 -325.9906433396277 -246.33411657217948 0 -246.33411657217948 22.082538213027874 0 0 0 0 63.972561459027929 48.177017845213413 0 48.177017845213413 60.695758751033281 0 0 0 0 -1.17241158230172 -102.26247445541958 0 -102.26247445541958 14.766749370375692 0 0 0 0 106.72767980913341 -36.482230877692928 0 -36.482230877692928 26.323004748817766 0 0 0 0 303.7407040763901 -79.42928825582203 0 -79.42928825582203 -71.940479072567541 0 0 0 0 91.825469914008863 -117.4919537489186 0 -117.4919537489186 -13.106846179172862 0 0 0 0 -38.901313384980313 -44.375615381737589 0 -44.375615381737589 -8.7982792184920982 0 0 0 0 62.377573519712314 -133.16127773055632 0 -133.16127773055632 -48.296734939096496 0 0 0 0 -104.36813074034626 90.333895607055638 0 90.333895607055638 -343.9813650870492 0 0 0 0 -52.145274984955904 -94.939673434913857 0 -94.939673434913857 -1.1956005058927985 0 0 0 0 -71.786016948077304 -134.54217870638604 0 -134.54217870638604 -63.646988601074554 0 0 0 0 -15.226871440827381 -26.088257961877389 0 -26.088257961877389 -202.74926567747025 0 0 0 0 44.313059214015084 921.8628953077714 0 921.8628953077714 1627.9770894237445 0 0 0 0 -0.35654763158230196 0.55229418204007175 0 0.55229418204007175 1.5344762916938635 0 0 0 0 103.56472960181964 907.0372038688547 0 907.0372038688547 493.67002843043883 0 0 0 0 -447.24827165235183 337.65082827913284 0 337.65082827913284 -286.45137065765448 0 0 0 0 -183.07753713093189 575.74072464896381 0 575.74072464896381 -621.88072777043271 0 0 0 0 -282.20145493987366 301.86871932000213 0 301.86871932000213 -365.77798050284582 0 0 0 0 -237.98484160756925 14.878149272990413 0 14.878149272990413 -137.49739428337489 0 0 0 0 3.4821147426264361 38.951021943001251 0 38.951021943001251 -235.39887926695519 0 0 0 0 -324.3494790172881 381.83817484938118 0 381.83817484938118 -449.49582047166768 0 0 0 0 -513.26210760908725 86.741042108435067 0 86.741042108435067 -142.09953210536332 0 0 0 0 -714.7995494350107 -139.78569033102031 0 -139.78569033102031 -651.97286721481942 0 0 0 0 -1139.5918062159471 476.07827986732445 0 476.07827986732445 -325.12826352576303 0 0 0 0 -659.04063508537729 956.94140981079545 0 956.94140981079545 -874.96392322557222 0 0 0 0 -51.991423918047076 -25.870517560804728 0 -25.870517560804728 -2153.2496141191077 0 0 0 0 -560.09981063302257 717.97009939808049 0 717.97009939808049 990.98353353160928 0 0 0 0 -13.136094497019513 6.5030073999015769 0 6.5030073999015769 -3.4172997871118014 0 0 0 0 24.109271186091064 641.77338400224835 0 641.77338400224835 -1609.2464715091337 0 0 0 0 -623.89569114869664 1051.5530162088326 0 1051.5530162088326 -301.13908658508444 0 0 0 0 63.394329921622557 410.85988391892897 0 410.85988391892897 -308.33824566051771 0 0 0 0 85.635620938388456 264.21541169770353 0 264.21541169770353 2.5760560355829512 0 0 0 0 845.03523114625568 347.46105640730093 0 347.46105640730093 -810.27020662436553 0 0 0 0 89.416556469732313 243.75771484262805 0 243.75771484262805 -507.57271184581623 0 0 0 0 -28.823593671513358 107.48754230049349 0 107.48754230049349 -67.697111329488678 0 0 0 0 386.77201426110832 175.87838286766782 0 175.87838286766782 -258.19749551339191 0 0 0 0 -451.24831718125733 -132.19428480639181 0 -132.19428480639181 557.68819826288745 0 0 0 0 182.71745536496678 5.7759146514727036 0 5.7759146514727036 -814.7163914770681 0 0 0 0 -473.74385618594488 714.19359241804705 0 714.19359241804705 -432.29055704457278 0 0 0 0 -54.819970233760614 705.94293154626212 0 705.94293154626212 -571.17568446237783 0 0 0 0 355.34171503630841 167.62095941533335 0 167.62095941533335 -309.6662888099454 0 0 0 0 617.58069294214602 91.9363429449877 0 91.9363429449877 -366.67699272447499 0 0 0 0 387.61607581391763 377.04726918868619 0 377.04726918868619 160.82359769552568 0 0 0 0 -1136.4354623376494 -18.766439226666989 0 -18.766439226666989 173.81353793707967 0 0 0 0 -6.3946468705848023 8.1811548151850673 0 8.1811548151850673 -2.3074875374417161 0 0 0 0 -484.39446262943648 22.955384810842588 0 22.955384810842588 121.38503889837011 0 0 0 0 1339.7690274524211 751.56327305593004 0 751.56327305593004 -648.85628017331328 0 0 0 0 1170.5319628604993 905.12068474907574 0 905.12068474907574 -459.3378299493852 0 0 0 0 1371.5893226635053 213.08923634595635 0 213.08923634595635 -384.67816105771635 0 0 0 0 838.81003341520591 431.26933448675845 0 431.26933448675845 -254.60897428625856 0 0 0 0 917.67355837561172 712.37401208705342 0 712.37401208705342 44.582675227473374 0 0 0 0 683.94595565987765 337.00287251596455 0 337.00287251596455 -256.35154295279233 0 0 0 0 1301.2394486520643 1038.1346532539901 0 1038.1346532539901 219.06503163943489 0 0 0 0 834.89411627894151 1341.6861894581853 0 1341.6861894581853 1923.86512132801 0 0 0 0 350.30065919182061 262.77577022212972 0 262.77577022212972 213.95345038168307 0 0 0 0 91.27488571633512 474.55087033522432 0 474.55087033522432 1060.7868846036872 0 0 0 0 -36.138027443314058 262.65324329356372 0 262.65324329356372 -52.341356913759228 0 0 0 0 33.651031976091872 243.27339953953924 0 243.27339953953924 -291.58066178744048 0 0 0 0 47.948971517128825 2.5775964501746671 0 2.5775964501746671 -6.2844131717177909 0 0 0 0 102.39640561533633 260.68745057817432 0 260.68745057817432 -63.024663201812473 0 0 0 0 32.726483257125437 -50.721951910774806 0 -50.721951910774806 -9.5146685460313165 0 0 0 0 -200.88938407435307 273.89287716588296 0 273.89287716588296 -63.523594711913574 0 0 0 0 -271.68844606122047 -28.783654192115137 0 -28.783654192115137 -11.04867576280958 0 0 0 0 16.978854678947194 -6.7104386663464197 0 -6.7104386663464197 2.7589697978193968 0 0 0 0 885.36267666824278 -109.19378643654636 0 -109.19378643654636 -481.76042833774409 0 0 0 0 533.0833268280112 -295.73977140178613 0 -295.73977140178613 -570.86557789439757 0 0 0 0 273.27598967341692 191.66348871009541 0 191.66348871009541 222.20140471262857 0 0 0 0 -9.258503136528855 -1.2207657499240838 0 -1.2207657499240838 -2.2648096118678112 0 0 0 0 -142.99016270635911 417.48803096114716 0 417.48803096114716 -612.20078766732331 0 0 0 0 -147.96573115461797 -85.906635180290323 0 -85.906635180290323 -222.60720747210144 0 0 0 0 -224.16086624727268 176.46036000688036 0 176.46036000688036 -323.37998017729842 0 0 0 0 -4.4264286054249862 18.208186715665434 0 18.208186715665434 -12.299333817875379 0 0 0 0 -355.33023035408041 204.44977592898067 0 204.44977592898067 287.64419610706682 0 0 0 0 129.64408613381693 152.91555513517233 0 152.91555513517233 209.37548394175064 0 0 0 0 14.892448399622729 8.0259718931499151 0 8.0259718931499151 -4.5018694174464713 0 0 0 0 -40.370504579770554 32.482575612754005 0 32.482575612754005 -2.5814579253751617 0 0 0 0 -176.06221742792331 18.087196787368157 0 18.087196787368157 2.7778679634793662 0 0 0 0 38.887183995222586 -23.719544585474068 0 -23.719544585474068 45.315116918529384 0 0 0 0 182.80735027467017 11.972983855564962 0 11.972983855564962 -193.81733440468088 0 0 0 0 -35.709872854332176 57.550349390113553 0 57.550349390113553 -11.135194617522814 0 0 0 0 -168.14719306743791 -180.21198803266452 0 -180.21198803266452 -187.00433583930135 0 0 0 0 -210.32303059531114 -17.507663249707548 0 -17.507663249707548 0.76224946625552548 0 0 0 0 -230.13842356421446 -49.562899651602493 0 -49.562899651602493 -24.619001775157813 0 0 0 0 -195.2381911257753 -19.16252181161326 0 -19.16252181161326 -36.853763690800406 0 0 0 0 -312.72754710995287 -60.723707165190717 0 -60.723707165190717 256.36637533827161 0 0 0 0 -280.32962639342077 84.198458585007756 0 84.198458585007756 185.71896318136714 0 0 0 0 -233.98698204571701 145.25256829579303 0 145.25256829579303 -8.4004932507377816 0 0 0 0 -206.65582347610689 85.695764902164228 0 85.695764902164228 66.089319901264389 0 0 0 0 -42.839404666396149 34.293982204952044 0 34.293982204952044 -0.74874844680016395 0 0 0 0 -2.3611210412163928 40.767414179976186 0 40.767414179976186 11.070450730447192 0 0 0 0 -105.36966199234666 43.021941421582596 0 43.021941421582596 34.723880071338499 0 0 0 0 -193.38342017707419 56.189307626153095 0 56.189307626153095 40.666047848077142 0 0 0 0 -32.246042370215065 32.426328761002921 0 32.426328761002921 11.652876694311317 0 0 0 0 -171.078377903812 49.653744438153808 0 49.653744438153808 12.628026313890587 0 0 0 0 -15.82624363881987 35.857391622843011 0 35.857391622843011 9.2190115194568421 0 0 0 0 -5.6936470021501009 82.335152625080809 0 82.335152625080809 -10.968248707882594 0 0 0 0 -55.821685261808852 44.405442754232354 0 44.405442754232354 42.187404399097431 0 0 0 0 -60.814720596053121 72.232930013085934 0 72.232930013085934 -54.308943750278559 0 0 0 0 -202.52674926996406 234.54840298835188 0 234.54840298835188 473.66078489791835 0 0 0 0 -170.56572141714346 46.553293236276659 0 46.553293236276659 -90.71171960933134 0 0 0 0 -90.668654457996041 43.802885021215047 0 43.802885021215047 9.6599614885981282 0 0 0 0 -33.363893269497105 38.903156808198872 0 38.903156808198872 -32.30735170117606 0 0 0 0 584.66052656965985 148.35190890872036 0 148.35190890872036 145.36940265382873 0 0 0 0 -25.551410400319583 42.052292774103989 0 42.052292774103989 12.346005683790281 0 0 0 0 74.499716902480941 261.02666173796752 0 261.02666173796752 208.63163248819183 0 0 0 0 28.297763734237378 92.59692094224738 0 92.59692094224738 383.5868849925464 0 0 0 0 -1.1493889343390329 16.422974080362422 0 16.422974080362422 -10.46287839316858 0 0 0 0 -69.096023818698086 96.17796694369099 0 96.17796694369099 -63.391569738829276 0 0 0 0 -12.602791162842903 23.422253952529942 0 23.422253952529942 26.215900953270932 0 0 0 0 -537.87593774107154 325.94800468362519 0 325.94800468362519 -54.232420777843799 0 0 0 0 1.6732705322036061 4.780156739466392 0 4.780156739466392 3.5474251842284161 0 0 0 0 -260.64424134278306 278.89559190066939 0 278.89559190066939 -116.88698857888812 0 0 0 0 -55.217547780204768 210.72954514838057 0 210.72954514838057 -462.40292089121067 0 0 0 0 -323.99207143969397 241.36484049417777 0 241.36484049417777 -31.93505416122207 0 0 0 0 151.95246346040949 144.50694654040126 0 144.50694654040126 -810.7337095719995 0 0 0 0 -122.62600994594959 188.37718498539107 0 188.37718498539107 -84.1129225686891 0 0 0 0 -28.610033988319628 117.80206518416526 0 117.80206518416526 -171.11495711375028 0 0 0 0 640.73497144018984 619.41713698442618 0 619.41713698442618 -1220.5338275790855 0 0 0 0 286.15173972125831 613.74197392454062 0 613.74197392454062 -972.94121234270278 0 0 0 0 283.11921067607182 508.38709876316716 0 508.38709876316716 -1250.7559689609479 0 0 0 0 -525.73913464876114 387.38345017566462 0 387.38345017566462 -334.4825495746918 0 0 0 0 -110.72145557104523 861.61993245067424 0 861.61993245067424 -1081.4076090085873 0 0 0 0 100.7393991015997 749.53227275673999 0 749.53227275673999 -1051.6772479761567 0 0 0 0 -274.38099844132375 781.45741367616574 0 781.45741367616574 -836.82602605404099 0 0 0 0 -345.54598693005755 614.75572314589954 0 614.75572314589954 -606.71140470472164 0 0 0 0 -151.35313412086543 520.31241526149097 0 520.31241526149097 -674.37771091307513 0 0 0 0 15.923056382634968 551.23740659715259 0 551.23740659715259 -670.59690624516224 0 0 0 0 -138.27964660534781 454.16660985370254 0 454.16660985370254 -472.4895528604975 0 0 0 0 -312.84020794827666 625.92201051767915 0 625.92201051767915 -602.90519286191557 0 0 0 0 -424.55720175201714 433.64786935083976 0 433.64786935083976 -436.65565516031347 0 0 0 0 -379.38312384553137 461.17920605145628 0 461.17920605145628 -152.54933004333725 0 0 0 0 -362.64807726496292 497.55429257571814 0 497.55429257571814 -387.87999731168384 0 0 0 0 -509.90051107968611 394.65755908249412 0 394.65755908249412 -493.48458890849724 0 0 0 0 -528.05252997171192 488.47670072945766 0 488.47670072945766 -464.67078097333433 0 0 0 0 -967.72306645760546 525.0225865842076 0 525.0225865842076 -509.60658267949475 0 0 0 0 -675.58136723224015 458.47848951761262 0 458.47848951761262 -449.88818442681804 0 0 0 0 -562.75585728138685 407.88760563218966 0 407.88760563218966 -476.01070188474841 0 0 0 0 -450.69783455733705 724.06202121340903 0 724.06202121340903 -694.31891858519521 0 0 0 0 -114.13869831598277 912.86301517003449 0 912.86301517003449 -1115.6725885409978 0 0 0 0 -728.73866439131962 875.12354739516741 0 875.12354739516741 -767.49641236444586 0 0 0 0 -1289.7332058986867 1031.6410105667019 0 1031.6410105667019 -737.95356212585466 0 0 0 0 -661.87628739653883 761.35560949725914 0 761.35560949725914 -632.24245697259903 0 0 0 0 -1168.4755712142169 483.28446589696614 0 483.28446589696614 -506.60485533205792 0 0 0 0 -651.6951067085829 1377.6911012223136 0 1377.6911012223136 -1394.2396909059025 0 0 0 0 -557.86919720118749 1218.2532510692836 0 1218.2532510692836 -1243.347611811012 0 0 0 0 -186.73640438039729 931.75731473305495 0 931.75731473305495 -1166.9501514662988 0 0 0 0 -635.90408093754377 1013.337015682584 0 1013.337015682584 -1100.0157410545507 0 0 0 0 -118.50642551331839 1330.4500155582209 0 1330.4500155582209 -1243.7424778287186 0 0 0 0 521.72721185511182 734.95691950901528 0 734.95691950901528 -1275.2631266876124 0 0 0 0 474.28650822361305 860.30655192391714 0 860.30655192391714 -1254.2713942643022 0 0 0 0 -139.18019671999173 1023.4681980207606 0 1023.4681980207606 -1192.9698535200441 0 0 0 0 402.37159958683696 639.94149134709187 0 639.94149134709187 -1154.6527704304899 0 0 0 0 945.34522610016211 568.34157185773074 0 568.34157185773074 -1223.8007346262748 0 0 0 0 467.33422988712846 792.98173063799914 0 792.98173063799914 -831.16557304407615 0 0 0 0 760.1509484899907 568.59053868394403 0 568.59053868394403 -625.77326870687102 0 0 0 0 657.65653945544182 519.07261891491362 0 519.07261891491362 40.088202556944452 0 0 0 0 512.2203523065109 675.67360044844099 0 675.67360044844099 319.07041884555656 0 0 0 0 107.75892479736103 458.6289765751244 0 458.6289765751244 209.50173253694084 0 0 0 0 -3.9864384034291618 28.713239312505806 0 28.713239312505806 5.2100647064695522 0 0 0 0 215.07373458601433 126.68893529429988 0 126.68893529429988 76.479937612253707 0 0 0 0 -66.717315666947627 17.3804704211542 0 17.3804704211542 21.75262425855729 0 0 0 0 -11.477389787654829 -13.361235897697043 0 -13.361235897697043 -21.196183133404702 0 0 0 0 -20.893005716781772 8.201153180852998 0 8.201153180852998 -66.281670753647631 0 0 0 0 -613.41141235431132 274.13742826876114 0 274.13742826876114 -479.36222884710878 0 0 0 0 -732.28298362596979 300.25448855105788 0 300.25448855105788 -434.76804191630799 0 0 0 0 25.312883048720309 53.430503574410146 0 53.430503574410146 37.850158346448893 0 0 0 0 235.14483453278081 206.28152528261126 0 206.28152528261126 112.89290731542496 0 0 0 0 364.83884033130744 67.869420223127236 0 67.869420223127236 48.332514723471832 0 0 0 0 -2248.2266783458308 1804.6473607635344 0 1804.6473607635344 -760.28564363400801 0 0 0 0 -1980.5913704481172 1020.9061083134147 0 1020.9061083134147 -495.66062739957124 0 0 0 0 -911.88786599982359 1750.4130420400506 0 1750.4130420400506 -2032.4854289963841 0 0 0 0 746.93921615985164 44.441582084094989 0 44.441582084094989 -46.41815258085262 0 0 0 0 572.93601622944334 400.01919422121136 0 400.01919422121136 -52.03741703130072 0 0 0 0 1021.0345869093326 368.22510831472755 0 368.22510831472755 -134.4775490371685 0 0 0 0 852.14292257674606 597.64759465413226 0 597.64759465413226 -184.21789180365158 0 0 0 0 765.5406419993742 586.97439593858144 0 586.97439593858144 -64.537447497234098 0 0 0 0 732.24171474463219 652.57918249432987 0 652.57918249432987 -121.68740118224378 0 0 0 0 230.07595655960176 813.42544687830377 0 813.42544687830377 39.901219012317597 0 0 0 0 388.00983210777486 641.34579957895039 0 641.34579957895039 -29.771064291409857 0 0 0 0 685.17363933668821 548.82473309173656 0 548.82473309173656 44.743845359174884 0 0 0 0 153.25142340857565 550.22245659854889 0 550.22245659854889 117.4799789407698 0 0 0 0 648.00787356775345 586.28918486794373 0 586.28918486794373 -23.385905518167419 0 0 0 0 580.4156156528079 576.54174117615548 0 576.54174117615548 406.35159183928045 0 0 0 0 725.00865083155804 739.82800048180798 0 739.82800048180798 62.506708401997457 0 0 0 0 603.45148990835878 517.62473093072185 0 517.62473093072185 410.78075225595967 0 0 0 0 -15.338249150784037 9.1266716406950934 0 9.1266716406950934 4.5168682449611879 0 0 0 0 685.92355870190659 916.20256226834317 0 916.20256226834317 820.16126899242227 0 0 0 0 1369.3283058590005 872.97328110019589 0 872.97328110019589 651.61840385413961 0 0 0 0 724.48614829552389 1030.3098042130732 0 1030.3098042130732 927.35595559172361 0 0 0 0 873.93222996961413 638.46222815569854 0 638.46222815569854 289.83462500941823 0 0 0 0 769.73597676028294 1069.90616278589 0 1069.90616278589 706.71497138255654 0 0 0 0 856.96474663719073 699.71011879952675 0 699.71011879952675 244.3615245668625 0 0 0 0 149.47461114847829 691.30286957355565 0 691.30286957355565 470.69885032897582 0 0 0 0 3.5912885748177246 0.44563969847473572 0 0.44563969847473572 0.27789277141911839 0 0 0 0 15.180568130825122 -116.52990507750656 0 -116.52990507750656 -5.3613594629823638 0 0 0 0 85.974340270855464 1144.4297446020937 0 1144.4297446020937 1662.9792269584141 0 0 0 0 29.897998342153443 7.4272482922283984 0 7.4272482922283984 -8.0653352729498806 0 0 0 0 -285.46346059416101 118.11628616452072 0 118.11628616452072 109.84889281797223 0 0 0 0 212.88268611426884 27.365148738073913 0 27.365148738073913 -82.566516478327685 0 0 0 0 -41.210731033826804 94.828165252067009 0 94.828165252067009 -12.104662337576826 0 0 0 0 -207.4938197680458 -64.112582369634765 0 -64.112582369634765 869.27575677618734 0 0 0 0 -32.28581015009695 -112.57051639772544 0 -112.57051639772544 381.53196830523666 0 0 0 0 -43.511091156040493 -158.62939326345804 0 -158.62939326345804 1708.027759898192 0 0 0 0 728.99615567746514 1364.3941689975327 0 1364.3941689975327 1500.9561962634616 0 0 0 0 602.47349109500647 666.73496458714362 0 666.73496458714362 1374.2398693948926 0 0 0 0 99.429045251050411 1281.0746370043871 0 1281.0746370043871 -540.98738324909937 0 0 0 0 875.70044944339315 1079.9398422991071 0 1079.9398422991071 1971.1151146937918 0 0 0 0 117.76689452908613 148.40706434412277 0 148.40706434412277 2290.3387302042247 0 0 0 0 1.471276727683744 1.9468166939662694 0 1.9468166939662694 2.0826539735124356 0 0 0 0 -245.2727009693408 168.9653806085189 0 168.9653806085189 -131.56503288954264 0 0 0 0 249.29944131657976 414.89670212907367 0 414.89670212907367 -104.38617190672085 0 0 0 0 -673.7157866466805 246.01673307092278 0 246.01673307092278 158.77789293430396 0 0 0 0 -18.561278662629775 -4.216852608602494 0 -4.216852608602494 148.56074380202335 0 0 0 0 22.840724721223523 72.505245398380794 0 72.505245398380794 173.31838072468236 0 0 0 0 -709.01524849957423 401.92196605228492 0 401.92196605228492 -124.97189970682666 0 0 0 0 -4.4618158050566308 6.1481525470490226 0 6.1481525470490226 3.010838886874069 0 0 0 0 -721.30555354100943 144.08639496409887 0 144.08639496409887 75.435391469873139 0 0 0 0 -718.37681801917461 129.8721832349147 0 129.8721832349147 45.796908623917261 0 0 0 0 -480.53249149074691 236.07763730674924 0 236.07763730674924 180.9961161855008 0 0 0 0 -250.1195149502164 483.2354930168658 0 483.2354930168658 166.65248150595289 0 0 0 0 133.2551195744818 588.05083100651973 0 588.05083100651973 56.488005005783634 0 0 0 0 -631.3607202872372 366.02679853882728 0 366.02679853882728 174.82611709990306 0 0 0 0 -680.55833014180098 515.85873533254926 0 515.85873533254926 163.04157059875433 0 0 0 0 -583.37124032565771 311.43662642826166 0 311.43662642826166 105.12033129142947 0 0 0 0 -8.6725494593881933 14.920632545193214 0 14.920632545193214 -7.762703757150291 0 0 0 0 -1116.3189047998567 -60.140762862865813 0 -60.140762862865813 110.96269925303932 0 0 0 0 -933.33519294499251 -60.18268343867976 0 -60.18268343867976 4.0101763633138034 0 0 0 0 -923.66081087470229 183.89902112830896 0 183.89902112830896 190.17378557515713 0 0 0 0 -10.083115979956347 28.199659262463683 0 28.199659262463683 -6.5305352954746922 0 0 0 0 0.55909435790090356 25.525526507786708 0 25.525526507786708 -17.27987660781946 0 0 0 0 -22.196739805400313 34.247358851947155 0 34.247358851947155 -24.655691820594711 0 0 0 0 -37.478597664383415 33.40297384380392 0 33.40297384380392 -3.3885279708047165 0 0 0 0 -10.587588442679692 17.914630224363492 0 17.914630224363492 -8.299948174451913 0 0 0 0 -52.674079055546727 7.4181666343146588 0 7.4181666343146588 7.323695138642961 0 0 0 0 183.09379451058339 443.81099599714798 0 443.81099599714798 -178.10404426820241 0 0 0 0 -329.68162581573415 -189.59514070627483 0 -189.59514070627483 108.57482390059158 0 0 0 0 -32.442722015282925 103.28559374864562 0 103.28559374864562 288.78374396184518 0 0 0 0 13.672791079042412 47.131099527780286 0 47.131099527780286 28.693841282262611 0 0 0 0 289.65123819228756 498.17919429994072 0 498.17919429994072 267.8791244487511 0 0 0 0 10.541726556211586 11.081613297529088 0 11.081613297529088 16.164137011973878 0 0 0 0 964.17549377220712 1004.8287259429926 0 1004.8287259429926 49.797577470839315 0 0 0 0 -206.82643696628656 383.58665338004357 0 383.58665338004357 211.67148203552642 0 0 0 0 163.07058923308796 425.93783305791294 0 425.93783305791294 138.18378848054272 0 0 0 0 -332.05181669432204 512.30763714874047 0 512.30763714874047 164.53191607772897 0 0 0 0 -278.89511879204656 423.61435986561992 0 423.61435986561992 207.66497401232482 0 0 0 0 -302.01036536948232 325.99421289382735 0 325.99421289382735 133.04180601841654 0 0 0 0 -271.61918583660008 -735.71342632759843 0 -735.71342632759843 -2129.5003134848666 0 0 0 0 -1593.7412274017843 -111.02476304497031 0 -111.02476304497031 807.29456340119214 0 0 0 0 -961.44541818727157 840.82905339574063 0 840.82905339574063 -210.62630018082564 0 0 0 0 -127.22756961024425 -152.39040230572573 0 -152.39040230572573 -390.34696659089968 0 0 0 0 96.919196327973623 250.90659269498428 0 250.90659269498428 -250.10066514852224 0 0 0 0 -33.23681430175202 152.19138687399391 0 152.19138687399391 -78.242606022307882 0 0 0 0 -17.935494783014292 237.407525999879 0 237.407525999879 -738.3969852244627 0 0 0 0 91.973490472111735 56.798472530543222 0 56.798472530543222 -248.23199864501657 0 0 0 0 -133.56150077650955 -52.814267754797584 0 -52.814267754797584 -46.633783509838395 0 0 0 0 -101.65193138422842 344.46897632077503 0 344.46897632077503 123.75893205060856 0 0 0 0 -91.781418757069133 75.786556349333381 0 75.786556349333381 -8.6726949587463764 0 0 0 0 -8.180804479605257 8.4831012497280369 0 8.4831012497280369 -10.398970203001682 0 0 0 0 -491.65456136528519 118.05218426881765 0 118.05218426881765 78.710730947335833 0 0 0 0 -199.11336005297562 371.21546704471984 0 371.21546704471984 205.16457028666628 0 0 0 0 -101.19520215950297 352.52187239942668 0 352.52187239942668 60.210532551514916 0 0 0 0 -117.45254095335258 279.84843020972039 0 279.84843020972039 -107.47154559078626 0 0 0 0 -159.69514665791939 249.9354818763677 0 249.9354818763677 209.85306552806287 0 0 0 0 -235.25873789295292 334.59342694508086 0 334.59342694508086 179.32440030626094 0 0 0 0 -236.77566791909339 340.65153960968019 0 340.65153960968019 458.18434210884152 0 0 0 0 -212.61644759344927 42.032322702725651 0 42.032322702725651 374.65323946511853 0 0 0 0 -170.54840797901852 219.89794519702264 0 219.89794519702264 386.41745199266006 0 0 0 0 -202.18319479146157 141.83906636288157 0 141.83906636288157 194.70727865237859 0 0 0 0 -143.46851234856877 131.77179180046369 0 131.77179180046369 195.54788863261001 0 0 0 0 -149.51310160467619 92.690586688207986 0 92.690586688207986 76.93447663092229 0 0 0 0 -7.8470595728968444 8.5436700252950146 0 8.5436700252950146 1.6600792735936807 0 0 0 0 -149.40541179094271 25.362201001709764 0 25.362201001709764 10.429861889657332 0 0 0 0 -140.12575687222852 60.691984989432967 0 60.691984989432967 -6.919794585017371 0 0 0 0 -86.375905858990066 76.150225366357745 0 76.150225366357745 -3.4539725082779569 0 0 0 0 -148.32385974909994 12.886018152399629 0 12.886018152399629 -49.943072402616963 0 0 0 0 -71.75603546127968 118.22298678508378 0 118.22298678508378 -171.83314011589391 0 0 0 0 -140.05371951198322 118.3710604145308 0 118.3710604145308 -32.246164138254244 0 0 0 0 -675.01190235342801 -1272.1988498874089 0 -1272.1988498874089 863.90893745439098 0 0 0 0 -1.2740365321220537 0.10891323252872098 0 0.10891323252872098 30.250759458028028 0 0 0 0 282.24070834798658 1105.3120458354615 0 1105.3120458354615 656.44053155070287 0 0 0 0 -206.31052763198386 902.67886439352151 0 902.67886439352151 1551.3632208824329 0 0 0 0 -58.921392485412071 173.69734472450364 0 173.69734472450364 1713.1586957058662 0 0 0 0 -89.659186851364211 375.14572329363727 0 375.14572329363727 568.8349157269331 0 0 0 0 -77.571214922209037 999.32121642418861 0 999.32121642418861 847.46212907362496 0 0 0 0 -160.94993302172225 926.55514094375394 0 926.55514094375394 809.93872785200074 0 0 0 0 345.43497825277154 770.73398480714968 0 770.73398480714968 281.94455731060589 0 0 0 0 79.074212450708728 819.57723215530859 0 819.57723215530859 975.39919785033271 0 0 0 0 109.68296886548342 273.6758814065397 0 273.6758814065397 264.59433834827769 0 0 0 0 158.49006526614903 390.70520832624425 0 390.70520832624425 389.53800530225271 0 0 0 0 113.93436272065446 353.63118586102792 0 353.63118586102792 59.260490964079509 0 0 0 0 85.354301411425695 2.2530262448708527 0 2.2530262448708527 28.941839965500549 0 0 0 0 88.444333571620518 -31.899427433294477 0 -31.899427433294477 6.1461853682958463 0 0 0 0 202.04138990255251 -23.591931850190122 0 -23.591931850190122 -59.543894951872062 0 0 0 0 191.08697766113619 85.705995048741897 0 85.705995048741897 -33.450737339895568 0 0 0 0 70.836604926429573 4.434540675531025 0 4.434540675531025 -66.718339494487736 0 0 0 0 171.96190016261244 97.395925393240759 0 97.395925393240759 -8.2964262211353343 0 0 0 0 386.12251764270331 114.31695599828527 0 114.31695599828527 -7.8357163697510259 0 0 0 0 182.0200837664961 -37.635478599659109 0 -37.635478599659109 325.64234875819238 0 0 0 0 573.11963462206768 -430.97097716039571 0 -430.97097716039571 732.91566907204106 0 0 0 0 274.88446563946309 116.73489847928067 0 116.73489847928067 -130.40144256135682 0 0 0 0 179.95509860747552 484.86330904380884 0 484.86330904380884 -243.97818538580759 0 0 0 0 -254.1411268744705 356.19305857992003 0 356.19305857992003 39.872667525378347 0 0 0 0 1142.1483183864257 356.95539603184079 0 356.95539603184079 -276.54220033994352 0 0 0 0 -88.548287627490936 345.67407695535076 0 345.67407695535076 -138.4709124310757 0 0 0 0 -369.46036495063436 425.58611080683568 0 425.58611080683568 -78.550966889335541 0 0 0 0 144.19249596570444 238.14028383414552 0 238.14028383414552 -216.54173503232596 0 0 0 0 -87.109800385343306 250.3978305238038 0 250.3978305238038 -129.22016476097633 0 0 0 0 18.57634686990059 244.67011873375304 0 244.67011873375304 -161.20047187608725 0 0 0 0 -5.0102628509339411 179.81595381382067 0 179.81595381382067 -84.695744225480667 0 0 0 0 216.75232193653756 113.18452268554029 0 113.18452268554029 -96.51251646791934 0 0 0 0 81.454860738813295 94.390232241566991 0 94.390232241566991 -79.529801570199197 0 0 0 0 108.82290828198893 69.008341633438249 0 69.008341633438249 -59.874650166122592 0 0 0 0 51.562613920366857 42.056465640882379 0 42.056465640882379 -66.074450337575399 0 0 0 0 47.983096845578984 -42.796940444350184 0 -42.796940444350184 -41.446296339854598 0 0 0 0 49.427668011670903 213.08638920197336 0 213.08638920197336 -160.66428410389926 0 0 0 0 -28.123702092654725 37.296207482162316 0 37.296207482162316 -50.860768447628516 0 0 0 0 130.70459771103015 -119.66362171040237 0 -119.66362171040237 -259.40285838631098 0 0 0 0 -85.423681693895531 72.728998431424117 0 72.728998431424117 -13.861484461654925 0 0 0 0 562.06072368917376 463.58437405700533 0 463.58437405700533 -104.73225604867912 0 0 0 0 -269.1761200697847 -128.25163750841466 0 -128.25163750841466 -145.00696017034352 0 0 0 0 -294.14107180736073 183.68188828176335 0 183.68188828176335 -63.980191579641541 0 0 0 0 293.30533670351724 439.13019419307238 0 439.13019419307238 -21.411991409695474 0 0 0 0 204.39524675098801 227.48375653352559 0 227.48375653352559 -288.18278708418075 0 0 0 0 211.5086408296338 261.54438530906191 0 261.54438530906191 -152.66892861107772 0 0 0 0 -225.57864449342014 291.63265981450968 0 291.63265981450968 -348.83534253507969 0 0 0 0 -79.125712849463724 73.38406509690563 0 73.38406509690563 -16.590970066340105 0 0 0 0 -66.318380311610781 254.96641947103251 0 254.96641947103251 -344.0075900980446 0 0 0 0 -229.95418124209391 121.19269073561736 0 121.19269073561736 -307.44473575757002 0 0 0 0 -61.119418807778857 74.250469816899567 0 74.250469816899567 -300.88809637139639 0 0 0 0 -166.17180385866959 239.88714748105849 0 239.88714748105849 -138.6174255488877 0 0 0 0 -36.473983116363115 52.705247167272233 0 52.705247167272233 -56.66851123617181 0 0 0 0 -184.44596769804775 300.12358177096758 0 300.12358177096758 -177.05097595206462 0 0 0 0 -170.43735119792291 351.59023145929677 0 351.59023145929677 -272.77679605351295 0 0 0 0 -49.800919595882249 34.86457592027439 0 34.86457592027439 43.445770943020591 0 0 0 0 -120.45480377835338 120.90521109160909 0 120.90521109160909 -71.700432698053191 0 0 0 0 -90.187817828402331 144.84938825069912 0 144.84938825069912 -100.10930827571428 0 0 0 0 -138.90955076540922 283.80017047399451 0 283.80017047399451 -236.15581021932303 0 0 0 0 -244.97219691610371 325.14116504092817 0 325.14116504092817 -132.05739939489285 0 0 0 0 -53.492953458298871 548.39376562629332 0 548.39376562629332 87.53704690655286 0 0 0 0 -74.188444340492424 511.60890821999783 0 511.60890821999783 88.457917789426574 0 0 0 0 -297.01766480235528 642.24123636771401 0 642.24123636771401 48.114281973334073 0 0 0 0 -73.898030887841742 709.72510846518344 0 709.72510846518344 -413.43212437281909 0 0 0 0 -39.679449187242426 559.60790166440711 0 559.60790166440711 67.981075582407357 0 0 0 0 -248.38659356138669 567.59082983370172 0 567.59082983370172 429.98022283957107 0 0 0 0 -284.57712375588017 559.46527244032768 0 559.46527244032768 1100.3758166856678 0 0 0 0 -296.39433480384287 465.10862287365126 0 465.10862287365126 348.01445679701283 0 0 0 0 -213.15427392875063 571.18293316689233 0 571.18293316689233 151.35604190078448 0 0 0 0 -116.20639235863928 469.07460042602906 0 469.07460042602906 258.77655948121537 0 0 0 0 -118.81505793067663 451.09302774872049 0 451.09302774872049 134.83986568881664 0 0 0 0 157.46567771284754 363.02848541471758 0 363.02848541471758 62.275538156252878 0 0 0 0 -20.960887702964101 360.35928972360853 0 360.35928972360853 92.230687231349293 0 0 0 0 87.306575311886263 487.70444650085847 0 487.70444650085847 96.791194579956937 0 0 0 0 -88.550307353134372 74.452324074822144 0 74.452324074822144 -9.6779737967970618 0 0 0 0 -19.971203571050296 25.002081093887568 0 25.002081093887568 -31.102640863535441 0 0 0 0 -419.37740175952786 -205.9974775287701 0 -205.9974775287701 -82.687273714094772 0 0 0 0 -129.68108382158971 196.58775699703256 0 196.58775699703256 -59.752815758285578 0 0 0 0 -28.1752537945722 -14.760094558820128 0 -14.760094558820128 -494.51520161300141 0 0 0 0 184.85887411881413 320.56010401184903 0 320.56010401184903 309.5901767437972 0 0 0 0 304.68108569214746 597.28888327357708 0 597.28888327357708 150.50978553701134 0 0 0 0 -468.62366423195635 -17.726583424926503 0 -17.726583424926503 207.95812829962233 0 0 0 0 129.02598508621122 402.74216319609695 0 402.74216319609695 -215.32710675348062 0 0 0 0 136.63567808377957 446.65791816199453 0 446.65791816199453 37.732570252905134 0 0 0 0 126.82889743535998 329.49253697841777 0 329.49253697841777 -228.60109638389986 0 0 0 0 266.68355406024784 196.86522279416386 0 196.86522279416386 -102.84960699349176 0 0 0 0 512.32578667837515 201.22622048910125 0 201.22622048910125 -3.8530157186905853 0 0 0 0 284.92242295558253 342.56693879994145 0 342.56693879994145 -86.614931305404752 0 0 0 0 379.47525798322749 237.57551888885791 0 237.57551888885791 -210.50761689050705 0 0 0 0 206.59746850043302 286.17349662238848 0 286.17349662238848 -209.64282181953604 0 0 0 0 325.59512215345239 229.81833313498646 0 229.81833313498646 -401.46101013442967 0 0 0 0 249.2939286337396 175.8122805083467 0 175.8122805083467 -385.64237324245914 0 0 0 0 -42.354175323496747 93.943294359720312 0 93.943294359720312 -293.4292771495675 0 0 0 0 33.114802087762655 264.06240281575447 0 264.06240281575447 -126.91571760857187 0 0 0 0 70.881754469017324 222.08990290710426 0 222.08990290710426 -637.97825986842508 0 0 0 0 66.670753990081721 194.19036081593367 0 194.19036081593367 -713.30240340280579 0 0 0 0 -58.697697004135989 95.233570523916569 0 95.233570523916569 -603.64030975372953 0 0 0 0 -35.527331067576597 156.4520886364553 0 156.4520886364553 -476.29061487564468 0 0 0 0 98.38355247263371 601.23909482095587 0 601.23909482095587 1018.5374545599334 0 0 0 0 -26.99449494866424 21.637791062906189 0 21.637791062906189 -15.317244023681297 0 0 0 0 307.57096721883681 293.44676933705523 0 293.44676933705523 104.85260399406252 0 0 0 0 389.91532348948385 429.18775301597998 0 429.18775301597998 51.502559542292147 0 0 0 0 219.74979712750428 103.8073217447527 0 103.8073217447527 215.06747397214349 0 0 0 0 -57.695303120734025 -148.13850671525142 0 -148.13850671525142 -700.18455328728669 0 0 0 0 -1.6275954600660043 74.809958276135148 0 74.809958276135148 -324.95783410946024 0 0 0 0 -33.378114335348073 61.418650233208609 0 61.418650233208609 -325.41811111342395 0 0 0 0 -92.734923198637262 81.396842134388862 0 81.396842134388862 -295.61141219845013 0 0 0 0 534.96096737356493 202.76432726344501 0 202.76432726344501 -398.50253702286864 0 0 0 0 414.19908421221771 497.93245503050275 0 497.93245503050275 -354.30834007683188 0 0 0 0 213.47667522115808 468.46772502348176 0 468.46772502348176 -350.15423600719078 0 0 0 0 1939.9245663332986 -550.27777836516179 0 -550.27777836516179 -816.35592152722165 0 0 0 0 1825.3581219958724 984.43520398091641 0 984.43520398091641 -521.14182194930618 0 0 0 0 1123.0875133828104 -166.94907430331659 0 -166.94907430331659 -312.90253839534125 0 0 0 0 -1257.5696099418637 825.2857513987401 0 825.2857513987401 614.97697859906475 0 0 0 0 -59.484287561623205 1911.1246429939929 0 1911.1246429939929 597.63414247147739 0 0 0 0 -749.7964251281519 -340.33511891130183 0 -340.33511891130183 -364.30932062882221 0 0 0 0 -33.635251111211403 32.182113596748707 0 32.182113596748707 -24.295410872281451 0 0 0 0 93.65154350352168 583.49744770118559 0 583.49744770118559 1215.6279677740895 0 0 0 0 315.78847068879986 377.46248507480777 0 377.46248507480777 -624.46088026871439 0 0 0 0 514.6692816705181 -437.3588599046343 0 -437.3588599046343 -106.82561236769834 0 0 0 0 -38.532959172620863 44.326018554198839 0 44.326018554198839 -41.991830227164598 0 0 0 0 -225.23528270568204 1381.9632012879956 0 1381.9632012879956 586.7213297176495 0 0 0 0 135.86863863869257 1500.6023306209881 0 1500.6023306209881 -573.25710890287883 0 0 0 0 -175.5423939636712 -238.04229703081364 0 -238.04229703081364 -817.3334188476083 0 0 0 0 -4.0375241896638272 36.467345607111668 0 36.467345607111668 47.079938918247365 0 0 0 0 -270.16224180772861 -75.709869317341145 0 -75.709869317341145 586.82827881416597 0 0 0 0 -0.52965287755662871 -7.4425682546985339 0 -7.4425682546985339 -36.990207524413712 0 0 0 0 28.012390877236612 -46.610212196777411 0 -46.610212196777411 -750.01825319232262 0 0 0 0 -102.61410027431702 229.61848384552104 0 229.61848384552104 410.17897096517549 0 0 0 0 23.598067138205884 191.02971536186516 0 191.02971536186516 125.04007656337903 0 0 0 0 31.007557051241747 24.819755648307364 0 24.819755648307364 142.64290930269817 0 0 0 0 -9.2116864214185625 505.25900286448086 0 505.25900286448086 -705.39112785704515 0 0 0 0 39.211572090548358 130.35431301089633 0 130.35431301089633 -17.852778260555947 0 0 0 0 -238.71483215821718 450.33633393404307 0 450.33633393404307 -202.14284260827844 0 0 0 0 103.81077097276284 316.77051795375473 0 316.77051795375473 -132.53978055824155 0 0 0 0 49.190560245551751 380.82648852775219 0 380.82648852775219 67.089795107705868 0 0 0 0 -27.939683941251133 184.71213253422502 0 184.71213253422502 82.132204601189983 0 0 0 0 10.746858995305956 111.49945524720715 0 111.49945524720715 -142.2183797056345 0 0 0 0 158.95020023329926 105.39975269426805 0 105.39975269426805 -160.07092881632889 0 0 0 0 140.64393268484855 207.79614746896004 0 207.79614746896004 -613.00344413021958 0 0 0 0 233.56099407400325 54.66472161639831 0 54.66472161639831 -637.71710823028116 0 0 0 0 38.331380160758272 71.133960976490926 0 71.133960976490926 83.133128662115269 0 0 0 0 47.123504730303182 131.94780085940712 0 131.94780085940712 3.2858004082920491 0 0 0 0 67.578954764438095 270.57769181951517 0 270.57769181951517 -147.49288155867737 0 0 0 0 -35.323954045612481 158.06588458416411 0 158.06588458416411 204.19259698780547 0 0 0 0 -47.962507127493154 272.89964275947023 0 272.89964275947023 9.8426103277238326 0 0 0 0 -10.588358388966299 198.68820433577366 0 198.68820433577366 122.32516026242229 0 0 0 0 159.97888484297437 78.473545165929409 0 78.473545165929409 144.73802184540273 0 0 0 0 21.601525849589962 208.85880142666326 0 208.85880142666326 123.3304553772648 0 0 0 0 14.178501650184053 119.41522770743443 0 119.41522770743443 53.576839791704074 0 0 0 0 32.931704602639051 50.07041544827571 0 50.07041544827571 -59.139970938578983 0 0 0 0 51.031729672937217 -63.74699426693951 0 -63.74699426693951 -429.6922771193058 0 0 0 0 -191.09821548119726 -126.44459618492692 0 -126.44459618492692 -694.3281996860751 0 0 0 0 -152.4986403075909 347.53626685455492 0 347.53626685455492 55.561796775466064 0 0 0 0 -96.093107504832005 278.427438761144 0 278.427438761144 -550.22052807018918 0 0 0 0 331.82450906942404 -82.854410218470434 0 -82.854410218470434 -488.88026921154233 0 0 0 0 155.1728494331328 279.62839047377929 0 279.62839047377929 94.960079271539144 0 0 0 0 163.54875411661487 306.90776468162221 0 306.90776468162221 -634.15932939259801 0 0 0 0 -79.62478512807138 119.29103504652812 0 119.29103504652812 96.785703951522009 0 0 0 0 -76.240365652022859 59.675845641734639 0 59.675845641734639 1.0045103453810853 0 0 0 0 -119.75059569319274 167.4019697193944 0 167.4019697193944 61.963779321034963 0 0 0 0 -63.293316756142303 72.78218473061861 0 72.78218473061861 81.725620037894259 0 0 0 0 39.062595123305442 64.191903533031208 0 64.191903533031208 24.249803078363414 0 0 0 0 -27.763953527679405 88.545588276860144 0 88.545588276860144 -49.258657802449306 0 0 0 0 -70.435566439569811 88.554111001956699 0 88.554111001956699 -195.25558168409043 0 0 0 0 -67.966857387073105 63.242465814357274 0 63.242465814357274 -65.050870836952527 0 0 0 0 -83.58433744875947 11.928695473136031 0 11.928695473136031 18.346159894019365 0 0 0 0 -37.642548531555803 86.361328190258064 0 86.361328190258064 -39.310672822786728 0 0 0 0 -226.73365519649815 66.404561898569227 0 66.404561898569227 -40.08917247071804 0 0 0 0 -49.097158921889786 105.42068949383975 0 105.42068949383975 -115.02210109159932 0 0 0 0 -32.61925323499878 26.370689721861595 0 26.370689721861595 -15.124407357795405 0 0 0 0 -265.89100945059909 200.76900973072043 0 200.76900973072043 -103.1273593154765 0 0 0 0 -32.88239798109862 86.366934837926237 0 86.366934837926237 -273.64588958135573 0 0 0 0 -173.95644357735 194.70935985168398 0 194.70935985168398 -110.12916958291316 0 0 0 0 -20.673540510973567 4.1769420291099379 0 4.1769420291099379 16.991404340875931 0 0 0 0 -71.431913379477919 94.491261408984428 0 94.491261408984428 -29.922359598567709 0 0 0 0 -148.56268365997676 126.160465035784 0 126.160465035784 27.736233013391029 0 0 0 0 -95.953858423250495 26.105716327088885 0 26.105716327088885 266.66959942665562 0 0 0 0 -80.117518509397513 47.030430831342585 0 47.030430831342585 -15.054051218476857 0 0 0 0 -22.839426408207672 5.6131313986065265 0 5.6131313986065265 16.611756252212274 0 0 0 0 -81.941596829972696 189.10818242347159 0 189.10818242347159 316.08656490691283 0 0 0 0 47.860478829403291 254.10881180404976 0 254.10881180404976 121.219066955382 0 0 0 0 12.441134671520558 239.6641581554577 0 239.6641581554577 123.8542327817413 0 0 0 0 5.1411718890303746 148.98850750196652 0 148.98850750196652 400.46645548683591 0 0 0 0 -155.1740656462789 200.49366220695811 0 200.49366220695811 297.37638008402428 0 0 0 0 -155.96279521232645 267.50249051432183 0 267.50249051432183 374.60069140227279 0 0 0 0 -173.80562410778657 222.69961723544839 0 222.69961723544839 320.73456511617405 0 0 0 0 -85.206022251775721 289.04724153564894 0 289.04724153564894 273.97884085348051 0 0 0 0 -38.928722408367321 328.97064909743494 0 328.97064909743494 303.64776768059528 0 0 0 0 -37.030229228614189 307.27177379211753 0 307.27177379211753 532.76895260246238 0 0 0 0 126.35762391536264 459.32312881469261 0 459.32312881469261 546.98332172926166 0 0 0 0 5.0106011842445071 20.058222511167884 0 20.058222511167884 -11.565864433902775 0 0 0 0 -29.326953955656791 125.15821111301193 0 125.15821111301193 -118.4659781800583 0 0 0 0 -39.281118838520698 56.892195463574836 0 56.892195463574836 -52.655558055816414 0 0 0 0 -7.8164721849461785 140.66748356152675 0 140.66748356152675 -119.86941674481204 0 0 0 0 -55.219605465550558 174.74043216694554 0 174.74043216694554 199.10359375947883 0 0 0 0 12.97670054110624 42.784328191278448 0 42.784328191278448 3.3418309957560552 0 0 0 0 -104.18643478046579 151.62776976612804 0 151.62776976612804 317.3607858408941 0 0 0 0 -18.151875448929786 362.88129125429259 0 362.88129125429259 -342.28089046010427 0 0 0 0 205.90445820875902 -17.398707283522526 0 -17.398707283522526 -337.13447478301532 0 0 0 0 12.912364869412585 6.369701836673201 0 6.369701836673201 4.1196110110485336 0 0 0 0 -180.16854324593442 -377.33415708896064 0 -377.33415708896064 774.36915950517869 0 0 0 0 -173.66599186180974 186.10514064240851 0 186.10514064240851 300.28946273874317 0 0 0 0 -7.5408138810307719 -58.067983666122018 0 -58.067983666122018 455.830178343429 0 0 0 0 -480.23179763668304 -68.172007968765683 0 -68.172007968765683 671.30221513960714 0 0 0 0 -380.93360790412407 492.36342647881247 0 492.36342647881247 103.31254776001879 0 0 0 0 -598.01255848322035 305.09682496545429 0 305.09682496545429 407.40324346347006 0 0 0 0 717.97446581762415 -95.235956777090905 0 -95.235956777090905 -547.55421976331854 0 0 0 0 18.663130242754363 69.190425228602265 0 69.190425228602265 -33.087571101207686 0 0 0 0 82.195182180279517 82.515121294431083 0 82.515121294431083 60.978068745008159 0 0 0 0 35.290916001336882 84.557913569966331 0 84.557913569966331 -244.3434555447493 0 0 0 0 14.237890800926834 59.105636690663232 0 59.105636690663232 -249.66389901424554 0 0 0 0 49.460051494372138 78.756886567100395 0 78.756886567100395 -21.158533126525249 0 0 0 0 -130.02223094942747 178.72807010841007 0 178.72807010841007 -101.87140463881769 0 0 0 0 44.305166777499835 43.899009806169488 0 43.899009806169488 -191.8447242521288 0 0 0 0 30.737921715626726 81.940528495571925 0 81.940528495571925 -175.26143966333984 0 0 0 0 61.536193859109318 84.693402346366085 0 84.693402346366085 -29.036496723541411 0 0 0 0 29.67974676800398 75.907437706333454 0 75.907437706333454 -38.776975165903494 0 0 0 0 55.319537690997095 543.15715633381478 0 543.15715633381478 125.52760862350988 0 0 0 0 88.002696718016523 133.54902246737947 0 133.54902246737947 -124.60809755877199 0 0 0 0 -73.313520678351779 164.38318671063826 0 164.38318671063826 -55.50403076261864 0 0 0 0 -15.562853125535185 114.62429570048698 0 114.62429570048698 -274.92372836488357 0 0 0 0 -43.655838947879943 71.107999782908706 0 71.107999782908706 -23.337890982318839 0 0 0 0 -59.910241336052422 335.96802460844629 0 335.96802460844629 -257.59256155752519 0 0 0 0 -61.633827861573081 226.60314095152717 0 226.60314095152717 123.94999450023829 0 0 0 0 -6.7895413343503606 226.07769882660068 0 226.07769882660068 116.38481602532556 0 0 0 0 53.347789617575472 221.82943604211323 0 221.82943604211323 -80.506877525127493 0 0 0 0 14.209956408085418 216.43506261568837 0 216.43506261568837 -42.442216560040833 0 0 0 0 -4.3665157536015613 208.23033195058815 0 208.23033195058815 -44.897726782372047 0 0 0 0 6.0545346148501267 218.89620498341537 0 218.89620498341537 -79.599663491550018 0 0 0 0 21.342755548233981 98.239748673040594 0 98.239748673040594 -16.418096896442876 0 0 0 0 35.852874354781136 99.694650335155401 0 99.694650335155401 -15.63038631358107 0 0 0 0 30.149825575870381 97.639725898694195 0 97.639725898694195 78.238818152190333 0 0 0 0 121.36665752214321 21.607910409362376 0 21.607910409362376 -260.85574654486572 0 0 0 0 26.472814802487846 70.591838230757276 0 70.591838230757276 -20.808943472598912 0 0 0 0 34.432655947806779 100.98310423504154 0 100.98310423504154 -16.018842913428671 0 0 0 0 9.8303892395051662 102.73445399953198 0 102.73445399953198 -112.9353900658607 0 0 0 0 23.254170403516071 82.274861846166743 0 82.274861846166743 -32.660640692513169 0 0 0 0 8.3250026492839027 108.91165295536094 0 108.91165295536094 -49.020800920840401 0 0 0 0 21.795403119989487 103.3455915959841 0 103.3455915959841 -6.4413935169242045 0 0 0 0 21.205882408306934 102.50483121235447 0 102.50483121235447 -13.254641439065381 0 0 0 0 3.7089386764896517 90.825153055734603 0 90.825153055734603 15.144697583304021 0 0 0 0 -24.230278654373251 153.1858437507035 0 153.1858437507035 28.726896369348651 0 0 0 0 12.186450766334588 88.968533844241833 0 88.968533844241833 -5.2454080142659905 0 0 0 0 31.393460004534006 98.700283515321146 0 98.700283515321146 -91.238686646490407 0 0 0 0 -106.67957920292974 151.14298833619978 0 151.14298833619978 51.225494992526365 0 0 0 0 58.6176312601619 87.132292426787672 0 87.132292426787672 33.8771566498026 0 0 0 0 -7.9811185677062895 220.68802188576774 0 220.68802188576774 -35.214890547766117 0 0 0 0 3.3248037275479874 226.750870561802 0 226.750870561802 -33.508004409348359 0 0 0 0 -76.60437912528505 159.14750184487502 0 159.14750184487502 3.5831175524144783 0 0 0 0 -6.1353665557500179 36.675578822988882 0 36.675578822988882 11.651321775344762 0 0 0 0 117.78188314975705 177.84692841614378 0 177.84692841614378 -57.105083679241943 0 0 0 0 5.1110215947119286 155.15224477435913 0 155.15224477435913 0.51463939472159836 0 0 0 0 36.030646270053694 85.016850569340022 0 85.016850569340022 53.059570090015768 0 0 0 0 -33.75591833650833 195.63363834070151 0 195.63363834070151 30.387910475044919 0 0 0 0 18.851635920989793 112.18699308686337 0 112.18699308686337 40.323859718475433 0 0 0 0 80.239010844405129 170.27128970336048 0 170.27128970336048 -56.002037016143731 0 0 0 0 19.805974005532391 75.776014176563621 0 75.776014176563621 -42.637143183801456 0 0 0 0 46.702975554060686 128.71308888684689 0 128.71308888684689 -6.6046557407171349 0 0 0 0 10.632250799832264 58.906542415291682 0 58.906542415291682 -15.524023774708482 0 0 0 0 28.45740754592407 101.38746260787684 0 101.38746260787684 160.0521736182709 0 0 0 0 -0.97899308288629072 18.137286303446519 0 18.137286303446519 17.078330929844217 0 0 0 0 11.901474883183695 78.596698503691712 0 78.596698503691712 -68.753446032024414 0 0 0 0 10.857628347663336 21.017318863962203 0 21.017318863962203 4.8734634591579997 0 0 0 0 18.767017799416919 64.947663327484435 0 64.947663327484435 81.782106682692785 0 0 0 0 42.537138679566851 84.120483496141787 0 84.120483496141787 83.551924822193541 0 0 0 0 -30.881655061792117 115.01050074785144 0 115.01050074785144 -144.22382802249015 0 0 0 0 -61.422278803765948 163.66003723570353 0 163.66003723570353 -20.318308437366511 0 0 0 0 37.617194046732038 169.8528228590975 0 169.8528228590975 -106.38642488626647 0 0 0 0 -12.668915415938443 100.02444074513618 0 100.02444074513618 40.647464586989287 0 0 0 0 -5.8592123247422307 59.695219730123881 0 59.695219730123881 7.6925591556336812 0 0 0 0 105.60839884473353 163.41811648488056 0 163.41811648488056 92.495273788865234 0 0 0 0 45.249099199427292 120.97895776290898 0 120.97895776290898 -22.831692348574279 0 0 0 0 138.16079302992875 86.743326063414315 0 86.743326063414315 -19.023625883372006 0 0 0 0 4.5375168009863955 3.5883408909713097 0 3.5883408909713097 -5.8080764550797639 0 0 0 0 39.818641033662374 77.373156399576715 0 77.373156399576715 2.9199700544608573 0 0 0 0 -20.953011616962613 126.74084021109229 0 126.74084021109229 65.036335270033305 0 0 0 0 -40.129109955421882 122.4309755576578 0 122.4309755576578 113.26184788407772 0 0 0 0 -51.224120001646043 228.52339431053758 0 228.52339431053758 -37.863793201569933 0 0 0 0 57.399466695380397 132.21096778353603 0 132.21096778353603 31.675553740542455 0 0 0 0 -19.863415211917257 59.675989567758158 0 59.675989567758158 -34.33186568025566 0 0 0 0 125.86798436593381 167.35046806155242 0 167.35046806155242 -154.52141101542838 0 0 0 0 57.857290271211241 134.56232408379583 0 134.56232408379583 13.217610308607618 0 0 0 0 57.025394509278243 13.203219518916562 0 13.203219518916562 -10.081521990210142 0 0 0 0 86.928198216854071 101.21047103749515 0 101.21047103749515 191.12726464096886 0 0 0 0 -45.282001420680899 165.24377082043793 0 165.24377082043793 375.23872455783385 0 0 0 0 90.27478266399703 156.147864460032 0 156.147864460032 -95.146403841757774 0 0 0 0 78.799608335833909 212.96810585513958 0 212.96810585513958 -99.039412321415512 0 0 0 0 111.0532815142123 104.74196948391277 0 104.74196948391277 19.490066506136284 0 0 0 0 -22.146743107993899 76.317736801396535 0 76.317736801396535 -41.892418427738903 0 0 0 0 105.56983038576436 160.01508458133321 0 160.01508458133321 20.014409713587156 0 0 0 0 125.04098536435049 178.24173237472678 0 178.24173237472678 -186.95512556106405 0 0 0 0 80.292935616942486 196.71104478055531 0 196.71104478055531 -138.63234819248464 0 0 0 0 80.096486289949098 113.39401814942539 0 113.39401814942539 50.486462631233735 0 0 0 0 102.45075908257667 100.40681870681532 0 100.40681870681532 33.097936130623765 0 0 0 0 -72.913340903178323 134.28709288020764 0 134.28709288020764 99.569666701208916 0 0 0 0 6.3331593443512304 25.205302177455959 0 25.205302177455959 24.477979048203366 0 0 0 0 106.54475298290345 131.75697100768684 0 131.75697100768684 -281.04177138082014 0 0 0 0 -386.91739114296797 137.74067042153547 0 137.74067042153547 133.24648262315895 0 0 0 0 57.200140181244933 308.27978673909092 0 308.27978673909092 -299.28945288703972 0 0 0 0 114.66399331617868 -184.73454234088786 0 -184.73454234088786 -384.4171237371811 0 0 0 0 -17.70732009701868 98.025037421226557 0 98.025037421226557 -71.165487548139907 0 0 0 0 278.68366971801879 385.22793981964151 0 385.22793981964151 -79.310732574522262 0 0 0 0 87.376324189797742 153.0452795795245 0 153.0452795795245 -33.716677869917476 0 0 0 0 -135.81644013513869 533.50205540355091 0 533.50205540355091 -40.131956280212762 0 0 0 0 -817.51073941690265 888.43348409857936 0 888.43348409857936 -77.776841900089494 0 0 0 0 -440.86151411362516 -53.893134618461772 0 -53.893134618461772 453.71526774537051 0 0 0 0 -241.86280481419453 252.99852146258763 0 252.99852146258763 250.41021241119233 0 0 0 0 1003.5941670988686 -416.84992366390361 0 -416.84992366390361 440.98772986209224 0 0 0 0 -1136.385975252575 -684.26522122351525 0 -684.26522122351525 1350.5129452204637 0 0 0 0 569.24598366874852 181.10629917291226 0 181.10629917291226 267.55895769252311 0 0 0 0 1067.9323083166382 202.47231895796358 0 202.47231895796358 146.86995909253164 0 0 0 0 138.67885931396449 23.816464261753936 0 23.816464261753936 251.65515715119909 0 0 0 0 395.87437808822142 288.08082361744255 0 288.08082361744255 183.27106912299496 0 0 0 0 65.400892543344526 137.12040101340972 0 137.12040101340972 83.307696826670508 0 0 0 0 -89.250501228525536 181.06937657231811 0 181.06937657231811 55.819749024452904 0 0 0 0 -17.937060467553238 217.76243953133098 0 217.76243953133098 12.572139719457482 0 0 0 0 -29.015789292679983 93.696998539286142 0 93.696998539286142 182.38008543671344 0 0 0 0 26.412394519211375 202.59583420753006 0 202.59583420753006 17.462742564866858 0 0 0 0 -69.389175587406498 355.44206322538412 0 355.44206322538412 -224.82534273833153 0 0 0 0 -222.01299170256243 272.53396741822326 0 272.53396741822326 175.21026919177325 0 0 0 0 52.318707432968949 272.24684668232112 0 272.24684668232112 -433.13403762675807 0 0 0 0 -19.954726221971214 167.51442947375108 0 167.51442947375108 186.47134714859703 0 0 0 0 -198.33064309063775 343.01379766232458 0 343.01379766232458 107.26656590315815 0 0 0 0 13.366856211811637 31.950780903856213 0 31.950780903856213 10.170147441857026 0 0 0 0 121.95079176338186 125.47329876032109 0 125.47329876032109 -170.61541961361058 0 0 0 0 -204.51558566614403 375.05755136816879 0 375.05755136816879 30.157212797214015 0 0 0 0 51.025894291873556 395.30113725188494 0 395.30113725188494 -146.43919060995904 0 0 0 0 165.6183166775736 571.69505612716239 0 571.69505612716239 -177.85839985977145 0 0 0 0 -505.56348234230245 877.26276448422141 0 877.26276448422141 -292.67350170960708 0 0 0 0 835.54401225343463 1202.8984148194268 0 1202.8984148194268 -1088.6091116637035 0 0 0 0 172.38617316004093 495.49010350935623 0 495.49010350935623 -537.32605398233136 0 0 0 0 668.22416056297425 365.31785030569472 0 365.31785030569472 -616.13917114378273 0 0 0 0 154.32106172964268 305.5706925272325 0 305.5706925272325 -461.47396380224745 0 0 0 0 97.808625146368286 367.55921171458431 0 367.55921171458431 -171.79522545126747 0 0 0 0 80.33096827888221 233.77200128909499 0 233.77200128909499 -159.75366403905718 0 0 0 0 114.54966781561961 196.75873293334007 0 196.75873293334007 -292.547720604917 0 0 0 0 89.11723372641427 210.03192018489244 0 210.03192018489244 -259.09929713171368 0 0 0 0 82.047801674560105 166.66623158061532 0 166.66623158061532 -287.9955189521188 0 0 0 0 114.80695523700706 -52.643239760445795 0 -52.643239760445795 -538.10191587531699 0 0 0 0 336.58644974253912 162.23289580454912 0 162.23289580454912 -730.9983320477686 0 0 0 0 147.54255943220051 244.09409258150117 0 244.09409258150117 -263.45485974108169 0 0 0 0 58.27877052497206 223.16839988153424 0 223.16839988153424 -192.03187500512195 0 0 0 0 91.480586946687254 146.90517985943416 0 146.90517985943416 -154.16936749654997 0 0 0 0 -150.98814811208285 18.389751146977687 0 18.389751146977687 -135.13506204340274 0 0 0 0 66.987658913931227 244.73343346065121 0 244.73343346065121 248.5584870182247 0 0 0 0 -54.475243093780591 72.235238175211634 0 72.235238175211634 219.17505707420605 0 0 0 0 198.99755767706301 106.18824107094952 0 106.18824107094952 201.03814136379879 0 0 0 0 -96.321650922676781 259.96953703910185 0 259.96953703910185 258.63553428256 0 0 0 0 99.756638018920057 424.23398699766494 0 424.23398699766494 1009.7690084053065 0 0 0 0 19.360483184213962 -1.5231895813103193 0 -1.5231895813103193 1.6309795192505634 0 0 0 0 -19.947875603495049 110.83166302806603 0 110.83166302806603 792.21463068052344 0 0 0 0 105.90866319550696 -67.183839374578838 0 -67.183839374578838 295.21220973415257 0 0 0 0 18.775771945474844 338.65151832125503 0 338.65151832125503 289.06494170508199 0 0 0 0 27.435497008370248 49.840188698311948 0 49.840188698311948 85.082525205227284 0 0 0 0 34.688372929276426 115.75043059643507 0 115.75043059643507 60.440442568572053 0 0 0 0 -28.415026447997661 263.37438108827519 0 263.37438108827519 -113.8897361284362 0 0 0 0 111.99711606809433 287.00052891880296 0 287.00052891880296 -128.38818384367733 0 0 0 0 -11.23969154358295 52.974565952362099 0 52.974565952362099 45.098683138638421 0 0 0 0 83.656452020499273 186.97565607074648 0 186.97565607074648 10.092057211331849 0 0 0 0 150.02388328206871 335.0274585095176 0 335.0274585095176 255.73455277581525 0 0 0 0 37.085013115560287 65.925459748403227 0 65.925459748403227 214.75673458835809 0 0 0 0 54.11070314768466 116.90500082605955 0 116.90500082605955 21.607415381072041 0 0 0 0 16.418243683197034 162.23540934880384 0 162.23540934880384 158.92945691636123 0 0 0 0 -17.340862102343294 18.175601221816976 0 18.175601221816976 17.077943864633156 0 0 0 0 57.214385781437159 225.32629536946479 0 225.32629536946479 110.67327158550324 0 0 0 0 98.901654709741706 199.58549491764552 0 199.58549491764552 101.54301788887824 0 0 0 0 205.72339190001367 43.830343644722234 0 43.830343644722234 -132.40327485970465 0 0 0 0 73.233699136049836 198.02802927699486 0 198.02802927699486 -211.96821494557116 0 0 0 0 -12.285633631319797 112.42788384812229 0 112.42788384812229 90.177454608368862 0 0 0 0 73.540647876286982 74.937706995573805 0 74.937706995573805 -57.426458461344737 0 0 0 0 12.869718368878239 134.64250745277241 0 134.64250745277241 -19.187445743802527 0 0 0 0 0.57217626607416605 91.908047204686227 0 91.908047204686227 28.927761202314286 0 0 0 0 31.039494546024571 109.63173029987527 0 109.63173029987527 -65.89107146013157 0 0 0 0 169.32139075989835 296.88283435301855 0 296.88283435301855 209.2091708619264 0 0 0 0 91.475073734101898 275.52582348652504 0 275.52582348652504 275.89750705490587 0 0 0 0 146.21576930204174 306.13215071822924 0 306.13215071822924 499.41537840656383 0 0 0 0 3.6995663230479181 -3.8858047689763282 0 -3.8858047689763282 -24.360040373089674 0 0 0 0 101.2553532483289 163.18337964301463 0 163.18337964301463 231.50514902706345 0 0 0 0 102.40609117172426 172.96078481053701 0 172.96078481053701 195.8460298164282 0 0 0 0 107.80240566952853 222.35275889112381 0 222.35275889112381 148.9148021099536 0 0 0 0 90.562874308103346 177.42307339474428 0 177.42307339474428 155.93976083707821 0 0 0 0 119.38509733650426 246.49082901766087 0 246.49082901766087 168.7946103974391 0 0 0 0 13.216285023335558 309.54748492718682 0 309.54748492718682 185.84883894243103 0 0 0 0 116.58419344869617 231.18593724223319 0 231.18593724223319 109.75223918716802 0 0 0 0 105.84101786201849 151.60790781959147 0 151.60790781959147 103.30812102541898 0 0 0 0 180.95411763542779 214.27483177024533 0 214.27483177024533 93.522483543177259 0 0 0 0 -13.1968318357697 37.731374996171127 0 37.731374996171127 18.114665835704002 0 0 0 0 84.77623548939664 244.69056755709971 0 244.69056755709971 227.97062214328616 0 0 0 0 19.505447365594591 142.41872193897711 0 142.41872193897711 -74.642704208930809 0 0 0 0 59.056291893735818 134.50455985165021 0 134.50455985165021 -77.385908068084916 0 0 0 0 183.29572936340992 548.33350825487651 0 548.33350825487651 89.576638544021989 0 0 0 0 -8.3192065232542376 50.462076217739479 0 50.462076217739479 -21.253740351669308 0 0 0 0 2054.2280638309048 699.42089966814819 0 699.42089966814819 -222.44029695133213 0 0 0 0 1464.4142723760306 436.41092991508776 0 436.41092991508776 -409.45347549812868 0 0 0 0 479.94616631670942 1010.4218576253916 0 1010.4218576253916 -85.037489883703529 0 0 0 0 1217.7767423763653 1232.3477342982478 0 1232.3477342982478 -353.4954870796937 0 0 0 0 840.01737352800774 379.73328465987834 0 379.73328465987834 -209.34998524212278 0 0 0 0 798.55739562015515 -49.190223294252064 0 -49.190223294252064 -51.701316576298268 0 0 0 0 160.78036245949716 87.544504550885904 0 87.544504550885904 40.158172387200466 0 0 0 0 154.81743477977943 259.36667828020927 0 259.36667828020927 244.0445492857707 0 0 0 0 446.15245349441875 637.39776856544177 0 637.39776856544177 714.41357993451675 0 0 0 0 711.38836047605218 335.71915846183401 0 335.71915846183401 -174.27182782066302 0 0 0 0 695.33267817999877 366.05669397311431 0 366.05669397311431 105.58162366585384 0 0 0 0 482.10806442619651 278.33237496905167 0 278.33237496905167 37.399298938202264 0 0 0 0 1023.8256562619281 233.15453056534716 0 233.15453056534716 30.561134754771047 0 0 0 0 1592.6955219511578 610.13931499177829 0 610.13931499177829 279.49175328131605 0 0 0 0 -24.409626115708612 -8.2005971067134311 0 -8.2005971067134311 7.4052006495484193 0 0 0 0 1.8151832136188641 59.849167847497419 0 59.849167847497419 -65.724136897808307 0 0 0 0 1558.8165430859153 353.01623868010688 0 353.01623868010688 -587.16436421933759 0 0 0 0 321.19539256233838 -62.47289013333102 0 -62.47289013333102 -2670.793036083267 0 0 0 0 974.52851770130565 891.87287783095053 0 891.87287783095053 802.28632974105494 0 0 0 0 -270.89797848722264 -60.201991492824618 0 -60.201991492824618 -2011.586661426094 0 0 0 0 -104.00540295427982 -499.70145196207568 0 -499.70145196207568 -1532.2525178351116 0 0 0 0 -716.5207472396246 87.212849661739384 0 87.212849661739384 -1674.3803099414999 0 0 0 0 723.87282654455885 804.16090389824603 0 804.16090389824603 3085.2823170622723 0 0 0 0 1121.5796472586298 259.04575146909337 0 259.04575146909337 754.78680994647584 0 0 0 0 -39.772280773282091 -888.82389069650071 0 -888.82389069650071 2993.4062610237888 0 0 0 0 -230.24358333781129 233.88536035804827 0 233.88536035804827 -1914.99108079697 0 0 0 0 -704.92799434151368 540.89473712319796 0 540.89473712319796 -2093.5622249118751 0 0 0 0 212.41674500299268 388.02166785422742 0 388.02166785422742 -2743.9720295705501 0 0 0 0 93.222633288512412 21.556059566591447 0 21.556059566591447 -23.808293031546057 0 0 0 0 1381.1664773014199 -403.26962489388097 0 -403.26962489388097 -3064.7766409289825 0 0 0 0 1138.8620132236065 1299.6325778418541 0 1299.6325778418541 97.339394596359853 0 0 0 0 1360.2404586432676 898.17776056065668 0 898.17776056065668 -2362.1400636537091 0 0 0 0 529.85225974599598 -128.95450638389229 0 -128.95450638389229 -1630.2181780757346 0 0 0 0 -93.157361616442358 441.17426761581237 0 441.17426761581237 -2137.4795894158415 0 0 0 0 1215.3120002631995 -380.75934674621334 0 -380.75934674621334 -2044.3634502958012 0 0 0 0 1387.1616461839549 -811.33793614765364 0 -811.33793614765364 -1850.9165017282212 0 0 0 0 1496.8848204750029 -649.72024315286581 0 -649.72024315286581 -2397.6578502875491 0 0 0 0 923.17135890564532 -315.60461604892043 0 -315.60461604892043 -2379.6598656234455 0 0 0 0 743.28216658429301 1626.8884542700835 0 1626.8884542700835 998.78214388416745 0 0 0 0 -384.73162187727939 1927.2116423338448 0 1927.2116423338448 1353.1940519962118 0 0 0 0 2401.4597123801941 -1161.7843549841491 0 -1161.7843549841491 2073.4548985468718 0 0 0 0 -3478.358236354863 23.376071177139238 0 23.376071177139238 -2840.565679068688 0 0 0 0 3473.230764728447 -877.23909386730156 0 -877.23909386730156 -2532.9907842703178 0 0 0 0 84.716310894212228 93.157934100071913 0 93.157934100071913 -57.843310266144982 0 0 0 0 1538.2942717847181 -851.00044233778317 0 -851.00044233778317 -2895.1898332040969 0 0 0 0 37.070115192476727 -6.9648937088564793 0 -6.9648937088564793 -14.927241154072199 0 0 0 0 3015.9088099941146 -374.53890580779989 0 -374.53890580779989 -3005.2047336921605 0 0 0 0 2912.0725091497879 -1248.7580087599345 0 -1248.7580087599345 -2872.7728511149589 0 0 0 0 2864.903388518549 -1305.268940344009 0 -1305.268940344009 -2810.1728869488797 0 0 0 0 1207.1888283660769 -583.63246635169298 0 -583.63246635169298 -1272.0639140921048 0 0 0 0 2704.8637142774533 -1792.9172430166291 0 -1792.9172430166291 -1462.0976436794444 0 0 0 0 2491.5692232757428 -1322.4795297822366 0 -1322.4795297822366 -2092.0464559784014 0 0 0 0 2044.9080157826829 -2074.3402929573367 0 -2074.3402929573367 694.71934585781855 0 0 0 0 779.3483148778032 2236.2259470374611 0 2236.2259470374611 1365.6727381379023 0 0 0 0 3816.0492915251234 -1944.5143150812837 0 -1944.5143150812837 -1921.4779874939641 0 0 0 0 96.596830555840853 113.56452127894858 0 113.56452127894858 -4.7737177277201255 0 0 0 0 31.690599795561866 207.23000026633144 0 207.23000026633144 -47.000723140856735 0 0 0 0 1115.4224413848478 657.65482474877899 0 657.65482474877899 -1144.000939578862 0 0 0 0 73.118564069997319 402.78153126141075 0 402.78153126141075 -1206.0669427767673 0 0 0 0 112.97176057879551 222.79704260094104 0 222.79704260094104 -542.97211449294241 0 0 0 0 -86.822303254767576 -288.01965049777209 0 -288.01965049777209 -801.09508021483225 0 0 0 0 315.63470160922589 -273.05467944726297 0 -273.05467944726297 -1998.9169848788588 0 0 0 0 -1880.7717842860984 842.17341020789172 0 842.17341020789172 4742.134752133431 0 0 0 0 35.722556367616917 -2.2500048277507076 0 -2.2500048277507076 3.5398177954510914 0 0 0 0 776.32251328417624 7.8292820982051126 0 7.8292820982051126 -1828.7436645083653 0 0 0 0 77.790576187799019 117.34869433681078 0 117.34869433681078 70.653658331426612 0 0 0 0 -1384.9242492807762 2119.4234090925065 0 2119.4234090925065 1045.4415724781866 0 0 0 0 143.76979997192939 67.748499471491414 0 67.748499471491414 -95.476942781206162 0 0 0 0 -80.960207219950462 133.66853046554388 0 133.66853046554388 50.330604405975464 0 0 0 0 -90.810938145578319 53.371105031052025 0 53.371105031052025 46.152781429790728 0 0 0 0 1597.2010526908516 -1252.5402778530879 0 -1252.5402778530879 -225.49670625103954 0 0 0 0 -72.169975043106049 94.998943782683099 0 94.998943782683099 7.2238139983537604 0 0 0 0 8.0709089715346636 162.56194059825793 0 162.56194059825793 -426.17159128665662 0 0 0 0 -60.610538266155345 44.851337660453282 0 44.851337660453282 -228.48957753870491 0 0 0 0 -335.72653136077861 177.10571879841882 0 177.10571879841882 -285.87517233484323 0 0 0 0 -389.83495539712021 147.15064804667782 0 147.15064804667782 -203.48567946223739 0 0 0 0 -327.14545235064816 13.706238489593716 0 13.706238489593716 -233.01326708547276 0 0 0 0 -74.552088267420586 50.14214872258043 0 50.14214872258043 -4.9673065455890111 0 0 0 0 -883.95503269689425 2221.8081702775671 0 2221.8081702775671 3129.6470781050957 0 0 0 0 -136.81499267792606 839.6811092542448 0 839.6811092542448 -912.42302174630095 0 0 0 0 -97.523463203553575 82.546533198746332 0 82.546533198746332 -19.343381157255038 0 0 0 0 -13.604479634841443 22.199287467095761 0 22.199287467095761 15.550937116256009 0 0 0 0 -1179.208794875316 -433.13103027807119 0 -433.13103027807119 2427.105218607172 0 0 0 0 811.07341528598408 1134.056719179498 0 1134.056719179498 2465.6637697747356 0 0 0 0 836.13454539736995 1384.445671664027 0 1384.445671664027 2504.329691478637 0 0 0 0 1378.5123389193413 1403.366391198997 0 1403.366391198997 2198.7882347636296 0 0 0 0 23.327144627731691 6.8767474668872666 0 6.8767474668872666 -9.9126905966454348 0 0 0 0 485.52452096137085 114.46071638384092 0 114.46071638384092 -532.24662844111299 0 0 0 0 231.28251713303587 1557.7875294644073 0 1557.7875294644073 3025.1514298257134 0 0 0 0 877.78273870862586 1985.6258367574774 0 1985.6258367574774 1720.2241908731521 0 0 0 0 715.46637004102968 1397.3086390079625 0 1397.3086390079625 1604.9971397151385 0 0 0 0 560.18115280608117 1996.7842295328919 0 1996.7842295328919 2439.2866797683018 0 0 0 0 248.62992264364948 1462.6319777020835 0 1462.6319777020835 1860.8402756559663 0 0 0 0 315.88148722725964 1326.7948018922907 0 1326.7948018922907 1917.434876112311 0 0 0 0 444.66621090805165 1448.2071015100119 0 1448.2071015100119 1736.2859955416061 0 0 0 0 204.58668464849643 1678.216626630905 0 1678.216626630905 1586.9912867067906 0 0 0 0 762.09481216249105 944.89583326415141 0 944.89583326415141 1447.3154584118456 0 0 0 0 343.20479966849598 1550.4276133419407 0 1550.4276133419407 2298.9169173122573 0 0 0 0 385.65771228801714 119.08288655720389 0 119.08288655720389 -72.829451611479271 0 0 0 0 1009.8218918114702 241.73395377201814 0 241.73395377201814 -520.14936826162739 0 0 0 0 148.95972512296066 345.10472906680297 0 345.10472906680297 -22.508292974649521 0 0 0 0 223.0452401880288 328.51649501008797 0 328.51649501008797 39.636403659096686 0 0 0 0 -258.08467378461137 112.99208673757676 0 112.99208673757676 -123.20301487996312 0 0 0 0 -437.51194302093791 43.980315545515623 0 43.980315545515623 -136.84598374115012 0 0 0 0 -68.587770887653789 109.92931724333974 0 109.92931724333974 -68.73606949901199 0 0 0 0 -41.068761491144947 106.81426757276935 0 106.81426757276935 -64.586089262272765 0 0 0 0 -569.79727319492486 93.120233927225854 0 93.120233927225854 -74.17216052034928 0 0 0 0 173.78670980272614 93.620341157005896 0 93.620341157005896 -283.62712348775676 0 0 0 0 -17.032707783125574 37.49925004181798 0 37.49925004181798 -32.339676038089351 0 0 0 0 -4.1184034005113972 -156.94124678480512 0 -156.94124678480512 -546.04223970606836 0 0 0 0 162.00519906129512 394.56294352161785 0 394.56294352161785 -752.62155465091928 0 0 0 0 617.84085548531266 277.05597618003594 0 277.05597618003594 -994.76573934259068 0 0 0 0 -27.564086543420956 106.82185493980367 0 106.82185493980367 -70.503598966856629 0 0 0 0 94.983594136690954 578.56035297374183 0 578.56035297374183 -553.0959307424273 0 0 0 0 -362.32129711510061 379.80657515496205 0 379.80657515496205 -410.34028043607395 0 0 0 0 -387.31512615824613 359.05948450298456 0 359.05948450298456 294.30889731140633 0 0 0 0 -83.865071596450434 -19.536318686747109 0 -19.536318686747109 504.83452858611054 0 0 0 0 -116.48255262301973 49.809273491795466 0 49.809273491795466 137.53149288555142 0 0 0 0 -279.30299273744822 314.5167948572016 0 314.5167948572016 -43.026822232510312 0 0 0 0 -366.7737587162992 54.372757415148953 0 54.372757415148953 46.038117729323858 0 0 0 0 2.1610319347237485 30.880557704645469 0 30.880557704645469 8.6715683145753246 0 0 0 0 3981.4343808567355 546.72673591313651 0 546.72673591313651 -1142.7928086169195 0 0 0 0 -10.043775628183937 9.4412571562235286 0 9.4412571562235286 7.2131109754390081 0 0 0 0 -124.4493800090313 -149.23328591318568 0 -149.23328591318568 2149.3310394255095 0 0 0 0 1457.4236834602534 -913.06725343644575 0 -913.06725343644575 3260.9830697687867 0 0 0 0 -210.10707370160708 398.0005977223118 0 398.0005977223118 553.80064047033738 0 0 0 0 -44.50988495344771 73.270906262589165 0 73.270906262589165 -50.03632050617685 0 0 0 0 303.04559172872541 1169.8266878399263 0 1169.8266878399263 -784.11705087120208 0 0 0 0 1957.7744850478011 2135.8532205949814 0 2135.8532205949814 212.50781403288784 0 0 0 0 30.464362051538046 2428.2702647646001 0 2428.2702647646001 1379.6578842395229 0 0 0 0 1997.4020205564484 929.79500348583679 0 929.79500348583679 -2018.6581392364606 0 0 0 0 -322.71770988360913 850.08225490269979 0 850.08225490269979 -11.27922637519805 0 0 0 0 -128.22456249381844 988.83713935831656 0 988.83713935831656 -1310.6652867306984 0 0 0 0 -572.61602752255931 575.30739570825972 0 575.30739570825972 -526.48522562837024 0 0 0 0 -523.86496443943452 160.34930510685081 0 160.34930510685081 -642.73725237677718 0 0 0 0 16.179962252074802 -33.827731155128276 0 -33.827731155128276 -1662.4306293844711 0 0 0 0 -24.247343326144318 2.3826623652782786 0 2.3826623652782786 5.6300095377458348 0 0 0 0 451.26278533884033 550.53696118918015 0 550.53696118918015 497.21520473280543 0 0 0 0 214.28338873108305 731.363440043835 0 731.363440043835 2002.4015313183263 0 0 0 0 2025.9450694848751 -730.70507508010996 0 -730.70507508010996 1324.1508969399365 0 0 0 0 -34.348537867864096 24.958648908880527 0 24.958648908880527 2.8769790623765914 0 0 0 0 872.40161317661477 1871.9731850338067 0 1871.9731850338067 1127.4528089507985 0 0 0 0 2362.5048324806176 174.76940344970717 0 174.76940344970717 -456.10532620603044 0 0 0 0 838.16781945090952 1563.6268299608964 0 1563.6268299608964 287.50538454305206 0 0 0 0 687.78481647577382 1128.5565585581353 0 1128.5565585581353 1040.3253273992595 0 0 0 0 1462.3968146162051 1871.0847840371807 0 1871.0847840371807 306.21056362737727 0 0 0 0 1857.3133537261572 1046.1512383839763 0 1046.1512383839763 25.662177592484909 0 0 0 0 -31.249539519475821 69.863585871022522 0 69.863585871022522 -37.438107902671113 0 0 0 0 -279.1818362275219 -242.73676427858663 0 -242.73676427858663 1799.0305063718479 0 0 0 0 -299.89952411103241 -380.36811650959635 0 -380.36811650959635 322.78166578366108 0 0 0 0 1778.9230750507711 -790.34175496300668 0 -790.34175496300668 1239.5851459810583 0 0 0 0 -304.00267712076214 -526.86118403799901 0 -526.86118403799901 2514.3490601501217 0 0 0 0 2770.6117898401735 1273.2799469833662 0 1273.2799469833662 -1608.3448191168827 0 0 0 0 1725.4541991659858 2495.9702833345873 0 2495.9702833345873 -576.16101888627963 0 0 0 0 29.547270583893201 -21.68164925194165 0 -21.68164925194165 -10.65750208776095 0 0 0 0 883.64966724567057 1358.7370172164692 0 1358.7370172164692 1807.4228694321046 0 0 0 0 1846.5462435469526 -1813.1273823152751 0 -1813.1273823152751 -4241.4563729214788 0 0 0 0 3.9321223195001949 118.04644597953939 0 118.04644597953939 65.162602216280447 0 0 0 0 89.230754269861791 123.66689137615663 0 123.66689137615663 -155.17893479927852 0 0 0 0 -298.13702269164787 52.804496442317259 0 52.804496442317259 37.345868088400948 0 0 0 0 11.646111498533147 99.891510004671346 0 99.891510004671346 -15.041151329654269 0 0 0 0 191.1217245255757 -29.032205826988502 0 -29.032205826988502 -107.45885548408842 0 0 0 0 480.18489763863909 488.95785187222646 0 488.95785187222646 197.23644727568717 0 0 0 0 15.277135409401353 -7.1957739335391153 0 -7.1957739335391153 0.083327208686135634 0 0 0 0 93.213907206444674 2899.086850813298 0 2899.086850813298 1924.0119918425917 0 0 0 0 534.80073247149994 -206.96146719054377 0 -206.96146719054377 -416.83286301797125 0 0 0 0 -261.49866425457731 255.50658528701388 0 255.50658528701388 86.14399323417274 0 0 0 0 25.590669653008661 69.090718118892653 0 69.090718118892653 -69.68885017974506 0 0 0 0 30.766789822942883 141.73315676228776 0 141.73315676228776 -44.777975482331385 0 0 0 0 -16.348677974809561 122.97630577852533 0 122.97630577852533 -52.120149435668282 0 0 0 0 58.045826421122001 122.9615223433002 0 122.9615223433002 -17.458051143879402 0 0 0 0 102.26814017269317 79.777671231286149 0 79.777671231286149 -45.289553294362122 0 0 0 0 393.53000668698633 -161.39013616223929 0 -161.39013616223929 222.14622117555336 0 0 0 0 284.05752869400658 351.90581589828798 0 351.90581589828798 -68.563901387173246 0 0 0 0 -167.21843769124644 256.88318378452823 0 256.88318378452823 -81.883782325377979 0 0 0 0 -68.356209847815904 112.9349330985858 0 112.9349330985858 22.203926427309092 0 0 0 0 30.820614862506289 32.871643585560321 0 32.871643585560321 -30.276138382646185 0 0 0 0 2480.8888063682825 4182.3831204293328 0 4182.3831204293328 -3528.3434788122349 0 0 0 0 2517.5832002793395 -11.493402583797433 0 -11.493402583797433 14.637408406117174 0 0 0 0 -735.45150797023962 -1055.9589442946999 0 -1055.9589442946999 1399.0253155922346 0 0 0 0 -326.27310694981497 822.14659874287781 0 822.14659874287781 -547.60348446490389 0 0 0 0 -200.51369276849437 378.94386206387207 0 378.94386206387207 32.688884849299939 0 0 0 0 206.9584471679118 453.01054124472284 0 453.01054124472284 -468.42091854943646 0 0 0 0 1112.3416121324922 562.93619199397892 0 562.93619199397892 -652.1007710059057 0 0 0 0 -360.59824443449907 77.558262807455321 0 77.558262807455321 -1101.2226649866898 0 0 0 0 41.304796040122554 115.4820265296697 0 115.4820265296697 -108.99203723162576 0 0 0 0 1083.0345364768032 -326.93163493992779 0 -326.93163493992779 -322.99533367695403 0 0 0 0 -2057.7237070878728 468.80801269498534 0 468.80801269498534 1152.4410938465517 0 0 0 0 426.52122120800777 781.9865120548493 0 781.9865120548493 -1368.0645738420098 0 0 0 0 931.24741129119741 1148.6103760956557 0 1148.6103760956557 -2064.566806527464 0 0 0 0 121.49966879786132 3.1611205456577807 0 3.1611205456577807 -31.058590701710859 0 0 0 0 -1271.9831450501115 585.82422692901673 0 585.82422692901673 -482.27788362406864 0 0 0 0 169.5644575176193 576.42756974072108 0 576.42756974072108 -916.83868667074421 0 0 0 0 45.24557232495291 -19.547813328279297 0 -19.547813328279297 -1.4105117234640199 0 0 0 0 630.20809478280717 1759.0177560513912 0 1759.0177560513912 1931.1409969246965 0 0 0 0 219.09493579332775 -2163.2660099054119 0 -2163.2660099054119 -540.12177378603235 0 0 0 0 168.58782540979882 998.01843490578722 0 998.01843490578722 862.3948346398829 0 0 0 0 1094.254147484731 2019.9758553535812 0 2019.9758553535812 436.27272181949138 0 0 0 0 1470.1657393136329 -711.88007450252974 0 -711.88007450252974 -2381.196841035071 0 0 0 0 583.6558422516573 -3631.6263777549266 0 -3631.6263777549266 -2327.507241436615 0 0 0 0 2300.9856382048251 1930.902463826036 0 1930.902463826036 328.30816054926981 0 0 0 0 1065.4080991718074 1109.3353136309997 0 1109.3353136309997 -118.78145323037825 0 0 0 0 707.71452700428927 958.72100810071788 0 958.72100810071788 -508.59636304076503 0 0 0 0 1079.1252824825401 1274.8751055636135 0 1274.8751055636135 -434.40402960178471 0 0 0 0 584.83599465263978 1328.7288829797981 0 1328.7288829797981 -293.98401480439497 0 0 0 0 1049.6276667021593 1579.3516517340047 0 1579.3516517340047 -175.68269835093815 0 0 0 0 112.3852456010427 773.04019294290993 0 773.04019294290993 87.208578681384097 0 0 0 0 105.14598183807766 935.87492492796741 0 935.87492492796741 -484.10072553444843 0 0 0 0 232.20635138119906 1270.0332186000924 0 1270.0332186000924 128.29600456323169 0 0 0 0 557.61441782997281 1180.6412517447243 0 1180.6412517447243 -127.38973178702145 0 0 0 0 1771.9860908092051 403.04301763471449 0 403.04301763471449 -146.26898894431724 0 0 0 0 678.52657182916664 610.52556681556598 0 610.52556681556598 101.38583374226073 0 0 0 0 826.96806897571332 1088.9817096699189 0 1088.9817096699189 -251.94512485380983 0 0 0 0 813.28152428020258 797.89006397640333 0 797.89006397640333 -150.30667987633933 0 0 0 0 706.98303690421017 1238.4197434226044 0 1238.4197434226044 -227.96827082661184 0 0 0 0 743.43955055146216 1183.814415625875 0 1183.814415625875 -346.07198998786771 0 0 0 0 543.88063372559554 1081.9783830305896 0 1081.9783830305896 -554.23607566932333 0 0 0 0 200.51638270178591 686.2210526548788 0 686.2210526548788 -386.87614830232633 0 0 0 0 545.89397382153402 1049.930414547176 0 1049.930414547176 -311.24753828607936 0 0 0 0 72.267810277022363 951.21776824393601 0 951.21776824393601 -154.55383200434153 0 0 0 0 -47.452387140299834 900.54553940820551 0 900.54553940820551 -114.75961361764348 0 0 0 0 256.89127371309587 613.15488311192166 0 613.15488311192166 -77.419066390346416 0 0 0 0 810.51773448164749 630.38613918266492 0 630.38613918266492 48.159896151075372 0 0 0 0 871.54043826415727 966.47833285707748 0 966.47833285707748 -107.17281271811225 0 0 0 0 457.34959037510998 707.30693167669961 0 707.30693167669961 -190.01410400758323 0 0 0 0 1252.2728730629005 637.75579516993457 0 637.75579516993457 -66.971098501235247 0 0 0 0 967.00465989739132 928.95802660663139 0 928.95802660663139 -165.24440528044215 0 0 0 0 1755.2222326020674 846.5805406552463 0 846.5805406552463 -86.666178827294061 0 0 0 0 1779.091362862986 591.11577332467232 0 591.11577332467232 366.18964008022158 0 0 0 0 334.09950016676976 406.04468091451417 0 406.04468091451417 145.23459478359655 0 0 0 0 -1960.2016242439531 527.96888851455878 0 527.96888851455878 19.002143580095435 0 0 0 0 -1442.6939717413479 -111.33732342340591 0 -111.33732342340591 -391.34335955015558 0 0 0 0 35.192251709045678 106.46019020364871 0 106.46019020364871 -41.912969765399339 0 0 0 0 -26.006367600708472 740.70522548050394 0 740.70522548050394 -614.12509577309538 0 0 0 0 -417.66212553068181 252.32850175259227 0 252.32850175259227 -596.31930285388535 0 0 0 0 94.296526191239536 814.67596998313093 0 814.67596998313093 -455.20844825071981 0 0 0 0 -914.9430433974776 600.87371447947226 0 600.87371447947226 -260.66362066460715 0 0 0 0 -1304.1018938343768 722.16863719146204 0 722.16863719146204 -84.49942933829152 0 0 0 0 -591.23686533159344 481.13398010095261 0 481.13398010095261 -331.89338682719972 0 0 0 0 -10.603012762658182 740.44306064581906 0 740.44306064581906 -316.27762813490699 0 0 0 0 -570.93098268946051 678.97807687712339 0 678.97807687712339 -207.75242920273013 0 0 0 0 -402.140790042562 495.4509962782904 0 495.4509962782904 -133.73235898392159 0 0 0 0 -667.29437739730201 767.490740621859 0 767.490740621859 -159.0446859698568 0 0 0 0 -1010.4074417865777 462.40601142014202 0 462.40601142014202 -271.35527166447719 0 0 0 0 -1318.3318480609159 624.52302128468 0 624.52302128468 -119.47705825182493 0 0 0 0 -1567.8214360820857 242.73536263883943 0 242.73536263883943 -569.1166130687343 0 0 0 0 -1304.2804423147882 701.05337028127633 0 701.05337028127633 -432.60589085673564 0 0 0 0 -2291.0026138717221 128.06129086419969 0 128.06129086419969 -43.413962962120422 0 0 0 0 -2447.7811113568569 575.42648523971548 0 575.42648523971548 290.92654349879012 0 0 0 0 -2204.8749831234745 848.52414225653047 0 848.52414225653047 54.367942735669203 0 0 0 0 36.553413841402616 108.28749238107632 0 108.28749238107632 -5.716231919780256 0 0 0 0 394.16266954711409 339.48236480417472 0 339.48236480417472 46.968352120767122 0 0 0 0 -2214.7658264977545 810.57438224904035 0 810.57438224904035 157.41310799104394 0 0 0 0 -1470.9233858493117 673.79961271451612 0 673.79961271451612 10.871207706979476 0 0 0 0 -2105.8384951994231 477.1892262196925 0 477.1892262196925 267.14601830327592 0 0 0 0 -1967.827713884195 637.23943852733646 0 637.23943852733646 194.28019176685484 0 0 0 0 -1589.5923045649542 662.39942093042919 0 662.39942093042919 141.17616179055767 0 0 0 0 -1849.9995602514391 435.81925577993388 0 435.81925577993388 143.20519626687746 0 0 0 0 -1792.156281985619 522.54311974222219 0 522.54311974222219 156.50627574013197 0 0 0 0 -1546.47653358354 291.06808769317286 0 291.06808769317286 -201.62655320376507 0 0 0 0 -1155.8259815968486 661.01132060823147 0 661.01132060823147 26.857971962774172 0 0 0 0 -989.22582685636007 478.74601417905069 0 478.74601417905069 -47.104728773094394 0 0 0 0 -1411.6046465831314 453.07909468637081 0 453.07909468637081 55.989237600182605 0 0 0 0 -449.40095875407496 800.0821765231176 0 800.0821765231176 111.99904656974832 0 0 0 0 -499.80111808533547 623.88627475111571 0 623.88627475111571 -90.9067505068233 0 0 0 0 -448.04547021606413 526.14433983605704 0 526.14433983605704 98.04859943233896 0 0 0 0 -598.34997930685495 714.20753233647702 0 714.20753233647702 92.101664249697933 0 0 0 0 -845.85565470288566 478.94410012487788 0 478.94410012487788 186.23919537400798 0 0 0 0 -1007.725115352674 538.35253942031704 0 538.35253942031704 156.44640176424582 0 0 0 0 -1045.7150826972647 655.82386616547592 0 655.82386616547592 27.908259924035519 0 0 0 0 -1414.2439223549882 481.62754161530756 0 481.62754161530756 191.01157856819918 0 0 0 0 -1298.3016021356925 594.88630372999251 0 594.88630372999251 -40.091166570899077 0 0 0 0 -1216.347134411335 406.47395331962616 0 406.47395331962616 221.02446803331986 0 0 0 0 -966.81781712801603 661.80553297360166 0 661.80553297360166 95.321469470509328 0 0 0 0 -700.62386987807986 405.67778510107019 0 405.67778510107019 296.37881200411357 0 0 0 0 -460.60374563733058 718.53371789610537 0 718.53371789610537 168.52407710914849 0 0 0 0 -819.2250541498106 619.06025056223734 0 619.06025056223734 104.56876288726926 0 0 0 0 -1194.8038582491645 432.20571034314344 0 432.20571034314344 -7.2286082327045733 0 0 0 0 -1138.3420679470291 280.78449108327914 0 280.78449108327914 286.34903594970092 0 0 0 0 -1602.9489731111244 316.83786934954696 0 316.83786934954696 179.1851635746425 0 0 0 0 -1607.1280082775629 351.21317019125854 0 351.21317019125854 -102.35643486489425 0 0 0 0 -1882.0024703883246 325.95889991152217 0 325.95889991152217 55.583756337495288 0 0 0 0 -2147.1958954266593 148.44865183853835 0 148.44865183853835 -39.031316652923124 0 0 0 0 -1874.9998150559804 361.97190210788176 0 361.97190210788176 -519.19851071730955 0 0 0 0 -1966.4713488864654 769.0492893440387 0 769.0492893440387 -438.21508871335027 0 0 0 0 -1908.3244792394617 559.41254803952324 0 559.41254803952324 93.875779494992457 0 0 0 0 -1642.3767117223833 447.09289233570598 0 447.09289233570598 118.15909242737689 0 0 0 0 -1787.2989156878175 673.50453017471591 0 673.50453017471591 -204.73834722550964 0 0 0 0 1846.5869689788451 710.93358332373464 0 710.93358332373464 215.19717718703032 0 0 0 0 2672.4382386091393 360.49215648949462 0 360.49215648949462 21.143720445426879 0 0 0 0 1607.1471916910159 505.97065928386291 0 505.97065928386291 181.63902210697415 0 0 0 0 1830.1924935632233 652.83569013842498 0 652.83569013842498 108.49007650488056 0 0 0 0 941.21777782716526 680.57863105792057 0 680.57863105792057 234.25542845079326 0 0 0 0 1335.4188968488343 877.44075138039261 0 877.44075138039261 17.941791715158615 0 0 0 0 1843.2158974167614 642.87537970620906 0 642.87537970620906 55.30354056887154 0 0 0 0 1033.198175115288 781.67948088532739 0 781.67948088532739 347.08526015322423 0 0 0 0 472.33248968840053 611.98446305721882 0 611.98446305721882 315.43906836798124 0 0 0 0 1018.2691380222313 693.61261544442095 0 693.61261544442095 -0.54919202627206687 0 0 0 0 931.43972285271593 736.02526308789311 0 736.02526308789311 -18.1821267062478 0 0 0 0 372.82545347370615 925.75226804632257 0 925.75226804632257 102.04978875674715 0 0 0 0 -246.03193528774136 591.69846259670157 0 591.69846259670157 195.82725063420366 0 0 0 0 275.62460685855331 872.17272632579989 0 872.17272632579989 180.82415726629552 0 0 0 0 172.20623143491684 593.9700748690957 0 593.9700748690957 -42.812804167115246 0 0 0 0 -142.77589389416244 812.4748600172461 0 812.4748600172461 194.20775642496301 0 0 0 0 111.48739771178953 463.77697966372943 0 463.77697966372943 192.31367549163406 0 0 0 0 -285.1609852983529 515.79411652387353 0 515.79411652387353 184.08141098273609 0 0 0 0 -38.813913264610164 783.66388736529916 0 783.66388736529916 302.3952512096148 0 0 0 0 212.65079502781737 540.04617774552025 0 540.04617774552025 223.47852353695635 0 0 0 0 -283.6051366903921 741.8332338360633 0 741.8332338360633 292.42201328935334 0 0 0 0 755.4780711662097 854.55560129965306 0 854.55560129965306 307.23905340472629 0 0 0 0 136.06617402397751 584.88573906210149 0 584.88573906210149 437.2720853384817 0 0 0 0 643.27186250649538 927.86594388201775 0 927.86594388201775 344.61482229211833 0 0 0 0 1691.1960960098295 671.26753063590149 0 671.26753063590149 160.41767131873348 0 0 0 0 1646.4318959306038 880.34177617781825 0 880.34177617781825 349.93088909302605 0 0 0 0 812.30136568684611 620.32330821258984 0 620.32330821258984 581.12094112703926 0 0 0 0 1805.4525123548665 519.25244981031574 0 519.25244981031574 604.82268895741072 0 0 0 0 2621.1563732840623 629.84216068851674 0 629.84216068851674 32.51834963454894 0 0 0 0 1917.9884331112626 1052.4935306103253 0 1052.4935306103253 471.10635205893777 0 0 0 0 1293.1551388831067 499.25758923774811 0 499.25758923774811 793.34570534867817 0 0 0 0 1523.4920995007371 1102.7572973037463 0 1102.7572973037463 1048.1458672266162 0 0 0 0 2990.3655941506004 1103.1119670388143 0 1103.1119670388143 272.2512805624574 0 0 0 0 614.8866288084464 716.33271845374838 0 716.33271845374838 748.24246631399001 0 0 0 0 1540.388144617943 832.88617120830736 0 832.88617120830736 278.24546816768998 0 0 0 0 -676.90544240728195 449.24399141731556 0 449.24399141731556 561.05816226242314 0 0 0 0 444.17799907323933 284.69395154981612 0 284.69395154981612 446.25988968225283 0 0 0 0 117.97770054682769 676.08921872148494 0 676.08921872148494 249.16601669945521 0 0 0 0 -489.59344669040001 248.97080146653752 0 248.97080146653752 411.66261276319347 0 0 0 0 178.79617507735566 673.84948444620932 0 673.84948444620932 723.27311933314195 0 0 0 0 -406.28189597497112 -300.74332475794654 0 -300.74332475794654 -82.414728334653773 0 0 0 0 1352.2690900709713 274.54085372796544 0 274.54085372796544 324.05904618236764 0 0 0 0 -2357.460028610185 434.1778392942324 0 434.1778392942324 7.4598719317291398 0 0 0 0 -1683.7770372150553 89.05094784800167 0 89.05094784800167 -12.175251237043994 0 0 0 0 -1823.7410912784144 438.52050642442919 0 438.52050642442919 -794.5424934218463 0 0 0 0 -2061.8785612544889 374.39623005851172 0 374.39623005851172 132.76564205301111 0 0 0 0 -1586.136734145126 266.19443681751727 0 266.19443681751727 -223.16263742560113 0 0 0 0 -1571.2446381739901 167.63549155816327 0 167.63549155816327 239.02304743486457 0 0 0 0 -644.06124944921976 510.80506900824184 0 510.80506900824184 57.652178345655557 0 0 0 0 -1011.1947436063419 11.788281472123344 0 11.788281472123344 369.31572023551053 0 0 0 0 -1043.5983348385707 155.02865574072348 0 155.02865574072348 -201.10320870384749 0 0 0 0 -799.00785139968502 160.49797331716036 0 160.49797331716036 -612.06795388875616 0 0 0 0 -1543.2662027645201 -190.4267172698892 0 -190.4267172698892 -293.9337976300867 0 0 0 0 -1430.773658488346 298.48607215066295 0 298.48607215066295 -222.58587900691782 0 0 0 0 -67.26198037983977 58.041775428599557 0 58.041775428599557 -3.1707030136734602 0 0 0 0 -1512.6592652026447 -149.95664269434565 0 -149.95664269434565 -695.91041407437297 0 0 0 0 -1715.8018581222532 854.04382520982472 0 854.04382520982472 611.78054482449716 0 0 0 0 -1062.0271655960969 351.31670237229264 0 351.31670237229264 630.89794380159447 0 0 0 0 -378.00610451805369 328.83483405571315 0 328.83483405571315 -469.02822650960297 0 0 0 0 -1514.7656814050083 990.24737328322408 0 990.24737328322408 156.22522041289631 0 0 0 0 294.13812155590313 175.54929422681744 0 175.54929422681744 4.9981763028663408 0 0 0 0 -926.23078303298098 -1085.8573095209867 0 -1085.8573095209867 -1015.2688979422346 0 0 0 0 -54.274014111044963 22.18293632427384 0 22.18293632427384 -8.8639887878441641 0 0 0 0 -296.67828624328763 927.74895948582071 0 927.74895948582071 803.94519569151453 0 0 0 0 -637.11340463311717 -87.874687079944124 0 -87.874687079944124 -328.32986045756843 0 0 0 0 1057.8191004570654 760.93248658189259 0 760.93248658189259 114.66699118276301 0 0 0 0 -10.750129444568302 -578.08616997116042 0 -578.08616997116042 13.932984755163488 0 0 0 0 -857.07585880978695 -795.84702830340211 0 -795.84702830340211 47.636991676859907 0 0 0 0 469.85801130986147 766.15695069247886 0 766.15695069247886 153.07887821446639 0 0 0 0 -15.174163910874555 8.0965174004981861 0 8.0965174004981861 -4.9159952550321577 0 0 0 0 -391.772594774975 -1503.1198130742014 0 -1503.1198130742014 -1617.8998132420093 0 0 0 0 -52.160816960083139 540.1795199752778 0 540.1795199752778 58.524284371786052 0 0 0 0 -392.24177344287909 -48.881666440742265 0 -48.881666440742265 201.74082448580157 0 0 0 0 0.34298153659256059 122.00518803761224 0 122.00518803761224 333.54123358296056 0 0 0 0 488.91717486022753 72.194626439995773 0 72.194626439995773 212.39673040807247 0 0 0 0 29.449044212946319 376.02667508120066 0 376.02667508120066 238.75058240940416 0 0 0 0 60.671551850493415 465.01219976797438 0 465.01219976797438 316.02793267666129 0 0 0 0 54.746313890977035 403.73655342988786 0 403.73655342988786 -5.7424866567162098 0 0 0 0 -521.46660973915095 165.89055878989529 0 165.89055878989529 461.71164629354098 0 0 0 0 -704.69495060237409 311.65290983092564 0 311.65290983092564 -406.74317484382482 0 0 0 0 -683.15112830507951 430.78020735705832 0 430.78020735705832 153.99690386553993 0 0 0 0 772.31974376086509 1247.9920572851988 0 1247.9920572851988 1412.3725347807922 0 0 0 0 4112.6908458764119 1902.0389385458366 0 1902.0389385458366 556.72289252383052 0 0 0 0 -2768.9793601170859 -532.71002856224368 0 -532.71002856224368 493.23877623562294 0 0 0 0 -4.6340060424579903 10.164094669707229 0 10.164094669707229 -9.0325530769731586 0 0 0 0 4122.1075274528266 1741.3165798381815 0 1741.3165798381815 330.95172772888327 0 0 0 0 23.029426380953538 2.7360580779678401 0 2.7360580779678401 -15.703115794450639 0 0 0 0 530.50524712212791 418.99890364499879 0 418.99890364499879 102.96818640636047 0 0 0 0 3879.3718426228879 1546.7857262576872 0 1546.7857262576872 503.3331980393923 0 0 0 0 3474.2041620053351 1759.3265661629048 0 1759.3265661629048 1462.1220521327341 0 0 0 0 297.46132916868373 363.43422499061853 0 363.43422499061853 120.15657302839463 0 0 0 0 464.43801354129391 252.56656136800302 0 252.56656136800302 -114.84293036229792 0 0 0 0 535.70199177190079 360.60330939646519 0 360.60330939646519 48.813667604750663 0 0 0 0 647.26484083013202 314.58733667018532 0 314.58733667018532 -89.842051964573329 0 0 0 0 643.81541340333933 323.82712944406376 0 323.82712944406376 57.426835368474713 0 0 0 0 647.63865944273493 284.45410117895153 0 284.45410117895153 122.37983813037863 0 0 0 0 692.0381843263167 403.24635904218303 0 403.24635904218303 84.028315111940174 0 0 0 0 703.92780779166787 166.78443237268948 0 166.78443237268948 -5.5153048758947989 0 0 0 0 1150.220243505988 137.71626099974674 0 137.71626099974674 -133.5860663686326 0 0 0 0 687.83078846637 189.70333835966085 0 189.70333835966085 120.29317063075723 0 0 0 0 1048.5575253719544 -105.59853705023124 0 -105.59853705023124 -429.67436542985524 0 0 0 0 1363.5403886161075 1068.3258497034403 0 1068.3258497034403 552.54044467796393 0 0 0 0 1650.339710254666 634.99579546807945 0 634.99579546807945 40.161395449009433 0 0 0 0 25.075635624623033 -1.9609557644652966 0 -1.9609557644652966 -11.521798063824406 0 0 0 0 845.17216851331614 604.45866508813924 0 604.45866508813924 589.48198968345241 0 0 0 0 1240.8629837504368 1340.0910337962378 0 1340.0910337962378 -57.645562626697938 0 0 0 0 10.151853694498115 -0.52745680770496506 0 -0.52745680770496506 -4.0713118321619675 0 0 0 0 1870.2957134768876 2194.8627260736248 0 2194.8627260736248 279.86721017862328 0 0 0 0 2452.4826458150383 1034.6324732170106 0 1034.6324732170106 -402.39319539269854 0 0 0 0 316.04227855394129 -711.0465015044756 0 -711.0465015044756 -1001.3950909125415 0 0 0 0 1948.4834161991857 466.94053286336566 0 466.94053286336566 850.51575587143816 0 0 0 0 1236.3446225523112 -320.94891215794632 0 -320.94891215794632 -346.55878891299653 0 0 0 0 3197.3644699072174 1960.2630725762647 0 1960.2630725762647 -20.668536398530705 0 0 0 0 -19.887511963991791 32.504921118526227 0 32.504921118526227 -16.862042251805008 0 0 0 0 -1224.6362145987077 158.33874898840804 0 158.33874898840804 246.35891203563369 0 0 0 0 -510.62349222569173 220.38293084370525 0 220.38293084370525 0.274085779539746 0 0 0 0 -174.71119298248232 312.18481655121832 0 312.18481655121832 24.934771275729872 0 0 0 0 1966.0244684277604 1758.3895095649495 0 1758.3895095649495 223.45624621196475 0 0 0 0 -379.63246595770397 135.56735601706168 0 135.56735601706168 23.576068277747254 0 0 0 0 -33.118125535222347 44.326816984933757 0 44.326816984933757 -16.245182574185492 0 0 0 0 -34.898176013441116 141.06584362099966 0 141.06584362099966 21.56567622444436 0 0 0 0 -49.30949655843142 124.46308295746348 0 124.46308295746348 5.4554382749774959 0 0 0 0 -88.855367951739026 195.06810694587148 0 195.06810694587148 -1.4543586436775513 0 0 0 0 1133.2312571519833 410.0727987237151 0 410.0727987237151 1254.7594323138328 0 0 0 0 3134.2670553675853 2211.0306957928842 0 2211.0306957928842 1290.3605310772327 0 0 0 0 1449.080450055606 1097.4903653940037 0 1097.4903653940037 281.30673697896418 0 0 0 0 53.767573228571564 1368.9510520829426 0 1368.9510520829426 621.91638273913122 0 0 0 0 -17.530101595765203 52.37576596665167 0 52.37576596665167 -10.052474575306974 0 0 0 0 359.8791423604016 723.69282989040948 0 723.69282989040948 1232.9381748656961 0 0 0 0 0.5579511771101906 13.522649767681681 0 13.522649767681681 12.926081647495948 0 0 0 0 -1207.5805353399337 -542.91202155990686 0 -542.91202155990686 3355.0439791405224 0 0 0 0 5256.7200315155096 1317.9895384253468 0 1317.9895384253468 -394.2800514393457 0 0 0 0 3466.3680811059321 8.4313729731948115 0 8.4313729731948115 740.43843983190891 0 0 0 0 2699.9595234300173 969.00021535970063 0 969.00021535970063 423.47993392015633 0 0 0 0 339.87891410461089 1793.7581957762377 0 1793.7581957762377 266.3677115745777 0 0 0 0 1.894260391267558 10.745137578236566 0 10.745137578236566 6.9155264448925777 0 0 0 0 3097.2171395981532 -1994.0573823661762 0 -1994.0573823661762 -2016.5537317150738 0 0 0 0 75.866841165104645 89.557573206421409 0 89.557573206421409 27.45850778245017 0 0 0 0 1968.5910064826421 1269.2521867813921 0 1269.2521867813921 -316.64607843995327 0 0 0 0 12.479580468720346 6.738484025020135 0 6.738484025020135 24.181047043463451 0 0 0 0 144.88010693155229 16.075516752167459 0 16.075516752167459 -35.38514351745107 0 0 0 0 -3.5289508992437097 35.607760761708228 0 35.607760761708228 13.993340424976338 0 0 0 0 3427.3423981997094 626.9808684787422 0 626.9808684787422 -219.39548849495623 0 0 0 0 -571.44900842603784 308.3052202625986 0 308.3052202625986 744.35275287403783 0 0 0 0 1629.5382083098725 -1604.341054853588 0 -1604.341054853588 -135.70403935565264 0 0 0 0 2669.2995029856042 -29.117674492875153 0 -29.117674492875153 127.0082757633354 0 0 0 0 2276.1343747428455 90.57931268840548 0 90.57931268840548 484.96370426063368 0 0 0 0 45.071436854464991 164.7263896439872 0 164.7263896439872 2.8606809716184216 0 0 0 0 -2.5372905637632357 138.94994383419362 0 138.94994383419362 39.938103651424171 0 0 0 0 12.137628509139176 121.42635775553936 0 121.42635775553936 3.1111969283156213 0 0 0 0 22.458985015276994 140.50950003524486 0 140.50950003524486 19.859758960534236 0 0 0 0 9.21671340163266 158.58643528126595 0 158.58643528126595 52.72745190821297 0 0 0 0 70.383107768495393 207.98539417736174 0 207.98539417736174 122.88893381663365 0 0 0 0 88.83150051782286 140.45236077073787 0 140.45236077073787 52.801830541979143 0 0 0 0 101.46358670247719 174.33981382929778 0 174.33981382929778 119.79993192187976 0 0 0 0 116.90426802598085 205.83998332616466 0 205.83998332616466 41.197654553558095 0 0 0 0 107.9587161942909 207.21487839969632 0 207.21487839969632 33.948232623908552 0 0 0 0 130.75376564673934 248.93161976847114 0 248.93161976847114 84.505258306307951 0 0 0 0 89.457702111803883 266.66121355069845 0 266.66121355069845 -19.79916520306142 0 0 0 0 65.026363132812548 184.75650664135901 0 184.75650664135901 35.530066171715589 0 0 0 0 23.76137528529398 225.50771596920458 0 225.50771596920458 -3.10957766683714 0 0 0 0 70.720405635802308 240.38178942643208 0 240.38178942643208 -40.802720234554727 0 0 0 0 27.476462400416494 307.7195842357105 0 307.7195842357105 -90.54450955674838 0 0 0 0 101.65546551003354 243.24185127818055 0 243.24185127818055 -50.960183295275783 0 0 0 0 74.69256148803106 275.89209570813546 0 275.89209570813546 -63.262095867743483 0 0 0 0 77.417435379087692 196.80903951053915 0 196.80903951053915 -38.919568367840839 0 0 0 0 85.031572958389006 244.34714201416136 0 244.34714201416136 77.671093086712062 0 0 0 0 48.02243030819227 196.18228711026313 0 196.18228711026313 94.426285683803144 0 0 0 0 81.04322658671299 176.39360076635785 0 176.39360076635785 -91.094536384756793 0 0 0 0 -74.836345036383136 87.690950311072811 0 87.690950311072811 236.53931336842288 0 0 0 0 103.96633548418322 199.09417352754826 0 199.09417352754826 -635.54748433306668 0 0 0 0 -7.8073800656440255 2.2253108483431561 0 2.2253108483431561 -3.9686025279749231 0 0 0 0 -333.08840571287874 249.40617903196107 0 249.40617903196107 429.91667728868197 0 0 0 0 -24.182061985238761 492.27544965940706 0 492.27544965940706 -251.82142687919259 0 0 0 0 17.191415983834304 329.57030806092371 0 329.57030806092371 -70.102675838716095 0 0 0 0 5.2380095005573821 399.96595662627806 0 399.96595662627806 -137.13645682884817 0 0 0 0 110.77619218544351 301.70169487583917 0 301.70169487583917 -228.25876399915433 0 0 0 0 32.372635797742987 359.4948110514415 0 359.4948110514415 -89.728995585588564 0 0 0 0 60.104599224760022 360.37238216090191 0 360.37238216090191 -51.116838118781743 0 0 0 0 86.317166341003031 212.75327742347508 0 212.75327742347508 17.039108278830099 0 0 0 0 65.176611763585242 275.91081868229594 0 275.91081868229594 -131.58925496283337 0 0 0 0 87.415072751675325 306.68303591767472 0 306.68303591767472 -112.70512700212385 0 0 0 0 32.845404738051002 382.83032034869393 0 382.83032034869393 -218.94577611203567 0 0 0 0 -84.798587633711577 363.61443155027519 0 363.61443155027519 -77.294452630772867 0 0 0 0 -75.237297163366748 309.24451602010231 0 309.24451602010231 -50.232530678922103 0 0 0 0 -33.794014525734383 282.94621367107175 0 282.94621367107175 -51.095232188687078 0 0 0 0 -35.05407238357293 285.40850727049474 0 285.40850727049474 -55.865732056801789 0 0 0 0 -1.9226897155895131 337.94658717210405 0 337.94658717210405 -84.799369528611351 0 0 0 0 19.225944176429039 321.09187611293964 0 321.09187611293964 -75.059114249364939 0 0 0 0 63.287422808713018 147.31943549321022 0 147.31943549321022 -61.990697787630779 0 0 0 0 247.47153613757109 108.01462544939932 0 108.01462544939932 -113.48963440353691 0 0 0 0 -23.445208913311944 160.62792639906547 0 160.62792639906547 -82.443629222798336 0 0 0 0 543.23289666049823 228.63333972420151 0 228.63333972420151 -230.65916567766544 0 0 0 0 -187.96330208743893 140.20563936880171 0 140.20563936880171 33.883469664520817 0 0 0 0 -90.319976003105694 335.71760227102186 0 335.71760227102186 -171.95772139707697 0 0 0 0 60.21629811249295 169.37827663835924 0 169.37827663835924 -202.11351573233333 0 0 0 0 -0.61255679345413228 245.89651060688993 0 245.89651060688993 -149.46928331436357 0 0 0 0 2.6874416966311401 259.05916909209554 0 259.05916909209554 -108.7809915346952 0 0 0 0 -37.956369972123142 55.875480835319763 0 55.875480835319763 -64.415498991748905 0 0 0 0 776.63759082000615 380.27261315318901 0 380.27261315318901 -964.72507984175172 0 0 0 0 -75.169238033517104 311.02231609865612 0 311.02231609865612 -0.76799182563263457 0 0 0 0 248.17601534873393 185.0598316232572 0 185.0598316232572 -56.967981786847304 0 0 0 0 -32.89995968630609 54.762330052664673 0 54.762330052664673 -63.736052014013239 0 0 0 0 344.87909946909349 202.91167523007607 0 202.91167523007607 20.516759796590122 0 0 0 0 411.14471694835811 390.75672104693149 0 390.75672104693149 -22.313082672466408 0 0 0 0 -35.91678202054932 57.947964820689577 0 57.947964820689577 -63.050959876354426 0 0 0 0 -23.659160433253419 90.942740500951913 0 90.942740500951913 -109.63295953708439 0 0 0 0 40.037754623044748 44.903707183912047 0 44.903707183912047 -78.983316299953003 0 0 0 0 93.877919199512689 112.45173927085125 0 112.45173927085125 -141.71061529789586 0 0 0 0 92.176887188876208 122.70318355384529 0 122.70318355384529 -70.792418307231856 0 0 0 0 241.29124753088399 65.616453365579218 0 65.616453365579218 -101.44302208520821 0 0 0 0 -861.72489626299648 220.25868435124903 0 220.25868435124903 -10969.005570274108 0 0 0 0 -1.3542335644259182 144.2108853533268 0 144.2108853533268 -66.314694291866346 0 0 0 0 76.080599198234268 88.151598326181556 0 88.151598326181556 -43.495524543395732 0 0 0 0 173.81997550607048 53.029208093470515 0 53.029208093470515 -65.874005608014386 0 0 0 0 19.174651983297075 124.50799553870894 0 124.50799553870894 -76.556041545253976 0 0 0 0 91.154965789697599 109.0159974160706 0 109.0159974160706 -57.16895508923335 0 0 0 0 712.16193178467984 497.47382570474474 0 497.47382570474474 -145.89143098090426 0 0 0 0 -36.092167525335086 52.059222561321945 0 52.059222561321945 -59.256172756503219 0 0 0 0 99.941671174863586 42.733831464531249 0 42.733831464531249 -99.974544552820589 0 0 0 0 334.3516505540465 325.89697570982025 0 325.89697570982025 -166.73168104833167 0 0 0 0 568.19455442334583 489.70648861769587 0 489.70648861769587 -54.831163215654669 0 0 0 0 534.77695732020038 83.742517270095959 0 83.742517270095959 123.32217217609286 0 0 0 0 192.77286080170234 376.39549918469493 0 376.39549918469493 -75.438442967119045 0 0 0 0 113.16111407899734 64.537488836343982 0 64.537488836343982 -41.614824382411825 0 0 0 0 63.854137307089786 94.388675330691058 0 94.388675330691058 -171.39543886616593 0 0 0 0 37.147782708161913 -234.28013346736248 0 -234.28013346736248 -664.98591702692647 0 0 0 0 487.23519572623627 10.5589695502822 0 10.5589695502822 -185.06010080665874 0 0 0 0 2124.0588201908977 1319.2797044273939 0 1319.2797044273939 -238.19455685382127 0 0 0 0 80.905806261060548 2.0704773535768481 0 2.0704773535768481 -11.237998285154447 0 0 0 0 -557.12666369278304 1671.9833275861602 0 1671.9833275861602 2872.9318996682123 0 0 0 0 216.48855961635854 -136.29517717130875 0 -136.29517717130875 -669.61649617074727 0 0 0 0 15.181228268076666 -184.92859766024776 0 -184.92859766024776 -37.774216527228418 0 0 0 0 443.96060397146357 61.783868362617795 0 61.783868362617795 -326.86555301224871 0 0 0 0 392.66378121367597 289.53506654685043 0 289.53506654685043 213.42930014105514 0 0 0 0 393.89379310962977 247.55377572827274 0 247.55377572827274 341.15713729857816 0 0 0 0 1104.8301830183773 308.9887844339537 0 308.9887844339537 221.75643818546087 0 0 0 0 -14.645315714313938 9.4257163595669979 0 9.4257163595669979 10.456975754502537 0 0 0 0 1565.7759254219127 851.18058999371715 0 851.18058999371715 348.12977755896281 0 0 0 0 426.56827206400339 237.37701815750916 0 237.37701815750916 -2.0912593747198116 0 0 0 0 553.14674052155169 633.12546081173059 0 633.12546081173059 430.92227501678281 0 0 0 0 650.83979696052847 36.238035123737063 0 36.238035123737063 174.9222977028403 0 0 0 0 440.04783409208176 167.52279589802492 0 167.52279589802492 -206.91879107343266 0 0 0 0 327.77142249212193 140.42991466837702 0 140.42991466837702 -219.93188424280379 0 0 0 0 324.03845374923549 101.3334064699884 0 101.3334064699884 -63.933180170366541 0 0 0 0 153.61904028526624 -6.6508097726618871 0 -6.6508097726618871 -57.366337296800339 0 0 0 0 393.87816560237479 -9.4301118334633429 0 -9.4301118334633429 -85.393580183328595 0 0 0 0 136.42741347885286 -12.720844138697444 0 -12.720844138697444 -11.68718193496062 0 0 0 0 -563.20431458507665 2176.6067709553463 0 2176.6067709553463 1452.7038967194385 0 0 0 0 238.57150188452215 20.618655131664127 0 20.618655131664127 -427.56782472263876 0 0 0 0 31.492809892952209 123.77181226143875 0 123.77181226143875 -147.21270568243926 0 0 0 0 187.14969188009854 196.20988383122312 0 196.20988383122312 -362.03526883880841 0 0 0 0 143.7012171446695 2053.1532425254263 0 2053.1532425254263 1344.5837604298431 0 0 0 0 319.37788554350846 75.831188114447286 0 75.831188114447286 -452.86024486300084 0 0 0 0 296.91038015659433 147.09852314778254 0 147.09852314778254 -440.92652909306344 0 0 0 0 305.78266273954341 76.956451264622956 0 76.956451264622956 -355.78024046425708 0 0 0 0 307.8157157376445 125.81170038177606 0 125.81170038177606 -313.1140433033579 0 0 0 0 259.66874832671601 95.791891722255968 0 95.791891722255968 -224.29014108813135 0 0 0 0 335.26235235802596 150.54060603390099 0 150.54060603390099 -341.35700144043949 0 0 0 0 307.16609405394411 112.67229745889199 0 112.67229745889199 -304.7668092250824 0 0 0 0 290.53797628398752 144.28357356357446 0 144.28357356357446 -200.40044289873913 0 0 0 0 210.10707487164473 130.34432112744253 0 130.34432112744253 -241.44763038231758 0 0 0 0 -2901.9622336440734 1974.2140781711896 0 1974.2140781711896 -545.11338610900566 0 0 0 0 -3.8878179853199981 123.28281205749954 0 123.28281205749954 -146.36990015482297 0 0 0 0 -22.93391581942619 102.56450199592402 0 102.56450199592402 32.719899338221467 0 0 0 0 83.672298895493441 253.50845008980104 0 253.50845008980104 19.942889740574174 0 0 0 0 252.02411273730104 191.85153699875809 0 191.85153699875809 -151.83496929467333 0 0 0 0 153.96344242835767 85.587634156225249 0 85.587634156225249 -281.00308234448312 0 0 0 0 159.99444262014367 138.85484688815086 0 138.85484688815086 -226.16812241368461 0 0 0 0 204.7037342217518 130.79662293789443 0 130.79662293789443 -241.35125763372343 0 0 0 0 281.84191476536216 79.74444811543799 0 79.74444811543799 -350.87085676475544 0 0 0 0 225.50346114806598 57.258251682884293 0 57.258251682884293 -344.5074423004553 0 0 0 0 84.263495064922608 18.219998299464351 0 18.219998299464351 -336.63687075595954 0 0 0 0 234.18767588356422 83.462443299526058 0 83.462443299526058 -324.08150681416737 0 0 0 0 135.30763276590733 20.169041356624803 0 20.169041356624803 -347.67186847186531 0 0 0 0 60.412237440585159 65.996046728469082 0 65.996046728469082 -276.07491562509676 0 0 0 0 47.646610639043502 32.019096765710856 0 32.019096765710856 -307.94280318205711 0 0 0 0 -1825.6175521622354 1426.834439439961 0 1426.834439439961 -618.20150848163757 0 0 0 0 -2114.3799335444346 2370.0045950792555 0 2370.0045950792555 -1582.8610585101414 0 0 0 0 -2253.1062490652694 1964.7462538357577 0 1964.7462538357577 -1078.9197827528697 0 0 0 0 23.278324731400062 179.03746314439923 0 179.03746314439923 -69.170883265047451 0 0 0 0 -2849.5077637781869 1723.0359051337364 0 1723.0359051337364 -509.22790288011311 0 0 0 0 137.15208212757716 122.29777686911621 0 122.29777686911621 -46.629790037099156 0 0 0 0 143.30715742034954 328.94409980601631 0 328.94409980601631 96.056952739774715 0 0 0 0 216.8062239207211 372.63458312219882 0 372.63458312219882 108.77943922618579 0 0 0 0 253.66860792099033 206.67507222961285 0 206.67507222961285 -151.69215455094991 0 0 0 0 341.60907906258944 317.77494124835357 0 317.77494124835357 -11.851368544215802 0 0 0 0 316.06948325270787 288.08573795392294 0 288.08573795392294 17.558704761060653 0 0 0 0 -71.054082694929093 229.50633831380401 0 229.50633831380401 245.91430533368839 0 0 0 0 -21.535366352601955 85.692096228346429 0 85.692096228346429 -36.531839809868103 0 0 0 0 -572.97822440310119 192.4205032710488 0 192.4205032710488 -153.88971638812654 0 0 0 0 -701.6385683641638 275.84166094983084 0 275.84166094983084 675.78870362185626 0 0 0 0 -127.10638277982071 869.87415042143402 0 869.87415042143402 347.9664530874179 0 0 0 0 555.61389063781098 597.84976619751615 0 597.84976619751615 -235.19937118866801 0 0 0 0 -81.977407285274239 251.23959286454919 0 251.23959286454919 -120.55907228153228 0 0 0 0 -72.51060384313314 48.294744954684575 0 48.294744954684575 -358.15728957600732 0 0 0 0 189.71909824382601 126.04033508173234 0 126.04033508173234 -415.23523716298223 0 0 0 0 313.32711273905079 184.1028729238933 0 184.1028729238933 -719.53332894053892 0 0 0 0 93.737336722631881 -336.1263554115576 0 -336.1263554115576 -1175.0794584827599 0 0 0 0 755.04754862998379 1387.5520499569757 0 1387.5520499569757 2486.3851095991267 0 0 0 0 12.424526605075471 2.8962706908932319 0 2.8962706908932319 -2.4575198709671753 0 0 0 0 39.892171307861503 4.6347471789023587 0 4.6347471789023587 -7.0678379372870381 0 0 0 0 847.03578191212 472.91012018271795 0 472.91012018271795 467.2993762743572 0 0 0 0 -100.19319682069909 878.08171113430581 0 878.08171113430581 3344.8761145081698 0 0 0 0 348.12586401343287 279.87972708564484 0 279.87972708564484 492.13898964586406 0 0 0 0 387.17952010277622 -149.96589650649366 0 -149.96589650649366 857.59599110179988 0 0 0 0 622.49374666944641 -153.28488027367348 0 -153.28488027367348 115.27515031764051 0 0 0 0 401.70129726751475 -24.085091451051994 0 -24.085091451051994 500.05440516321687 0 0 0 0 545.0785894849032 137.89905945408009 0 137.89905945408009 8.2648228199104778 0 0 0 0 -657.9729753969732 191.45661249355908 0 191.45661249355908 531.51141875942994 0 0 0 0 -2892.1227802346548 -100.77531802094018 0 -100.77531802094018 1494.8847515147136 0 0 0 0 -959.58047225151677 1166.5153603697327 0 1166.5153603697327 594.43045767160947 0 0 0 0 -86.1581358142721 1134.6821269165521 0 1134.6821269165521 382.44245422318636 0 0 0 0 715.52687941007753 1587.8909956972857 0 1587.8909956972857 1031.5985583785223 0 0 0 0 7.9426384614801862 3.5419706359290473 0 3.5419706359290473 -9.4804479259344703 0 0 0 0 209.84469398709189 -366.52021469986357 0 -366.52021469986357 -1214.6994045454194 0 0 0 0 881.60777086898452 462.77269626925408 0 462.77269626925408 -1422.8821965851894 0 0 0 0 580.85011408426362 937.54417645365174 0 937.54417645365174 -164.37207768113876 0 0 0 0 1149.9512886775046 926.93613003608334 0 926.93613003608334 -905.39917849205813 0 0 0 0 4.9150977732158765 4.2307517943883681 0 4.2307517943883681 0.40849589641474893 0 0 0 0 1098.706873863237 -173.3411811360711 0 -173.3411811360711 -924.55567590638748 0 0 0 0 333.83712445772835 -230.15964992490626 0 -230.15964992490626 -636.50307706042076 0 0 0 0 965.38371679542433 285.6041479740843 0 285.6041479740843 -306.89444971298508 0 0 0 0 -51.158077076033805 441.90477254357393 0 441.90477254357393 -492.09953882174705 0 0 0 0 279.38081585489272 -228.05246347708453 0 -228.05246347708453 -294.0622932993283 0 0 0 0 -47.611804208499962 476.44037174823461 0 476.44037174823461 493.68126257645054 0 0 0 0 -351.98186281819653 -290.25257956818677 0 -290.25257956818677 -302.51884983214404 0 0 0 0 -495.83818337340199 -733.65978935007297 0 -733.65978935007297 -1272.7398762997836 0 0 0 0 7.7758160779760317 5.8430890518526155 0 5.8430890518526155 0.39967820319816383 0 0 0 0 443.11223394626722 479.67560093211796 0 479.67560093211796 -1694.05180314873 0 0 0 0 761.56296755076983 220.94577069381558 0 220.94577069381558 -2221.7975250123127 0 0 0 0 251.16599947217583 1150.5414553396931 0 1150.5414553396931 112.78811227896949 0 0 0 0 -1153.6754609455038 21.086488541919607 0 21.086488541919607 334.0562876132899 0 0 0 0 -940.99457225389779 957.9357736429447 0 957.9357736429447 -196.26959928265569 0 0 0 0 2234.8827807094931 1217.8126841473277 0 1217.8126841473277 -617.3917164683844 0 0 0 0 71.719899919407908 -783.60420296001757 0 -783.60420296001757 -1108.7138257558108 0 0 0 0 744.05734326756647 2720.4830899736917 0 2720.4830899736917 3165.6872471395945 0 0 0 0 12.157692841536175 4.443629174509951 0 4.443629174509951 -0.038361285078977403 0 0 0 0 -1270.1928669514891 2311.0077287508102 0 2311.0077287508102 2503.8170886078769 0 0 0 0 956.59445227026299 546.16539605984144 0 546.16539605984144 269.28266067666118 0 0 0 0 1246.0226030985868 1144.8420875349111 0 1144.8420875349111 -56.978984946326818 0 0 0 0 23.769929691660764 10.64527002450771 0 10.64527002450771 -5.0767959526350808 0 0 0 0 1327.0181830285146 380.75501858617645 0 380.75501858617645 1604.5876571864974 0 0 0 0 772.63693107430299 1139.6752690101857 0 1139.6752690101857 731.59482947704964 0 0 0 0 491.93006067370879 579.97027100472042 0 579.97027100472042 -32.124927820455923 0 0 0 0 280.57400482292724 584.63149752237223 0 584.63149752237223 403.09885697600112 0 0 0 0 1161.5167004844261 762.94980852267327 0 762.94980852267327 -66.130971090169623 0 0 0 0 975.14684018900152 1468.2638480995956 0 1468.2638480995956 -1173.1550210457681 0 0 0 0 1166.111609080469 784.87275172847148 0 784.87275172847148 -117.2601695498015 0 0 0 0 -123.80161061510444 843.38001702722977 0 843.38001702722977 -1818.0340511554386 0 0 0 0 58.961062720816699 121.70992421513802 0 121.70992421513802 -385.52296784446662 0 0 0 0 2.5982338539037073 123.88729101379707 0 123.88729101379707 54.263171946698975 0 0 0 0 -12.643875500715239 29.124975645397058 0 29.124975645397058 -35.363683557140405 0 0 0 0 20.724331543082371 1361.2427817781136 0 1361.2427817781136 -2158.5290901704575 0 0 0 0 -45.534167293692008 1263.0534579452942 0 1263.0534579452942 -1828.6713753897347 0 0 0 0 -52.754943974432535 1524.757031775167 0 1524.757031775167 -1859.5659871288954 0 0 0 0 -149.29337161814328 1505.3339940692094 0 1505.3339940692094 -1680.6925645819283 0 0 0 0 -81.488694091502111 1261.4735117413802 0 1261.4735117413802 -1671.0623413784197 0 0 0 0 -43.983875003876165 1279.6665128668537 0 1279.6665128668537 -1673.3098383223405 0 0 0 0 -111.64099095785059 1368.2150625236682 0 1368.2150625236682 -1706.3833276712394 0 0 0 0 -78.982162373140454 1487.6681258352473 0 1487.6681258352473 -1530.2726729253773 0 0 0 0 -248.79457308305427 1314.8755530539202 0 1314.8755530539202 -1482.1392486264522 0 0 0 0 -110.38789282384096 1340.122520453333 0 1340.122520453333 -1501.7855408063042 0 0 0 0 -110.38308490114287 797.72611100331414 0 797.72611100331414 -1824.2859164537222 0 0 0 0 -108.74672426562756 1155.1089998306707 0 1155.1089998306707 -1714.2113465864677 0 0 0 0 -171.47541745833587 1182.6605429341143 0 1182.6605429341143 -1633.1208411134139 0 0 0 0 -301.76728920463938 1302.421231110493 0 1302.421231110493 -1208.5615452965721 0 0 0 0 -374.49026685080025 1198.7001667679287 0 1198.7001667679287 -1342.5272985489792 0 0 0 0 -216.48060923430603 1075.1868091839715 0 1075.1868091839715 -1363.5567499089666 0 0 0 0 -245.31175040116068 968.39248465775745 0 968.39248465775745 -1724.5406064374838 0 0 0 0 -315.71776110446081 302.21171885574586 0 302.21171885574586 -1748.670809625648 0 0 0 0 -385.2719619696727 737.27153271177667 0 737.27153271177667 -1002.8424772664439 0 0 0 0 -372.18624903354794 816.84735957178054 0 816.84735957178054 -1237.7309509530896 0 0 0 0 -525.97232451592572 1095.0743138884427 0 1095.0743138884427 -1027.8471049886721 0 0 0 0 -557.96997564495541 767.77847360662417 0 767.77847360662417 -913.79997919604648 0 0 0 0 -508.77209127997048 923.94389569398481 0 923.94389569398481 -443.271293824655 0 0 0 0 -613.16044671577401 1057.5386292794137 0 1057.5386292794137 -674.08997280613403 0 0 0 0 -541.6001664053183 964.73167566664051 0 964.73167566664051 -586.03388798190281 0 0 0 0 -580.07719206582988 1084.185093987413 0 1084.185093987413 -782.55009543325286 0 0 0 0 -678.48880962369731 1300.7629126758693 0 1300.7629126758693 -637.55319249047898 0 0 0 0 -748.60198880615644 1203.8094878229022 0 1203.8094878229022 -674.38905314719887 0 0 0 0 -808.63199280458502 1070.3327546502696 0 1070.3327546502696 -577.25855116599814 0 0 0 0 -341.23755361314397 1440.9984993775724 0 1440.9984993775724 -1117.9239408212597 0 0 0 0 -625.18226891371887 1303.6147067532293 0 1303.6147067532293 -909.15969187120209 0 0 0 0 -476.21157513110666 1174.565256493137 0 1174.565256493137 -984.60433805640787 0 0 0 0 -545.12784364307299 1415.9594521808613 0 1415.9594521808613 -769.8262374275364 0 0 0 0 -527.65307285447489 1424.466149909058 0 1424.466149909058 -1052.1845908566611 0 0 0 0 -605.82465022843098 1561.0395372107014 0 1561.0395372107014 -786.09109716932289 0 0 0 0 -628.87897664506454 1573.037410670775 0 1573.037410670775 -632.64083230437245 0 0 0 0 -732.74511493917089 1447.9287830591202 0 1447.9287830591202 -769.37505039228699 0 0 0 0 -782.92388690955704 1478.0719594276743 0 1478.0719594276743 -523.96571017231327 0 0 0 0 -995.803451742162 1432.3407693816116 0 1432.3407693816116 -532.66288868512493 0 0 0 0 -862.0135026058415 1610.4616834833723 0 1610.4616834833723 -373.20973314892035 0 0 0 0 -689.3119706393918 1666.9940959993692 0 1666.9940959993692 -468.27884058770724 0 0 0 0 -752.85766125237569 1556.829411627783 0 1556.829411627783 -633.30021287372801 0 0 0 0 -854.20302982575959 1214.4243769773675 0 1214.4243769773675 -462.20396799320588 0 0 0 0 -724.65473121072864 1147.8785207830224 0 1147.8785207830224 -548.27334842970595 0 0 0 0 -913.39017128676642 1332.3799704217236 0 1332.3799704217236 -585.04153624709579 0 0 0 0 -1011.3357889007311 1409.8228712793498 0 1409.8228712793498 -365.64176389970817 0 0 0 0 -1159.7669345260947 1204.3115682539574 0 1204.3115682539574 -449.09834907017648 0 0 0 0 -1142.6810745447874 1190.3745416926686 0 1190.3745416926686 -441.36845799203729 0 0 0 0 -1255.662607983686 1095.1916233663505 0 1095.1916233663505 -520.44750442320947 0 0 0 0 -1485.2149510362651 1408.060991713879 0 1408.060991713879 -370.94835919467732 0 0 0 0 -1081.8080632199999 1344.8790568296681 0 1344.8790568296681 -406.0740012160677 0 0 0 0 -1234.757992975181 1567.1426962875412 0 1567.1426962875412 -167.09141100308625 0 0 0 0 -847.35229933384107 1613.1630288046726 0 1613.1630288046726 -197.64210419950541 0 0 0 0 -834.73044873017352 1623.4940264121396 0 1623.4940264121396 -367.93239840483875 0 0 0 0 -969.87212135468144 1510.4221838302328 0 1510.4221838302328 309.67420207278337 0 0 0 0 -1085.3132086788537 1304.1676797016407 0 1304.1676797016407 -836.3751456119353 0 0 0 0 -1085.4725298464764 1221.3985916485544 0 1221.3985916485544 -276.70139773259871 0 0 0 0 -1205.2183931125328 603.83027744526044 0 603.83027744526044 -439.77288284237147 0 0 0 0 -1216.0556220483268 616.47283836186398 0 616.47283836186398 -66.777504899248015 0 0 0 0 -1223.1976194729214 1006.5360999018303 0 1006.5360999018303 1066.3850111661013 0 0 0 0 -1539.5179947016295 1888.9885156945093 0 1888.9885156945093 -2112.1915029067313 0 0 0 0 -1446.9559143625665 1345.245966113609 0 1345.245966113609 -1075.1606722162105 0 0 0 0 -1258.4606646748143 1321.7036834825849 0 1321.7036834825849 -1411.1591370259994 0 0 0 0 -1564.8337594096083 977.93177479713631 0 977.93177479713631 -510.78681228909409 0 0 0 0 -1124.0056837153388 1168.7658172819938 0 1168.7658172819938 -1738.0382642988116 0 0 0 0 -1308.6976894270629 1567.8744022574392 0 1567.8744022574392 1548.8415942021529 0 0 0 0 -847.82510405161884 2062.1309996286 0 2062.1309996286 1057.0180422351114 0 0 0 0 -589.57058917847462 2111.1604958165553 0 2111.1604958165553 563.23863618879113 0 0 0 0 -957.56311223004013 1525.1046550530591 0 1525.1046550530591 324.80774066934828 0 0 0 0 -960.25557567784563 1482.0630132840597 0 1482.0630132840597 721.62031044217292 0 0 0 0 -653.16310965304729 1923.2353225506376 0 1923.2353225506376 284.77623568713898 0 0 0 0 -716.26828938955441 1710.0009915999253 0 1710.0009915999253 -134.71372160827741 0 0 0 0 -927.16641116765095 1413.2796054136561 0 1413.2796054136561 213.73339004232548 0 0 0 0 -648.98549490212463 1752.7959936105763 0 1752.7959936105763 -420.03466304193716 0 0 0 0 -681.32582011861086 1631.7056564522645 0 1631.7056564522645 -151.28411099134246 0 0 0 0 -546.33709363930393 1904.0513343465864 0 1904.0513343465864 -141.5085991674232 0 0 0 0 -389.34464830439538 2045.2409088983695 0 2045.2409088983695 -164.50683208779083 0 0 0 0 -650.87700983955983 1844.3854541186461 0 1844.3854541186461 486.26636725699063 0 0 0 0 -164.29781127569731 2168.6137444260676 0 2168.6137444260676 -754.82766190302209 0 0 0 0 -441.86334266333142 1921.1651306933272 0 1921.1651306933272 -188.56286765402183 0 0 0 0 -409.8135694504017 1874.3584529326472 0 1874.3584529326472 -704.24818591831718 0 0 0 0 -202.11984711993136 1769.6492708522492 0 1769.6492708522492 -1186.7276504130568 0 0 0 0 -618.27636419015471 1721.0204593575327 0 1721.0204593575327 -554.62869121471886 0 0 0 0 -355.97555881983135 1777.5141549568216 0 1777.5141549568216 -752.80480428024021 0 0 0 0 -360.68781733926153 1752.5432780165575 0 1752.5432780165575 -883.5099107013084 0 0 0 0 -590.1032441832358 1639.8004598516272 0 1639.8004598516272 -716.78517629171256 0 0 0 0 -550.16590912512038 1726.1205287067569 0 1726.1205287067569 -560.59196908437298 0 0 0 0 -409.60812475040439 1599.2960765810276 0 1599.2960765810276 -1032.8983743322315 0 0 0 0 -427.46701766422484 1594.220904339687 0 1594.220904339687 -834.30084976495709 0 0 0 0 -268.09675999986939 1652.8569320423412 0 1652.8569320423412 -1099.8884611722897 0 0 0 0 -204.14276271458948 1645.3383641146793 0 1645.3383641146793 -1361.2535553998896 0 0 0 0 -172.7858862652356 1482.9916100227856 0 1482.9916100227856 -1506.7799542055 0 0 0 0 -173.50952857329685 1473.2548135730904 0 1473.2548135730904 -1311.9547453835839 0 0 0 0 -344.53072033124045 1464.5824843924493 0 1464.5824843924493 -1265.9027641481953 0 0 0 0 -30.778903159778565 1850.4328727953834 0 1850.4328727953834 -1367.8140602985513 0 0 0 0 -177.82466772047337 1839.7821396301151 0 1839.7821396301151 -1148.2188386862399 0 0 0 0 -191.76835532102268 1690.877433540707 0 1690.877433540707 -1214.8321885722253 0 0 0 0 -64.601135649281787 1662.3421819620999 0 1662.3421819620999 -1681.4818647602224 0 0 0 0 -204.04623212845763 1758.6670389875799 0 1758.6670389875799 -1944.6454143570736 0 0 0 0 667.91204312016544 324.72466111767073 0 324.72466111767073 -1024.1119444817014 0 0 0 0 -165.2009697566391 1436.0305117146636 0 1436.0305117146636 -1515.4774554687901 0 0 0 0 -320.24182615918107 1765.6781094963662 0 1765.6781094963662 -1465.5672883049701 0 0 0 0 -419.81015845033107 1668.1297628586763 0 1668.1297628586763 -1238.8250179549213 0 0 0 0 150.17148279055255 1646.4558248939284 0 1646.4558248939284 -1254.6710283586799 0 0 0 0 817.1425806525549 2548.6743842894721 0 2548.6743842894721 -272.86182623333298 0 0 0 0 -286.8004989772453 2577.538510454382 0 2577.538510454382 1203.3705145462154 0 0 0 0 -345.73717371170642 2290.291850782145 0 2290.291850782145 458.49014513054863 0 0 0 0 -137.16466043435503 2025.4685781548906 0 2025.4685781548906 -157.75662198971258 0 0 0 0 691.18641065486008 2279.4009460398811 0 2279.4009460398811 -814.09869167525903 0 0 0 0 462.86457039185916 2721.700788059723 0 2721.700788059723 508.00436620821711 0 0 0 0 -604.07839700638579 2030.6484380427028 0 2030.6484380427028 552.58385078830179 0 0 0 0 444.3630727493728 797.93207725797402 0 797.93207725797402 -2526.1875271563767 0 0 0 0 -763.85400277632289 1033.4107854415197 0 1033.4107854415197 -3188.7765117777453 0 0 0 0 -871.48687432083534 318.06233070103917 0 318.06233070103917 -2630.9009236021302 0 0 0 0 211.15102600748651 -423.08200927486178 0 -423.08200927486178 -2795.9252757019131 0 0 0 0 -271.01526637614006 1416.8894615858153 0 1416.8894615858153 -2162.8300886394863 0 0 0 0 -256.33439236728009 1245.0576853984094 0 1245.0576853984094 -2246.4146155507042 0 0 0 0 -889.01515630964423 1130.2186258911388 0 1130.2186258911388 -2049.3719458759879 0 0 0 0 -160.68019910890143 1650.4449515581655 0 1650.4449515581655 -1939.6323103375034 0 0 0 0 -275.24596146456315 543.90431565577455 0 543.90431565577455 -3913.7816948840627 0 0 0 0 -1090.0135529791587 2001.9272835624288 0 2001.9272835624288 -5067.2535810608533 0 0 0 0 7.9582791738499736 8.9804690027978893 0 8.9804690027978893 -29.932617973777866 0 0 0 0 226.40913138211909 873.34812726899327 0 873.34812726899327 -3735.1722437795179 0 0 0 0 -562.79807978752797 1581.6920409469531 0 1581.6920409469531 -2426.939690200823 0 0 0 0 -75.088084913763225 18.127427282435605 0 18.127427282435605 29.341585404921631 0 0 0 0 -652.91365118572867 502.41940196814539 0 502.41940196814539 -1046.5288788403268 0 0 0 0 -2.8957998548690398 11.319788505247971 0 11.319788505247971 7.3139678231467116 0 0 0 0 2.3119283872964331 10.441273113312263 0 10.441273113312263 4.3605480618246588 0 0 0 0 353.09474028634759 1102.799296489784 0 1102.799296489784 -1248.3990078536881 0 0 0 0 -261.0194826281554 2310.3309687734281 0 2310.3309687734281 -4064.2268316541522 0 0 0 0 -531.58190497784381 10.429559301308473 0 10.429559301308473 -1407.1834057208252 0 0 0 0 -22.348586522842623 3.9806959474997257 0 3.9806959474997257 -2.8167834495424415 0 0 0 0 -1074.8862582177389 -327.88574918430095 0 -327.88574918430095 929.67091089059977 0 0 0 0 85.241665667017514 -54.15630664897617 0 -54.15630664897617 -174.88418334264134 0 0 0 0 49.544215561116175 72.671255625579306 0 72.671255625579306 96.341352464862069 0 0 0 0 -1334.5743305401193 671.32593359103794 0 671.32593359103794 -158.91138012580632 0 0 0 0 -468.52820273546968 747.5545280112492 0 747.5545280112492 301.36435115521817 0 0 0 0 -1661.9402028843979 -77.865516158970422 0 -77.865516158970422 364.30064249369752 0 0 0 0 -494.40743104163266 311.50480345606729 0 311.50480345606729 160.80295510965516 0 0 0 0 -498.7274142679089 700.83851672843593 0 700.83851672843593 538.69490430854057 0 0 0 0 -164.16142394060444 407.42306314733287 0 407.42306314733287 343.20770432674362 0 0 0 0 68.123116809929911 106.56003187205749 0 106.56003187205749 103.97244256972806 0 0 0 0 -81.646429762259231 528.82489055274641 0 528.82489055274641 -765.55879189744883 0 0 0 0 -87.988598019932397 661.91634538852668 0 661.91634538852668 -531.14753715206461 0 0 0 0 -218.25210762230563 501.93748323057662 0 501.93748323057662 -528.70367187064699 0 0 0 0 -160.37838726711925 821.73396744835918 0 821.73396744835918 151.19729932591144 0 0 0 0 -504.35148655503872 650.57674770981976 0 650.57674770981976 326.02480932645994 0 0 0 0 589.57600517146057 1353.0453048396448 0 1353.0453048396448 60.273457587863959 0 0 0 0 -12.745891656770254 758.33913811419188 0 758.33913811419188 -456.3239088357077 0 0 0 0 -55.474952131095051 702.68877079998492 0 702.68877079998492 -453.74876556845265 0 0 0 0 -123.28216579371656 696.46492185546958 0 696.46492185546958 -438.66620444637374 0 0 0 0 -97.110544877883513 746.67126797059609 0 746.67126797059609 -448.24642245918949 0 0 0 0 -2136.7944241533187 965.83681405616881 0 965.83681405616881 864.20905945251434 0 0 0 0 -660.6145835315474 1532.1263245066243 0 1532.1263245066243 380.84524756333849 0 0 0 0 -690.36526551296174 1205.6976073075598 0 1205.6976073075598 1013.0568916483899 0 0 0 0 -891.99426948170003 1176.1090452951175 0 1176.1090452951175 1407.3056535973246 0 0 0 0 -790.81296654154721 2369.5325346919708 0 2369.5325346919708 1204.5606504302978 0 0 0 0 -1090.5192933631843 892.79687282605664 0 892.79687282605664 3536.2630083258991 0 0 0 0 -965.18893748685514 1123.7799906397195 0 1123.7799906397195 1625.2068625622778 0 0 0 0 -443.25490198639454 250.02183703364426 0 250.02183703364426 1372.8238800150139 0 0 0 0 -188.38642702592188 -213.27223622865858 0 -213.27223622865858 1173.7924825435912 0 0 0 0 -207.09616993253076 -690.02318575104073 0 -690.02318575104073 3852.1758826266305 0 0 0 0 -190.52309718247852 585.05804688044009 0 585.05804688044009 248.96715168329683 0 0 0 0 -450.17323486693203 2829.1140911028779 0 2829.1140911028779 6206.5164269010711 0 0 0 0 -598.07158245993196 1949.27193149706 0 1949.27193149706 2308.5878930867329 0 0 0 0 -792.36788710048131 2323.0665930434043 0 2323.0665930434043 5468.4325912950007 0 0 0 0 499.3541530842449 2457.7994447627007 0 2457.7994447627007 1369.1381298421184 0 0 0 0 -1294.1129493844492 1567.0263502300513 0 1567.0263502300513 929.18355795165553 0 0 0 0 -898.89522642940574 1251.1781875566085 0 1251.1781875566085 459.99426978862903 0 0 0 0 -1591.4455370830983 1569.3568379675125 0 1569.3568379675125 964.35590810122085 0 0 0 0 -2254.9604680356279 1418.8030872694362 0 1418.8030872694362 936.61473122296593 0 0 0 0 -1197.4423448754096 2715.2467441744157 0 2715.2467441744157 1360.7793006175871 0 0 0 0 -1536.2026815230201 2618.820036019948 0 2618.820036019948 1994.5961042700219 0 0 0 0 -2640.0229561963934 2218.0582077347281 0 2218.0582077347281 1288.2802270155989 0 0 0 0 -952.65430015795573 2395.2241474212824 0 2395.2241474212824 1780.505732926089 0 0 0 0 -1176.0933167952317 2120.6286318951825 0 2120.6286318951825 2736.1557756662296 0 0 0 0 54.518719923136814 3366.3691224738432 0 3366.3691224738432 1111.8257220342348 0 0 0 0 -331.68111557523662 2718.6709633972569 0 2718.6709633972569 1455.7483183701261 0 0 0 0 146.39639838854782 3694.10127123032 0 3694.10127123032 945.43489128885994 0 0 0 0 -1355.1792817126297 3142.1788225314849 0 3142.1788225314849 1450.6579280098667 0 0 0 0 -951.99656142451568 3256.7432992627728 0 3256.7432992627728 1385.697467280319 0 0 0 0 -894.15750541190937 3529.2156439502278 0 3529.2156439502278 1115.1356701238692 0 0 0 0 10667.36115410598 -2641.2614324255555 0 -2641.2614324255555 -1123.4510571499268 0 0 0 0 1396.7787172253593 1131.4399110563627 0 1131.4399110563627 -334.98699228171608 0 0 0 0 2829.666200269261 1962.1243799131335 0 1962.1243799131335 -56.792399978847243 0 0 0 0 587.07368711481104 191.93524313426315 0 191.93524313426315 1142.3910202938096 0 0 0 0 -300.02197277091909 1638.2375530779245 0 1638.2375530779245 4946.8503529352201 0 0 0 0 -79.225507400115021 953.39835562551161 0 953.39835562551161 5150.3605966887844 0 0 0 0 -118.26054207477137 1184.1214001396002 0 1184.1214001396002 4170.8438538530099 0 0 0 0 -323.48407795644016 1791.0127881236112 0 1791.0127881236112 4500.3232730505406 0 0 0 0 -617.57179863245983 1317.5858293772908 0 1317.5858293772908 3739.7603219099838 0 0 0 0 1029.5672378206909 2693.2421120661038 0 2693.2421120661038 5813.448915848523 0 0 0 0 3.5605094499952372 3.0032259979886859 0 3.0032259979886859 24.80018201132259 0 0 0 0 6.8395947565878998 10.755532299396691 0 10.755532299396691 1.5457852611465768 0 0 0 0 795.34537227905821 2388.1267342937645 0 2388.1267342937645 6932.4529298945999 0 0 0 0 1900.5697559964174 2818.2269499311369 0 2818.2269499311369 5788.9838106613897 0 0 0 0 566.2744823376961 392.67454568115136 0 392.67454568115136 3529.0437266163062 0 0 0 0 71.920941653475893 1404.3057461803546 0 1404.3057461803546 6197.0031371942168 0 0 0 0 1222.3955638566986 1863.4059462775404 0 1863.4059462775404 2740.7610274091276 0 0 0 0 1548.0497837987641 526.72404647905933 0 526.72404647905933 1871.8985824991396 0 0 0 0 11.436039081317119 11.628544851647419 0 11.628544851647419 -3.2142425884749173 0 0 0 0 1959.4696247436873 844.92983664257258 0 844.92983664257258 3878.9903969859297 0 0 0 0 70.836968733841786 1941.9083450224934 0 1941.9083450224934 3317.584535755348 0 0 0 0 -978.48870582725795 1168.2985625463989 0 1168.2985625463989 4484.1209725424415 0 0 0 0 2212.6896692066402 -892.57757449983183 0 -892.57757449983183 473.13403566421766 0 0 0 0 1184.124012714019 4380.1796350788063 0 4380.1796350788063 2542.1739042241352 0 0 0 0 1.4221367505688249 3.6193985697213407 0 3.6193985697213407 2.7636201090728747 0 0 0 0 944.13193343821331 1448.4037080796406 0 1448.4037080796406 575.63265566851624 0 0 0 0 -930.25028451503385 1027.1991025769166 0 1027.1991025769166 4279.7582801126991 0 0 0 0 1649.899616421113 3398.4271637386482 0 3398.4271637386482 -159.32796660539316 0 0 0 0 -679.27073952528735 -337.44422965367266 0 -337.44422965367266 6969.5018279381038 0 0 0 0 16.923125781933777 3710.5324186972575 0 3710.5324186972575 1688.9411255680025 0 0 0 0 18.502523415947877 29.736338456568745 0 29.736338456568745 40.479842566482887 0 0 0 0 3587.5250920166873 3795.3803900882376 0 3795.3803900882376 3397.1513915839896 0 0 0 0 275.32156568679784 2611.1656625183678 0 2611.1656625183678 4223.1256370033225 0 0 0 0 -1467.3772819908918 1263.8278231371078 0 1263.8278231371078 4350.1921996197016 0 0 0 0 7636.4895438604581 3748.7005617629184 0 3748.7005617629184 4310.1700098327565 0 0 0 0 2786.597201477096 6542.8787097772583 0 6542.8787097772583 4292.076950277522 0 0 0 0 -1464.9427357243549 926.38276634713111 0 926.38276634713111 6517.4872332968007 0 0 0 0 -581.50605520961108 -557.39758481870376 0 -557.39758481870376 3003.6258461275756 0 0 0 0 1309.2424966774415 624.31334052737657 0 624.31334052737657 -1365.7247922146416 0 0 0 0 -3563.7938830845669 -125.86890762049006 0 -125.86890762049006 2415.0130759472886 0 0 0 0 1841.6622275023619 1595.3361333248904 0 1595.3361333248904 742.95268619450508 0 0 0 0 0.68660816738260166 6.087056365038336 0 6.087056365038336 3.7105801583724656 0 0 0 0 -175.23822627447589 741.08272847648004 0 741.08272847648004 423.71055139809323 0 0 0 0 2.5141062129460749 16.164423782299849 0 16.164423782299849 -18.301655313494393 0 0 0 0 -144.56868199945893 122.95240007217581 0 122.95240007217581 170.20762552143424 0 0 0 0 -536.35899097558286 627.38285761222505 0 627.38285761222505 569.49763741418428 0 0 0 0 -918.41586772819574 324.45321841534314 0 324.45321841534314 400.45530672556197 0 0 0 0 -1593.1016797634875 1554.8076327922463 0 1554.8076327922463 853.4235139470693 0 0 0 0 -293.18679333265027 -255.96078607878735 0 -255.96078607878735 -346.20320111752153 0 0 0 0 -5.0820299192862137 13.286338890100936 0 13.286338890100936 -27.402750535074318 0 0 0 0 -304.51592821733516 53.685006773983901 0 53.685006773983901 -29.059642942840583 0 0 0 0 1141.6005618206837 798.912790310118 0 798.912790310118 192.40307411561662 0 0 0 0 1260.3593609782292 607.5289894249654 0 607.5289894249654 104.3571858258656 0 0 0 0 -646.05382449419994 -534.08886806106602 0 -534.08886806106602 143.32031270925654 0 0 0 0 380.63705125244451 445.86578125866072 0 445.86578125866072 4.512486079140217 0 0 0 0 -3.525726539331913 29.284703158220893 0 29.284703158220893 -29.144544234566268 0 0 0 0 980.22312477218657 -191.16091339151899 0 -191.16091339151899 -212.32775516041511 0 0 0 0 4.3484773665102523 6.1897346216555036 0 6.1897346216555036 9.5388794947888869 0 0 0 0 -300.89297634305603 213.00713561182465 0 213.00713561182465 -56.262429442518624 0 0 0 0 -278.94029271779073 22.349551769603295 0 22.349551769603295 -67.36278931243578 0 0 0 0 -46.417758072973811 -1595.6413621367537 0 -1595.6413621367537 1495.0827730697129 0 0 0 0 986.74494912460796 682.33252717756841 0 682.33252717756841 -620.75315108968789 0 0 0 0 450.70726469047077 461.83669370697316 0 461.83669370697316 459.44083528392366 0 0 0 0 13.895202345527224 67.571878751494538 0 67.571878751494538 44.497204354525863 0 0 0 0 -16.165982902894029 -437.17581851744762 0 -437.17581851744762 625.69900864419469 0 0 0 0 -539.7484530704096 110.76090179705716 0 110.76090179705716 2049.3102561760606 0 0 0 0 -265.00770210721748 293.79477269086419 0 293.79477269086419 2169.7644208718266 0 0 0 0 658.48898584293056 1209.4135666418442 0 1209.4135666418442 2432.0893193844095 0 0 0 0 323.16623068884655 663.80449469883024 0 663.80449469883024 1972.6529721096658 0 0 0 0 835.28033269013395 2044.8798124567475 0 2044.8798124567475 3331.1616802948265 0 0 0 0 -528.10541260111495 793.09388596946155 0 793.09388596946155 4356.3539794510289 0 0 0 0 -13.53490611088273 325.42145006929786 0 325.42145006929786 1673.917191710716 0 0 0 0 51.101682436237752 336.79481994220259 0 336.79481994220259 971.00293656343274 0 0 0 0 -92.840257230098359 -37.632685280666919 0 -37.632685280666919 1370.3220137716253 0 0 0 0 335.45899707142235 580.60691181017319 0 580.60691181017319 1555.6380756311373 0 0 0 0 117.90511419010363 530.65506850029124 0 530.65506850029124 2324.0827367255115 0 0 0 0 333.82413080351398 523.43206882948289 0 523.43206882948289 1398.0422410767715 0 0 0 0 129.72492889609566 219.60481866224291 0 219.60481866224291 674.72168266480367 0 0 0 0 -129.70813125151471 104.08285182885811 0 104.08285182885811 1085.4721631826615 0 0 0 0 106.53987985544882 210.28755654733686 0 210.28755654733686 -158.73362640040796 0 0 0 0 -138.81033115462924 -154.35188958534854 0 -154.35188958534854 493.19104345842425 0 0 0 0 -154.18788512274477 289.78657512069185 0 289.78657512069185 -162.86301709841791 0 0 0 0 36.011879524711901 77.069439318444765 0 77.069439318444765 51.595186131992861 0 0 0 0 237.77945199301394 329.58109239212718 0 329.58109239212718 -32.752680689180124 0 0 0 0 -19.06861129419849 121.67985246399803 0 121.67985246399803 -104.54754420087556 0 0 0 0 -37.856066234482569 99.176953801244963 0 99.176953801244963 -85.649033534009504 0 0 0 0 45.14870089330276 79.495534883075109 0 79.495534883075109 51.919520834078881 0 0 0 0 49.444147573550737 79.993264415197871 0 79.993264415197871 51.052142460686426 0 0 0 0 121.2467339412251 384.84474426124507 0 384.84474426124507 -275.71826109534049 0 0 0 0 115.72111606106773 151.51393049990293 0 151.51393049990293 -238.7900915954051 0 0 0 0 -103.87203447112188 25.335954337657313 0 25.335954337657313 604.7511491575824 0 0 0 0 11.071883116965182 15.489096387562313 0 15.489096387562313 34.788768973750848 0 0 0 0 -139.23048332293547 79.850981929323098 0 79.850981929323098 457.99404286554636 0 0 0 0 156.13390250211523 -88.179018151342461 0 -88.179018151342461 31.546174583549146 0 0 0 0 309.24563797579685 119.74965077123488 0 119.74965077123488 -341.62912819087796 0 0 0 0 3.6780288697300421 383.85741949522526 0 383.85741949522526 257.43332460123202 0 0 0 0 -0.055891594013314005 4.796220942241689 0 4.796220942241689 8.2421433865507652 0 0 0 0 -10.01316673496558 335.58011781599453 0 335.58011781599453 347.85839696323819 0 0 0 0 206.37778594216525 -64.192591640799947 0 -64.192591640799947 518.14565933553968 0 0 0 0 284.53922066611494 -36.841251781221217 0 -36.841251781221217 199.38722374656209 0 0 0 0 34.983689399272407 83.231156422705681 0 83.231156422705681 455.99998212851187 0 0 0 0 -33.407736346232923 51.290092347699101 0 51.290092347699101 626.30388357803167 0 0 0 0 81.728283167656627 514.73888042990802 0 514.73888042990802 701.70362466809911 0 0 0 0 -39.034517125197453 592.72848070522559 0 592.72848070522559 1380.2950344886194 0 0 0 0 -70.176451453888149 474.44897095072884 0 474.44897095072884 1052.1160314271037 0 0 0 0 -36.639095071942052 531.72621896231203 0 531.72621896231203 1157.6471751579375 0 0 0 0 -32.240742735683853 571.27313760001016 0 571.27313760001016 1126.2974329714634 0 0 0 0 112.04264444465662 626.40678791916071 0 626.40678791916071 1004.4953125533211 0 0 0 0 111.01846047332583 639.23906599003976 0 639.23906599003976 844.58877141600533 0 0 0 0 134.15666019404216 412.03962243940805 0 412.03962243940805 -847.89672537474689 0 0 0 0 0.070810473703026844 9.3354449124933438 0 9.3354449124933438 8.9803828422368355 0 0 0 0 170.43633936596416 676.00846535113669 0 676.00846535113669 149.5754515804872 0 0 0 0 113.73742459225468 635.58291806271518 0 635.58291806271518 1014.7490256476012 0 0 0 0 64.931961109527037 416.24297715330613 0 416.24297715330613 1069.2020409199977 0 0 0 0 -310.37639201990351 194.41759052288762 0 194.41759052288762 2080.6303793134939 0 0 0 0 -111.96806907337577 941.43837209112462 0 941.43837209112462 1506.4967062962023 0 0 0 0 324.54458044200555 617.96535277686235 0 617.96535277686235 828.17991564973636 0 0 0 0 -112.20452690378875 593.35904591757571 0 593.35904591757571 880.1952300134144 0 0 0 0 98.851044448832909 481.64907130704887 0 481.64907130704887 791.703749204833 0 0 0 0 62.788384595714888 459.37717376281216 0 459.37717376281216 800.40471111306033 0 0 0 0 20.671579209015817 262.22041949979211 0 262.22041949979211 486.21168160630623 0 0 0 0 241.72753455441853 322.11808820395163 0 322.11808820395163 421.21368313962012 0 0 0 0 443.73194671476085 314.80039516140823 0 314.80039516140823 409.38772460640757 0 0 0 0 630.43699202951029 415.24688316003812 0 415.24688316003812 260.25348830925941 0 0 0 0 433.10125729692345 233.9776012148659 0 233.9776012148659 131.18003943664371 0 0 0 0 467.29462613356736 708.68295759602188 0 708.68295759602188 627.19287290622378 0 0 0 0 359.0412502666768 454.29493261907191 0 454.29493261907191 522.72817861904332 0 0 0 0 480.18735386102344 732.74184877737753 0 732.74184877737753 595.32520503998967 0 0 0 0 721.04532811815443 699.9385399604289 0 699.9385399604289 20.438796372371144 0 0 0 0 729.42583532741992 743.3555191691994 0 743.3555191691994 245.36883847245372 0 0 0 0 777.83218904355454 684.44748751149018 0 684.44748751149018 -51.522716197912814 0 0 0 0 777.21529677019134 426.3327597765674 0 426.3327597765674 -89.760609923687298 0 0 0 0 742.9479055595657 394.25607891329855 0 394.25607891329855 -76.474984821863472 0 0 0 0 662.69588544515864 438.89295678972121 0 438.89295678972121 138.18328205651414 0 0 0 0 864.3955756188152 248.14578752874513 0 248.14578752874513 7.41250236320775 0 0 0 0 856.21628374783904 403.8940999690326 0 403.8940999690326 -104.67883279788657 0 0 0 0 725.53522271527618 346.10129549973499 0 346.10129549973499 -100.97480439762876 0 0 0 0 581.59637149962236 367.21268522394803 0 367.21268522394803 -257.43697295125457 0 0 0 0 582.32898224744713 355.93007185978058 0 355.93007185978058 -85.780205161077902 0 0 0 0 718.10613484799978 400.37835859431652 0 400.37835859431652 -260.09928216275875 0 0 0 0 614.96100969924009 462.69744960125536 0 462.69744960125536 -196.66840764867811 0 0 0 0 622.61610983700666 460.52048930808087 0 460.52048930808087 -471.19653564711916 0 0 0 0 748.49134570079332 483.30446557216055 0 483.30446557216055 -196.82640252022247 0 0 0 0 715.4808083772441 428.45295291761431 0 428.45295291761431 -282.10903733578743 0 0 0 0 127.75253539100231 141.09457306849072 0 141.09457306849072 -169.17059128638357 0 0 0 0 478.82669790824002 606.81658998792409 0 606.81658998792409 -556.46648526518402 0 0 0 0 498.27529422600855 285.60315202953461 0 285.60315202953461 -704.76734612800647 0 0 0 0 513.96969218106824 372.32789199519902 0 372.32789199519902 -238.80616251722677 0 0 0 0 398.06851216588984 528.28153174174076 0 528.28153174174076 -585.2251052861975 0 0 0 0 464.31674616035161 685.59482861021388 0 685.59482861021388 -416.15646636724705 0 0 0 0 503.05123195633132 532.41583237518353 0 532.41583237518353 -333.05308890590095 0 0 0 0 450.24997337103559 695.46967552277783 0 695.46967552277783 -354.74426951802161 0 0 0 0 501.50038656880497 750.35183708286786 0 750.35183708286786 -578.73679103599784 0 0 0 0 678.20309002175054 658.73426120525983 0 658.73426120525983 -249.3233623527176 0 0 0 0 609.1713106313473 550.03998091082758 0 550.03998091082758 -399.34456829696137 0 0 0 0 769.81837715869187 765.54188869544305 0 765.54188869544305 -422.66160683647286 0 0 0 0 774.07736745517468 918.93132593380869 0 918.93132593380869 -214.91300389317655 0 0 0 0 731.13228082078422 595.88211735245204 0 595.88211735245204 -211.20218663546257 0 0 0 0 755.54687795969949 796.32078270042621 0 796.32078270042621 -487.21218083733402 0 0 0 0 2542.4350233175282 1178.0892853934492 0 1178.0892853934492 -407.97636350881658 0 0 0 0 1209.8223591571077 1294.2635592032166 0 1294.2635592032166 -363.90153941963217 0 0 0 0 917.13360357430793 860.83185626289196 0 860.83185626289196 -999.81875960851903 0 0 0 0 785.30391554765811 1443.6236395142332 0 1443.6236395142332 -163.05036955786636 0 0 0 0 12.382049777066641 7.5776497612322089 0 7.5776497612322089 -4.3312130566703928 0 0 0 0 615.4788795115237 52.209514557864168 0 52.209514557864168 -1458.2761279163497 0 0 0 0 429.99406323065341 723.7217572878144 0 723.7217572878144 -333.56244226302078 0 0 0 0 243.44166937639238 641.13916508767579 0 641.13916508767579 -336.12059475902061 0 0 0 0 468.5419898934706 453.62912818236509 0 453.62912818236509 -738.1710196807544 0 0 0 0 -116.84134523547255 65.329877590476826 0 65.329877590476826 -153.8688014314921 0 0 0 0 526.75740658257564 1687.0169731554633 0 1687.0169731554633 3057.5632053526497 0 0 0 0 967.94871326693101 1548.2137603339725 0 1548.2137603339725 2567.0087223424671 0 0 0 0 16.322609235203686 14.863521436942008 0 14.863521436942008 -6.2145288626134487 0 0 0 0 30.400281685244408 940.2766635439184 0 940.2766635439184 2307.3870074861334 0 0 0 0 -433.74430124903301 992.70699613422039 0 992.70699613422039 2353.7387168525893 0 0 0 0 347.4427677779131 992.96856242208742 0 992.96856242208742 3073.3111589378968 0 0 0 0 8.7111003410535659 9.5836659304401195 0 9.5836659304401195 -3.2654878970848671 0 0 0 0 469.71766255424882 2090.9344783210545 0 2090.9344783210545 4075.6777071561555 0 0 0 0 1357.1624315316585 1723.4747589523904 0 1723.4747589523904 2224.7170500349489 0 0 0 0 645.88031139349914 737.78017431726039 0 737.78017431726039 1350.8587055543176 0 0 0 0 48.905038256008993 623.41039819905563 0 623.41039819905563 1213.7714119116863 0 0 0 0 334.07620980943466 1003.387396725404 0 1003.387396725404 1719.8595313619917 0 0 0 0 264.79559779421106 906.58995127704111 0 906.58995127704111 1214.4028622824419 0 0 0 0 485.82296694911201 968.25361881839126 0 968.25361881839126 612.83477182367642 0 0 0 0 722.66672122893215 939.90650313556398 0 939.90650313556398 337.64482650697755 0 0 0 0 634.84408674905717 1371.887894872285 0 1371.887894872285 167.67420587548622 0 0 0 0 470.06716774088636 1110.8618433898264 0 1110.8618433898264 1458.3742723839387 0 0 0 0 523.32335865910864 309.72944181308412 0 309.72944181308412 309.54069757292382 0 0 0 0 1199.5791550687863 255.3187819391087 0 255.3187819391087 251.61032482712471 0 0 0 0 255.8079082951881 296.35916355446534 0 296.35916355446534 241.56819883657954 0 0 0 0 1.1911550256336341 285.28652663744742 0 285.28652663744742 338.57086364890529 0 0 0 0 -1.2388920994708315 13.336112469922227 0 13.336112469922227 -18.668467999843415 0 0 0 0 -3.9213734691784055 14.49534544425336 0 14.49534544425336 -12.528563520082201 0 0 0 0 1348.7102051398542 431.83396373507458 0 431.83396373507458 121.77574365815963 0 0 0 0 1000.39230156126 302.20360441870889 0 302.20360441870889 257.91255919820105 0 0 0 0 1161.9709620219655 519.82752546910342 0 519.82752546910342 128.82943476494984 0 0 0 0 -6.3061285087246119 14.024750042897722 0 14.024750042897722 -17.138013591071271 0 0 0 0 1162.8847615324485 1130.533716730075 0 1130.533716730075 711.33465269863518 0 0 0 0 1162.3595331095858 1068.9036229896319 0 1068.9036229896319 -248.49321021752985 0 0 0 0 -436.62642058318306 1508.1581401317362 0 1508.1581401317362 -59.594969595265866 0 0 0 0 265.93027091133263 581.62070461920939 0 581.62070461920939 445.34053207168108 0 0 0 0 -1213.0944680182438 1749.6896086730139 0 1749.6896086730139 422.24183566973124 0 0 0 0 -878.73569182740175 1950.2454269241634 0 1950.2454269241634 -1301.4711698487117 0 0 0 0 736.06698600910022 307.12820590136107 0 307.12820590136107 -358.75237497475609 0 0 0 0 -5.7672333701218008 7.8554473815378003 0 7.8554473815378003 -4.6615288723917701 0 0 0 0 -589.2700410898251 1810.1711739613438 0 1810.1711739613438 -1351.1017576297818 0 0 0 0 -1073.9208970837935 1544.4625020168037 0 1544.4625020168037 -1120.0306134107377 0 0 0 0 -758.84025026240852 1750.5495929847857 0 1750.5495929847857 -1385.5730581055905 0 0 0 0 -1160.4992521410604 1798.883198888394 0 1798.883198888394 -1217.7057176668932 0 0 0 0 376.3110007973446 114.74215027248647 0 114.74215027248647 287.0910931702474 0 0 0 0 2523.2979388079548 703.60391846589846 0 703.60391846589846 -1761.0822913172615 0 0 0 0 -3.3354707617252757 11.566280692304872 0 11.566280692304872 -10.772053029231628 0 0 0 0 -2078.9085612394847 2190.0718655350374 0 2190.0718655350374 -1049.8930890863612 0 0 0 0 1242.5222107240043 666.29174676241746 0 666.29174676241746 -553.51251244459854 0 0 0 0 -4.8150610413334789 18.518893163193212 0 18.518893163193212 -20.687032833656559 0 0 0 0 825.07830398360966 916.83185066994884 0 916.83185066994884 496.79295659069612 0 0 0 0 713.36376270180335 364.25010773964459 0 364.25010773964459 638.1334553240581 0 0 0 0 0.3502759951952612 1316.0980127134244 0 1316.0980127134244 -628.64186607212469 0 0 0 0 1703.9924012504634 1622.4116683803923 0 1622.4116683803923 -2711.8167973810814 0 0 0 0 -704.34478167823545 1778.0876822297596 0 1778.0876822297596 -2293.3798123295437 0 0 0 0 0.47254991406225599 2119.7970911017746 0 2119.7970911017746 -2841.4818211538691 0 0 0 0 -392.81959458973142 2093.8139522316178 0 2093.8139522316178 -2546.3776540868375 0 0 0 0 -21.660729884795728 1667.7478489439536 0 1667.7478489439536 -3572.3795247915964 0 0 0 0 254.74130860459991 1025.0568524883411 0 1025.0568524883411 -2148.833115424115 0 0 0 0 -174.14471188369498 -4.673770129508739 0 -4.673770129508739 -463.27503292015354 0 0 0 0 -9.1549668430880047 6.394999928776997 0 6.394999928776997 -9.1063363647537727 0 0 0 0 75.234472555021057 -570.27296947571176 0 -570.27296947571176 -3472.380039245018 0 0 0 0 0.016587252983085353 45.768964367544719 0 45.768964367544719 15.164953335193104 0 0 0 0 -85.466483335010707 12.737076831366721 0 12.737076831366721 28.091597369344527 0 0 0 0 4.7288231597005392 2.5913921657413823 0 2.5913921657413823 -4.1437763524913649 0 0 0 0 68.66468202334363 194.63216697445478 0 194.63216697445478 -609.78828100397004 0 0 0 0 30.642744251003023 230.88737942661464 0 230.88737942661464 -424.73225164416726 0 0 0 0 -241.84782610397087 277.82591609353221 0 277.82591609353221 -349.32897185037109 0 0 0 0 42.377629925758811 137.79074272842627 0 137.79074272842627 -441.79816488371216 0 0 0 0 17.937463716291234 11.201653634999474 0 11.201653634999474 -1.2843590399826113 0 0 0 0 86.825305124308215 18.229745692493452 0 18.229745692493452 -1007.7676667128871 0 0 0 0 44.694293979260692 144.21619521084995 0 144.21619521084995 -512.13504528960948 0 0 0 0 83.733472903666552 151.28414040710959 0 151.28414040710959 -511.04215851373647 0 0 0 0 -6.3489363756671082 1170.5661311930935 0 1170.5661311930935 -1452.628800579791 0 0 0 0 14.601396149111679 885.48981809108136 0 885.48981809108136 111.32027310158082 0 0 0 0 -326.35900549530925 469.2623434361667 0 469.2623434361667 833.52637644457718 0 0 0 0 89.15347080945503 440.45302279736643 0 440.45302279736643 -677.91001602651204 0 0 0 0 22.39927840330347 569.59445676708719 0 569.59445676708719 -43.209611827693152 0 0 0 0 -132.11684856552165 288.37194697936684 0 288.37194697936684 96.349592466745435 0 0 0 0 -368.28308308127453 1372.8039309055439 0 1372.8039309055439 -3424.0559213941492 0 0 0 0 1.3332434406327138 3.7316974294756164 0 3.7316974294756164 -1.4224280216588383 0 0 0 0 -392.46168390203093 982.02957446965866 0 982.02957446965866 -1619.1426436825132 0 0 0 0 -356.35003730518656 1607.6010025440928 0 1607.6010025440928 -2644.8578950307892 0 0 0 0 -1036.0644840813184 2501.8230308860411 0 2501.8230308860411 -2285.9073803413739 0 0 0 0 -531.27427059644833 1148.6003887289189 0 1148.6003887289189 -1742.7170789052616 0 0 0 0 -514.66488455090439 1024.2533815903951 0 1024.2533815903951 -815.31361432683116 0 0 0 0 -136.31195635304903 483.11264811598448 0 483.11264811598448 -1475.2124423259211 0 0 0 0 -228.52075720725406 911.1610083393407 0 911.1610083393407 -1995.0229342289931 0 0 0 0 1.728137032558152 10.813098116215485 0 10.813098116215485 0.016499873422983313 0 0 0 0 621.38314576022094 299.30311446368887 0 299.30311446368887 -604.40483918625296 0 0 0 0 -106.55546145338667 419.2121855455199 0 419.2121855455199 -136.85624023252421 0 0 0 0 -262.82008140650123 536.64858492758401 0 536.64858492758401 -107.38823688852972 0 0 0 0 -162.95559649483039 73.449554148319521 0 73.449554148319521 -543.30571441665961 0 0 0 0 -147.24299877742305 -29.303544337984022 0 -29.303544337984022 120.18288082347135 0 0 0 0 522.60114162156242 680.79604848289819 0 680.79604848289819 -231.62527732191984 0 0 0 0 -244.94627641052648 274.50425293913622 0 274.50425293913622 -284.57324910232455 0 0 0 0 45.968443240504712 838.46128357834641 0 838.46128357834641 -809.83395645176461 0 0 0 0 88.183229565940564 380.82759354091831 0 380.82759354091831 51.026121330676688 0 0 0 0 918.84184589380311 -263.82600285045078 0 -263.82600285045078 -140.04722326188858 0 0 0 0 774.70353579183575 -309.68015734259279 0 -309.68015734259279 147.40798038370849 0 0 0 0 154.97925695107551 297.65330263069882 0 297.65330263069882 -245.64257142748829 0 0 0 0 253.11832825985039 522.07225542356446 0 522.07225542356446 -198.1488304976192 0 0 0 0 7.9307386744900441 3.5107826934760169 0 3.5107826934760169 -0.56917351645600434 0 0 0 0 -768.17102071724548 1153.2824536864402 0 1153.2824536864402 -1283.9186092323325 0 0 0 0 30.948003302099551 12.888024406060708 0 12.888024406060708 -3.6938298592502932 0 0 0 0 -650.8921912440419 551.32319417266626 0 551.32319417266626 -805.37771987112319 0 0 0 0 -406.49130632573724 772.20785063557992 0 772.20785063557992 -606.78902016313987 0 0 0 0 -277.83051391196204 72.598982756866462 0 72.598982756866462 -505.52292946469242 0 0 0 0 -227.19019465195015 49.294953988171983 0 49.294953988171983 -517.56549466723277 0 0 0 0 -529.67378607322462 590.90140408808657 0 590.90140408808657 -901.12599521187985 0 0 0 0 -215.59631310820623 541.3004933821727 0 541.3004933821727 -1075.303030070394 0 0 0 0 -4.6796815555777584 11.015170279739451 0 11.015170279739451 2.2478932906636242 0 0 0 0 -504.28909088281216 582.95594910665022 0 582.95594910665022 -907.24286488289135 0 0 0 0 -0.92160293241431646 12.188770025558739 0 12.188770025558739 1.8211707986236254 0 0 0 0 -151.24446741726206 502.38014231178204 0 502.38014231178204 -628.10603998334409 0 0 0 0 -223.16868083909503 88.804343760388292 0 88.804343760388292 -533.35439521311673 0 0 0 0 -0.95033036288805306 209.68175027737743 0 209.68175027737743 -308.54706223716857 0 0 0 0 -47.304081989002952 615.69059877162999 0 615.69059877162999 704.79976501414058 0 0 0 0 36.193563576380257 536.83473634130314 0 536.83473634130314 435.64484396472835 0 0 0 0 140.238138097513 371.28136074163376 0 371.28136074163376 734.11220146227788 0 0 0 0 -275.38958644228114 703.98717330176623 0 703.98717330176623 -1076.5107155807382 0 0 0 0 -855.7031164017535 1812.6249838876229 0 1812.6249838876229 -1170.2805377791119 0 0 0 0 -409.87198555778014 1552.9960117055125 0 1552.9960117055125 -2547.0702866803695 0 0 0 0 -0.92283533363786319 3.9795876734053621 0 3.9795876734053621 0.4851781421327388 0 0 0 0 -428.07857084533316 1593.4212756093184 0 1593.4212756093184 474.31481866625472 0 0 0 0 -541.67884043796221 584.30225824856097 0 584.30225824856097 2382.7126310844797 0 0 0 0 -393.56748800858622 1277.5252190766259 0 1277.5252190766259 -1003.7953236475805 0 0 0 0 -652.58481865604699 1682.6492740071408 0 1682.6492740071408 -637.01020685460935 0 0 0 0 -652.07079346734099 1622.0006978653591 0 1622.0006978653591 -1294.0745854481866 0 0 0 0 -671.22113399743102 1996.3666270488006 0 1996.3666270488006 -610.45406634784013 0 0 0 0 -852.35319063976931 1767.8431187985407 0 1767.8431187985407 -656.640737803089 0 0 0 0 -745.76277721091174 1795.3018242973303 0 1795.3018242973303 -658.03964358849771 0 0 0 0 -762.196912245985 1760.7289548996214 0 1760.7289548996214 -123.28142932004994 0 0 0 0 -336.02655592241354 1597.2156040426617 0 1597.2156040426617 -431.84946766070061 0 0 0 0 -742.86672658397583 1662.9627536524167 0 1662.9627536524167 -206.90723301401158 0 0 0 0 -1110.0807186301972 1774.1908426503996 0 1774.1908426503996 -230.56463379855632 0 0 0 0 -717.76123934905627 1678.9758017722561 0 1678.9758017722561 -416.81308061116215 0 0 0 0 -1368.414998107226 1793.4412062611736 0 1793.4412062611736 -239.99955255956593 0 0 0 0 -1541.7728760935424 1422.2711276441369 0 1422.2711276441369 195.45775506552673 0 0 0 0 -869.38786254147999 1176.8802079792658 0 1176.8802079792658 -192.97860871559169 0 0 0 0 -1117.6058901538418 1433.8599093472815 0 1433.8599093472815 -427.21873929622234 0 0 0 0 -1112.918963018903 1466.0765850459211 0 1466.0765850459211 -480.50439393114357 0 0 0 0 -1124.4857857211318 1667.3995716886639 0 1667.3995716886639 -273.41711772354392 0 0 0 0 -1017.9632487366907 821.68910609776503 0 821.68910609776503 157.37316331996408 0 0 0 0 -1369.1616943627887 927.13103732103991 0 927.13103732103991 269.68308222300584 0 0 0 0 -482.10281055152882 655.68719291127854 0 655.68719291127854 92.743211878128932 0 0 0 0 -380.69760512554421 273.44365239879153 0 273.44365239879153 175.98140751731989 0 0 0 0 -78.909976896829903 498.70614064218535 0 498.70614064218535 170.06341459596547 0 0 0 0 237.87244094340713 341.77706446839875 0 341.77706446839875 93.509906383273574 0 0 0 0 303.37692128028721 465.9400608050928 0 465.9400608050928 80.938364737316988 0 0 0 0 331.82021494014771 443.14673715983918 0 443.14673715983918 62.889373188081663 0 0 0 0 329.17294031611527 272.10852141740179 0 272.10852141740179 71.686728190600661 0 0 0 0 356.85959354235092 428.09184118924895 0 428.09184118924895 53.679202386958423 0 0 0 0 473.66230973639176 554.10683484380934 0 554.10683484380934 123.38965165587797 0 0 0 0 377.05134806901333 345.7752809749627 0 345.7752809749627 143.45830277560162 0 0 0 0 129.86362502473639 218.19249999899876 0 218.19249999899876 160.15517765676691 0 0 0 0 35.81088677153457 592.51150634957776 0 592.51150634957776 209.89615648297331 0 0 0 0 129.39890970491069 228.08517572052915 0 228.08517572052915 861.19683202297165 0 0 0 0 -85.563244730990846 574.78064324691877 0 574.78064324691877 1848.8831245104666 0 0 0 0 3.0606504235865941 1.0054509037622807 0 1.0054509037622807 -0.24684191328518246 0 0 0 0 402.70107739185914 982.2755625462305 0 982.2755625462305 665.65665426712076 0 0 0 0 519.58935430769634 633.6074308530915 0 633.6074308530915 -2098.8988378182621 0 0 0 0 -263.30364459194243 352.1692136545953 0 352.1692136545953 -433.54642904270804 0 0 0 0 -0.87701247809673077 812.44240347187042 0 812.44240347187042 -1043.0719424278686 0 0 0 0 -53.823571962158894 137.24374244190585 0 137.24374244190585 -39.549545489055163 0 0 0 0 -197.74456527816074 262.36406702404565 0 262.36406702404565 526.48841756724141 0 0 0 0 3.9735292441116599 8.4983099552723189 0 8.4983099552723189 1.2404696877069394 0 0 0 0 -74.746945450700878 405.83354945856809 0 405.83354945856809 -249.37471837218618 0 0 0 0 -474.30656470239046 580.76476867294696 0 580.76476867294696 -228.39416088652342 0 0 0 0 -245.31651874558884 638.49123903217151 0 638.49123903217151 758.3633525996047 0 0 0 0 54.213891779974801 575.16358693069742 0 575.16358693069742 257.88809752583575 0 0 0 0 0.20091718890296306 10.560132376244553 0 10.560132376244553 2.0805875470950923 0 0 0 0 153.73051531350939 334.88609481667845 0 334.88609481667845 760.42156585400437 0 0 0 0 -583.15913552010898 552.88114944299559 0 552.88114944299559 2489.9631896964092 0 0 0 0 -314.57207561499672 1388.9340738783721 0 1388.9340738783721 571.62954329718741 0 0 0 0 -2.7898957430268183 3.8236928822971805 0 3.8236928822971805 0.81869542325481781 0 0 0 0 -660.13228619124857 1302.9647142724043 0 1302.9647142724043 -2215.2062445393367 0 0 0 0 -308.68783160402381 677.96170909754164 0 677.96170909754164 -1237.1319364100018 0 0 0 0 -821.49648982536746 1100.9164777102851 0 1100.9164777102851 -1325.6463847415991 0 0 0 0 23.549567463100175 10.194696743186768 0 10.194696743186768 -2.8329080179088209 0 0 0 0 -32.668339847383322 307.16936263101707 0 307.16936263101707 -635.00439723524323 0 0 0 0 -111.95134404046257 267.09250064710966 0 267.09250064710966 -492.46147107235629 0 0 0 0 -87.619828620014232 400.5052509019693 0 400.5052509019693 -660.4132645580703 0 0 0 0 1117.4053768653248 547.73929524046434 0 547.73929524046434 -623.17885480536188 0 0 0 0 2462.0843443298509 1259.8667892779013 0 1259.8667892779013 -823.41634483478265 0 0 0 0 369.29283903579926 1227.1317732891539 0 1227.1317732891539 -553.69335880065046 0 0 0 0 876.04575860186014 1030.0157640759571 0 1030.0157640759571 -1655.5599856642521 0 0 0 0 775.32329545306857 108.4524399547422 0 108.4524399547422 -764.49948184464301 0 0 0 0 1047.9380624433106 907.64485290179437 0 907.64485290179437 -1308.9701687058077 0 0 0 0 231.52736897396971 67.533930343583961 0 67.533930343583961 -526.92189319120371 0 0 0 0 569.35679773829179 136.025818305965 0 136.025818305965 -873.61781270388383 0 0 0 0 465.04078740239493 433.99191292897285 0 433.99191292897285 -1063.7389245446502 0 0 0 0 1292.5836651514401 266.82269940453989 0 266.82269940453989 -410.21210029576696 0 0 0 0 471.96903011811082 -152.86425319235605 0 -152.86425319235605 -306.70232825430321 0 0 0 0 1668.0172007947112 622.42057007327276 0 622.42057007327276 -280.35658208231689 0 0 0 0 1319.5620411380369 216.67672400618903 0 216.67672400618903 -112.10032335076539 0 0 0 0 1886.7471050021595 -180.1552385991954 0 -180.1552385991954 294.69934445053877 0 0 0 0 1282.2977631861286 644.46818882751177 0 644.46818882751177 149.36813372728648 0 0 0 0 937.03786005140864 41.477010733349744 0 41.477010733349744 267.01053842815963 0 0 0 0 1182.0551634563308 618.92957614185616 0 618.92957614185616 270.93011018837569 0 0 0 0 943.81961878138827 260.52704106184683 0 260.52704106184683 13.960562636309987 0 0 0 0 11.248061435298155 3.6983752372222227 0 3.6983752372222227 -3.4663724135357441 0 0 0 0 -734.63288930233102 1462.9027135674351 0 1462.9027135674351 -304.28669149213965 0 0 0 0 878.07017448748229 1192.4149023957434 0 1192.4149023957434 -544.02438643561982 0 0 0 0 -312.33785364175856 1272.1543450498302 0 1272.1543450498302 -358.01077005588741 0 0 0 0 427.88046051463607 769.40399848181823 0 769.40399848181823 -385.92496651600231 0 0 0 0 508.00245723908301 771.12425614709355 0 771.12425614709355 -467.05169387346382 0 0 0 0 645.4564255587793 -77.409994029310383 0 -77.409994029310383 -135.0342268462482 0 0 0 0 -1543.5336557856936 863.06063741624712 0 863.06063741624712 -662.41045135732929 0 0 0 0 -1923.2057710135705 1447.5187455049891 0 1447.5187455049891 -545.28615662089578 0 0 0 0 -2867.5724801321485 1554.699713590031 0 1554.699713590031 -527.62024905740691 0 0 0 0 -2342.5134122707968 683.70645861423554 0 683.70645861423554 -14.381339741794363 0 0 0 0 19.370913665878163 34.790213937899409 0 34.790213937899409 8.508481174315861 0 0 0 0 1044.7295182969538 100.61539594990063 0 100.61539594990063 -56.00619177165936 0 0 0 0 3419.6516276946641 -151.21549665082239 0 -151.21549665082239 -666.72470638130835 0 0 0 0 7.4678304271022853 14.278356157949077 0 14.278356157949077 2.4729638104204241 0 0 0 0 -4188.7806200192572 2215.2368775907544 0 2215.2368775907544 -612.17094339642244 0 0 0 0 -2439.7811594346713 534.13553486447199 0 534.13553486447199 -545.77410142851306 0 0 0 0 -1649.0895115035528 1165.8424879237564 0 1165.8424879237564 -860.12310649935898 0 0 0 0 -2164.6099538329581 1444.5142758289676 0 1444.5142758289676 -1113.3771980820165 0 0 0 0 -985.14530224929331 276.18190067603791 0 276.18190067603791 -801.17337963852583 0 0 0 0 -605.90737459925003 516.00505538013385 0 516.00505538013385 -748.21920032159687 0 0 0 0 -233.32851161999861 -69.90489408009762 0 -69.90489408009762 -535.91000040276776 0 0 0 0 -303.9921497614705 478.6181809329828 0 478.6181809329828 -751.62243199021941 0 0 0 0 -900.51092477534257 1836.4165291717454 0 1836.4165291717454 -1717.5239415280812 0 0 0 0 -1721.2178147004015 1897.9561096395978 0 1897.9561096395978 -1793.2447404917875 0 0 0 0 -2923.1809821419884 1152.4285529473564 0 1152.4285529473564 -1910.2852121131255 0 0 0 0 -781.02521725564293 3157.3344688715338 0 3157.3344688715338 -2156.0846918715615 0 0 0 0 532.68585161000374 2508.3423327810601 0 2508.3423327810601 -2967.5860074046941 0 0 0 0 189.25021331262542 -159.84218630388114 0 -159.84218630388114 -41.082534677832882 0 0 0 0 188.36441971934983 45.062868959019397 0 45.062868959019397 -542.03776038200704 0 0 0 0 -383.45977146463702 -118.60996349632046 0 -118.60996349632046 -372.54794361132372 0 0 0 0 -48.002189460661612 -50.062388014712269 0 -50.062388014712269 -152.24522415538377 0 0 0 0 -355.13331187042058 554.5195142632947 0 554.5195142632947 -615.24745981675278 0 0 0 0 -1023.2026019132463 225.61563675468551 0 225.61563675468551 -316.1638596173143 0 0 0 0 -12.358757469453849 522.25713880219155 0 522.25713880219155 -483.06227505214702 0 0 0 0 1299.0763593037263 135.82718026915518 0 135.82718026915518 -534.25508953339886 0 0 0 0 586.70444105699426 481.04368567605889 0 481.04368567605889 -261.43146720619643 0 0 0 0 651.24923832638888 175.89847601146357 0 175.89847601146357 -64.118899066699669 0 0 0 0 337.06558684408083 -122.76965570410903 0 -122.76965570410903 361.00429198359052 0 0 0 0 -6.692054596363576 138.12673834426494 0 138.12673834426494 -64.868193595459331 0 0 0 0 41.895504102406662 35.713117480917703 0 35.713117480917703 -89.974918024292592 0 0 0 0 667.46793184999842 539.3312933948273 0 539.3312933948273 -438.19085376232033 0 0 0 0 582.68876011170505 49.441153546296846 0 49.441153546296846 -102.02172137498928 0 0 0 0 20.012093032918234 125.41311879225648 0 125.41311879225648 -68.41671214838118 0 0 0 0 -14.771835923908895 43.055170842738221 0 43.055170842738221 -71.307173815514474 0 0 0 0 -112.30143408413278 653.70098143289579 0 653.70098143289579 202.97439371350765 0 0 0 0 -1019.5699386576307 994.89071145300113 0 994.89071145300113 -729.11266558640637 0 0 0 0 -746.94506722188089 367.16634574800264 0 367.16634574800264 108.45245309472375 0 0 0 0 -1120.614198151161 867.41677082938259 0 867.41677082938259 -146.4151273584248 0 0 0 0 -141.86979396943207 473.26328041146166 0 473.26328041146166 -335.64475723473151 0 0 0 0 -1437.8615484379116 561.57857781192433 0 561.57857781192433 16.611883667326765 0 0 0 0 -78.455890804252704 -71.864290156314382 0 -71.864290156314382 12.835346572628623 0 0 0 0 -1494.4551695658301 466.37677314411394 0 466.37677314411394 296.35454245596338 0 0 0 0 -1283.5385886719159 651.46229244623464 0 651.46229244623464 -50.403375293622958 0 0 0 0 -1731.4971137697285 1072.4350632041933 0 1072.4350632041933 -142.93753465331247 0 0 0 0 -1560.7484868872561 1147.6445652269431 0 1147.6445652269431 -308.44210305916022 0 0 0 0 468.21261234998383 263.51741135885186 0 263.51741135885186 -455.24038954204298 0 0 0 0 -1568.7951309736236 629.40431657646695 0 629.40431657646695 130.87490139409056 0 0 0 0 776.65129593474558 19.516438936905615 0 19.516438936905615 -539.16927560919066 0 0 0 0 -10.270358870534352 35.281188939956365 0 35.281188939956365 -46.788819974769211 0 0 0 0 560.1669895814739 -284.54697413188705 0 -284.54697413188705 1403.3161309948046 0 0 0 0 -1595.776624211896 770.79340171106833 0 770.79340171106833 -216.20493581825576 0 0 0 0 548.20353675809747 61.657584392427452 0 61.657584392427452 1304.6264165525936 0 0 0 0 218.21287489157112 -247.22373718842937 0 -247.22373718842937 2605.4894682587255 0 0 0 0 -5.7078644539674599 15.063050692648062 0 15.063050692648062 -16.24855245611738 0 0 0 0 88.358559280226473 1243.3331074575835 0 1243.3331074575835 3075.2256836103807 0 0 0 0 3683.2227988484374 2155.3016706678263 0 2155.3016706678263 -3216.2953144153653 0 0 0 0 -2517.3225908180975 4403.4757950528747 0 4403.4757950528747 -393.85063231462846 0 0 0 0 -7155.1691207959375 3008.1120570664061 0 3008.1120570664061 -40.969904912708444 0 0 0 0 -388.83804002404213 634.2733350626695 0 634.2733350626695 -1789.91873828998 0 0 0 0 -3491.917077193677 -147.84894883810193 0 -147.84894883810193 237.78937231336022 0 0 0 0 -2920.3199114404852 164.98197475822599 0 164.98197475822599 -527.46495328024685 0 0 0 0 -2439.4520188498427 1636.7555987686537 0 1636.7555987686537 -1221.8675068700741 0 0 0 0 -1627.4614542706986 698.20786833197781 0 698.20786833197781 -380.7867421261908 0 0 0 0 -2017.069582740136 824.87349147057103 0 824.87349147057103 -248.63266458961152 0 0 0 0 -1554.0579329747688 931.03647058054855 0 931.03647058054855 -271.06735226624005 0 0 0 0 -2123.543491146258 1235.8387684457875 0 1235.8387684457875 -186.59367914617906 0 0 0 0 386.5161668096116 286.81129509589391 0 286.81129509589391 -278.16418511144002 0 0 0 0 27.406675339363204 45.541551002032747 0 45.541551002032747 11.355209545114818 0 0 0 0 -2257.5122077632404 1477.009257003283 0 1477.009257003283 -184.04022549460569 0 0 0 0 21.564813110111572 334.96152434618944 0 334.96152434618944 -53.242181437693944 0 0 0 0 -2162.3995393626683 1290.2148007090018 0 1290.2148007090018 51.540569369455625 0 0 0 0 316.6118156327575 421.01864812124768 0 421.01864812124768 -471.61142782310344 0 0 0 0 196.49981449410552 595.1863076378504 0 595.1863076378504 -314.87796631663332 0 0 0 0 128.71819481256534 581.25969434279614 0 581.25969434279614 -102.08760759488359 0 0 0 0 -71.73506637167884 464.62337178517191 0 464.62337178517191 -72.408721611123838 0 0 0 0 357.779618614848 605.99746688567029 0 605.99746688567029 -145.95213608841732 0 0 0 0 -456.95606138181756 212.5422585264796 0 212.5422585264796 93.4424432101805 0 0 0 0 -391.06714690325316 254.17485251853213 0 254.17485251853213 -1564.6160695089711 0 0 0 0 25.988740846394506 55.940367990293851 0 55.940367990293851 16.232031231963262 0 0 0 0 -1885.8905183160095 528.63490043382353 0 528.63490043382353 323.84735823843948 0 0 0 0 -506.08826394280186 397.80051264404028 0 397.80051264404028 -40.607895861103316 0 0 0 0 -73.898181117481727 424.98153289702873 0 424.98153289702873 -192.05000974179711 0 0 0 0 -720.49142935551936 377.7226396323822 0 377.7226396323822 53.283924607945664 0 0 0 0 -790.06190141897969 684.74094453698854 0 684.74094453698854 -137.03379830800986 0 0 0 0 -28.164226282280595 9.9850778364207144 0 9.9850778364207144 -3.404814696072691 0 0 0 0 -242.19004144414794 427.70227902606712 0 427.70227902606712 -172.44972108253569 0 0 0 0 -264.19089433411136 317.57996208027907 0 317.57996208027907 -191.47997574655164 0 0 0 0 -561.75375622924184 411.93941924361388 0 411.93941924361388 -13.576578129708651 0 0 0 0 -948.94515442126431 439.04396335552883 0 439.04396335552883 -179.43199845158961 0 0 0 0 -548.06660952742095 419.22483765719608 0 419.22483765719608 -319.93199598502542 0 0 0 0 -240.38242176547647 453.06225218866166 0 453.06225218866166 181.84305086432869 0 0 0 0 87.81895123567665 272.01306776038109 0 272.01306776038109 -55.390676829010772 0 0 0 0 -261.53945842222311 397.04600774370192 0 397.04600774370192 37.299010684335371 0 0 0 0 202.88813300407492 485.86095099644808 0 485.86095099644808 38.95200057420152 0 0 0 0 238.78671313534142 389.13980033808548 0 389.13980033808548 44.660365118535992 0 0 0 0 -63.838257643976249 419.29356097833443 0 419.29356097833443 62.88270210230985 0 0 0 0 296.08112137508579 337.46421057796397 0 337.46421057796397 -56.247479239318636 0 0 0 0 -367.03415046678856 224.66080866116681 0 224.66080866116681 54.935638540359832 0 0 0 0 -670.03680062358035 442.50464186212776 0 442.50464186212776 -96.159693964441431 0 0 0 0 -496.76462657601223 299.97440048469434 0 299.97440048469434 -204.39581267973699 0 0 0 0 -58.679946516810219 57.898090966723466 0 57.898090966723466 -26.366447199622968 0 0 0 0 -344.16583722771611 152.01437743707356 0 152.01437743707356 -78.53663086924189 0 0 0 0 -358.27449773083208 163.90265167738107 0 163.90265167738107 -86.382493270350096 0 0 0 0 -282.81227769059478 323.0646393670977 0 323.0646393670977 -88.650141593068838 0 0 0 0 0.98269920980160919 14.294560814354043 0 14.294560814354043 -9.7793798697758234 0 0 0 0 -26.356498656004817 60.017870363045347 0 60.017870363045347 -16.586258301838456 0 0 0 0 -51.745932523044758 79.306259393022629 0 79.306259393022629 -48.33054569986416 0 0 0 0 -43.512338949163677 82.126012836939481 0 82.126012836939481 -52.110754771754728 0 0 0 0 -166.35380344002624 1153.8198300718177 0 1153.8198300718177 -1263.228593828273 0 0 0 0 26.727094945410158 89.752580431611079 0 89.752580431611079 -35.926236811849009 0 0 0 0 11.190775915335053 39.641582987481371 0 39.641582987481371 15.929795794455003 0 0 0 0 -127.991959997511 201.58706168414938 0 201.58706168414938 -92.678460502444068 0 0 0 0 45.158984754001722 93.492017295851838 0 93.492017295851838 -82.779123382002581 0 0 0 0 -0.51296947455250574 71.345804163128136 0 71.345804163128136 -37.813797950108494 0 0 0 0 -2791.3434467425686 770.77973298329744 0 770.77973298329744 3400.264638921275 0 0 0 0 -890.78459531217231 569.32625015072699 0 569.32625015072699 -619.04583479999565 0 0 0 0 -1268.6621627938293 697.88517555552244 0 697.88517555552244 -411.22172405791935 0 0 0 0 -2066.6053145636688 1077.4605506181251 0 1077.4605506181251 -479.23837004130473 0 0 0 0 -25.39398233613241 84.656455902501833 0 84.656455902501833 -45.562588063490665 0 0 0 0 -1730.0058673193562 1491.664973052837 0 1491.664973052837 -897.14036334730918 0 0 0 0 -1570.7954912903951 858.2412000427139 0 858.2412000427139 -492.63469103309762 0 0 0 0 -1450.9422223969596 1181.5284680230834 0 1181.5284680230834 -742.62469182616042 0 0 0 0 -1817.4829702542629 1070.9962324439548 0 1070.9962324439548 -576.3383427758672 0 0 0 0 -1867.2045417234185 1464.2624295174028 0 1464.2624295174028 -880.56318289870978 0 0 0 0 -2579.4858970342902 1366.8853794929018 0 1366.8853794929018 -438.06657386186998 0 0 0 0 3211.846255011973 3215.9598855234199 0 3215.9598855234199 -5157.9911946062603 0 0 0 0 -2068.3086650484765 -2526.1981730118205 0 -2526.1981730118205 -207.72937876825745 0 0 0 0 -65.68320006995117 44.569868809895581 0 44.569868809895581 -6.1560595530252584 0 0 0 0 -1890.3516584830359 1650.0159722835524 0 1650.0159722835524 -2764.6502659884864 0 0 0 0 -4740.6132684381664 -2880.949901894237 0 -2880.949901894237 4092.2116664907007 0 0 0 0 -2252.5557081119987 4022.6283904941301 0 4022.6283904941301 -4570.2611255982192 0 0 0 0 1972.3393442603992 -2048.6247718080922 0 -2048.6247718080922 3480.7923489204186 0 0 0 0 -14.333962577896585 59.089458832699847 0 59.089458832699847 -28.428261807406756 0 0 0 0 -68.972376022364642 63.488680069900852 0 63.488680069900852 20.23753246044356 0 0 0 0 -85.427753195981495 67.16552781574137 0 67.16552781574137 -29.446609288803302 0 0 0 0 34.587432744218745 111.29394874991971 0 111.29394874991971 -14.467163724475284 0 0 0 0 572.40428543537564 2607.0438057711635 0 2607.0438057711635 -5547.3435557160556 0 0 0 0 -450.03573082262301 855.50005356937618 0 855.50005356937618 -1054.7693658316784 0 0 0 0 -827.72276131418766 1271.089704122991 0 1271.089704122991 -1403.467735515289 0 0 0 0 -351.7960201259848 545.57300512680376 0 545.57300512680376 -170.76580570414626 0 0 0 0 -38.717115655029318 68.92488644482232 0 68.92488644482232 -49.634063458604686 0 0 0 0 -316.57523236820634 106.48171453644682 0 106.48171453644682 -1261.9038690924644 0 0 0 0 -41.800664188920905 18.222930808031492 0 18.222930808031492 -9.5747308406672289 0 0 0 0 -531.27197156686452 503.50203986660927 0 503.50203986660927 -1092.6726402066161 0 0 0 0 -519.60941313346848 773.74193340505008 0 773.74193340505008 -135.66138685646001 0 0 0 0 -297.91561890405137 793.30636127790785 0 793.30636127790785 -643.07605985784903 0 0 0 0 -740.353736854624 -146.78263739059912 0 -146.78263739059912 -1209.2716881817905 0 0 0 0 -14.869737914171196 14.491889803936559 0 14.491889803936559 40.448500098913541 0 0 0 0 -167.03191274462733 146.74780899631151 0 146.74780899631151 103.45056892078355 0 0 0 0 19.531064611503552 66.884397727385988 0 66.884397727385988 39.141822409589906 0 0 0 0 -623.48348719853675 538.41685362621138 0 538.41685362621138 -408.52088699504384 0 0 0 0 -512.24344325778657 792.81430606962385 0 792.81430606962385 -443.46963038959075 0 0 0 0 -579.83379234746099 930.77932841455913 0 930.77932841455913 -606.83318088622764 0 0 0 0 -486.60189954820089 764.79756362814078 0 764.79756362814078 -565.75036065164022 0 0 0 0 -895.01018495915923 888.71989130522707 0 888.71989130522707 -479.70003752937191 0 0 0 0 -730.54731032287236 815.16331726443605 0 815.16331726443605 -446.8325271110516 0 0 0 0 -1150.5876088547948 805.97861805573007 0 805.97861805573007 -410.18620640318841 0 0 0 0 -1259.926286706288 798.08133733382238 0 798.08133733382238 -188.41727734057349 0 0 0 0 -1011.1329557885474 500.84760269776416 0 500.84760269776416 -206.8907698612893 0 0 0 0 -1248.2959120327723 1103.4518746913091 0 1103.4518746913091 -616.94942029019876 0 0 0 0 -1381.025351746408 994.85372136419574 0 994.85372136419574 -705.78275099664461 0 0 0 0 -938.45694588447805 942.67219869409746 0 942.67219869409746 -627.32097885764961 0 0 0 0 -127.39618459655321 210.97372558894858 0 210.97372558894858 -46.481540712848073 0 0 0 0 -12.037711270974512 0.1203289639817342 0 0.1203289639817342 0.0076141661144220052 0 0 0 0 -257.29262847645441 -24.404946380134788 0 -24.404946380134788 397.49199277082516 0 0 0 0 -51.988504335313337 155.7492993829801 0 155.7492993829801 -71.495218823227333 0 0 0 0 -18.522252809452766 -106.10145230655326 0 -106.10145230655326 110.51445766401594 0 0 0 0 -597.02943219983717 50.181806467997376 0 50.181806467997376 82.134883346123388 0 0 0 0 -199.98040311608929 186.75952655714354 0 186.75952655714354 124.36148726477404 0 0 0 0 -57.536900220515406 56.815552531864384 0 56.815552531864384 -36.531077735659736 0 0 0 0 -697.5313896813168 607.98822325968649 0 607.98822325968649 461.26677603411372 0 0 0 0 -976.62483011936274 530.71110168458654 0 530.71110168458654 517.73648205213249 0 0 0 0 -2605.5641240523255 575.01040244777687 0 575.01040244777687 533.99552505961037 0 0 0 0 424.51171308511402 -58.711151967887417 0 -58.711151967887417 -1116.991614264407 0 0 0 0 60.435498859413201 492.3985027925446 0 492.3985027925446 -122.30442622321425 0 0 0 0 -56.539357961387964 55.820009447157645 0 55.820009447157645 -43.809655422501933 0 0 0 0 164.37506994404612 477.3596485863327 0 477.3596485863327 -693.03517002472654 0 0 0 0 -43.09796914545484 32.227008958738153 0 32.227008958738153 -23.397983404673141 0 0 0 0 -316.91129498963892 340.95656635883734 0 340.95656635883734 -127.43810929018218 0 0 0 0 99.998054287083505 261.17153251278978 0 261.17153251278978 -680.50562467098644 0 0 0 0 129.20074295331142 363.8795188574004 0 363.8795188574004 -580.47212511163525 0 0 0 0 -30.883235867484473 364.88871089710665 0 364.88871089710665 -441.84730438215774 0 0 0 0 -1539.3355286950973 847.80157406510261 0 847.80157406510261 -589.50537135444756 0 0 0 0 -978.89381795070949 -185.24531855180248 0 -185.24531855180248 -686.4465873112058 0 0 0 0 -809.73862455433118 252.71439263265347 0 252.71439263265347 -191.50822875426093 0 0 0 0 -1102.2077453619859 -26.388748818168096 0 -26.388748818168096 -156.07058750600845 0 0 0 0 -41.211116911826196 60.901450366956013 0 60.901450366956013 -60.659784976239393 0 0 0 0 -490.33214551910351 806.52660346979246 0 806.52660346979246 379.94525605016679 0 0 0 0 178.31080313150596 472.13279931680518 0 472.13279931680518 -469.30728557703424 0 0 0 0 177.30703425399668 320.97975763334637 0 320.97975763334637 -544.30745823605685 0 0 0 0 -597.10300114708662 -545.28606497940928 0 -545.28606497940928 -821.5791400583621 0 0 0 0 -60.373386387596838 290.86141760904866 0 290.86141760904866 -1323.7032460435694 0 0 0 0 -549.32365307785449 609.57734063374915 0 609.57734063374915 -761.88531435618643 0 0 0 0 -13.527386630143155 94.273206204903545 0 94.273206204903545 -941.18677844427293 0 0 0 0 115.5466032941913 603.39358835078747 0 603.39358835078747 -1077.3098313471328 0 0 0 0 361.64644605429203 61.32361475439393 0 61.32361475439393 -136.6334725208435 0 0 0 0 -496.14571744899149 416.91676256635401 0 416.91676256635401 -282.84406153047166 0 0 0 0 880.86682715955249 1334.6961760954873 0 1334.6961760954873 630.2805821605034 0 0 0 0 -378.79652698893915 -362.74440076975952 0 -362.74440076975952 569.04905773881183 0 0 0 0 272.59261439741385 1145.6055821539376 0 1145.6055821539376 -302.55220888272743 0 0 0 0 1.6149475164544 4.3885549307055953 0 4.3885549307055953 10.750356968045082 0 0 0 0 4696.3570999129442 915.11577706949902 0 915.11577706949902 -545.71280010347982 0 0 0 0 1196.3692684173438 1704.7035194778509 0 1704.7035194778509 -238.90774631130989 0 0 0 0 1279.7481259271881 -222.85125985756531 0 -222.85125985756531 521.10006363679713 0 0 0 0 570.4945835685794 633.11000617223908 0 633.11000617223908 -1596.2109035708563 0 0 0 0 1.1847935116442159 18.414911305461715 0 18.414911305461715 42.743461204226378 0 0 0 0 3260.2337960498407 647.86958293408679 0 647.86958293408679 -933.46170289888687 0 0 0 0 969.15592305440077 1093.1665463459649 0 1093.1665463459649 172.13870728696202 0 0 0 0 -4043.409509728408 2308.0817991866898 0 2308.0817991866898 -855.16276747867232 0 0 0 0 -2557.5298897908651 384.31508839520393 0 384.31508839520393 -1913.1599690345502 0 0 0 0 -1089.1594706613396 1756.2534007589056 0 1756.2534007589056 -956.74574765273428 0 0 0 0 -933.54739015872474 286.14849181727186 0 286.14849181727186 -709.34599913380771 0 0 0 0 -1926.448717772204 1911.8522517105848 0 1911.8522517105848 -1484.6940873702988 0 0 0 0 -906.74427568758983 451.81606931097485 0 451.81606931097485 -603.57879101841536 0 0 0 0 -844.0658197227458 475.94534494483742 0 475.94534494483742 -606.9127511355473 0 0 0 0 -1218.2408890783117 260.60034102167265 0 260.60034102167265 -359.79931429670251 0 0 0 0 99.723934804118471 -200.40336841779208 0 -200.40336841779208 -1412.1863295557996 0 0 0 0 -696.23013396738679 1848.1104615572331 0 1848.1104615572331 -5875.3249808216351 0 0 0 0 -26.378676590585144 27.602819221331192 0 27.602819221331192 -22.477203574453597 0 0 0 0 -1628.8179568318737 2019.4094615284703 0 2019.4094615284703 -3123.8666172794547 0 0 0 0 -1667.3573404408671 2479.8422926766107 0 2479.8422926766107 -2525.9629485456899 0 0 0 0 -488.73273494670866 1518.82945293179 0 1518.82945293179 -1903.116795469341 0 0 0 0 -1295.7072620856707 1278.0616931522836 0 1278.0616931522836 -876.08755146007752 0 0 0 0 -1477.5815928682423 3544.9192200963262 0 3544.9192200963262 -5436.7881999997553 0 0 0 0 -1388.098288219946 -70.944822532434046 0 -70.944822532434046 15.872901338108932 0 0 0 0 -1003.8421481922851 -41.249069596829941 0 -41.249069596829941 -816.59632550765673 0 0 0 0 -1055.8122285384306 81.854072479109163 0 81.854072479109163 -154.44219574492308 0 0 0 0 -794.51047091090004 721.05804969792371 0 721.05804969792371 -991.80825164178805 0 0 0 0 -2886.6199784076889 1502.2464488156838 0 1502.2464488156838 -1056.1074079813179 0 0 0 0 -1302.3048083315589 1839.1807441762503 0 1839.1807441762503 -2067.5440042788541 0 0 0 0 -1928.2853627629083 -49.077397588560416 0 -49.077397588560416 -1187.9407425455574 0 0 0 0 -1099.6570740042662 389.84254934244382 0 389.84254934244382 -1002.7754075169614 0 0 0 0 -3492.208346967469 -233.36828704337677 0 -233.36828704337677 -1591.940614852756 0 0 0 0 -1323.6837730892003 443.79397489807161 0 443.79397489807161 -1712.9979973550144 0 0 0 0 -4697.1609440116736 3785.5584275021611 0 3785.5584275021611 -3037.8006895441868 0 0 0 0 -3947.0221104927186 3533.2914628496801 0 3533.2914628496801 2214.0581079025505 0 0 0 0 -3537.7568218239758 3492.4099428382469 0 3492.4099428382469 -3373.2745846332618 0 0 0 0 -2400.9862852990864 1380.2123348762477 0 1380.2123348762477 346.76686412471463 0 0 0 0 -5121.8309351957869 2880.2346717096079 0 2880.2346717096079 509.41233857198677 0 0 0 0 -3552.6033718042308 3018.4789738791878 0 3018.4789738791878 -6091.4567462133418 0 0 0 0 -6696.731784870819 5529.1750223088275 0 5529.1750223088275 -2060.1137724411674 0 0 0 0 -5956.6701144071994 2619.9207076216189 0 2619.9207076216189 -274.75609428214375 0 0 0 0 -4806.0167696953577 4716.9993975070101 0 4716.9993975070101 -5532.5980869989144 0 0 0 0 -5852.2457316460204 4339.1859208686074 0 4339.1859208686074 -4070.9190614805266 0 0 0 0 -9639.0046542771161 409.88679966822383 0 409.88679966822383 -7762.7671684238594 0 0 0 0 -10172.258395632765 3590.7966180082076 0 3590.7966180082076 -5969.8882204024703 0 0 0 0 -6043.1014790187073 3187.1745020719818 0 3187.1745020719818 -1075.4195622862753 0 0 0 0 -4385.7397660396236 2258.242075199676 0 2258.242075199676 -1227.3162969955738 0 0 0 0 -4624.3386415638379 1390.4015083699414 0 1390.4015083699414 330.47928127588966 0 0 0 0 -550.37432155178976 -250.28662679789704 0 -250.28662679789704 -5437.3093775370289 0 0 0 0 -26.702259428869752 17.053777879961743 0 17.053777879961743 -14.52475729178957 0 0 0 0 -1416.8320120436838 771.80787054610846 0 771.80787054610846 -6614.9246481040354 0 0 0 0 -2815.2482041514595 1228.7262936590414 0 1228.7262936590414 1948.5750516820844 0 0 0 0 -3575.2807877959567 2597.4565786902385 0 2597.4565786902385 -1769.1095989874011 0 0 0 0 -5045.8211095642182 4518.7104615701246 0 4518.7104615701246 -2863.6734846436157 0 0 0 0 1855.7621122833662 732.84230332700463 0 732.84230332700463 -1688.8467694757855 0 0 0 0 1206.8301030640723 -213.25188244642777 0 -213.25188244642777 -2462.585863511631 0 0 0 0 1230.2235369725677 1978.4571702807661 0 1978.4571702807661 699.39228362351423 0 0 0 0 -48.600318719986831 58.132143171445833 0 58.132143171445833 -49.272289192066012 0 0 0 0 131.66268620683695 300.27829644649319 0 300.27829644649319 -493.65092588701373 0 0 0 0 89.099112935131416 337.81549295147852 0 337.81549295147852 -523.24999609963561 0 0 0 0 99.242237298458349 -323.33016517631768 0 -323.33016517631768 -1170.3022985819553 0 0 0 0 -495.28750830120407 -921.8638493623439 0 -921.8638493623439 -1349.0248411970388 0 0 0 0 -51.261438013996667 46.110258333204229 0 46.110258333204229 -35.525865939095894 0 0 0 0 418.07108124363003 -608.30225522900582 0 -608.30225522900582 -1503.6454403215612 0 0 0 0 -652.48883269689395 1533.4764574950277 0 1533.4764574950277 112.0859090099184 0 0 0 0 404.19066268909955 -662.76638640325837 0 -662.76638640325837 -243.81492055698436 0 0 0 0 261.5980915283435 327.63244566062713 0 327.63244566062713 526.97493839262461 0 0 0 0 228.99847902124748 744.23481099984201 0 744.23481099984201 668.69177122833207 0 0 0 0 -19.384729453936188 17.845091767993402 0 17.845091767993402 -13.226122885649517 0 0 0 0 405.54017357013072 624.03849761758829 0 624.03849761758829 261.19421272397449 0 0 0 0 99.676620495127281 325.91194395840284 0 325.91194395840284 246.77792723554012 0 0 0 0 43.693144464763463 156.43599248431201 0 156.43599248431201 328.96675060477719 0 0 0 0 -937.3204336023482 176.80553819473425 0 176.80553819473425 440.50829990866623 0 0 0 0 -1658.8032465026772 773.1284461077812 0 773.1284461077812 459.3574170766442 0 0 0 0 -2754.5053966775595 1186.5252850903016 0 1186.5252850903016 -79.362583532027202 0 0 0 0 -2143.9115791883087 1595.5269564399459 0 1595.5269564399459 90.263451472632369 0 0 0 0 1858.2997679612163 -2074.3366576615772 0 -2074.3366576615772 -969.47411290040327 0 0 0 0 -8.7918593928617383 2.1207326288150412 0 2.1207326288150412 -0.81744137009195583 0 0 0 0 -1890.5901547951798 320.22167454150986 0 320.22167454150986 984.54619785424075 0 0 0 0 -386.70048117259284 1685.5212797464046 0 1685.5212797464046 -1423.6509174535749 0 0 0 0 -357.41538277745713 1593.9053423699588 0 1593.9053423699588 -1352.1820861645028 0 0 0 0 -2966.4317688015872 2964.3788777633963 0 2964.3788777633963 -942.32637819279262 0 0 0 0 -2090.2584702341919 1727.7654955146581 0 1727.7654955146581 25.677277126000263 0 0 0 0 -1569.4527157308767 1862.3316107306891 0 1862.3316107306891 -234.27059413695315 0 0 0 0 -1561.7554162930173 1845.4477629850626 0 1845.4477629850626 -208.59979450994433 0 0 0 0 -1159.2370097036037 2133.4453627033417 0 2133.4453627033417 -768.71156493470335 0 0 0 0 -2.5327552698872751 1445.0396002383422 0 1445.0396002383422 -819.7384813253484 0 0 0 0 -62.713187567816931 1129.2936425151129 0 1129.2936425151129 -617.75461460438964 0 0 0 0 -289.03356730942323 1633.8017865592319 0 1633.8017865592319 -1495.8494559616083 0 0 0 0 -48.535500419995515 675.15206951103028 0 675.15206951103028 -1969.1305712125104 0 0 0 0 -308.35488804482156 1714.8036904352375 0 1714.8036904352375 -1587.4237348014503 0 0 0 0 861.91397555015283 1313.0296589230784 0 1313.0296589230784 -1181.8903708093503 0 0 0 0 1924.683184176698 690.95463717940947 0 690.95463717940947 -1007.6128372916255 0 0 0 0 -0.38796054884807063 4.1224107597600721 0 4.1224107597600721 -2.1101460646047201 0 0 0 0 1341.2007280243415 211.19794674270088 0 211.19794674270088 -207.45434331144497 0 0 0 0 -134.78522856757627 -163.46392187306992 0 -163.46392187306992 -20.003462152839347 0 0 0 0 -734.67898034115933 637.94061757260533 0 637.94061757260533 -515.31272682416602 0 0 0 0 690.40535013427143 -140.16405645990017 0 -140.16405645990017 -4132.6161368190333 0 0 0 0 -159.54504292817728 243.18041200435437 0 243.18041200435437 -586.48972114844946 0 0 0 0 -193.705899854569 541.35455345498121 0 541.35455345498121 -423.05631291835016 0 0 0 0 -961.25921984788147 2632.886126079602 0 2632.886126079602 -2712.1843945230939 0 0 0 0 -1428.3441917507153 2220.0729280609339 0 2220.0729280609339 -2136.1173049555473 0 0 0 0 -2498.7997748534981 4093.1367897765595 0 4093.1367897765595 -5390.1104386883962 0 0 0 0 -294.23036722175311 1599.8356766392171 0 1599.8356766392171 -6893.8275602361045 0 0 0 0 -4323.1613679855509 2071.6845294572013 0 2071.6845294572013 2178.1151828439615 0 0 0 0 -25.34127887577273 19.412798349248309 0 19.412798349248309 -14.364081577952248 0 0 0 0 1567.3918274708558 -927.08839654268377 0 -927.08839654268377 1230.2294371968746 0 0 0 0 -2409.8594636352 1255.639544042966 0 1255.639544042966 194.79519124388753 0 0 0 0 -44.058110790204125 45.093050324736375 0 45.093050324736375 -31.181713966834508 0 0 0 0 202.5644699271943 -154.50632625525031 0 -154.50632625525031 878.94933329708147 0 0 0 0 136.66656017354035 2341.2488353364588 0 2341.2488353364588 2078.8062787595409 0 0 0 0 607.77424706882994 711.9266828366126 0 711.9266828366126 -1098.0770253188966 0 0 0 0 131.37199203486671 110.1889915133288 0 110.1889915133288 -1506.7244690146836 0 0 0 0 -718.43551175162429 -332.2994158303045 0 -332.2994158303045 -1401.1633994537842 0 0 0 0 502.64798673195764 -409.2443808312164 0 -409.2443808312164 -1568.8633857547757 0 0 0 0 -1366.3557495272962 138.6939409808665 0 138.6939409808665 -1204.7698758487822 0 0 0 0 -991.73749178305661 -22.10045055003684 0 -22.10045055003684 -804.98415615476551 0 0 0 0 -398.20531573178596 62.237666451481346 0 62.237666451481346 -1319.1313144406267 0 0 0 0 -380.14255185061484 -23.036876861660858 0 -23.036876861660858 -1344.9235191948246 0 0 0 0 204.67497020750307 -99.760615683953802 0 -99.760615683953802 -1578.5827134888532 0 0 0 0 -1048.7827891776979 1704.0391544797076 0 1704.0391544797076 -1906.60777357794 0 0 0 0 211.23631162510719 244.33661807685712 0 244.33661807685712 -1969.7293017183838 0 0 0 0 685.00532690192631 782.91452264377222 0 782.91452264377222 -3424.9971295391733 0 0 0 0 -872.93077764411282 893.48434151528636 0 893.48434151528636 -560.44399958895519 0 0 0 0 -888.70199196581962 782.21085351475631 0 782.21085351475631 -1113.9583211415884 0 0 0 0 -0.47449567532032688 -10.774626365551057 0 -10.774626365551057 -35.660164689121075 0 0 0 0 -331.57192527246661 -275.48914117581444 0 -275.48914117581444 -147.03807595859689 0 0 0 0 -1461.9399023474543 1189.0401988796657 0 1189.0401988796657 -912.80048440600513 0 0 0 0 -2106.9889882144344 644.0548589782411 0 644.0548589782411 -567.27265952483708 0 0 0 0 -481.72530446344899 89.890562164955554 0 89.890562164955554 -205.87762889877195 0 0 0 0 908.06832890829537 -287.25652527013881 0 -287.25652527013881 -97.940924590511713 0 0 0 0 811.27370129182236 -471.88790469337982 0 -471.88790469337982 1035.3879823097232 0 0 0 0 1092.2748405001475 72.471121549897362 0 72.471121549897362 8.1552113479701802 0 0 0 0 1091.7436822502009 -73.057527905429339 0 -73.057527905429339 -135.26372845305013 0 0 0 0 972.8541236713063 -10.174439225578681 0 -10.174439225578681 -47.475480633613188 0 0 0 0 1065.680638046877 -5.9961823762569111 0 -5.9961823762569111 -183.72237692930503 0 0 0 0 876.41824174171779 -145.85246449592523 0 -145.85246449592523 -136.50995698812767 0 0 0 0 1062.3387666796189 -114.41560256987941 0 -114.41560256987941 -192.76188265060773 0 0 0 0 967.39583461999428 119.78475934301969 0 119.78475934301969 -268.18550924301962 0 0 0 0 -3.8340859578302684 -0.12993549419479677 0 -0.12993549419479677 2.1715761493784669 0 0 0 0 146.39669329405297 -366.61730401178647 0 -366.61730401178647 -351.52338370968937 0 0 0 0 258.58555096446071 344.15202483680332 0 344.15202483680332 -265.22646628320217 0 0 0 0 18.283420324558392 143.38951427943539 0 143.38951427943539 -369.54269137955271 0 0 0 0 -693.89586858276743 55.217455768972286 0 55.217455768972286 -164.69005031160486 0 0 0 0 -710.27588733407902 41.474143628045567 0 41.474143628045567 93.792984198138583 0 0 0 0 -400.45912695696461 135.95572589884978 0 135.95572589884978 -769.87273189844564 0 0 0 0 -482.83875697338954 42.216337564546848 0 42.216337564546848 -379.64401000295766 0 0 0 0 -371.25215001701872 392.83180442251978 0 392.83180442251978 -806.92239578798763 0 0 0 0 -93.546472126283334 -32.136779484069848 0 -32.136779484069848 -746.10920778199215 0 0 0 0 776.61265086830826 -197.97574558503402 0 -197.97574558503402 -1232.636881689197 0 0 0 0 -590.67873647258966 662.28264080942608 0 662.28264080942608 -170.04741421958897 0 0 0 0 -1835.6603930853016 1814.0591895651087 0 1814.0591895651087 -1017.4674148633421 0 0 0 0 -201.36084172307164 1190.5155475957508 0 1190.5155475957508 -1172.0984375373509 0 0 0 0 413.24894588495954 487.43122258729636 0 487.43122258729636 -392.83592540406971 0 0 0 0 614.14689839252969 597.0426943681814 0 597.0426943681814 -542.08738829272625 0 0 0 0 748.96970357530518 224.70636634811672 0 224.70636634811672 -239.64423118018021 0 0 0 0 988.85036657024466 302.42179177381877 0 302.42179177381877 -348.12463785748696 0 0 0 0 1066.4124720453983 -557.71845964939712 0 -557.71845964939712 136.23644242313458 0 0 0 0 1091.8334672672208 -323.79424976977316 0 -323.79424976977316 -794.94383069989635 0 0 0 0 -1.2361234625012685 -4.7508542104206413 0 -4.7508542104206413 -13.582268437268311 0 0 0 0 1645.1338131030498 -1402.1763665674735 0 -1402.1763665674735 -291.32947444898309 0 0 0 0 1754.3577694312844 -799.59600221286655 0 -799.59600221286655 -1635.9353205452207 0 0 0 0 755.10937927277701 -98.869448597026349 0 -98.869448597026349 -817.24138675209542 0 0 0 0 1077.3954591170186 -172.52920994059241 0 -172.52920994059241 -1899.9340608216517 0 0 0 0 836.33051530650846 -290.13558522117455 0 -290.13558522117455 -1162.7597763698868 0 0 0 0 -1.6285606026132484 13.89227514529756 0 13.89227514529756 -32.226394896684951 0 0 0 0 582.69854893971205 691.15247192400784 0 691.15247192400784 -2867.340500911072 0 0 0 0 818.06879458208277 -158.38486153621125 0 -158.38486153621125 -110.94026805140311 0 0 0 0 227.93665143611724 191.26257295490359 0 191.26257295490359 867.29448210139526 0 0 0 0 678.89148625917733 295.5126284158614 0 295.5126284158614 414.92670737527078 0 0 0 0 8.5609294950313597 4.9803711345101362 0 4.9803711345101362 -9.9616221700429151 0 0 0 0 756.12217357032932 671.30703095436911 0 671.30703095436911 849.83066990767838 0 0 0 0 381.96078122779727 1684.6774647854108 0 1684.6774647854108 1144.8672883084491 0 0 0 0 -441.63348744795076 74.153102494383347 0 74.153102494383347 -666.73664880348952 0 0 0 0 706.47520761552732 1120.4162466048147 0 1120.4162466048147 -794.05301670862536 0 0 0 0 1489.8209436105099 967.54719532730815 0 967.54719532730815 -427.26110138534932 0 0 0 0 1366.4782644821244 612.85228648818884 0 612.85228648818884 -0.44378380387206562 0 0 0 0 -21.556974889200774 43.240616124108953 0 43.240616124108953 -41.301864967833808 0 0 0 0 -8.0619499634651106 15.30519653649165 0 15.30519653649165 4.9510366912111294 0 0 0 0 -28.551234775448393 1.6317173297265981 0 1.6317173297265981 158.90181019667943 0 0 0 0 834.24169539409922 936.34020047004014 0 936.34020047004014 216.62716173599256 0 0 0 0 500.67121028373367 1041.9192001229785 0 1041.9192001229785 137.21464939406724 0 0 0 0 -141.59332284022821 1051.326781437092 0 1051.326781437092 273.24772416727501 0 0 0 0 769.68529667207622 842.86294604946306 0 842.86294604946306 222.3334622765251 0 0 0 0 814.69785606494406 1595.0208469259669 0 1595.0208469259669 -160.85809538824105 0 0 0 0 580.20992691215361 1301.5506006798678 0 1301.5506006798678 -415.33145249006338 0 0 0 0 -448.84213131392607 1947.1797703728953 0 1947.1797703728953 -145.36590900949886 0 0 0 0 211.4866224435973 1884.9477021293205 0 1884.9477021293205 -150.93800726655172 0 0 0 0 -768.92856780823786 904.74378344367869 0 904.74378344367869 355.06942679928034 0 0 0 0 243.86433742567897 176.58547725185053 0 176.58547725185053 128.80555964942323 0 0 0 0 625.55809159151977 196.91415165680519 0 196.91415165680519 267.65858971275156 0 0 0 0 536.6528044269653 581.07935709500453 0 581.07935709500453 432.86268701346125 0 0 0 0 695.30841825716197 490.64644358301302 0 490.64644358301302 313.32847494410817 0 0 0 0 49.690852315514348 1129.2662037229602 0 1129.2662037229602 249.7769890002819 0 0 0 0 -445.70579728344455 1308.712653868155 0 1308.712653868155 197.81832561190822 0 0 0 0 -1484.5449329233379 1333.9372565181911 0 1333.9372565181911 199.86594095013106 0 0 0 0 -1413.8669502906851 330.35129102389328 0 330.35129102389328 160.6637260034513 0 0 0 0 -400.30332046322292 -381.82083267586131 0 -381.82083267586131 -499.28013713477412 0 0 0 0 -1848.6309788931103 483.6765620877195 0 483.6765620877195 107.01903397591377 0 0 0 0 -1284.1830249538179 2062.9483215968285 0 2062.9483215968285 -1860.0838757958118 0 0 0 0 4.6683272438952059 9.9678009077567822 0 9.9678009077567822 4.8387800131319523 0 0 0 0 -824.44198068106198 1191.7617911809793 0 1191.7617911809793 -576.74193095007104 0 0 0 0 -1071.3161976350239 -915.57883675384073 0 -915.57883675384073 -467.57472901465371 0 0 0 0 -2336.7911695220464 162.00713534065289 0 162.00713534065289 112.62182433510316 0 0 0 0 843.74378599846386 794.82802114903461 0 794.82802114903461 346.58804076204297 0 0 0 0 782.3200683942996 413.68665814292763 0 413.68665814292763 204.37448414021856 0 0 0 0 525.01031844102545 338.14514107063587 0 338.14514107063587 251.10456890589921 0 0 0 0 2629.5146968810004 874.35511157654673 0 874.35511157654673 -51.108039263330284 0 0 0 0 0.46244864152686205 1082.910152382934 0 1082.910152382934 679.99555743174278 0 0 0 0 0.23422411672072485 1517.9852307096444 0 1517.9852307096444 58.739729361885111 0 0 0 0 608.25553838584165 1013.8748946911583 0 1013.8748946911583 468.89066780585927 0 0 0 0 650.89225949447427 1545.3590731506265 0 1545.3590731506265 278.21710513503058 0 0 0 0 573.63391596647853 1517.0590062323427 0 1517.0590062323427 -420.66700885457612 0 0 0 0 824.87819856227361 1267.5125846509636 0 1267.5125846509636 -192.05810543043481 0 0 0 0 572.03532410529442 1315.2321238883815 0 1315.2321238883815 -494.50192816090566 0 0 0 0 0.82079968214783605 1962.3798044712807 0 1962.3798044712807 -1191.7549035320844 0 0 0 0 1256.6461676746258 1198.0799457425856 0 1198.0799457425856 -3083.9267897865793 0 0 0 0 1193.4052880737436 825.98634053327805 0 825.98634053327805 -965.7574368048663 0 0 0 0 1150.6563397745776 969.81783741205436 0 969.81783741205436 -1357.8526063164863 0 0 0 0 1459.8735400008736 282.58150571094302 0 282.58150571094302 -911.73850534588564 0 0 0 0 1440.6441803770431 461.43730552819761 0 461.43730552819761 -1741.6909162508928 0 0 0 0 948.68140875206154 1249.6484903223572 0 1249.6484903223572 -1169.4761849338392 0 0 0 0 851.73207828923478 898.27945133974936 0 898.27945133974936 -526.11767173700355 0 0 0 0 983.12613933216198 1075.1453693268595 0 1075.1453693268595 -289.29438442112951 0 0 0 0 840.1185736754851 630.87302957992506 0 630.87302957992506 382.25180707538675 0 0 0 0 900.69497453779331 713.39058555833617 0 713.39058555833617 -133.64858052995987 0 0 0 0 1149.9112769253115 556.93474569198588 0 556.93474569198588 -775.90175472358533 0 0 0 0 1108.1223680292023 513.13871482591821 0 513.13871482591821 -672.00550468717847 0 0 0 0 1160.7696439861902 529.81536199984475 0 529.81536199984475 -776.91560732630023 0 0 0 0 1188.9328358887287 672.20669355319842 0 672.20669355319842 -1205.8287188082468 0 0 0 0 1121.6127635093144 417.31585708296734 0 417.31585708296734 -592.39999449953029 0 0 0 0 1117.9136612482253 451.1560521354113 0 451.1560521354113 -795.5989145611893 0 0 0 0 756.14051677452517 643.53582432844996 0 643.53582432844996 -673.23928813550447 0 0 0 0 990.60219313188281 438.33114533983826 0 438.33114533983826 -506.63855067994882 0 0 0 0 292.27455889587873 768.83965227062436 0 768.83965227062436 -70.124341929291916 0 0 0 0 561.28365326281346 878.07569228742977 0 878.07569228742977 -481.40219525300199 0 0 0 0 873.60587448303704 384.00269170228421 0 384.00269170228421 274.3457961986569 0 0 0 0 1034.6644027425718 707.95389384809459 0 707.95389384809459 -26.816616678712307 0 0 0 0 -4.1018775751582552 14.126827836063967 0 14.126827836063967 -20.992779173375283 0 0 0 0 1593.2907181823393 481.61997904314194 0 481.61997904314194 -52.319375906648929 0 0 0 0 1761.1222909890785 1101.0272706326314 0 1101.0272706326314 40.135337594227167 0 0 0 0 -621.7704248263035 461.01507752976249 0 461.01507752976249 61.982451623305678 0 0 0 0 -2.0324540100134811 7.5807222840366251 0 7.5807222840366251 -2.6176838305709111 0 0 0 0 1936.9899417909764 703.21202685398748 0 703.21202685398748 166.87684863244431 0 0 0 0 1870.9102357882366 405.62517235788073 0 405.62517235788073 438.23022012833098 0 0 0 0 -2.7610178449283467 7.1822109568466033 0 7.1822109568466033 -9.7048588270197342 0 0 0 0 1000.2015007393202 -168.8908292626802 0 -168.8908292626802 -1851.3711991448363 0 0 0 0 1.1081284763921846 1137.4877722899139 0 1137.4877722899139 167.5719641954347 0 0 0 0 -138.52575200232968 1460.1690673858811 0 1460.1690673858811 368.39945192376035 0 0 0 0 949.69300878667491 -268.01206006908433 0 -268.01206006908433 -478.46489156260213 0 0 0 0 1155.8759089231899 264.77891989343334 0 264.77891989343334 -452.79163045085079 0 0 0 0 1113.5860146211344 728.83298217826086 0 728.83298217826086 482.79232653211875 0 0 0 0 -1610.3219599887452 3389.3880984957832 0 3389.3880984957832 -2963.6934634903446 0 0 0 0 -604.75447716339841 3845.8077343949553 0 3845.8077343949553 -4488.5007233529177 0 0 0 0 0.070990557767800055 3937.9758493693407 0 3937.9758493693407 -4504.5167828390222 0 0 0 0 -6004.8336346944561 5403.2839668449742 0 5403.2839668449742 -3423.4425161499457 0 0 0 0 1.255058764237674 13.451701231543893 0 13.451701231543893 -40.896585650928216 0 0 0 0 -1139.5788667991583 2499.1128499557017 0 2499.1128499557017 -1697.4152436755248 0 0 0 0 -840.98998574564757 1391.5933701016838 0 1391.5933701016838 -1416.2424335771939 0 0 0 0 2370.8945428266707 544.67929350198574 0 544.67929350198574 -791.43722486883053 0 0 0 0 -1255.401342791738 1897.3282540015352 0 1897.3282540015352 -2032.8824091259376 0 0 0 0 8.6748934313857191 26.045360898117281 0 26.045360898117281 -94.755511393239829 0 0 0 0 -397.87468236265704 340.13215207245958 0 340.13215207245958 -1271.5546877885063 0 0 0 0 67.520854813541519 -127.78060524145258 0 -127.78060524145258 -940.23665431850532 0 0 0 0 376.35638779326109 315.82878051765874 0 315.82878051765874 -3827.3002487367194 0 0 0 0 -202.49277780737611 -857.92604864498571 0 -857.92604864498571 -1228.6393661143957 0 0 0 0 -107.20672039996862 2124.4712074799627 0 2124.4712074799627 -3484.9172406892903 0 0 0 0 186.46865930649801 1826.2874814113238 0 1826.2874814113238 -3189.828267623292 0 0 0 0 -1.9046272735140519 3508.493063378748 0 3508.493063378748 -4429.7830987928974 0 0 0 0 137.41813052867656 2527.2731723262477 0 2527.2731723262477 -6562.8801343586238 0 0 0 0 18.389011393999681 -1134.5399679891852 0 -1134.5399679891852 -5439.4173301001283 0 0 0 0 0.22750532568898052 82.176696419137443 0 82.176696419137443 30.628272060508607 0 0 0 0 -4.9297393178065363 7.4586340361112065 0 7.4586340361112065 -19.93327815035849 0 0 0 0 78.359986732539255 47.725660376716405 0 47.725660376716405 -2.783427466158173 0 0 0 0 131.38555256539257 240.78259212386183 0 240.78259212386183 216.99274662522657 0 0 0 0 -554.02699689511792 396.52119508291071 0 396.52119508291071 -179.3717848413653 0 0 0 0 -14.927588853569546 34.98103437071677 0 34.98103437071677 -26.694715338215985 0 0 0 0 78.670512737793615 119.66649254961521 0 119.66649254961521 -58.759827387228142 0 0 0 0 164.82141037113615 252.36459872933483 0 252.36459872933483 334.11017137763793 0 0 0 0 1.2547727331774468 4.1276691851252849 0 4.1276691851252849 6.2471895743402577 0 0 0 0 -19.124248144317448 -7.3292394123485565 0 -7.3292394123485565 80.11063764666369 0 0 0 0 124.59971404239332 162.90172310233902 0 162.90172310233902 167.73904987487185 0 0 0 0 0.11571846112201456 177.15211015647947 0 177.15211015647947 299.65294383701621 0 0 0 0 118.14480283795274 320.49606270943696 0 320.49606270943696 244.53823151723191 0 0 0 0 277.0229435050278 399.99108685153624 0 399.99108685153624 282.65879317945291 0 0 0 0 274.04483385026106 274.21627167869156 0 274.21627167869156 135.02265816484578 0 0 0 0 284.9020419913868 243.31017254746985 0 243.31017254746985 184.1012488494307 0 0 0 0 499.57856530015488 299.90519692772978 0 299.90519692772978 195.85204427143617 0 0 0 0 424.8376553398557 350.08925088126853 0 350.08925088126853 166.88553648773814 0 0 0 0 416.35866793934838 661.84438613601378 0 661.84438613601378 358.8622567735988 0 0 0 0 0.42348612543719355 452.86321160818989 0 452.86321160818989 330.81768718222156 0 0 0 0 -268.23817139019957 -374.87339641792641 0 -374.87339641792641 437.31264135735728 0 0 0 0 -655.27080969972303 54.083521965738328 0 54.083521965738328 391.65539143749629 0 0 0 0 -901.85750664307852 259.56027020572947 0 259.56027020572947 292.5951323514455 0 0 0 0 -255.86867848499969 291.15226927664116 0 291.15226927664116 255.61361126910197 0 0 0 0 -605.28865092230262 119.59951995145821 0 119.59951995145821 82.315167103646672 0 0 0 0 673.1879360738094 231.23312108862956 0 231.23312108862956 117.34222829142527 0 0 0 0 1.5112478777359115 14.955976166996834 0 14.955976166996834 31.745505810818827 0 0 0 0 129.62474478592048 -562.86436825212877 0 -562.86436825212877 -513.98483640026825 0 0 0 0 370.69033973367186 -148.83312451757956 0 -148.83312451757956 103.34568732432672 0 0 0 0 452.21244414568355 117.88509224250902 0 117.88509224250902 82.397821577324066 0 0 0 0 -0.55233289943538466 4.4613974700930896 0 4.4613974700930896 8.2305063000441407 0 0 0 0 165.93829475913662 66.848122629598947 0 66.848122629598947 -646.16510709014256 0 0 0 0 -3.9909812695670155 -6.5970746138851268 0 -6.5970746138851268 1.3743890682654012 0 0 0 0 -484.8143552262045 320.42583469032979 0 320.42583469032979 1104.8079289987654 0 0 0 0 43.141000893185264 -115.67330000045695 0 -115.67330000045695 64.009890445508063 0 0 0 0 -477.541618546471 -839.20370334261679 0 -839.20370334261679 -568.92359593091533 0 0 0 0 181.47255109105026 72.127726830120082 0 72.127726830120082 100.23244842784698 0 0 0 0 -12.415163173784777 -3.0222455131494712 0 -3.0222455131494712 56.215439193532575 0 0 0 0 153.69743264790668 429.8895352189038 0 429.8895352189038 223.2967097046203 0 0 0 0 -369.94309272017563 -95.638842240179656 0 -95.638842240179656 -95.270788272144273 0 0 0 0 -300.47744792656158 200.7305355054923 0 200.7305355054923 387.02079577992845 0 0 0 0 -322.61421983581386 383.99971897718206 0 383.99971897718206 897.09388627459703 0 0 0 0 -124.65931654023007 -98.447535679486464 0 -98.447535679486464 741.78517721095704 0 0 0 0 -7.8800319132106864 31.881431273129749 0 31.881431273129749 -1.138321123481262 0 0 0 0 59.251166549802292 -100.2362043443427 0 -100.2362043443427 404.32581960115931 0 0 0 0 -100.84503165187198 31.641749057249399 0 31.641749057249399 477.5975928211119 0 0 0 0 -154.32468360952043 -106.45519387289096 0 -106.45519387289096 -154.59519655405893 0 0 0 0 -3.6094199836079497 57.387799355145034 0 57.387799355145034 -1.0763457275752444 0 0 0 0 -56.985574400783513 166.96925544650492 0 166.96925544650492 -5.4909955380721271 0 0 0 0 -48.648702774673495 89.688696785288826 0 89.688696785288826 -10.142791474585067 0 0 0 0 50.386593452538364 35.958741119116894 0 35.958741119116894 -43.458626079780515 0 0 0 0 -20.102700801774972 81.939113736305274 0 81.939113736305274 -65.121772403642794 0 0 0 0 -99.348876453237608 21.553730662351882 0 21.553730662351882 273.03423128679424 0 0 0 0 -58.611564130987972 150.17605196945078 0 150.17605196945078 203.82952302560989 0 0 0 0 -15.681552661682076 76.981514032492939 0 76.981514032492939 -8.0929282799195796 0 0 0 0 129.43176704487996 -411.66946962835209 0 -411.66946962835209 -943.95505186286027 0 0 0 0 6.5097321836310584 2.4163522612190178 0 2.4163522612190178 -7.0197630525307204 0 0 0 0 -41.214590138653875 104.88056691477686 0 104.88056691477686 104.27878766302456 0 0 0 0 -93.359135854916531 -25.148403365812555 0 -25.148403365812555 -265.07020129107696 0 0 0 0 1.1406559862662107 73.419705804088153 0 73.419705804088153 124.30061803449644 0 0 0 0 142.16889836720657 -31.857006693295261 0 -31.857006693295261 -831.22511773066071 0 0 0 0 2.9425699158510312 40.604514422670377 0 40.604514422670377 -111.00078742864872 0 0 0 0 423.32827715908206 293.34990665720397 0 293.34990665720397 -304.07353656599298 0 0 0 0 76.166862982296152 -70.297852194256848 0 -70.297852194256848 -648.72436973463482 0 0 0 0 -56.336161995990551 237.38794229963241 0 237.38794229963241 -250.3904726250621 0 0 0 0 107.6564635687173 368.44742114628934 0 368.44742114628934 -171.72958899871446 0 0 0 0 -47.423300234651833 135.34599134161908 0 135.34599134161908 34.806702062283875 0 0 0 0 -70.565690074843587 80.079007853615622 0 80.079007853615622 -37.810059910654672 0 0 0 0 -24.708286655492657 79.592130571788061 0 79.592130571788061 -54.526626622529832 0 0 0 0 -10.809326733928174 63.181142028945033 0 63.181142028945033 -87.462197504552023 0 0 0 0 -171.0466893138655 194.37074526537617 0 194.37074526537617 436.30410564788326 0 0 0 0 -29.191008827479891 65.378079001284732 0 65.378079001284732 -32.904982292951807 0 0 0 0 -33.767670487270948 78.118690327498868 0 78.118690327498868 -17.905678093730131 0 0 0 0 -108.14121737753158 225.32294395527424 0 225.32294395527424 451.23683887848165 0 0 0 0 -354.61253403523006 457.49616619799781 0 457.49616619799781 245.68900996970478 0 0 0 0 -194.15902478963835 417.32245016035449 0 417.32245016035449 157.96819143251923 0 0 0 0 71.75998691834684 347.54579638169525 0 347.54579638169525 149.87521730799926 0 0 0 0 25.1662295390488 416.07202689792939 0 416.07202689792939 56.784155790417572 0 0 0 0 108.46373632957693 470.89253196299251 0 470.89253196299251 56.705109617652724 0 0 0 0 228.75415381064522 492.10167508442828 0 492.10167508442828 -231.75710877026722 0 0 0 0 487.71407902700594 409.75643636632594 0 409.75643636632594 -219.21610160748969 0 0 0 0 479.75792682671454 381.2725710059749 0 381.2725710059749 -284.29014227856533 0 0 0 0 831.76161228690762 276.45572020630061 0 276.45572020630061 -339.52022342833516 0 0 0 0 256.94896292196063 710.36895832240771 0 710.36895832240771 -440.20682039491658 0 0 0 0 -604.02561817786773 793.57417750386958 0 793.57417750386958 -133.22320652147755 0 0 0 0 -384.23546094019548 551.82624636854598 0 551.82624636854598 100.69282961718272 0 0 0 0 -298.01688789733453 778.52712424924539 0 778.52712424924539 -92.700106431017048 0 0 0 0 -87.722472480294527 643.74214184821903 0 643.74214184821903 -48.961918948334642 0 0 0 0 -936.1041950689978 611.09217487261049 0 611.09217487261049 -700.94639601313975 0 0 0 0 -0.29765484371137063 -9.2162873085496813 0 -9.2162873085496813 -56.382211167107016 0 0 0 0 18.88549152554333 89.765696310405474 0 89.765696310405474 -62.988401433132822 0 0 0 0 -17.309154194278335 12.12436183929924 0 12.12436183929924 -3.2970541286942989 0 0 0 0 -1150.4653763750684 639.04612628110044 0 639.04612628110044 -369.44406608576537 0 0 0 0 4.7578943007063685 11.21437975714062 0 11.21437975714062 -10.558448188313029 0 0 0 0 -771.31685107416706 13.101011198064953 0 13.101011198064953 236.28047036152566 0 0 0 0 -727.48894595872844 138.93608326172398 0 138.93608326172398 195.82416251278482 0 0 0 0 -855.5810006501415 -133.78270958421126 0 -133.78270958421126 79.310599586402532 0 0 0 0 -358.18610766169149 375.47038109475398 0 375.47038109475398 347.48443959775614 0 0 0 0 -1110.8325265470194 684.52460645820247 0 684.52460645820247 -338.26453472452704 0 0 0 0 538.89927495131269 -338.09929007431492 0 -338.09929007431492 84.644313282275107 0 0 0 0 378.71905060461722 12.668574272771366 0 12.668574272771366 -122.51860643934924 0 0 0 0 653.77239973703399 -140.1186756143652 0 -140.1186756143652 -51.872385265072808 0 0 0 0 309.84981723502278 -230.63794570238679 0 -230.63794570238679 76.400299537464889 0 0 0 0 641.21496064058738 151.30310975641987 0 151.30310975641987 -179.81052707313211 0 0 0 0 702.66768147976836 107.1385930217948 0 107.1385930217948 -212.53110861306777 0 0 0 0 750.1458053290844 113.94168109643215 0 113.94168109643215 -263.25184720197285 0 0 0 0 597.60134094575187 -45.761698367248755 0 -45.761698367248755 -140.30451500115123 0 0 0 0 360.34879509548773 290.76214326497575 0 290.76214326497575 -119.12404620702728 0 0 0 0 363.40739143663086 236.49480145321286 0 236.49480145321286 -205.61045227923751 0 0 0 0 -14.490453229169361 -31.302050229147426 0 -31.302050229147426 32.609232565344428 0 0 0 0 250.9908583801589 75.772884664227604 0 75.772884664227604 -106.4805982173857 0 0 0 0 383.97557812585728 3.5387796993527445 0 3.5387796993527445 -137.92500376752287 0 0 0 0 120.9052199910102 43.613392700194254 0 43.613392700194254 -110.49548886339471 0 0 0 0 110.63300422322936 241.4636537420447 0 241.4636537420447 -43.661177181485982 0 0 0 0 -23.772112757211062 75.798060351254108 0 75.798060351254108 -40.957632170156558 0 0 0 0 119.98039067923673 57.781880549275229 0 57.781880549275229 -143.99219417852873 0 0 0 0 -80.669846562435851 187.47573541011661 0 187.47573541011661 9.5491519845672883 0 0 0 0 -763.02412970917067 935.45449509205355 0 935.45449509205355 -1056.2882742339061 0 0 0 0 -26.040858610135501 226.23418917224433 0 226.23418917224433 -114.70450907491613 0 0 0 0 -28.899710524559623 -2.5637549879735388 0 -2.5637549879735388 -109.82448304770514 0 0 0 0 -137.9448903696757 145.90079049847554 0 145.90079049847554 79.425468567453208 0 0 0 0 -28.31664660091559 27.018067747908731 0 27.018067747908731 41.176428409145103 0 0 0 0 -80.792793424916454 5.9125514705228852 0 5.9125514705228852 -183.19163559896697 0 0 0 0 -62.869267770003944 79.45416015421813 0 79.45416015421813 7.7393852052083645 0 0 0 0 48.64087693975307 39.316923357560881 0 39.316923357560881 -81.70960462660878 0 0 0 0 7.536535854684189 88.643419532978442 0 88.643419532978442 -117.26421177030716 0 0 0 0 -8.766280021858222 64.646905813702233 0 64.646905813702233 -10.347107910876847 0 0 0 0 -68.282879971346119 117.60918905942526 0 117.60918905942526 22.078696910178223 0 0 0 0 51.979712338434183 274.31368908068544 0 274.31368908068544 813.57543959471514 0 0 0 0 -34.227653706283974 38.428056584669449 0 38.428056584669449 -0.71790087151538273 0 0 0 0 120.83048747840076 373.78052722261054 0 373.78052722261054 371.09239942888962 0 0 0 0 77.484722224777215 1451.7450977995613 0 1451.7450977995613 1634.3413830692589 0 0 0 0 784.91900792470551 1022.6787153753103 0 1022.6787153753103 743.3600391649079 0 0 0 0 944.32666703294262 1779.0889376380953 0 1779.0889376380953 1688.8628837895521 0 0 0 0 1774.8604818383756 1644.9726444797707 0 1644.9726444797707 1536.5388848458824 0 0 0 0 925.45312469854252 1303.9884220468812 0 1303.9884220468812 1420.5699379758153 0 0 0 0 1028.7341404541949 1412.4403575864089 0 1412.4403575864089 1355.3534597039688 0 0 0 0 -18.37114236846989 19.39754228072141 0 19.39754228072141 -8.1024221516275929 0 0 0 0 -163.60159680251127 360.02020012727553 0 360.02020012727553 98.200200715989922 0 0 0 0 -422.74528721539536 180.03031528829888 0 180.03031528829888 33.1804878575781 0 0 0 0 273.21615039120661 473.21160525456798 0 473.21160525456798 -133.69030564490822 0 0 0 0 -193.33798438144731 473.87571539115743 0 473.87571539115743 40.709904097311664 0 0 0 0 -7.3097670406305042 8.6899324733386152 0 8.6899324733386152 -1.4167476826913799 0 0 0 0 -2263.1051847626077 -136.049729393897 0 -136.049729393897 261.17416647911523 0 0 0 0 2368.4277900208253 2387.9406077103049 0 2387.9406077103049 622.79695779626491 0 0 0 0 -204.77911902824417 2054.8687797873063 0 2054.8687797873063 -516.86211342006573 0 0 0 0 1365.1256548347665 2428.1591739613268 0 2428.1591739613268 -3086.8850328771077 0 0 0 0 3933.5984616956412 -289.70158263186022 0 -289.70158263186022 -643.56856205774739 0 0 0 0 872.21242339226592 1334.4475112208311 0 1334.4475112208311 -987.01370577856869 0 0 0 0 5.2727184855209543 11.86656665783164 0 11.86656665783164 -4.7835015207049025 0 0 0 0 409.0903851291805 1406.580470568646 0 1406.580470568646 -3692.0796505072431 0 0 0 0 601.48003028545281 2249.6795235426471 0 2249.6795235426471 3290.7896346578491 0 0 0 0 853.20228750982642 2237.8916678180576 0 2237.8916678180576 1254.878821660328 0 0 0 0 1604.8644074725162 2890.68810699803 0 2890.68810699803 432.07752425794024 0 0 0 0 10.345239253829334 19.572782527127231 0 19.572782527127231 -8.3541682408741735 0 0 0 0 884.81833529610594 1477.7880678198635 0 1477.7880678198635 -217.16958287892339 0 0 0 0 586.93683489544492 1390.7167834948632 0 1390.7167834948632 1632.4287429441076 0 0 0 0 448.33778045252257 1632.9995674382953 0 1632.9995674382953 -262.03941033165029 0 0 0 0 747.54660922836047 944.61158421535947 0 944.61158421535947 387.15587684772618 0 0 0 0 1193.279864491953 2723.9575484208763 0 2723.9575484208763 215.74028903232465 0 0 0 0 828.80949439687538 1050.7583420377196 0 1050.7583420377196 -35.851240227217204 0 0 0 0 628.03232732768083 1482.4945319026519 0 1482.4945319026519 31.40581296995515 0 0 0 0 1426.08862316655 1270.8601229894557 0 1270.8601229894557 -3259.1697152107299 0 0 0 0 156.5197826753938 2344.0037472319527 0 2344.0037472319527 3691.9755453490361 0 0 0 0 5.5083113520859115 8.7392293516119821 0 8.7392293516119821 -2.7667118604329346 0 0 0 0 238.12958807568793 899.08777141650353 0 899.08777141650353 847.65630113695806 0 0 0 0 155.86505780855805 1303.6017991185472 0 1303.6017991185472 1892.0124394591548 0 0 0 0 577.68425885653414 219.00848608085653 0 219.00848608085653 2894.6880223878688 0 0 0 0 3297.5266677983745 2102.6022130281199 0 2102.6022130281199 1005.4093845682473 0 0 0 0 796.71770922119322 3271.5031601604205 0 3271.5031601604205 4030.2078356249403 0 0 0 0 808.38467101324932 2327.5391704180729 0 2327.5391704180729 896.19471304735634 0 0 0 0 402.54259479482425 2078.0958062089485 0 2078.0958062089485 1625.4617510449334 0 0 0 0 332.81997569931264 2138.5394922167543 0 2138.5394922167543 2075.105750405186 0 0 0 0 -54.872845828445861 1918.0968032877718 0 1918.0968032877718 2058.1852310746208 0 0 0 0 131.74535470940464 1668.6801565061978 0 1668.6801565061978 2334.6453792095999 0 0 0 0 -395.03470001192181 497.14974270782841 0 497.14974270782841 1831.8800730693256 0 0 0 0 -535.45043647566672 80.123325446150375 0 80.123325446150375 853.67367168137571 0 0 0 0 -638.69356043560492 868.86903560215796 0 868.86903560215796 4461.6625631230272 0 0 0 0 8.1215088853960538 43.218345952409436 0 43.218345952409436 14.151672616307451 0 0 0 0 421.61042259269743 -955.50664880244949 0 -955.50664880244949 1990.5593331238488 0 0 0 0 428.33259103645833 559.63016837612668 0 559.63016837612668 -2184.8001652308303 0 0 0 0 -32.190587544838763 47.406560626206272 0 47.406560626206272 27.439721080650884 0 0 0 0 101.71665643682354 68.490630048807361 0 68.490630048807361 -104.933384222124 0 0 0 0 -272.21080394808087 235.07090261488338 0 235.07090261488338 850.72073202518231 0 0 0 0 -239.91635956514801 260.78474803653808 0 260.78474803653808 -152.63711797818542 0 0 0 0 -86.232714714801944 132.62394074472644 0 132.62394074472644 10.372461916661663 0 0 0 0 -11.199560486393977 31.261031357684885 0 31.261031357684885 -40.511311701828618 0 0 0 0 -491.25864520430332 404.19107813837763 0 404.19107813837763 -221.40956897126489 0 0 0 0 31.005318405573234 44.155988966831785 0 44.155988966831785 -72.175099283199444 0 0 0 0 -982.28135798785661 989.84018782403291 0 989.84018782403291 369.65211688443378 0 0 0 0 -490.02524383354466 382.19627683242288 0 382.19627683242288 -405.60022181028035 0 0 0 0 -661.00562117617665 587.69876257296164 0 587.69876257296164 -220.35647169758158 0 0 0 0 35.081264063736 18.821751100479446 0 18.821751100479446 -46.465435474170022 0 0 0 0 67.087210943820537 773.59231240920053 0 773.59231240920053 -644.02017227269062 0 0 0 0 -278.68826777060167 255.78995235826915 0 255.78995235826915 246.59696271290886 0 0 0 0 -742.58341812307481 766.13167286107637 0 766.13167286107637 -643.99948551505804 0 0 0 0 -948.94408972096062 255.73693941897318 0 255.73693941897318 347.54595777006762 0 0 0 0 -81.895872538245442 51.924107340365808 0 51.924107340365808 -16.482425358495547 0 0 0 0 -1360.567730953233 113.73262436763252 0 113.73262436763252 301.45387248002226 0 0 0 0 -2965.1198484487832 909.0501801133214 0 909.0501801133214 4069.4521009857854 0 0 0 0 -36.509971578862121 18.939681229843302 0 18.939681229843302 -5.8051599103266511 0 0 0 0 1243.8956994679465 667.59106447800878 0 667.59106447800878 -686.31354075735726 0 0 0 0 -80.605933408108854 43.424013009784275 0 43.424013009784275 -12.554531311925672 0 0 0 0 -98.068494290288072 1918.2321334980879 0 1918.2321334980879 2142.6439864186432 0 0 0 0 373.22816783779126 1502.9127224378171 0 1502.9127224378171 -1125.5368039262466 0 0 0 0 -668.25338430769625 83.941193933744216 0 83.941193933744216 -603.14514867091111 0 0 0 0 -407.43914539144316 1529.9555092731716 0 1529.9555092731716 -4819.6871530544013 0 0 0 0 -961.49262718128739 2579.1168942640579 0 2579.1168942640579 5461.8138728025806 0 0 0 0 -8.9706974726545354 10.076640892446392 0 10.076640892446392 -1.1963690838599348 0 0 0 0 -42.492437407164118 40.496155338270114 0 40.496155338270114 -0.61016700125956902 0 0 0 0 2153.6171846599318 1137.3924137072172 0 1137.3924137072172 454.98249692129048 0 0 0 0 393.46456177166692 2330.6447479388407 0 2330.6447479388407 4099.7429819465906 0 0 0 0 -329.07650204711535 2360.3205757758697 0 2360.3205757758697 4218.7686501950302 0 0 0 0 -523.89791457580577 1702.4465456099279 0 1702.4465456099279 2803.5747758525249 0 0 0 0 -1167.8095108855196 3447.6327527813337 0 3447.6327527813337 3885.8331768576973 0 0 0 0 -948.07729526561161 3220.4364631299977 0 3220.4364631299977 1001.5006339279935 0 0 0 0 -2056.4839644565582 2654.7143915171182 0 2654.7143915171182 207.21974689586204 0 0 0 0 -2052.976451094466 2420.7427573727036 0 2420.7427573727036 1126.6961420683365 0 0 0 0 -975.66338073370571 2679.9512936107203 0 2679.9512936107203 -682.07871553421501 0 0 0 0 -987.18351495802926 2940.8797145616118 0 2940.8797145616118 -3528.054534885363 0 0 0 0 -4158.5775427471672 3089.2707920875509 0 3089.2707920875509 122.45820562902372 0 0 0 0 10941.841559401131 7784.006093567441 0 7784.006093567441 2329.8766356352135 0 0 0 0 -271.92292172460293 2271.3592402284921 0 2271.3592402284921 -565.06088318154798 0 0 0 0 -315.69753741224122 1637.804055245535 0 1637.804055245535 231.00836485058244 0 0 0 0 -1133.6137658617663 2878.2723037529213 0 2878.2723037529213 1745.7928373361647 0 0 0 0 -1016.3709285592922 3283.5782492736616 0 3283.5782492736616 -377.49427674569233 0 0 0 0 1.4759433959469987 20.222311610756833 0 20.222311610756833 33.090327235975678 0 0 0 0 7179.8519973081566 4051.4702742804384 0 4051.4702742804384 232.81049612275092 0 0 0 0 -1484.6919750808156 2097.0062389292434 0 2097.0062389292434 309.43850370108703 0 0 0 0 2799.0341529468133 2549.3838506352586 0 2549.3838506352586 408.09083847134025 0 0 0 0 328.88243841043732 4183.2954136696717 0 4183.2954136696717 1461.3821379005276 0 0 0 0 -537.73280409218569 2524.1813878622779 0 2524.1813878622779 2034.8355464190718 0 0 0 0 -1013.2304252833128 3064.227826550894 0 3064.227826550894 1806.3353682333254 0 0 0 0 1161.8025328258664 1230.2545431851613 0 1230.2545431851613 -224.46776493085781 0 0 0 0 149.75806551618734 2042.2495199008627 0 2042.2495199008627 432.96230111341538 0 0 0 0 -300.60728947992902 921.08366904157447 0 921.08366904157447 29.418011866393499 0 0 0 0 -373.37252244247065 746.53185577585464 0 746.53185577585464 -169.66739270210383 0 0 0 0 -518.00423195850453 679.88195093211834 0 679.88195093211834 71.694483383515035 0 0 0 0 -243.26695859402389 1151.8015642497376 0 1151.8015642497376 176.943186749093 0 0 0 0 -845.56846598608536 705.61675732655567 0 705.61675732655567 283.36344278185061 0 0 0 0 -793.17752774296605 305.77944492915776 0 305.77944492915776 -250.62596487009432 0 0 0 0 -942.51857865497004 363.61553457076661 0 363.61553457076661 -246.53541429529287 0 0 0 0 -1143.1409066655033 1037.3160750520474 0 1037.3160750520474 693.84164278508251 0 0 0 0 -597.20920847760863 1264.8843728540596 0 1264.8843728540596 471.68233656085795 0 0 0 0 23.160143779095961 2020.3065051209123 0 2020.3065051209123 653.56718301554793 0 0 0 0 -696.34027192473877 1357.0544725520813 0 1357.0544725520813 841.07985384739004 0 0 0 0 -827.76780021056766 2067.005866436557 0 2067.005866436557 1389.9685415096901 0 0 0 0 -837.31178430719956 2103.861778644773 0 2103.861778644773 2361.5731346794928 0 0 0 0 129.84359418240638 1552.4395502906737 0 1552.4395502906737 674.08598757209256 0 0 0 0 -515.8925334308442 1219.0004243923468 0 1219.0004243923468 1871.5496715134941 0 0 0 0 -839.15164176173857 1626.511957589435 0 1626.511957589435 1598.1119738396155 0 0 0 0 -563.98506731223461 1485.3873732166467 0 1485.3873732166467 791.45792796750902 0 0 0 0 -1288.9295888253837 1341.0300710514275 0 1341.0300710514275 839.06787533496208 0 0 0 0 -482.27772274156086 1750.4834660399429 0 1750.4834660399429 233.04826736499672 0 0 0 0 -507.81097584447707 1744.7577319705888 0 1744.7577319705888 623.15214287524577 0 0 0 0 -461.84746489867393 2179.4324875376478 0 2179.4324875376478 -272.15822699925047 0 0 0 0 -1166.188358337633 1323.0249854485701 0 1323.0249854485701 138.0533991312841 0 0 0 0 -1808.4437550563016 1934.2543375364476 0 1934.2543375364476 -419.26208863145439 0 0 0 0 -2002.4316246000089 853.78846614970826 0 853.78846614970826 336.70324232408893 0 0 0 0 -2335.6481754687265 580.77733050473034 0 580.77733050473034 140.89212877018144 0 0 0 0 -3010.7521689911355 950.74912928435333 0 950.74912928435333 -51.569604206306394 0 0 0 0 -1596.5717303672282 -32.480176047247369 0 -32.480176047247369 -102.33926216380496 0 0 0 0 -2050.8508130330301 -17.366462015546858 0 -17.366462015546858 -55.502723493307712 0 0 0 0 -2840.12290224756 -471.58692841316224 0 -471.58692841316224 -103.20439646430896 0 0 0 0 -1735.5462477089022 -514.41017085447675 0 -514.41017085447675 -448.02547473789309 0 0 0 0 -1195.0747351044556 -241.13189669720305 0 -241.13189669720305 -315.30909466085723 0 0 0 0 -1084.5293798439816 409.05276165343093 0 409.05276165343093 -78.717000994452974 0 0 0 0 -1626.3660745597299 -47.384701188224426 0 -47.384701188224426 -74.968056952842744 0 0 0 0 -1168.4897888535634 28.770006540624308 0 28.770006540624308 -344.5110492418753 0 0 0 0 -1033.175666343137 311.49192857797971 0 311.49192857797971 30.897016402479494 0 0 0 0 -1034.4772627345774 841.34612521269446 0 841.34612521269446 198.39858546975302 0 0 0 0 -1262.0445250576158 3642.6877640952443 0 3642.6877640952443 -3577.2016724295972 0 0 0 0 -8821.4552702799556 -1202.3047273649427 0 -1202.3047273649427 -858.24059682228835 0 0 0 0 -27.333810626970234 22.654466942509742 0 22.654466942509742 -20.996026164193779 0 0 0 0 -5759.7500086877844 922.38246091062319 0 922.38246091062319 -874.17793501485721 0 0 0 0 -9543.1887202166108 3222.4171223761368 0 3222.4171223761368 -2014.9583299726946 0 0 0 0 -6331.9747703994217 4784.0548695582984 0 4784.0548695582984 -4176.9774852396513 0 0 0 0 2745.6407687698957 2222.7038121808728 0 2222.7038121808728 -3303.1939957719114 0 0 0 0 -334.54701628744078 -2760.1331230213873 0 -2760.1331230213873 310.05192874313798 0 0 0 0 4260.4459243864694 1122.667109742164 0 1122.667109742164 -2506.085211886937 0 0 0 0 3.7487320290709221 -0.089343586358886284 0 -0.089343586358886284 -8.8469586100879951 0 0 0 0 1317.8596151891979 2629.7914923815115 0 2629.7914923815115 -3343.2872147139606 0 0 0 0 936.28949499606097 908.4584885818258 0 908.4584885818258 -2594.674841502565 0 0 0 0 2452.2249571348839 168.2042725443589 0 168.2042725443589 -2233.2007579853525 0 0 0 0 2647.1441849368712 575.12260093558871 0 575.12260093558871 -1931.2637862576521 0 0 0 0 3324.6100859416038 -524.56041865346197 0 -524.56041865346197 -204.63348420354305 0 0 0 0 -1285.107101143396 1977.54420779465 0 1977.54420779465 804.82168511953205 0 0 0 0 -1309.189391678141 -335.94237115382566 0 -335.94237115382566 -671.65943922143197 0 0 0 0 4944.3749891025363 2660.9487907662988 0 2660.9487907662988 338.52832903520903 0 0 0 0 -29.712947950173515 60.327958105590682 0 60.327958105590682 -50.534989198076573 0 0 0 0 -20.243385725864201 27.818740932446474 0 27.818740932446474 -1.1893707157577182 0 0 0 0 2464.3306158254563 905.11181774924626 0 905.11181774924626 2299.5768647629884 0 0 0 0 -1789.7799717851449 -1566.4725229184114 0 -1566.4725229184114 -1118.8928584298119 0 0 0 0 -3043.3048895779648 -308.60438436886761 0 -308.60438436886761 -221.853615473432 0 0 0 0 -3809.8741280722606 -1893.7641266841383 0 -1893.7641266841383 -951.90615907832398 0 0 0 0 -5281.030246970884 -1155.5961474825453 0 -1155.5961474825453 -114.31916781404288 0 0 0 0 -5228.1350126073094 1463.0519833109822 0 1463.0519833109822 -567.41374491940951 0 0 0 0 -3992.6978238476731 675.27099494836875 0 675.27099494836875 -120.28743561520241 0 0 0 0 -1572.5726151257695 1322.4568514652783 0 1322.4568514652783 -709.10828142116952 0 0 0 0 -2789.4627125338666 2570.3853161447514 0 2570.3853161447514 -1929.191358430835 0 0 0 0 28.449840853354544 1183.4031069528137 0 1183.4031069528137 -726.03061591304868 0 0 0 0 -845.49433511255484 2262.2205709098926 0 2262.2205709098926 -2055.7383632257115 0 0 0 0 268.45221750319615 1401.400502528857 0 1401.400502528857 -2286.5183364338009 0 0 0 0 -113.42335717560491 1043.3908455357741 0 1043.3908455357741 -2159.0031775903672 0 0 0 0 -805.91467709178687 2277.7641126583476 0 2277.7641126583476 -4164.6325863058446 0 0 0 0 -2104.8635145706357 1666.2998302599881 0 1666.2998302599881 -1839.3838939904617 0 0 0 0 -4132.9456810404881 4068.1113385213612 0 4068.1113385213612 -3959.9255054634996 0 0 0 0 -971.54772651265375 710.14605408228817 0 710.14605408228817 -2785.7256380489707 0 0 0 0 -919.97714170909603 2473.9222453966649 0 2473.9222453966649 -5989.4511758647132 0 0 0 0 365.08791520170053 -1380.3682297651249 0 -1380.3682297651249 -916.53155374497874 0 0 0 0 322.04174662237347 868.11411326179223 0 868.11411326179223 -3023.3479577446269 0 0 0 0 807.13638507112773 15.671064838148595 0 15.671064838148595 -2589.5714119286858 0 0 0 0 -67.664969162724447 1056.4796701993837 0 1056.4796701993837 1501.1009276592376 0 0 0 0 -45.964044802598892 32.821438483701201 0 32.821438483701201 -17.807037541696843 0 0 0 0 -21.924997992945578 17.443891707956766 0 17.443891707956766 -11.843586085504683 0 0 0 0 -4837.1306005544029 785.44244121265365 0 785.44244121265365 1320.5843435910938 0 0 0 0 -1575.6872827644111 -216.62767860954045 0 -216.62767860954045 1310.8797397861899 0 0 0 0 -6995.0731290913245 2230.3347322732443 0 2230.3347322732443 -2848.384799549327 0 0 0 0 -380.42976859496503 2763.9969931894384 0 2763.9969931894384 -2857.1681463075802 0 0 0 0 -4437.601540034666 4525.3751040112111 0 4525.3751040112111 -3476.9290745846574 0 0 0 0 -691.93999467902177 1965.2087173266191 0 1965.2087173266191 -1770.3977407125058 0 0 0 0 -2054.0824452089728 4156.9927543182421 0 4156.9927543182421 -4908.2139125534159 0 0 0 0 -2959.8324401948776 1637.8045661303295 0 1637.8045661303295 -2674.8978150179028 0 0 0 0 -121.17303943959996 1198.0796562674077 0 1198.0796562674077 -1074.5688758353208 0 0 0 0 217.7532268705836 773.26003203914297 0 773.26003203914297 378.95340676192427 0 0 0 0 -2251.4916147670792 1897.3250261306912 0 1897.3250261306912 -123.07080888721975 0 0 0 0 -2145.7766004979349 144.78851114166901 0 144.78851114166901 1418.7392072414204 0 0 0 0 -2726.4223906007664 280.31623046502318 0 280.31623046502318 1441.8863316640782 0 0 0 0 -1186.3260675821293 629.80455440593505 0 629.80455440593505 842.35335137315269 0 0 0 0 -1705.5939608017434 -360.26191435439978 0 -360.26191435439978 1611.6713323801378 0 0 0 0 -15.620888193401015 13.889488534678833 0 13.889488534678833 -9.0031867288374769 0 0 0 0 -2765.7733818609286 343.28363358210299 0 343.28363358210299 1984.1373236641521 0 0 0 0 790.32654955371981 1295.9377709882319 0 1295.9377709882319 -799.65379299211781 0 0 0 0 -3103.755359369874 1747.5534894297161 0 1747.5534894297161 713.9777831043757 0 0 0 0 -2893.7874604470053 1407.8852619635654 0 1407.8852619635654 0.66492461913730949 0 0 0 0 -1341.1696058969319 1974.6445028302114 0 1974.6445028302114 -609.12048379780026 0 0 0 0 -2214.9258417224628 1347.2119198695727 0 1347.2119198695727 -1054.7506906198978 0 0 0 0 -1816.8906281603631 2031.7478410786644 0 2031.7478410786644 -1.6369501121225767 0 0 0 0 -1252.6207094642887 1827.7165905428119 0 1827.7165905428119 -1008.8624249629984 0 0 0 0 -1558.8170388000362 2329.324728037871 0 2329.324728037871 -731.05390986554994 0 0 0 0 -1392.044206555307 2181.3902629722143 0 2181.3902629722143 -940.95878639537841 0 0 0 0 215.926197895511 901.75164620846772 0 901.75164620846772 -300.0670357575691 0 0 0 0 -1447.7181255451178 823.3822297726656 0 823.3822297726656 1186.9108577896841 0 0 0 0 183.77049687025647 1420.6485919532279 0 1420.6485919532279 1301.6586452648917 0 0 0 0 -3560.7695538665575 1646.7317387650619 0 1646.7317387650619 1167.674133129658 0 0 0 0 -21.080858529545424 16.688871470511629 0 16.688871470511629 -9.5843153358402446 0 0 0 0 -1917.1643912963045 3537.1232918185415 0 3537.1232918185415 -1894.5359525075983 0 0 0 0 166.18263428148032 3142.43947915432 0 3142.43947915432 -2486.5802643695206 0 0 0 0 -2834.9581723031151 3307.2184634884179 0 3307.2184634884179 -666.80049793381477 0 0 0 0 -3038.40042501674 2313.8619700653207 0 2313.8619700653207 -687.28031481511425 0 0 0 0 -2398.4164792050797 2814.3459639975554 0 2814.3459639975554 -414.07292298108223 0 0 0 0 -2488.3328176436044 2720.4416441230132 0 2720.4416441230132 0.17688558275403921 0 0 0 0 -1648.1610378294063 2894.569708920455 0 2894.569708920455 -607.55496011181094 0 0 0 0 -1850.425290028732 3000.270004075559 0 3000.270004075559 -803.64967998996144 0 0 0 0 -1436.9722438723038 3260.446037348469 0 3260.446037348469 -839.992662378776 0 0 0 0 -2362.8352272346237 2935.6751001887897 0 2935.6751001887897 -0.51132589447163856 0 0 0 0 -1745.8342341073439 2836.4683787259419 0 2836.4683787259419 -1372.5446341034985 0 0 0 0 -1771.2802252326946 2404.7360028797484 0 2404.7360028797484 -2422.9216746193561 0 0 0 0 -1662.1757763189307 3079.750499005655 0 3079.750499005655 -1107.1574814728228 0 0 0 0 -982.89611884700389 3434.6712355680656 0 3434.6712355680656 -1446.8732177319762 0 0 0 0 -935.54779447360488 3243.7903858171048 0 3243.7903858171048 -1828.2531157889607 0 0 0 0 -673.6373715372647 2630.2481190715516 0 2630.2481190715516 -1585.9873883609398 0 0 0 0 -644.05107106897776 2463.8774888038461 0 2463.8774888038461 -1166.2383897525724 0 0 0 0 364.78858721305005 377.98834260955118 0 377.98834260955118 -906.87064008938614 0 0 0 0 -280.6844033311645 253.43933174766426 0 253.43933174766426 214.67123073668336 0 0 0 0 384.08729490745463 372.90767076164775 0 372.90767076164775 -907.00193704781577 0 0 0 0 115.58476693712873 937.36227314452844 0 937.36227314452844 -1556.9895883602003 0 0 0 0 -1357.1125593668257 1223.4743172296585 0 1223.4743172296585 -656.34765454105218 0 0 0 0 892.46729082675301 1297.6895099802641 0 1297.6895099802641 -1696.0335454770757 0 0 0 0 501.79028670457046 994.85485917741607 0 994.85485917741607 -1591.0652889101329 0 0 0 0 526.30080326523603 1848.5843577270898 0 1848.5843577270898 -1515.5974177823809 0 0 0 0 1091.1366944758338 1966.6889304164633 0 1966.6889304164633 -962.16079399872979 0 0 0 0 327.16757878370845 1434.8103470973438 0 1434.8103470973438 -1237.3803484361997 0 0 0 0 392.13131042697933 1243.8850721516501 0 1243.8850721516501 -939.10167380457278 0 0 0 0 -170.40946281676588 2224.8299853388962 0 2224.8299853388962 -1450.0827972040752 0 0 0 0 510.46652371445271 2193.3534374556484 0 2193.3534374556484 -1792.2780732495157 0 0 0 0 394.76156517529307 2980.1088240204044 0 2980.1088240204044 -2713.7827932880027 0 0 0 0 158.3652768467291 2592.5824135422954 0 2592.5824135422954 -2266.4328164408507 0 0 0 0 5.0707876645319629 2639.656736625464 0 2639.656736625464 -2214.5031725640729 0 0 0 0 857.73314728063997 2274.8288942486979 0 2274.8288942486979 -2331.8435695035587 0 0 0 0 726.63141924017327 3053.5172418344537 0 3053.5172418344537 -2510.7524567135406 0 0 0 0 53.1527201190911 2994.3386733538428 0 2994.3386733538428 -2379.966830022342 0 0 0 0 -1476.577263029656 4891.1824834642321 0 4891.1824834642321 -3916.8918067812338 0 0 0 0 211.06315062453359 3144.1279804163278 0 3144.1279804163278 -2946.7435156786814 0 0 0 0 -179.71105873079796 3826.0694543324644 0 3826.0694543324644 -3242.155328537574 0 0 0 0 -1335.7736565673258 3995.4612761568787 0 3995.4612761568787 -2584.3611869625602 0 0 0 0 -1518.8753721467583 3432.722605553301 0 3432.722605553301 -2779.349836624504 0 0 0 0 -500.36418540994055 3767.3772998681452 0 3767.3772998681452 -2625.5986998716398 0 0 0 0 -498.27776806254406 3804.9102949654407 0 3804.9102949654407 -2119.2895907920611 0 0 0 0 -131.77373041326064 3250.388449706239 0 3250.388449706239 -2449.9360804899989 0 0 0 0 -202.56849797195173 3401.3383283865624 0 3401.3383283865624 -2640.0894979168806 0 0 0 0 -203.79269828199176 3070.2273438943885 0 3070.2273438943885 -1979.2285986461939 0 0 0 0 -461.08286059927195 3119.3756463054524 0 3119.3756463054524 -1876.6010345541144 0 0 0 0 -670.94837610608374 3515.2273278086941 0 3515.2273278086941 -1747.0627565474133 0 0 0 0 -784.33660709846299 3987.9787517920413 0 3987.9787517920413 -1601.8488228898495 0 0 0 0 -594.92437358679308 3695.5699533040734 0 3695.5699533040734 -1900.9243092901888 0 0 0 0 -1134.3530606050044 3649.5886322436927 0 3649.5886322436927 -734.65578989013738 0 0 0 0 -1214.4609820663318 3348.7913853348073 0 3348.7913853348073 -1478.0504704135674 0 0 0 0 -1198.4061357052997 3574.5159480807051 0 3574.5159480807051 -798.09038711326866 0 0 0 0 -1595.9336656472078 3466.5844908631661 0 3466.5844908631661 -0.48467378814530093 0 0 0 0 -1209.9139734548353 3522.2254781314386 0 3522.2254781314386 89.340765849832678 0 0 0 0 -673.92301795788808 3799.7649018051306 0 3799.7649018051306 1.1492140533178266 0 0 0 0 -671.23749200088787 4494.5653670625179 0 4494.5653670625179 524.469081675692 0 0 0 0 -76.541197948034096 2843.9704334918024 0 2843.9704334918024 466.67002326520742 0 0 0 0 -737.53071598376846 3826.6770310030042 0 3826.6770310030042 -765.74119016234181 0 0 0 0 -837.97384395718109 4332.5353477369499 0 4332.5353477369499 -906.75991729573434 0 0 0 0 -717.89003837655764 4294.3237199514988 0 4294.3237199514988 -2097.9482021104923 0 0 0 0 -789.50220253486441 3961.5540505859917 0 3961.5540505859917 -1582.6198888800573 0 0 0 0 -1013.4024638598494 3905.5444900657167 0 3905.5444900657167 -2013.1020139557077 0 0 0 0 -1046.9875750185165 4644.0330882484122 0 4644.0330882484122 -1567.0502930365474 0 0 0 0 -879.13745286564517 4007.7755629385938 0 4007.7755629385938 -3174.4570109764172 0 0 0 0 -1981.5222687363857 4035.9999554577953 0 4035.9999554577953 -1917.2027284130163 0 0 0 0 -2106.5106000096639 4585.9466939962767 0 4585.9466939962767 -3904.8033758181846 0 0 0 0 -650.25235871565383 3794.0347686245914 0 3794.0347686245914 -1878.3791670810606 0 0 0 0 1052.1247527462547 2911.9101553993678 0 2911.9101553993678 -2619.834290649771 0 0 0 0 -20.063593550383189 17.937945987327666 0 17.937945987327666 -13.739139793953086 0 0 0 0 -2864.8501491789357 -19.074686730542453 0 -19.074686730542453 366.7514683855552 0 0 0 0 -5886.7310189262898 1073.9304216155087 0 1073.9304216155087 27.924542502500117 0 0 0 0 -2697.5024826596491 3346.5951797489834 0 3346.5951797489834 -966.61372044908057 0 0 0 0 -5539.1797174444655 3917.7619286743429 0 3917.7619286743429 -784.30357719486346 0 0 0 0 -3622.6367097011534 -502.60944509913679 0 -502.60944509913679 -395.79803250008263 0 0 0 0 -285.65514171599352 152.59038632828378 0 152.59038632828378 -56.095995926298201 0 0 0 0 -282.66262688479037 94.466076827127836 0 94.466076827127836 26.213754721713485 0 0 0 0 -246.87528738128458 234.24874489878493 0 234.24874489878493 -250.51120410993462 0 0 0 0 -387.05922568992537 2679.7778518781224 0 2679.7778518781224 -391.8009043255588 0 0 0 0 -145.10312308266293 94.85127790106344 0 94.85127790106344 -121.07586776683456 0 0 0 0 -611.43582076838356 2488.3649524360953 0 2488.3649524360953 -37.094995726685738 0 0 0 0 -1637.0417188856227 3866.3653760634188 0 3866.3653760634188 -762.43360982314334 0 0 0 0 -1557.6475995228975 2452.7456788660493 0 2452.7456788660493 -278.15481730274041 0 0 0 0 217.92335701701813 3243.7190683911031 0 3243.7190683911031 -642.40128488889968 0 0 0 0 2935.5453962812899 3331.5827082203905 0 3331.5827082203905 25.824683224447654 0 0 0 0 428.06808657798683 635.83963095143554 0 635.83963095143554 1788.1387003727741 0 0 0 0 21.64289709859213 22.848294093017273 0 22.848294093017273 10.730391873523274 0 0 0 0 1708.5201418066317 -182.60115931708788 0 -182.60115931708788 36.337384462764021 0 0 0 0 2300.6365387018595 2869.0062154395273 0 2869.0062154395273 2055.3590626759014 0 0 0 0 -287.96396446101426 3052.7108474536653 0 3052.7108474536653 2619.7422722341144 0 0 0 0 3296.3820393158239 2089.0659476376895 0 2089.0659476376895 0.074995759598095901 0 0 0 0 -4.8647483067729524 6.789214195843428 0 6.789214195843428 -9.8177956334999408 0 0 0 0 -3465.5771630780728 1784.5274422800976 0 1784.5274422800976 -1232.5087588038296 0 0 0 0 -900.54197578353342 1791.4225735136133 0 1791.4225735136133 -2867.7928184300545 0 0 0 0 -2623.8739731912792 4593.8736623838922 0 4593.8736623838922 1.2414283156394958 0 0 0 0 -0.69723939726827666 3835.2265868202958 0 3835.2265868202958 -2206.7714310397641 0 0 0 0 753.13795912961359 901.66707070078701 0 901.66707070078701 2.6503167487975725 0 0 0 0 1354.1237444982253 1537.7510296278197 0 1537.7510296278197 608.75061770158936 0 0 0 0 10.099629488803998 26.914723892562122 0 26.914723892562122 -27.396519819590139 0 0 0 0 344.44879700547608 -164.65294053802063 0 -164.65294053802063 162.26124811354384 0 0 0 0 -353.91953929970623 -567.71879143433762 0 -567.71879143433762 527.9975582181296 0 0 0 0 57.449703080230393 50.136114622146124 0 50.136114622146124 13.28887762982049 0 0 0 0 0.06733395389164798 42.693512264959281 0 42.693512264959281 25.269551817968022 0 0 0 0 1.2231578409198391 22.063351266906878 0 22.063351266906878 -9.5268473594936722 0 0 0 0 -297.18688973406097 -439.11704135726904 0 -439.11704135726904 310.12083966677892 0 0 0 0 -6.5582785023006522 5.8454163337300571 0 5.8454163337300571 -2.7837007892261454 0 0 0 0 18.041197719925549 36.293616145470878 0 36.293616145470878 1.991562651732238 0 0 0 0 9.430722348072436 21.240535249648815 0 21.240535249648815 9.8764388276274531 0 0 0 0 9.6868351126031484 63.386608411048655 0 63.386608411048655 -22.401317630708036 0 0 0 0 -60.52650926131173 -528.77723815102945 0 -528.77723815102945 3818.5380634909379 0 0 0 0 -0.053665135696064681 54.913790899052401 0 54.913790899052401 -12.582315073224891 0 0 0 0 24.380849258617673 49.362657654382929 0 49.362657654382929 -22.945613832358504 0 0 0 0 16.195160969518867 7.6669169070968479 0 7.6669169070968479 9.4231307190592588 0 0 0 0 846.11936536844587 -816.13145290780813 0 -816.13145290780813 -378.89145543798804 0 0 0 0 100.60792893261532 170.73029891020997 0 170.73029891020997 2.8449158740113489 0 0 0 0 43.369934524275493 65.352960294869945 0 65.352960294869945 -34.211313039962988 0 0 0 0 236.8444436484715 -273.90815036134154 0 -273.90815036134154 2385.2657660818659 0 0 0 0 -29.253359755700899 58.054284036979311 0 58.054284036979311 -36.560813266490925 0 0 0 0 114.0868942879606 58.671304391522426 0 58.671304391522426 1977.710250535456 0 0 0 0 -711.23842771851923 2482.6486000942823 0 2482.6486000942823 1511.5458137789246 0 0 0 0 -514.8675889603328 1075.2574585581606 0 1075.2574585581606 1637.1518860210781 0 0 0 0 -351.24061493021145 462.22698606189442 0 462.22698606189442 3190.6360677037155 0 0 0 0 701.77956468967022 1220.1705869689758 0 1220.1705869689758 1183.2969915615977 0 0 0 0 348.8873230672034 2702.0294685264162 0 2702.0294685264162 -1934.7772161441098 0 0 0 0 -597.66317754637566 1847.2530366668943 0 1847.2530366668943 4418.7147333201647 0 0 0 0 1.9407954700276664 4376.8219496879065 0 4376.8219496879065 -97.697639004967641 0 0 0 0 62.328706163345487 3245.1260699282284 0 3245.1260699282284 -2168.4678068457142 0 0 0 0 -643.47361909074243 3459.6059504594159 0 3459.6059504594159 -1120.0856143720302 0 0 0 0 -231.08406284003286 4688.0401053060532 0 4688.0401053060532 -2529.2588717210747 0 0 0 0 -1782.9169179661258 5601.9233010966709 0 5601.9233010966709 -2753.4275816185318 0 0 0 0 -4348.9880277710326 3641.6217322847879 0 3641.6217322847879 -1957.0828848874371 0 0 0 0 -1949.7095163413906 3556.0740839194623 0 3556.0740839194623 -2593.0225817141472 0 0 0 0 -2374.20142042308 2705.3811645637616 0 2705.3811645637616 -3852.3688923977138 0 0 0 0 -2341.3919557453337 3796.4472086165842 0 3796.4472086165842 -2608.8535710658325 0 0 0 0 -2111.1861582072743 4154.7007225615889 0 4154.7007225615889 -2105.5276662056585 0 0 0 0 -1677.6602267145936 3853.7816976800532 0 3853.7816976800532 -2685.8367043773469 0 0 0 0 -892.03120383509668 4255.8463585010541 0 4255.8463585010541 -5027.7709436916266 0 0 0 0 -1647.2458257960097 3252.7686497884788 0 3252.7686497884788 -4371.8635833003354 0 0 0 0 -2500.4963132816629 3183.5480978321793 0 3183.5480978321793 -2605.150147317594 0 0 0 0 -861.83108777026291 3855.4651176257776 0 3855.4651176257776 -4045.1160713053832 0 0 0 0 -0.44761454802937806 4424.7921069541844 0 4424.7921069541844 -3074.7246208420693 0 0 0 0 -1027.1936610592529 4306.9777694211589 0 4306.9777694211589 -2887.5049962032244 0 0 0 0 -333.36167599744658 3795.9182943131455 0 3795.9182943131455 -4062.2871197262721 0 0 0 0 -20.027258960770268 92.046169453373295 0 92.046169453373295 7.3358980479488309 0 0 0 0 6.5267183646938065 85.721570712943503 0 85.721570712943503 7.1315704572407412 0 0 0 0 -478.59864171578374 1101.7463788406822 0 1101.7463788406822 -805.26352383902122 0 0 0 0 52.004919203702912 44.662640459615716 0 44.662640459615716 36.580784698164678 0 0 0 0 -615.67851750289992 895.71033107491894 0 895.71033107491894 87.181581826502224 0 0 0 0 -29.097596939275263 94.651149041384883 0 94.651149041384883 18.413550192271941 0 0 0 0 41.649604512055419 37.926942383250463 0 37.926942383250463 28.286929826662515 0 0 0 0 -171.0195438224473 945.77895241949591 0 945.77895241949591 -1341.1990861898084 0 0 0 0 33.139584666394512 45.725104498844303 0 45.725104498844303 25.24389899263042 0 0 0 0 -46.10812183917642 249.78449589917091 0 249.78449589917091 -891.37803110512323 0 0 0 0 226.14510330639314 337.65861806909379 0 337.65861806909379 -885.83474134081189 0 0 0 0 505.47865924195503 1262.4161043254292 0 1262.4161043254292 200.92034824224538 0 0 0 0 469.003956218643 177.8666317839743 0 177.8666317839743 1011.4064699992014 0 0 0 0 173.8882105563971 906.97461611520703 0 906.97461611520703 29.127500563161448 0 0 0 0 234.99526283543264 193.0597154671409 0 193.0597154671409 -376.17836999543943 0 0 0 0 60.311538379799458 865.64888847884868 0 865.64888847884868 595.22909689965309 0 0 0 0 -100.79430725198472 963.99881468187232 0 963.99881468187232 1502.9802658453409 0 0 0 0 852.00742066499515 2125.9234116206935 0 2125.9234116206935 2093.8299058662087 0 0 0 0 1361.0982591549982 1898.2246176090557 0 1898.2246176090557 1032.1721350851876 0 0 0 0 -31.57618972715251 14.724640138940984 0 14.724640138940984 26.158358057924261 0 0 0 0 -1898.4294401475418 -635.38950496487087 0 -635.38950496487087 487.79381900279259 0 0 0 0 2359.1107278429263 2240.9066314413794 0 2240.9066314413794 1151.3441592417075 0 0 0 0 -1026.613810200739 -111.46783833128575 0 -111.46783833128575 276.0466745090489 0 0 0 0 -999.82170596222568 69.279353242920479 0 69.279353242920479 656.25293029518798 0 0 0 0 -1446.8121127746563 46.086564396362519 0 46.086564396362519 1390.9032916384749 0 0 0 0 -1030.9152914478327 869.72436462479527 0 869.72436462479527 1523.6409510497306 0 0 0 0 -965.22052731303302 473.32101541946395 0 473.32101541946395 505.21302574680885 0 0 0 0 -619.54135312866856 301.61428276076185 0 301.61428276076185 152.05978857309674 0 0 0 0 -687.53460050551803 441.67145912095293 0 441.67145912095293 208.65956691515748 0 0 0 0 -581.71652938690386 152.07868194271578 0 152.07868194271578 173.78000158965006 0 0 0 0 -790.30118157780817 -3.1995151325245388 0 -3.1995151325245388 218.90475396715919 0 0 0 0 -14.461288742288161 441.43373341908591 0 441.43373341908591 -267.56581453078252 0 0 0 0 -135.54695763842756 222.59880944074393 0 222.59880944074393 -28.224532769076177 0 0 0 0 -474.7135667538605 49.686850751739257 0 49.686850751739257 39.539684325281996 0 0 0 0 -22.388403675706172 98.328461997321824 0 98.328461997321824 -14.416926258079229 0 0 0 0 -114.22243593027088 7.916943034149881 0 7.916943034149881 82.011102260279586 0 0 0 0 -808.96274375281064 191.60168422517017 0 191.60168422517017 238.41500985610764 0 0 0 0 -106.43826296609041 371.29887457056611 0 371.29887457056611 -214.84818176575936 0 0 0 0 63.588893254651339 75.406435695011169 0 75.406435695011169 -89.74246558372397 0 0 0 0 38.657615801108477 157.32898657137412 0 157.32898657137412 -307.3568727305028 0 0 0 0 -45.822484168871597 228.32558288081782 0 228.32558288081782 -94.499645876217983 0 0 0 0 44.16185068541381 167.12525521026691 0 167.12525521026691 -164.16668129025493 0 0 0 0 1.1943013452903983 9.4424641292696094 0 9.4424641292696094 15.551075759638536 0 0 0 0 61.889656559724244 105.18012228835141 0 105.18012228835141 18.265991007239791 0 0 0 0 -16.950645004406169 66.257245804634636 0 66.257245804634636 39.53620542339624 0 0 0 0 11.310473064986581 104.57289678509551 0 104.57289678509551 19.883291304227896 0 0 0 0 -488.12559291444632 406.62311118643265 0 406.62311118643265 -124.26738901878707 0 0 0 0 33.685510110168366 66.810994525095111 0 66.810994525095111 39.932399053174066 0 0 0 0 35.606065161977313 107.11143325477315 0 107.11143325477315 8.7379734316346003 0 0 0 0 -50.065424481773903 50.268653381427555 0 50.268653381427555 0.29374608773537147 0 0 0 0 78.444210191959215 154.89859439777865 0 154.89859439777865 -45.697614333344973 0 0 0 0 -3.1343875223930695 43.479437091456475 0 43.479437091456475 -30.734907588418338 0 0 0 0 -7.8846324732548965 108.15735214592132 0 108.15735214592132 128.73312758633256 0 0 0 0 25.635032771049737 119.30285810492205 0 119.30285810492205 64.281071064251591 0 0 0 0 20.276309763132303 78.177674738923088 0 78.177674738923088 -8.0672886726388242 0 0 0 0 -15.485772789514158 112.40240392017586 0 112.40240392017586 -16.529377878847299 0 0 0 0 35.074186368641676 75.477459888177691 0 75.477459888177691 -0.25748091658169869 0 0 0 0 15.979400417141733 111.68543943701661 0 111.68543943701661 -25.739765071164584 0 0 0 0 43.48934949724935 112.11966828492587 0 112.11966828492587 -36.277009189594537 0 0 0 0 47.060208690194486 17.340145594844216 0 17.340145594844216 50.121306597313378 0 0 0 0 15.752831352537669 74.692549771340964 0 74.692549771340964 19.789960798705579 0 0 0 0 2.8954329639891512 84.614819428752526 0 84.614819428752526 26.813461775927863 0 0 0 0 4.115500573850241 58.301496642249248 0 58.301496642249248 -50.001453407698591 0 0 0 0 5.9221322553530626 72.888824449753884 0 72.888824449753884 -23.832503891273518 0 0 0 0 -27.38569347952216 117.08630401216942 0 117.08630401216942 -6.3543489110161318 0 0 0 0 25.548979530455654 95.84072702944286 0 95.84072702944286 81.603262381249806 0 0 0 0 -20.943721764549991 167.52678200217633 0 167.52678200217633 -53.495117550279247 0 0 0 0 -10.190651746665935 93.452957891584447 0 93.452957891584447 -21.307486010133289 0 0 0 0 20.388589213296655 67.238163988964516 0 67.238163988964516 35.832691372692352 0 0 0 0 73.016058126690041 160.66287024962367 0 160.66287024962367 18.450863072228458 0 0 0 0 -1.6083977819725988 55.04339269810589 0 55.04339269810589 -69.317920453846455 0 0 0 0 21.443300301583804 68.430473180676927 0 68.430473180676927 -294.39928284566849 0 0 0 0 -52.641936421197897 126.98017162639735 0 126.98017162639735 250.49485865688439 0 0 0 0 -0.68663420477793125 -1.5654786483008536 0 -1.5654786483008536 0.58332596975529327 0 0 0 0 -37.30688791628927 114.1032048934685 0 114.1032048934685 2.6559220119379461 0 0 0 0 -28.488408770710521 119.16090043639269 0 119.16090043639269 -20.336305788026948 0 0 0 0 -26.588255246009794 136.94766406885174 0 136.94766406885174 66.396868692172575 0 0 0 0 -6.8200299370568374 79.410849448870437 0 79.410849448870437 -5.4427228266419547 0 0 0 0 159.01513406350205 63.707964834480663 0 63.707964834480663 -64.687977841269458 0 0 0 0 -22.369908013887724 15.380293442278457 0 15.380293442278457 -9.5561268141439086 0 0 0 0 5.56164518275747 35.360849648676925 0 35.360849648676925 -87.131251281024532 0 0 0 0 34.420338875439484 59.433768892929947 0 59.433768892929947 -60.609324588993331 0 0 0 0 58.615509228391602 85.128348584650666 0 85.128348584650666 -54.32865027293883 0 0 0 0 30.353835972117309 63.396847506103256 0 63.396847506103256 58.991238191467573 0 0 0 0 -8.6092889447136258 265.92249392225222 0 265.92249392225222 -99.043005666593672 0 0 0 0 -28.763930635352153 112.73722909815842 0 112.73722909815842 1.2263856880817912 0 0 0 0 245.11127332832257 103.7423140637693 0 103.7423140637693 -169.46026330023233 0 0 0 0 -154.866109334871 101.94870729658578 0 101.94870729658578 28.681055058310449 0 0 0 0 -7.2832959447295629 30.639368757554529 0 30.639368757554529 -74.107787846015924 0 0 0 0 -10.819309683376559 68.249916777995168 0 68.249916777995168 -80.377519079105696 0 0 0 0 326.46843699210149 208.46847507443454 0 208.46847507443454 -73.913367211047444 0 0 0 0 680.48202855139971 130.06978092898498 0 130.06978092898498 -79.893598607101012 0 0 0 0 154.22129804632277 144.74317327648168 0 144.74317327648168 182.00830676610349 0 0 0 0 -5.1880612199262757 0.23217583106944062 0 0.23217583106944062 3.7687573216139185 0 0 0 0 517.58102913727635 136.99484658985602 0 136.99484658985602 171.16924189731799 0 0 0 0 237.5358401274716 11.873827049450483 0 11.873827049450483 142.99343530958868 0 0 0 0 -3.0377033327542904 7.1616743395705953 0 7.1616743395705953 -1.9147192641419224 0 0 0 0 516.34690942790621 68.86301174518303 0 68.86301174518303 -31.783954281607294 0 0 0 0 212.63752914872748 197.02591828516597 0 197.02591828516597 37.906294408807298 0 0 0 0 -12.836192147595284 71.758149228473485 0 71.758149228473485 105.59919579394045 0 0 0 0 -17.690116380742438 158.58136799875911 0 158.58136799875911 -132.7026034102455 0 0 0 0 232.10394849194563 88.237174406138365 0 88.237174406138365 -19.137734810850816 0 0 0 0 169.21474222975667 212.24659918209363 0 212.24659918209363 5.2883307375595905 0 0 0 0 68.671705271059182 55.232535547896987 0 55.232535547896987 -88.073904701450374 0 0 0 0 -1.0547660817044999 44.270007640136782 0 44.270007640136782 21.458789129870155 0 0 0 0 -14.919624402744375 52.538320197483699 0 52.538320197483699 16.717860293101694 0 0 0 0 3.0670611407767865 73.02474475796771 0 73.02474475796771 -99.823230497844634 0 0 0 0 9.0322002300272288 62.0378711991616 0 62.0378711991616 -88.781685580281192 0 0 0 0 -24.091258101902326 40.515741265888011 0 40.515741265888011 12.516424203952425 0 0 0 0 -63.336315397071303 10.460366429309943 0 10.460366429309943 21.915097039207467 0 0 0 0 -20.699770404238734 59.747403152094194 0 59.747403152094194 -14.44826094211021 0 0 0 0 -145.90490746670912 42.036230481538951 0 42.036230481538951 41.583492372796172 0 0 0 0 -11.830035910363222 82.951240957088885 0 82.951240957088885 -44.296798057781416 0 0 0 0 -31.31683759508087 84.163781872666732 0 84.163781872666732 -17.990226951034856 0 0 0 0 -31.299084833299275 127.46495871624938 0 127.46495871624938 -64.910734057339141 0 0 0 0 -40.235605055841006 127.23063040733177 0 127.23063040733177 -60.315452751499834 0 0 0 0 -48.320009128903621 133.68081997310219 0 133.68081997310219 -60.611031072417973 0 0 0 0 -94.267356482445393 101.49721081289681 0 101.49721081289681 51.943992464206531 0 0 0 0 -63.708084407444403 118.11199845163355 0 118.11199845163355 27.407622655591695 0 0 0 0 -98.310076760135416 123.89436382707208 0 123.89436382707208 82.578287644893862 0 0 0 0 -80.567122677879524 77.327298761432758 0 77.327298761432758 -19.420994876047189 0 0 0 0 -4.4736915650519222 322.53401178018976 0 322.53401178018976 39.554796512864414 0 0 0 0 20.597932167203908 96.789572897792823 0 96.789572897792823 -208.54166475934471 0 0 0 0 45.334111447467222 79.138063569114081 0 79.138063569114081 53.946897151791177 0 0 0 0 37.084588338475442 236.44805526564596 0 236.44805526564596 -259.05643274933391 0 0 0 0 -0.81818958503026806 255.78177215367759 0 255.78177215367759 -168.65466413435934 0 0 0 0 -36.909264283895027 132.29918456328596 0 132.29918456328596 -63.390177195986325 0 0 0 0 15.085249377937139 -0.10913685782584537 0 -0.10913685782584537 -39.887791602994042 0 0 0 0 111.3160143217101 61.157835120277014 0 61.157835120277014 -15.624736480764113 0 0 0 0 282.34107084979769 329.22305367913941 0 329.22305367913941 192.85969580932579 0 0 0 0 550.14013714821704 210.44317614497049 0 210.44317614497049 -115.07131050835596 0 0 0 0 161.54844765143389 -6.4843349528109684 0 -6.4843349528109684 -85.592187144153286 0 0 0 0 37.609289201313004 53.561810928842533 0 53.561810928842533 -74.925463956940803 0 0 0 0 24.672197246611177 159.2836840917098 0 159.2836840917098 -51.562907657971664 0 0 0 0 -140.15684588630393 74.155289756225102 0 74.155289756225102 12.178847534611123 0 0 0 0 -188.08429376628919 218.55351358336338 0 218.55351358336338 -107.87275819053684 0 0 0 0 -187.92136435356952 145.31699557967659 0 145.31699557967659 -37.023065427900292 0 0 0 0 25.68535485776205 33.23888956329364 0 33.23888956329364 40.816853402107427 0 0 0 0 -43.297898771244945 115.93651426528595 0 115.93651426528595 17.362863363152428 0 0 0 0 -30.382620807184139 58.563174629386594 0 58.563174629386594 29.8161441721968 0 0 0 0 -51.943461104332528 109.47651376203794 0 109.47651376203794 19.960873110001558 0 0 0 0 -273.79083656650073 367.39228371101763 0 367.39228371101763 -16.41811283613788 0 0 0 0 37.108195534129905 43.5155484850184 0 43.5155484850184 55.124963923338925 0 0 0 0 80.273158495117968 122.48388620042897 0 122.48388620042897 70.023889498821518 0 0 0 0 9.0158758432153263 67.873888861009618 0 67.873888861009618 20.913904915751118 0 0 0 0 24.80653434773194 29.015957058069034 0 29.015957058069034 111.64342882041092 0 0 0 0 29.874136497788101 24.582360898640616 0 24.582360898640616 17.357123818731793 0 0 0 0 0.53979037077078829 62.24911412689471 0 62.24911412689471 33.726240775664337 0 0 0 0 -222.91713642911782 236.17555841962167 0 236.17555841962167 -53.411459216608819 0 0 0 0 15.594351142791183 20.114472791991403 0 20.114472791991403 25.174244191860197 0 0 0 0 212.29227397968862 159.86234073699961 0 159.86234073699961 -26.01243231632543 0 0 0 0 432.97652883534465 86.496602527120558 0 86.496602527120558 -98.835210101924531 0 0 0 0 188.69840845930958 218.24447668948051 0 218.24447668948051 -169.78090902703116 0 0 0 0 413.31786649459536 275.06666861811391 0 275.06666861811391 -416.95976449729642 0 0 0 0 379.97545786834962 484.47383261968935 0 484.47383261968935 -436.81354509302764 0 0 0 0 329.24912520818907 448.67070441526084 0 448.67070441526084 145.08512662131398 0 0 0 0 566.83486741202069 1278.7718242236879 0 1278.7718242236879 608.80108853854472 0 0 0 0 1661.1505959864589 589.85598089364066 0 589.85598089364066 -289.31272330493084 0 0 0 0 304.33547502360307 659.37281657352287 0 659.37281657352287 247.26630798882252 0 0 0 0 484.43908713462588 236.75261823123947 0 236.75261823123947 -713.96194901110721 0 0 0 0 340.35752920697269 -24.600467287405991 0 -24.600467287405991 -1125.0953856109118 0 0 0 0 184.07138024349115 243.20218963083607 0 243.20218963083607 -321.56040430627763 0 0 0 0 -0.099677906851866283 376.77290382033243 0 376.77290382033243 -697.39049149461061 0 0 0 0 -394.54219061885669 -252.06786685938278 0 -252.06786685938278 -321.03494554164354 0 0 0 0 -5.4151184790483455 6.5975408097106865 0 6.5975408097106865 -8.603821546961484 0 0 0 0 -1195.6951363515691 867.60685246335925 0 867.60685246335925 1870.9837053798838 0 0 0 0 -358.73029103977024 -704.42504125534469 0 -704.42504125534469 -1537.403134669381 0 0 0 0 -306.18535512301605 512.15517563019239 0 512.15517563019239 -1760.7969351093234 0 0 0 0 -1094.8686424115076 613.98650904368697 0 613.98650904368697 178.8100399566174 0 0 0 0 -748.68765164767683 74.075937833476928 0 74.075937833476928 123.3018655955384 0 0 0 0 -873.92874820274301 1.3888911888934672 0 1.3888911888934672 537.90576962043997 0 0 0 0 -603.33229943306651 545.88366247576778 0 545.88366247576778 229.64837378392986 0 0 0 0 -655.44124375941465 373.77870080963476 0 373.77870080963476 -176.18513171469385 0 0 0 0 -1809.4958662663121 491.50568835693412 0 491.50568835693412 295.50104195154563 0 0 0 0 -1340.0005161616136 307.75866157194832 0 307.75866157194832 280.81109627257683 0 0 0 0 -1284.6156452603027 306.00756180413737 0 306.00756180413737 -87.590692946134368 0 0 0 0 -350.76209948698488 -883.75821668208664 0 -883.75821668208664 -268.45218706494779 0 0 0 0 268.53374919221096 -222.79008606172283 0 -222.79008606172283 -598.99565324909054 0 0 0 0 -1896.1327481483822 726.74021906532653 0 726.74021906532653 -596.91500790140708 0 0 0 0 -1799.2347712674527 721.8105059195077 0 721.8105059195077 -163.6831179507717 0 0 0 0 -1260.253073594009 217.69089194046683 0 217.69089194046683 -198.69413470081054 0 0 0 0 -2043.3578721551748 594.40249517401389 0 594.40249517401389 -212.30738552643925 0 0 0 0 -1387.6856427049497 -149.97400523448596 0 -149.97400523448596 -202.43891023652395 0 0 0 0 -608.15080579911591 321.92034026725742 0 321.92034026725742 -409.86492927515064 0 0 0 0 -1279.5827248816204 186.2949326953385 0 186.2949326953385 -150.76502192043699 0 0 0 0 -1247.6675569624858 -1092.9439555220906 0 -1092.9439555220906 603.79710988356965 0 0 0 0 -1778.3673159166719 237.16749399087348 0 237.16749399087348 -288.29602960962802 0 0 0 0 -2459.0819029007107 139.58967830012261 0 139.58967830012261 234.95762021478731 0 0 0 0 -2500.137705936917 962.25078052661274 0 962.25078052661274 -526.84028768047574 0 0 0 0 -1432.0601096879036 472.56163976946118 0 472.56163976946118 -281.37921280802402 0 0 0 0 3.8840405837370646 16.097420437338656 0 16.097420437338656 -55.519259526651524 0 0 0 0 -1622.0553389726192 -630.52546283615811 0 -630.52546283615811 -2439.4225449206424 0 0 0 0 -1305.0823843041726 154.80935332364606 0 154.80935332364606 152.17700211025658 0 0 0 0 141.76663243462826 6.5900168122898322 0 6.5900168122898322 -1209.8776464049588 0 0 0 0 -462.53602484491785 -579.30959788929613 0 -579.30959788929613 389.13510393368779 0 0 0 0 153.59771838673623 847.82628493010998 0 847.82628493010998 -217.41536558629014 0 0 0 0 425.27568315965618 -680.51871207466684 0 -680.51871207466684 243.76445420240634 0 0 0 0 5.257575144727987 21.227632468919069 0 21.227632468919069 -67.154262864570569 0 0 0 0 -499.41646637742087 862.17793734603765 0 862.17793734603765 -2322.0827190077543 0 0 0 0 514.7848261326144 1232.9654734059804 0 1232.9654734059804 547.36644439989504 0 0 0 0 -2853.4318985510035 993.07801599946833 0 993.07801599946833 -396.45937984396005 0 0 0 0 -4679.4045116057969 1695.7346996662527 0 1695.7346996662527 -167.3018262777332 0 0 0 0 -4058.8484665189753 1348.4947193437401 0 1348.4947193437401 -223.69909141365497 0 0 0 0 -3010.2827980942675 1032.2550589793391 0 1032.2550589793391 -50.966449335908692 0 0 0 0 -2630.8527783481986 -326.92689792267629 0 -326.92689792267629 1553.983545306517 0 0 0 0 -3059.2924094204354 1454.1944434180186 0 1454.1944434180186 865.44853546770173 0 0 0 0 -5160.2170166310098 1316.9245016508212 0 1316.9245016508212 -873.13005384088319 0 0 0 0 -2839.4414708110999 1790.7367847622736 0 1790.7367847622736 -1145.4326434411632 0 0 0 0 -4341.6331674926478 2511.9145048828432 0 2511.9145048828432 -1825.6260586749995 0 0 0 0 -2922.0454853737319 -532.90396895664526 0 -532.90396895664526 -2068.5081555246579 0 0 0 0 -5902.966574972641 2984.2454467506614 0 2984.2454467506614 -107.31734235676049 0 0 0 0 -5595.6821474402241 2465.1306885070371 0 2465.1306885070371 -1382.0624151303782 0 0 0 0 -5876.0781784262217 2567.5005008840672 0 2567.5005008840672 -2592.868768054992 0 0 0 0 -5395.1892819262866 2789.4452860050951 0 2789.4452860050951 -2589.3333596263983 0 0 0 0 -6427.2150802112592 2613.6901371851563 0 2613.6901371851563 -1477.3917723500344 0 0 0 0 -9771.5244189050281 3113.7844038401963 0 3113.7844038401963 -2101.5012516935385 0 0 0 0 -12719.121231813857 6124.6473452566424 0 6124.6473452566424 -3345.4873945275758 0 0 0 0 375.47636509677795 741.07542063962319 0 741.07542063962319 -332.43979421647964 0 0 0 0 366.21429799468024 433.8628616611677 0 433.8628616611677 215.60703013902821 0 0 0 0 326.62527352377947 218.68427919117676 0 218.68427919117676 -931.81830610346469 0 0 0 0 -13.134259923404898 107.47162471978663 0 107.47162471978663 316.6081598681194 0 0 0 0 12.330309352528872 8.468026028375732 0 8.468026028375732 5.0366464263231592 0 0 0 0 449.97968473898436 912.24643423081579 0 912.24643423081579 -972.83569225399697 0 0 0 0 -23.051341019534448 203.44892221985356 0 203.44892221985356 1411.4328059182481 0 0 0 0 6577.6816541278968 3890.7337532745951 0 3890.7337532745951 1389.5026994101063 0 0 0 0 2233.6026640031487 -1163.5228064860639 0 -1163.5228064860639 -364.41913310079963 0 0 0 0 10855.706172997774 258.42855213550348 0 258.42855213550348 -452.37258930655662 0 0 0 0 2426.9720691272596 7115.0977205254676 0 7115.0977205254676 3197.1695573487523 0 0 0 0 -2071.3663578401611 3506.8508769031614 0 3506.8508769031614 2716.3267765326864 0 0 0 0 53.091726048151827 38.447957447472049 0 38.447957447472049 27.183385498013195 0 0 0 0 -2614.1735542005335 1338.9498159625291 0 1338.9498159625291 533.71701437194861 0 0 0 0 -1660.2970782758784 4268.0594407470999 0 4268.0594407470999 1605.7305012624274 0 0 0 0 -2914.5212910009286 3208.1977831694821 0 3208.1977831694821 1747.7151677586808 0 0 0 0 -2339.5248466928024 3063.4808912187655 0 3063.4808912187655 -2414.973029214394 0 0 0 0 275.85114521322248 1199.2329735942112 0 1199.2329735942112 171.27586512130802 0 0 0 0 -656.48269293745398 1999.2449287990457 0 1999.2449287990457 -4396.5227293850767 0 0 0 0 -3513.8827809573559 3767.7791731549369 0 3767.7791731549369 -2510.8422120171454 0 0 0 0 103.48289439415618 120.41049670442536 0 120.41049670442536 67.99284741033091 0 0 0 0 -3675.0371388127387 3899.3576488993058 0 3899.3576488993058 -5084.6834910288017 0 0 0 0 -7116.2091869600408 4200.3942358035129 0 4200.3942358035129 -2065.6045634750917 0 0 0 0 14.986627499071261 45.982702082113093 0 45.982702082113093 18.95763451964504 0 0 0 0 -3590.7571655508364 3350.8343873035192 0 3350.8343873035192 -2950.4657155434834 0 0 0 0 -3389.9557692349481 2677.5658559080621 0 2677.5658559080621 -2196.6262293121836 0 0 0 0 -3612.1491168600332 2650.9731407117288 0 2650.9731407117288 -1941.8574469472223 0 0 0 0 -2847.4868940144952 1444.2071847112238 0 1444.2071847112238 -1876.4848859132035 0 0 0 0 -3784.6506490931934 1788.245821055476 0 1788.245821055476 -541.34776902847807 0 0 0 0 -4448.5313702407002 1439.0121806453681 0 1439.0121806453681 -2388.2024275630683 0 0 0 0 -3063.3677838283475 2408.4590602172539 0 2408.4590602172539 -1829.8813888880832 0 0 0 0 -3455.6415973305702 1478.5524901119061 0 1478.5524901119061 -389.22313244370162 0 0 0 0 -3294.293963010161 2421.7756115850789 0 2421.7756115850789 583.61519223483629 0 0 0 0 -2307.2697155479182 2271.2965315471447 0 2271.2965315471447 579.3880773561541 0 0 0 0 -1946.8266055013009 1555.1574340954503 0 1555.1574340954503 379.18598499010841 0 0 0 0 -3093.7304841816513 1578.2160367927499 0 1578.2160367927499 392.12353389675263 0 0 0 0 -2711.8273128252185 1526.7263290129376 0 1526.7263290129376 -549.31907880879589 0 0 0 0 -2172.4749717356317 1080.0305358610058 0 1080.0305358610058 -485.02960203404655 0 0 0 0 -1611.7105227950233 777.95584613691608 0 777.95584613691608 278.35187903937185 0 0 0 0 -2384.0190351407218 1083.5867340668628 0 1083.5867340668628 200.78398813899912 0 0 0 0 -1722.7283155692567 611.37162809011352 0 611.37162809011352 -235.21280461896094 0 0 0 0 -2647.358535476902 1171.5872158064885 0 1171.5872158064885 -213.00680389007766 0 0 0 0 -2091.4013908274501 441.39027335268474 0 441.39027335268474 -255.43290811846964 0 0 0 0 -2461.4627236511151 1163.1835616652024 0 1163.1835616652024 -1040.0577381266048 0 0 0 0 -3180.9149967046105 1563.9602022893378 0 1563.9602022893378 -451.43199730573178 0 0 0 0 -3543.2806952157698 1876.5494611245813 0 1876.5494611245813 -787.79079875784737 0 0 0 0 -3041.0817482794373 2228.5683662597803 0 2228.5683662597803 -1846.8956200294488 0 0 0 0 -4052.4693387645239 2929.8651736328466 0 2929.8651736328466 -1625.8593390459864 0 0 0 0 -4197.5036918687983 2244.9392420554359 0 2244.9392420554359 -901.24352807640753 0 0 0 0 -3271.7247795338626 1036.9276417908841 0 1036.9276417908841 -289.60529670616233 0 0 0 0 -2858.2509858335834 1681.7095515525871 0 1681.7095515525871 -1090.354564672074 0 0 0 0 -4257.1204845481698 3028.6082296914537 0 3028.6082296914537 -1968.1903201000532 0 0 0 0 -4823.9413529645826 2767.6426179270347 0 2767.6426179270347 -1089.8013423810662 0 0 0 0 -3900.657338471603 2165.630073957298 0 2165.630073957298 -1272.3029271241103 0 0 0 0 -3667.3272717491709 2087.2579003806568 0 2087.2579003806568 -1130.4179076132714 0 0 0 0 -3695.8756013947423 2794.0237784628407 0 2794.0237784628407 -1872.8005681436043 0 0 0 0 -4861.0139014610904 3480.9150707360677 0 3480.9150707360677 -1849.1261079592887 0 0 0 0 -4028.9657699657109 3580.563519569223 0 3580.563519569223 -3105.8257954384753 0 0 0 0 -5455.2578468686916 5520.397785071822 0 5520.397785071822 -3943.696197326557 0 0 0 0 -4322.3268517836841 4390.5480507533466 0 4390.5480507533466 -3975.7702341589466 0 0 0 0 -4831.736642252712 3220.8799886454653 0 3220.8799886454653 -2086.4942058930465 0 0 0 0 -6536.1071921590774 4051.6398596614745 0 4051.6398596614745 -2174.1038049785038 0 0 0 0 -5635.6636804753653 3813.7094537131707 0 3813.7094537131707 -1930.7465415746847 0 0 0 0 -5492.5108692763606 2923.0451363753527 0 2923.0451363753527 -1166.6297122857504 0 0 0 0 -5746.2478424256988 3544.2053771318824 0 3544.2053771318824 -2443.8639801394893 0 0 0 0 -39.215734573008376 167.07108668418368 0 167.07108668418368 157.89401045186969 0 0 0 0 -6227.1588983319816 4868.7156284815574 0 4868.7156284815574 -4171.3811106189969 0 0 0 0 -9332.2054662543233 4607.4567077840329 0 4607.4567077840329 -2670.1766005118989 0 0 0 0 -7192.8239681058039 6688.3454807947201 0 6688.3454807947201 -7329.492670723761 0 0 0 0 -64.218131569663967 -8.737261651835496 0 -8.737261651835496 59.36981377637062 0 0 0 0 -10400.68905372353 9651.0353709296178 0 9651.0353709296178 -7853.9258486336839 0 0 0 0 -6232.0645875468626 5562.1345247885292 0 5562.1345247885292 -3741.5649693972227 0 0 0 0 76.659354271069276 122.88850868326071 0 122.88850868326071 112.18194958614214 0 0 0 0 -32.154109954542946 151.03974020644091 0 151.03974020644091 152.92518651509454 0 0 0 0 32.774977051907626 235.65359346258629 0 235.65359346258629 65.84109574292961 0 0 0 0 -4207.4902422128653 3671.1584986745002 0 3671.1584986745002 -2581.3698457934006 0 0 0 0 -4547.2987095308708 3217.0852954735383 0 3217.0852954735383 -1837.6482329046121 0 0 0 0 33.671423836257986 93.560415118461066 0 93.560415118461066 105.63700043478673 0 0 0 0 -43.42489351639469 119.51955709906834 0 119.51955709906834 -5.6605500557184314 0 0 0 0 -285.15184401332226 -325.82409026500682 0 -325.82409026500682 612.25722929844051 0 0 0 0 272.3403026474698 191.63220336516679 0 191.63220336516679 -207.14121566709218 0 0 0 0 1690.678214250278 1000.4036380232719 0 1000.4036380232719 -38.336375471179053 0 0 0 0 1305.7394072769239 1022.1389757608304 0 1022.1389757608304 794.73083003955253 0 0 0 0 -999.24022550578229 75.57089080059086 0 75.57089080059086 -254.73618156134035 0 0 0 0 1265.3788278026768 913.78334017581801 0 913.78334017581801 -2493.4534580440668 0 0 0 0 -66.011871972970539 96.934609574884178 0 96.934609574884178 -32.780846651147556 0 0 0 0 -608.62685918164061 67.17318223188704 0 67.17318223188704 -540.57824704077211 0 0 0 0 -506.13407396813272 296.09547967313847 0 296.09547967313847 -8.1984246147912927 0 0 0 0 213.48798058553075 511.98598348348605 0 511.98598348348605 -527.78385378749226 0 0 0 0 -73.507867247300041 98.705661798490652 0 98.705661798490652 -24.368318751005972 0 0 0 0 250.95875085969601 604.03529464947133 0 604.03529464947133 361.28549960057717 0 0 0 0 -642.79414759244537 -46.935207641115994 0 -46.935207641115994 455.21148934087432 0 0 0 0 -75.164406186217093 153.41325679507281 0 153.41325679507281 -862.87610028669587 0 0 0 0 -151.48812232812634 1044.4282375703333 0 1044.4282375703333 -556.57383342660614 0 0 0 0 -77.716883752294137 85.361568804529583 0 85.361568804529583 157.05499366094136 0 0 0 0 -596.17216732003726 366.70547046021966 0 366.70547046021966 96.894187358557247 0 0 0 0 -148.68019920411461 154.17990448523415 0 154.17990448523415 192.04905445227632 0 0 0 0 -56.198658936162246 159.01077968123354 0 159.01077968123354 166.1059528204205 0 0 0 0 -19.615762930261553 134.6731723468256 0 134.6731723468256 167.8337579035433 0 0 0 0 -1282.6731614963428 933.04271631753727 0 933.04271631753727 -606.02193467909819 0 0 0 0 -66.983145326476546 86.125180836657051 0 86.125180836657051 164.97027418044701 0 0 0 0 17.492847766901832 168.09963326699653 0 168.09963326699653 152.00149731638521 0 0 0 0 -4477.9963143659261 1598.6851063580325 0 1598.6851063580325 388.95428202085895 0 0 0 0 -3948.2910705500835 -3429.6106676300988 0 -3429.6106676300988 1713.586265010701 0 0 0 0 -2588.3363058064788 -600.64766184558539 0 -600.64766184558539 366.46942167316922 0 0 0 0 -522.19232856682538 534.18335252246288 0 534.18335252246288 -63.29411135459668 0 0 0 0 -1177.0297056175114 -236.8158315095643 0 -236.8158315095643 250.25238992163213 0 0 0 0 -65.009192204558957 80.809573419475811 0 80.809573419475811 166.00767055735565 0 0 0 0 129.08784969647968 303.11919459354249 0 303.11919459354249 -75.134877686752588 0 0 0 0 -944.86268739272782 -706.31941448674479 0 -706.31941448674479 -451.08691219877801 0 0 0 0 -427.50284948671469 702.32249059133028 0 702.32249059133028 762.92677978295251 0 0 0 0 -973.86819467553869 464.08886672415247 0 464.08886672415247 659.09510617385968 0 0 0 0 245.54487768271065 2713.6429623534023 0 2713.6429623534023 1918.4611988911056 0 0 0 0 399.84787803664221 1874.0805772773601 0 1874.0805772773601 688.43850088777253 0 0 0 0 -1914.4165427381522 1028.0187582014769 0 1028.0187582014769 1890.0377582861402 0 0 0 0 -617.52380697109038 2299.8838273110305 0 2299.8838273110305 871.37200763798319 0 0 0 0 -2989.0417559602938 -427.09247100124776 0 -427.09247100124776 1162.3375786284232 0 0 0 0 -57.168402910747119 -0.3367975060237427 0 -0.3367975060237427 51.241034182908038 0 0 0 0 -743.59892541402951 -392.79289031261578 0 -392.79289031261578 -2391.9354068268149 0 0 0 0 -1500.3743433933269 2915.0876896816408 0 2915.0876896816408 -247.46911001767148 0 0 0 0 1818.7977662828052 791.6850734531472 0 791.6850734531472 985.50249751517549 0 0 0 0 2190.8982855990907 296.82929060023889 0 296.82929060023889 958.39501568255946 0 0 0 0 3370.7081392512482 3705.7827992357197 0 3705.7827992357197 414.86621262185508 0 0 0 0 26.535675631613003 17.398410683190846 0 17.398410683190846 -30.703656643094348 0 0 0 0 1578.5525091579257 1831.9657374531816 0 1831.9657374531816 -1351.0406652746024 0 0 0 0 1670.7295550639101 1316.6235172311717 0 1316.6235172311717 1520.3391464815213 0 0 0 0 -73.199459495402792 94.665442959433818 0 94.665442959433818 -27.877912762669553 0 0 0 0 -10.38648430935217 10.450406463852502 0 10.450406463852502 -2.5184865861546086 0 0 0 0 -1209.6142467085883 -284.09714703827194 0 -284.09714703827194 -396.51262729402515 0 0 0 0 591.09410173509968 264.84373496138141 0 264.84373496138141 -246.58044490887551 0 0 0 0 -158.23946454731049 -296.03413014480611 0 -296.03413014480611 233.96805987710832 0 0 0 0 885.56605767004658 562.68847058495157 0 562.68847058495157 2641.4011936574825 0 0 0 0 -980.60991212114459 -106.75743053924816 0 -106.75743053924816 -703.0518376462278 0 0 0 0 -819.29399917912087 198.04010390488838 0 198.04010390488838 -558.69053047226043 0 0 0 0 -861.33914257167635 1634.7060127668628 0 1634.7060127668628 -2243.2057022262452 0 0 0 0 -118.48910917179455 511.77562810094241 0 511.77562810094241 -658.90474389569863 0 0 0 0 -36.269059427075263 708.55684903230576 0 708.55684903230576 -1269.328704290936 0 0 0 0 -376.59089501732524 502.75569467702371 0 502.75569467702371 -1079.3239041064226 0 0 0 0 -367.62937351647724 421.29648775348505 0 421.29648775348505 -564.27746520495566 0 0 0 0 1014.7959172509072 232.53910838104639 0 232.53910838104639 -1626.2770703187271 0 0 0 0 0.80398877063984031 15.552744004279504 0 15.552744004279504 -33.696356122459349 0 0 0 0 -6238.9165076233185 3621.6236286366402 0 3621.6236286366402 -1000.5585422594813 0 0 0 0 1568.8494677953931 -411.07485411965899 0 -411.07485411965899 -1004.4597047007264 0 0 0 0 -7103.9991724861393 3587.9373391656263 0 3587.9373391656263 -746.54174872097792 0 0 0 0 -6361.2933018215917 1769.0029517200019 0 1769.0029517200019 -3261.9304176594742 0 0 0 0 -3788.6969218474696 1860.3210890093178 0 1860.3210890093178 -294.0842267963053 0 0 0 0 -5490.8022793261334 3848.8904323757524 0 3848.8904323757524 -1351.8008959993022 0 0 0 0 -2831.2026418650421 888.21422720300325 0 888.21422720300325 -2474.1353240757126 0 0 0 0 -3590.2213364132549 2104.2059811313302 0 2104.2059811313302 -481.13621968806547 0 0 0 0 -2409.8137307758007 437.01159169278253 0 437.01159169278253 -46.747292024041599 0 0 0 0 -3337.7116101566644 1539.5234998091255 0 1539.5234998091255 136.17865251177864 0 0 0 0 -1458.0222489272855 513.04487589154451 0 513.04487589154451 310.10481021637861 0 0 0 0 -1947.2309727333595 847.51507236187535 0 847.51507236187535 249.76222065366164 0 0 0 0 -2945.3110204402619 1495.4489865521973 0 1495.4489865521973 434.46918169311539 0 0 0 0 -2265.0212220139947 1322.5639957459789 0 1322.5639957459789 454.61237409537716 0 0 0 0 -2264.8564061401266 1334.830737572076 0 1334.830737572076 866.21232745735324 0 0 0 0 -1900.1082182353421 1307.5467865101236 0 1307.5467865101236 -109.09213619703223 0 0 0 0 -1981.0376310894735 1516.6569619659058 0 1516.6569619659058 -85.100174123552279 0 0 0 0 -995.85927943468414 1105.1278332005677 0 1105.1278332005677 711.60579553568823 0 0 0 0 -987.88285272553912 1093.1897250791226 0 1093.1897250791226 88.488405736345157 0 0 0 0 -431.67281325098884 1682.1038453898364 0 1682.1038453898364 719.58618365637085 0 0 0 0 -1572.2298170435315 1023.5831744047391 0 1023.5831744047391 857.88390590500785 0 0 0 0 -465.69159198321915 835.00900124463726 0 835.00900124463726 670.75146406944259 0 0 0 0 -0.2532203082180331 0.76568068635154418 0 0.76568068635154418 -4.4846052346196643 0 0 0 0 -168.40512461494654 250.58855056187895 0 250.58855056187895 567.79592608440726 0 0 0 0 -3640.795834247423 2733.8078374275719 0 2733.8078374275719 -1257.0875144035963 0 0 0 0 -2385.6440643849128 1420.8046739146084 0 1420.8046739146084 68.025946338268113 0 0 0 0 -2084.1000221647992 1516.1079569571521 0 1516.1079569571521 91.724504501296906 0 0 0 0 -2051.0302023897239 1670.0148676052595 0 1670.0148676052595 577.25287641951581 0 0 0 0 -2224.5471123866228 1387.8848453279206 0 1387.8848453279206 500.47305373478594 0 0 0 0 -2215.8959666145493 1304.6666766651615 0 1304.6666766651615 21.538474666478578 0 0 0 0 -1027.4860002333517 953.90020735016878 0 953.90020735016878 -145.38460363457489 0 0 0 0 56.801460578330421 66.931062314619396 0 66.931062314619396 65.009235725832355 0 0 0 0 -1116.1152313968705 718.69077563170868 0 718.69077563170868 -88.530415198416449 0 0 0 0 -1665.0603011653366 1770.8320045078435 0 1770.8320045078435 -1173.6011196300533 0 0 0 0 -1741.3055131677247 1439.0678205016593 0 1439.0678205016593 -1110.4562063222165 0 0 0 0 -356.51419424316373 -134.61110468757761 0 -134.61110468757761 1305.9772531786002 0 0 0 0 23.592479405948637 41.109565868548657 0 41.109565868548657 43.668288949283578 0 0 0 0 -1031.8290192962195 1233.6496981560776 0 1233.6496981560776 -537.17181831959169 0 0 0 0 137.71310325891682 -692.54572460602503 0 -692.54572460602503 1442.6667708653404 0 0 0 0 -13.038030799352811 5.286975087778444 0 5.286975087778444 10.061178797430728 0 0 0 0 6.1354630130120142 14.600312235253909 0 14.600312235253909 14.060458926191586 0 0 0 0 -2817.3339718679381 2996.4819903915231 0 2996.4819903915231 -2491.7207512964378 0 0 0 0 217.47688506389386 -971.04676279280102 0 -971.04676279280102 1480.1947532608901 0 0 0 0 -5457.7854749369435 4613.550740979088 0 4613.550740979088 505.32378432198311 0 0 0 0 -2904.3518781430757 2982.3853523430516 0 2982.3853523430516 -1585.5126570698922 0 0 0 0 -3536.423362911788 1798.72007035155 0 1798.72007035155 -551.21702645206824 0 0 0 0 -3398.1767072243383 2578.2832942050736 0 2578.2832942050736 -1871.5218544685486 0 0 0 0 -1844.6989601628302 2229.8498847430455 0 2229.8498847430455 -2439.7788944875938 0 0 0 0 -2947.3338975418374 2086.2033015381094 0 2086.2033015381094 -1424.909687287538 0 0 0 0 720.11350368501735 127.83561320428271 0 127.83561320428271 -1801.9611377307883 0 0 0 0 1638.6427874365909 500.96008142961364 0 500.96008142961364 -3432.7812743683462 0 0 0 0 604.78620846704871 338.3493496652809 0 338.3493496652809 -1971.0371598697093 0 0 0 0 1864.4932084856555 -464.73198760440573 0 -464.73198760440573 -1503.0683002970763 0 0 0 0 1764.0800731860945 -475.12534455573768 0 -475.12534455573768 -774.10105319495779 0 0 0 0 1632.1738118914072 219.39993436602526 0 219.39993436602526 -1147.6025520855619 0 0 0 0 1602.7482452139957 274.02691975899506 0 274.02691975899506 -41.39599321744754 0 0 0 0 2604.3442417372207 156.94317493759809 0 156.94317493759809 -307.91079439676832 0 0 0 0 1986.6642893556307 188.32504330401071 0 188.32504330401071 -590.22429714881582 0 0 0 0 1983.0111788323266 729.28842036347487 0 729.28842036347487 881.70519933907781 0 0 0 0 4755.7274837078876 1315.6323470883908 0 1315.6323470883908 -589.40256452246103 0 0 0 0 3524.907329598529 304.08320752896543 0 304.08320752896543 -481.42483095917851 0 0 0 0 -948.37038840077003 -709.03682610829128 0 -709.03682610829128 -779.97252005321207 0 0 0 0 810.24518907562015 397.25868350305245 0 397.25868350305245 388.23630260545178 0 0 0 0 823.75707086636976 515.07732685057817 0 515.07732685057817 -542.05930686433567 0 0 0 0 554.66104060469661 -55.248075025039725 0 -55.248075025039725 -137.51916788256494 0 0 0 0 490.82887421107625 -717.35303052544441 0 -717.35303052544441 -1084.592286919069 0 0 0 0 -5384.7113955936511 -143.12999832091737 0 -143.12999832091737 -323.85173556653899 0 0 0 0 -1006.4201216446982 363.96141774405351 0 363.96141774405351 -1522.7914281489211 0 0 0 0 -4487.1069333027699 4172.6101754123229 0 4172.6101754123229 -3379.7592866253108 0 0 0 0 -6233.4442618897592 3099.8260603365779 0 3099.8260603365779 -1692.9728538902127 0 0 0 0 -3966.4634383878438 1496.2639532149769 0 1496.2639532149769 -653.63851809262997 0 0 0 0 -3737.0618170571142 3444.8052466060944 0 3444.8052466060944 -2778.3520665705437 0 0 0 0 -2002.9952128462464 2129.3306443472247 0 2129.3306443472247 -1860.1946379051078 0 0 0 0 -3116.4043810024887 762.2481324950204 0 762.2481324950204 -409.91639725971618 0 0 0 0 -2614.791805870831 810.25384112793836 0 810.25384112793836 -936.42907945039042 0 0 0 0 -1078.797780869354 336.90880163828842 0 336.90880163828842 -537.22849595839216 0 0 0 0 -2030.3465811983187 1062.0297548868111 0 1062.0297548868111 -797.04514751772513 0 0 0 0 -1065.5916863070015 279.832057714244 0 279.832057714244 -816.1746346752625 0 0 0 0 -783.59264458819234 741.52027254342102 0 741.52027254342102 -1502.029700492596 0 0 0 0 -39.195117062859936 39.796399044484133 0 39.796399044484133 -954.85523661034676 0 0 0 0 -695.14102119086601 982.19277677727223 0 982.19277677727223 -885.33548676649662 0 0 0 0 -1536.3455140090446 1611.9563821101874 0 1611.9563821101874 -961.02041424551862 0 0 0 0 -1322.7456932998903 1536.2950627143146 0 1536.2950627143146 -936.36340383866627 0 0 0 0 -1770.3773983647134 1604.2232797389042 0 1604.2232797389042 -956.82105086716183 0 0 0 0 -654.88822172632717 1264.485143457503 0 1264.485143457503 -1795.1724343273236 0 0 0 0 89.01792102532383 104.44607915800512 0 104.44607915800512 88.743796530417342 0 0 0 0 -3399.8965604270343 2920.8872355532367 0 2920.8872355532367 -3123.5060222763568 0 0 0 0 -2.0703332221677755 19.340640728425093 0 19.340640728425093 12.761916883301978 0 0 0 0 -378.87066934087488 -41.464452847671055 0 -41.464452847671055 170.92014824126818 0 0 0 0 -601.26622341288385 753.26090529451176 0 753.26090529451176 -208.81355452536081 0 0 0 0 -1183.0915064466826 676.50371623350657 0 676.50371623350657 37.508350625314051 0 0 0 0 -1020.558914582698 1151.0451672978015 0 1151.0451672978015 -562.78926206444157 0 0 0 0 -1965.1915850974838 1876.8606332112831 0 1876.8606332112831 -1895.311937952516 0 0 0 0 -2469.4154023975207 1593.0181523250867 0 1593.0181523250867 -477.59981368470471 0 0 0 0 -1767.073232516901 816.1297912901864 0 816.1297912901864 -697.91737168522377 0 0 0 0 -1882.3004257174216 2762.219736765077 0 2762.219736765077 -1412.7271500554052 0 0 0 0 -319.68787205546687 1743.0144215723412 0 1743.0144215723412 -1054.5423317922177 0 0 0 0 -1349.4157540202577 1461.2228272284628 0 1461.2228272284628 -1124.4927503274812 0 0 0 0 -368.81742068161839 1472.7611801402963 0 1472.7611801402963 -1752.6301555288665 0 0 0 0 124.39423936350795 1055.0040858998254 0 1055.0040858998254 -1405.8076159257762 0 0 0 0 114.89063728695328 1694.2673352727506 0 1694.2673352727506 -1720.3843825133663 0 0 0 0 239.78934632740857 1646.0264534182206 0 1646.0264534182206 -2159.3145995562991 0 0 0 0 669.95381460213684 1397.1120167935151 0 1397.1120167935151 -2112.0446764292246 0 0 0 0 131.85557549172881 1023.3064863067448 0 1023.3064863067448 -2313.3465044385521 0 0 0 0 391.3914163155714 2073.4672411137726 0 2073.4672411137726 -3743.3885863870673 0 0 0 0 40.760669121984392 944.22142963892838 0 944.22142963892838 1472.4325598263677 0 0 0 0 -32.403445203589285 29.440000694806855 0 29.440000694806855 -18.549533902179633 0 0 0 0 -176.47089012753349 1714.5985369150603 0 1714.5985369150603 1844.3644866463728 0 0 0 0 1129.4200447765907 593.83849226416351 0 593.83849226416351 -993.39916007033753 0 0 0 0 -614.85964465198776 -148.4688702190324 0 -148.4688702190324 877.83641971614634 0 0 0 0 -14.527117543125996 16.420916684553873 0 16.420916684553873 -12.122888655756981 0 0 0 0 641.16177918527683 2316.4626735966012 0 2316.4626735966012 -2245.8273230922059 0 0 0 0 -2513.6795417090034 1383.5211595025175 0 1383.5211595025175 1629.2399318046664 0 0 0 0 -2384.8225676145566 2574.7240824562459 0 2574.7240824562459 -972.15498103757272 0 0 0 0 -1986.6962262854213 1104.520767369555 0 1104.520767369555 223.92633972305339 0 0 0 0 -1734.9340051447543 1130.9654355865387 0 1130.9654355865387 87.663551069519599 0 0 0 0 -1375.8179255440155 542.18136405228142 0 542.18136405228142 368.67280167888384 0 0 0 0 -627.67892141477569 912.8092912025968 0 912.8092912025968 0.29387070162920281 0 0 0 0 525.98386456427397 711.83889103863112 0 711.83889103863112 -32.682219885187806 0 0 0 0 -247.60564882296603 552.55723141057388 0 552.55723141057388 127.45855316909729 0 0 0 0 434.04947423367412 809.81693121811259 0 809.81693121811259 -1.4665877321722696 0 0 0 0 -1122.3933790048832 1093.763923603241 0 1093.763923603241 -979.03999116612977 0 0 0 0 -1577.1355598820301 1567.825631015854 0 1567.825631015854 -1160.2827226984082 0 0 0 0 -284.54863280313884 163.79682435071288 0 163.79682435071288 -3430.5856935336487 0 0 0 0 -31.370379142064053 6.6935717114255908 0 6.6935717114255908 20.29044872335453 0 0 0 0 -284.68966338951861 145.6388396060639 0 145.6388396060639 1053.1568496657128 0 0 0 0 -1509.9813092670884 1334.4275384263747 0 1334.4275384263747 -1442.8837965841667 0 0 0 0 -1962.4456336636576 2579.2105848398351 0 2579.2105848398351 -2259.0120940800261 0 0 0 0 -2192.7094053445689 1775.1312075849637 0 1775.1312075849637 -565.68042777075607 0 0 0 0 -1773.4061214258836 1069.70891945529 0 1069.70891945529 -114.41525457805255 0 0 0 0 -1912.2666975496904 1236.0827262863895 0 1236.0827262863895 -138.1229010875104 0 0 0 0 -1713.3764452420946 1109.7815380722168 0 1109.7815380722168 -87.715034695298527 0 0 0 0 -1766.2015851467295 1066.3570249648474 0 1066.3570249648474 0.59056324820267037 0 0 0 0 -1718.4913513827796 1165.7769465436741 0 1165.7769465436741 -127.05118703797052 0 0 0 0 -1456.0635927839285 979.30492592477822 0 979.30492592477822 -0.49241561486269347 0 0 0 0 -1035.708724851751 826.95755789948998 0 826.95755789948998 -172.187293265466 0 0 0 0 -1368.0090325966521 1135.3720466981431 0 1135.3720466981431 -91.352458546782145 0 0 0 0 -635.46965987250223 867.21611843620485 0 867.21611843620485 -240.38734514653333 0 0 0 0 -935.64009637055642 909.69906655841623 0 909.69906655841623 0.72252041465253569 0 0 0 0 -976.74214875823691 207.98051548975491 0 207.98051548975491 1942.8651787283306 0 0 0 0 -5268.1316888152396 4207.2988518737038 0 4207.2988518737038 -2265.554984804854 0 0 0 0 -17.004906535288512 7.8132695008387145 0 7.8132695008387145 11.496008810599733 0 0 0 0 -839.84636507567484 1053.6918049088708 0 1053.6918049088708 -282.92343827604054 0 0 0 0 -12.380128543360023 10.578578671741298 0 10.578578671741298 -13.61222571520932 0 0 0 0 98.848496824254653 81.110977539461601 0 81.110977539461601 0.052263185571064241 0 0 0 0 -7007.3512268756003 840.32540706509462 0 840.32540706509462 355.33424937994278 0 0 0 0 -3303.3717374717598 2467.3706832519238 0 2467.3706832519238 0.74700653304720666 0 0 0 0 -2726.5163561077952 274.35544693788688 0 274.35544693788688 -276.66872800950659 0 0 0 0 -1823.5185965980781 -132.63228853742476 0 -132.63228853742476 -475.23182052953052 0 0 0 0 -3479.8047854780671 395.35076365966233 0 395.35076365966233 617.73416493201512 0 0 0 0 -1556.3477769728051 976.45471259567421 0 976.45471259567421 679.58900059913867 0 0 0 0 -471.69581748160863 896.24234107766006 0 896.24234107766006 -59.291184543981217 0 0 0 0 -1235.3986887793435 741.77647689405421 0 741.77647689405421 -55.8686880277819 0 0 0 0 -2122.713008123832 325.26123219487636 0 325.26123219487636 129.12406532026944 0 0 0 0 -1764.5572755535395 856.5102013333526 0 856.5102013333526 91.65491565990942 0 0 0 0 -36.428376808416957 9.2988962664362589 0 9.2988962664362589 23.80945695040009 0 0 0 0 -2995.5438052756217 1794.1729867381946 0 1794.1729867381946 -156.84312928502914 0 0 0 0 -2985.8927257726245 1849.0379162244499 0 1849.0379162244499 -374.70336106783361 0 0 0 0 -440.75942252117966 1953.4660312249034 0 1953.4660312249034 -2108.4198482904121 0 0 0 0 5.0176298143745157 7.8634977674381332 0 7.8634977674381332 12.15988300799944 0 0 0 0 -451.13557142264972 415.80213274002472 0 415.80213274002472 -153.08224714972312 0 0 0 0 -825.31096703747608 1147.4867954458459 0 1147.4867954458459 -659.20026536195655 0 0 0 0 -2613.796816230566 2882.6147022477599 0 2882.6147022477599 -1661.2367816977203 0 0 0 0 -4864.0303150440741 1924.1964584625239 0 1924.1964584625239 -153.66170101757598 0 0 0 0 -8.7644714007710576 21.507861325318345 0 21.507861325318345 -28.404194346550184 0 0 0 0 -20.894150536478264 127.78383115922043 0 127.78383115922043 -1555.3549815993656 0 0 0 0 -7920.0438138827885 1736.2106573237543 0 1736.2106573237543 -296.77055959418067 0 0 0 0 0.90162184814880675 41.729665187887292 0 41.729665187887292 28.752748880436172 0 0 0 0 -29.971501472971113 6.0902283308513461 0 6.0902283308513461 -3.8420401024494595 0 0 0 0 -152.65311422698869 -6.1708998640096979 0 -6.1708998640096979 -257.05465029479819 0 0 0 0 -34.951711272590202 77.405076507412502 0 77.405076507412502 -29.277775484309586 0 0 0 0 -681.1027375887279 420.07042045991693 0 420.07042045991693 -292.84206289282884 0 0 0 0 -853.03631193127876 460.45560171199759 0 460.45560171199759 -230.83218462835066 0 0 0 0 -1177.1883460096797 473.07285356316424 0 473.07285356316424 -227.81345900643282 0 0 0 0 -943.15209471101844 357.66223315859679 0 357.66223315859679 -40.895757207472343 0 0 0 0 -444.23023537148038 150.01316707077058 0 150.01316707077058 -70.130099821370095 0 0 0 0 -756.3058922322889 508.57032900568447 0 508.57032900568447 -158.41708714124889 0 0 0 0 -1117.4216445492166 574.36697813598585 0 574.36697813598585 -82.256931275987881 0 0 0 0 -710.39649516699865 550.74562035663985 0 550.74562035663985 -206.6506051159522 0 0 0 0 -1395.2709068544318 532.17487205892394 0 532.17487205892394 -47.210053597169463 0 0 0 0 -2408.6095863074079 355.70081383896468 0 355.70081383896468 255.96058469748823 0 0 0 0 -1487.2942840118267 705.26458112747059 0 705.26458112747059 -50.706820211843024 0 0 0 0 -1620.5932626597651 83.960939603251973 0 83.960939603251973 -88.715680693479953 0 0 0 0 -1136.159604939603 478.08494634186354 0 478.08494634186354 -158.09532558616775 0 0 0 0 -766.25613958010945 34.097314549901057 0 34.097314549901057 -85.981049210618949 0 0 0 0 -1128.2180565160161 510.71302712729084 0 510.71302712729084 -109.22659848559124 0 0 0 0 -1191.2141584019428 300.55656987231123 0 300.55656987231123 -521.8515342680621 0 0 0 0 -1119.7123723973673 505.03612441376026 0 505.03612441376026 -144.13666099886177 0 0 0 0 -1161.3160853974696 77.883739140001126 0 77.883739140001126 -554.85709174998919 0 0 0 0 -616.95030079688149 -63.052832206638413 0 -63.052832206638413 219.07633050257573 0 0 0 0 -1020.2278545668414 409.21177606101264 0 409.21177606101264 -127.89794179596356 0 0 0 0 -506.8733211307117 335.04925209950306 0 335.04925209950306 -274.83892605741858 0 0 0 0 -396.56239139083482 171.61690900285612 0 171.61690900285612 -203.37013629093417 0 0 0 0 -409.80488406507357 3.1647978263790719 0 3.1647978263790719 19.022894444176927 0 0 0 0 -693.61627208850086 78.434035269709057 0 78.434035269709057 155.94543848338071 0 0 0 0 -704.06898400718637 247.1224827588012 0 247.1224827588012 -77.974005239957478 0 0 0 0 -477.96650562062132 36.316338267231913 0 36.316338267231913 -22.988058132963488 0 0 0 0 -140.77743069548654 58.088838121273028 0 58.088838121273028 30.192270255593399 0 0 0 0 -1113.1890369050743 567.69916476758954 0 567.69916476758954 -23.027372976968763 0 0 0 0 -124.46578219866274 36.073737676772737 0 36.073737676772737 28.384984327994033 0 0 0 0 -985.75978891788691 -170.10314605287567 0 -170.10314605287567 159.48424286040245 0 0 0 0 -270.88374273982481 -184.11691112800327 0 -184.11691112800327 -285.74524027833831 0 0 0 0 -994.57536332029849 -135.44167609733995 0 -135.44167609733995 -146.71537072912906 0 0 0 0 -127.97412399687579 52.443430546362322 0 52.443430546362322 23.431006158383454 0 0 0 0 -1099.6295809333642 282.56633483416954 0 282.56633483416954 -993.7366648849129 0 0 0 0 -1004.4780770182988 22.689155270723859 0 22.689155270723859 239.92486977397493 0 0 0 0 -1323.9915994908588 427.92333214166865 0 427.92333214166865 -617.74880319723161 0 0 0 0 -45.23726389966032 422.41541431567748 0 422.41541431567748 -584.1174987317936 0 0 0 0 1547.070070026617 1477.0368625497358 0 1477.0368625497358 1875.7775869006873 0 0 0 0 1548.8047619704448 1148.5171668461116 0 1148.5171668461116 -1809.7557409943402 0 0 0 0 -8.7092673231080084 28.468329739218575 0 28.468329739218575 -5.8619984031912082 0 0 0 0 316.08860740903765 1757.1594598081138 0 1757.1594598081138 475.67868174075556 0 0 0 0 212.39326210448053 1134.3752222852345 0 1134.3752222852345 760.91291235381505 0 0 0 0 -471.17088312640158 1096.4185947305314 0 1096.4185947305314 -45.885705620865338 0 0 0 0 -106.70142378811579 316.80095925185378 0 316.80095925185378 -466.79303304082714 0 0 0 0 145.22561962447071 792.1096606885767 0 792.1096606885767 21.765347849373939 0 0 0 0 -1613.7484274715298 121.99327769960291 0 121.99327769960291 -531.81934862001799 0 0 0 0 -930.22163041944441 147.76426346182416 0 147.76426346182416 -588.35307426512009 0 0 0 0 -46.865546556758936 86.628009613219746 0 86.628009613219746 -57.086257507681808 0 0 0 0 -35.680721763079973 128.54925834825917 0 128.54925834825917 -37.556266870397309 0 0 0 0 -48.903525560104754 132.75459283810051 0 132.75459283810051 -20.480199053272372 0 0 0 0 -28.909906437167592 93.899856198615453 0 93.899856198615453 -113.71599263965618 0 0 0 0 -49.725290281600586 54.271351963654837 0 54.271351963654837 6.8401570194835131 0 0 0 0 -92.620737843163255 96.039177653716948 0 96.039177653716948 79.975251351044733 0 0 0 0 99.629642926069209 -79.668621199190966 0 -79.668621199190966 105.12110655149445 0 0 0 0 -28.275498832211824 -0.62087415501946452 0 -0.62087415501946452 22.967807673239577 0 0 0 0 -104.47149228167109 23.117342338693561 0 23.117342338693561 -136.23338477103971 0 0 0 0 -34.81671642348374 41.900512602675008 0 41.900512602675008 29.421430329675786 0 0 0 0 -86.713467592243887 51.935850531213049 0 51.935850531213049 47.451464294998857 0 0 0 0 -135.87546706497491 108.13214824335125 0 108.13214824335125 52.920056114939996 0 0 0 0 -75.864262983694061 110.77506741599063 0 110.77506741599063 117.43613616272341 0 0 0 0 -66.244828203893121 113.47823536681244 0 113.47823536681244 101.26975210165256 0 0 0 0 -12.703061932849224 30.361065631716713 0 30.361065631716713 -1.3801062472838339 0 0 0 0 168.72155080373341 260.30157195903303 0 260.30157195903303 -20.937748104704951 0 0 0 0 165.13487042003544 143.51774213416502 0 143.51774213416502 -158.90068674499344 0 0 0 0 9.053191576835431 24.056443283234444 0 24.056443283234444 -0.45039426901612956 0 0 0 0 -56.949253271028283 14.144332569267135 0 14.144332569267135 4.6329536068369634 0 0 0 0 9.4148818126045626 12.162054341670228 0 12.162054341670228 -200.87420215050224 0 0 0 0 -21.516035974578699 223.67014697565173 0 223.67014697565173 -2.1354124877834693 0 0 0 0 151.33011777164938 113.75432295087376 0 113.75432295087376 67.623297414873377 0 0 0 0 -79.771491495721648 116.82493270841223 0 116.82493270841223 106.10727295724791 0 0 0 0 -56.36418280979926 49.586073979096028 0 49.586073979096028 -25.094029854604344 0 0 0 0 186.16309614436386 105.15255388274909 0 105.15255388274909 -93.939538674545474 0 0 0 0 -52.620160087764816 103.53346346720355 0 103.53346346720355 -13.265982625453034 0 0 0 0 -32.445648695409545 64.938331176410429 0 64.938331176410429 30.97283438721206 0 0 0 0 -48.53351745756845 140.41545365431375 0 140.41545365431375 -2.7511628578649834 0 0 0 0 -54.706343517378983 61.849416243509559 0 61.849416243509559 -21.623309116768269 0 0 0 0 -13.463325979588262 165.05871924776875 0 165.05871924776875 -21.505287631589454 0 0 0 0 -61.334093191944703 156.65744992083637 0 156.65744992083637 -22.867792583168921 0 0 0 0 3.250414938222093 150.55418787922827 0 150.55418787922827 -62.0856763766933 0 0 0 0 -51.980761685234029 209.83118814742193 0 209.83118814742193 -73.188670305506093 0 0 0 0 -43.630341939642676 114.10987108782865 0 114.10987108782865 60.723008895208295 0 0 0 0 -31.892818887754402 129.38651180227316 0 129.38651180227316 80.58387665823102 0 0 0 0 -272.58208139543422 224.62738759230706 0 224.62738759230706 58.002265744842589 0 0 0 0 -120.04502111639886 -10.693954725604272 0 -10.693954725604272 151.07664086407021 0 0 0 0 -76.023517224646639 151.71548798192816 0 151.71548798192816 36.656374066486023 0 0 0 0 -37.751015619382088 110.70712570409523 0 110.70712570409523 7.6614007754251361 0 0 0 0 -385.20886164870171 122.23958739659429 0 122.23958739659429 20.448000955353564 0 0 0 0 -49.361430186118085 101.74774288308302 0 101.74774288308302 -1.5121130138510352 0 0 0 0 137.62662851337154 53.589027965514106 0 53.589027965514106 28.235303720430238 0 0 0 0 -615.72297520668144 187.54256591420562 0 187.54256591420562 -125.33896731291316 0 0 0 0 17.070132543005457 122.2535809191686 0 122.2535809191686 -33.954755100217881 0 0 0 0 -17.419186772052726 24.527092095621271 0 24.527092095621271 -10.057855880794932 0 0 0 0 51.667032885146909 122.27474706426437 0 122.27474706426437 -125.3158678652544 0 0 0 0 -20.177379873361645 47.967439958842789 0 47.967439958842789 -10.694645619547146 0 0 0 0 18.962497955968715 61.994044930055907 0 61.994044930055907 27.089272649481387 0 0 0 0 -12.137291290702706 154.5590885252459 0 154.5590885252459 48.183806155175262 0 0 0 0 66.057762078300584 10.75132429448422 0 10.75132429448422 -337.47019314131467 0 0 0 0 -34.19116260240844 77.797418552552699 0 77.797418552552699 121.37573213657015 0 0 0 0 -103.53327936559799 170.37410890276078 0 170.37410890276078 -44.95847257936839 0 0 0 0 34.159470935854934 79.290789383820993 0 79.290789383820993 20.061185557776398 0 0 0 0 54.802008406055393 83.906040273897815 0 83.906040273897815 -80.172251929296181 0 0 0 0 71.470122373662889 175.70807062697713 0 175.70807062697713 41.360900988511276 0 0 0 0 66.930847583906143 195.29664936920744 0 195.29664936920744 7.2686580219160533 0 0 0 0 -93.695444714420887 98.864243743348027 0 98.864243743348027 21.644893048943402 0 0 0 0 57.721758673481872 78.316032742888638 0 78.316032742888638 38.4830434290634 0 0 0 0 180.34639815548144 93.889368871285114 0 93.889368871285114 37.004168604878942 0 0 0 0 9.0467948323894234 113.91955739496916 0 113.91955739496916 12.440776970659499 0 0 0 0 -0.15626535698176269 0.19525176707508507 0 0.19525176707508507 -6.7711509617558931 0 0 0 0 271.20134328681888 143.97334022987343 0 143.97334022987343 -21.357701717410237 0 0 0 0 240.79456432045845 105.06204111698025 0 105.06204111698025 23.549487897980725 0 0 0 0 182.07744267897215 130.67546169381239 0 130.67546169381239 62.34491661676293 0 0 0 0 207.10164909227024 138.10123374550312 0 138.10123374550312 25.510781126271468 0 0 0 0 236.85751554002491 206.97243761978461 0 206.97243761978461 24.606542170819012 0 0 0 0 -794.24398477487557 538.09263673027453 0 538.09263673027453 105.93954372822191 0 0 0 0 -22.525403258707655 17.451493777088331 0 17.451493777088331 13.239898202206689 0 0 0 0 62.290366045272094 173.89842029883584 0 173.89842029883584 92.514637302956544 0 0 0 0 215.85877459086623 205.87968583023758 0 205.87968583023758 33.081311310786987 0 0 0 0 102.69673642714042 225.73494158440735 0 225.73494158440735 121.24643838731572 0 0 0 0 101.06005466867646 118.10837579407962 0 118.10837579407962 65.196806252584793 0 0 0 0 151.6874467744783 195.51466837900807 0 195.51466837900807 96.134615525203117 0 0 0 0 -256.11770429267926 389.63851443742169 0 389.63851443742169 16.709364361190637 0 0 0 0 279.76601322240458 469.52924684848404 0 469.52924684848404 18.733661071804818 0 0 0 0 -479.41756826736673 193.6362790086423 0 193.6362790086423 -144.28622744273162 0 0 0 0 78.553563535871945 116.41491673675773 0 116.41491673675773 -59.596667497797171 0 0 0 0 -5.6506211483082751 -0.75368157192133367 0 -0.75368157192133367 2.2099607517253617 0 0 0 0 98.493414369632873 75.332510241418703 0 75.332510241418703 25.34206314186639 0 0 0 0 -201.44304353953339 336.52186895169143 0 336.52186895169143 62.592706794035621 0 0 0 0 -487.99538895906153 21.138471093487169 0 21.138471093487169 79.578934022516478 0 0 0 0 -268.8265707100436 -74.209468454107991 0 -74.209468454107991 3.5395829490444157 0 0 0 0 -57.852488420463487 227.20080152896844 0 227.20080152896844 19.506077078985982 0 0 0 0 -166.80075405647221 34.710741690272698 0 34.710741690272698 79.686774902599154 0 0 0 0 -174.72647604290341 -15.147351456176693 0 -15.147351456176693 46.250227320357226 0 0 0 0 -75.765798861742951 -16.254598082683515 0 -16.254598082683515 46.251701792307699 0 0 0 0 -133.41195747746679 37.183564548729919 0 37.183564548729919 30.903263801592402 0 0 0 0 -148.8106660440053 36.710160375769192 0 36.710160375769192 55.252342611434869 0 0 0 0 27.479125112668044 45.114790568120952 0 45.114790568120952 32.316086921899114 0 0 0 0 62.786452094223932 -3.5459204398648581 0 -3.5459204398648581 -20.779372446238995 0 0 0 0 -34.036911340444931 6.4713309368235059 0 6.4713309368235059 6.4359140327433124 0 0 0 0 -59.298743186336651 -66.484927301469725 0 -66.484927301469725 2.9226883622468449 0 0 0 0 40.8454757868667 15.093504877662781 0 15.093504877662781 675.23527546063997 0 0 0 0 431.84707872746003 284.36560168865981 0 284.36560168865981 -607.48809188147425 0 0 0 0 237.17712135199508 284.17202503887529 0 284.17202503887529 -27.596452475845581 0 0 0 0 51.364222109306866 93.915203913929872 0 93.915203913929872 -83.686778928647982 0 0 0 0 80.715715347622407 40.702757680350913 0 40.702757680350913 22.257506936959317 0 0 0 0 53.93919886729509 101.96943859996099 0 101.96943859996099 -67.610940452083014 0 0 0 0 406.5363733036429 507.55985374597367 0 507.55985374597367 -614.10631311449379 0 0 0 0 66.996986046699021 97.36403314054769 0 97.36403314054769 -52.566257495403988 0 0 0 0 53.270822596251037 102.2649210736854 0 102.2649210736854 -42.1315381564782 0 0 0 0 54.046798298483736 77.558232284995029 0 77.558232284995029 -46.288458582046587 0 0 0 0 65.846220576382166 93.960683055236586 0 93.960683055236586 -23.519550313125364 0 0 0 0 48.725219132468737 84.096100779745029 0 84.096100779745029 -43.038136617687996 0 0 0 0 41.815691198132299 76.612155949143926 0 76.612155949143926 -69.465001805219799 0 0 0 0 40.468905110138621 73.899070935443888 0 73.899070935443888 -54.808861443598289 0 0 0 0 258.75643338455848 202.43815070631535 0 202.43815070631535 -136.52311170141911 0 0 0 0 -1872.853254501646 69.350162789647584 0 69.350162789647584 157.97184323173133 0 0 0 0 247.54785382434056 188.36646277866384 0 188.36646277866384 -14.727543044376944 0 0 0 0 68.466862973496973 105.14946553909977 0 105.14946553909977 -19.184559277608059 0 0 0 0 78.959478508622851 121.08963933582709 0 121.08963933582709 -38.243779514392372 0 0 0 0 -10.827688228913306 54.498673136111009 0 54.498673136111009 -54.618003555383495 0 0 0 0 84.172088820494537 80.987806174627622 0 80.987806174627622 -26.893479720947653 0 0 0 0 97.303104719246221 100.36258788975101 0 100.36258788975101 -5.0436371937539661 0 0 0 0 -1608.232465332756 222.3535976664316 0 222.3535976664316 6.6214406407088973 0 0 0 0 -27.080453890751588 30.713108322941309 0 30.713108322941309 -38.242715730927102 0 0 0 0 79.202620700865737 66.11135020974325 0 66.11135020974325 0.058258269292309706 0 0 0 0 71.02114044856944 81.100818736596921 0 81.100818736596921 -0.048496164235984907 0 0 0 0 38.357949984221477 58.852609341854986 0 58.852609341854986 -33.189822303393157 0 0 0 0 47.410283540891214 65.872284713397676 0 65.872284713397676 -28.776111675790162 0 0 0 0 47.618255832100658 62.706388036989665 0 62.706388036989665 -10.333629011995072 0 0 0 0 28.222319487763798 65.205072446180566 0 65.205072446180566 0.052188329631462693 0 0 0 0 21.136749402368366 50.018076524833759 0 50.018076524833759 -40.550809555512387 0 0 0 0 21.222707118422022 51.389343945906148 0 51.389343945906148 -21.958155428612372 0 0 0 0 34.024487310428185 69.539267903452128 0 69.539267903452128 -35.759723571507493 0 0 0 0 28.419425736282847 57.995921490975888 0 57.995921490975888 -55.432151247019647 0 0 0 0 29.652159164795194 48.540571700417786 0 48.540571700417786 -83.465717271348694 0 0 0 0 24.976002400446305 59.757570316083729 0 59.757570316083729 -37.500873622928339 0 0 0 0 13.366583470745354 36.730320640759601 0 36.730320640759601 -0.21563813906686846 0 0 0 0 54.977799458830305 44.397809840371337 0 44.397809840371337 -67.758653781507746 0 0 0 0 84.437984151595629 -1.9913066187109507 0 -1.9913066187109507 0.73118937159597408 0 0 0 0 18.312450296372845 84.762512326604337 0 84.762512326604337 -86.602889085355855 0 0 0 0 194.46669409623792 86.731576890539145 0 86.731576890539145 -334.49254299487802 0 0 0 0 362.45501309079373 143.20323075955821 0 143.20323075955821 -386.02294081496075 0 0 0 0 34.490468709552403 18.226855843518081 0 18.226855843518081 9.2033096205813081 0 0 0 0 237.42139893847252 -121.61421056493054 0 -121.61421056493054 -96.804444267821964 0 0 0 0 525.3016931341599 89.696346932687447 0 89.696346932687447 -593.76188914649538 0 0 0 0 485.84344478302228 139.08479857715793 0 139.08479857715793 -354.59408728481503 0 0 0 0 269.27837546629235 -30.83201643259963 0 -30.83201643259963 -210.14023130293208 0 0 0 0 342.7253042871198 127.5230515752628 0 127.5230515752628 -561.56863025553321 0 0 0 0 -1179.3741956567251 -190.96648007339809 0 -190.96648007339809 28.433958751149476 0 0 0 0 -10.709874014149491 8.8070819294791534 0 8.8070819294791534 -7.4376590006564243 0 0 0 0 276.45262964170252 562.28251019309391 0 562.28251019309391 -386.04702343619391 0 0 0 0 256.28147564527171 488.44907343221712 0 488.44907343221712 -381.82256386252993 0 0 0 0 -1564.2025598721084 2333.0550889067235 0 2333.0550889067235 408.6480143830413 0 0 0 0 31.073905329072659 82.53562664418132 0 82.53562664418132 -64.699813458515564 0 0 0 0 23.330955715182427 81.941946856131835 0 81.941946856131835 -63.60329975708737 0 0 0 0 29.821314082963454 73.326226712903008 0 73.326226712903008 -68.94866698019905 0 0 0 0 109.59807112620911 426.69622565919417 0 426.69622565919417 -644.6687055712282 0 0 0 0 50.971936563267803 29.143249573763171 0 29.143249573763171 15.098043613537243 0 0 0 0 36.079027568938727 85.483657082077116 0 85.483657082077116 -86.208632547699381 0 0 0 0 -1616.6111867130676 -238.08708176357322 0 -238.08708176357322 -822.60146944879671 0 0 0 0 -263.45656936351588 674.68610624178837 0 674.68610624178837 -414.041063461249 0 0 0 0 -292.98575208988404 653.67678816515399 0 653.67678816515399 0.70838154581724666 0 0 0 0 316.71291498362189 352.03378176754632 0 352.03378176754632 16.161744455806911 0 0 0 0 -352.8265460503917 694.52428110901747 0 694.52428110901747 124.75141959177563 0 0 0 0 789.71827520111037 769.38103048015182 0 769.38103048015182 -491.91348875273252 0 0 0 0 2320.3338007335697 859.44098335820308 0 859.44098335820308 -39.407442695301143 0 0 0 0 321.013877290854 204.57716202459414 0 204.57716202459414 -228.66952516714809 0 0 0 0 224.8745189123556 245.01953064642294 0 245.01953064642294 764.46854781440925 0 0 0 0 1881.9417772299748 84.330515204899712 0 84.330515204899712 -0.56612916683208736 0 0 0 0 1098.0982253511611 847.73266496472206 0 847.73266496472206 157.85613661375828 0 0 0 0 11.466297827379819 7.0275790007044634 0 7.0275790007044634 4.8948046998968948 0 0 0 0 1236.1587866677073 -851.39882599559496 0 -851.39882599559496 239.89739317157364 0 0 0 0 651.09768851078115 140.29360420603916 0 140.29360420603916 -577.93009510186675 0 0 0 0 1046.2706483143702 -188.31061287477496 0 -188.31061287477496 -486.93304538118537 0 0 0 0 1032.0346887586813 560.10742297027775 0 560.10742297027775 -747.93323746797978 0 0 0 0 40.286194462132698 424.44275222306896 0 424.44275222306896 -501.74147402042581 0 0 0 0 121.41373454427594 1240.7421494632654 0 1240.7421494632654 -1295.8797669934793 0 0 0 0 -354.05941415303823 479.28826202834898 0 479.28826202834898 -562.02267407329055 0 0 0 0 -9.6981747487754717 4.6954214469399176 0 4.6954214469399176 -1.0947925280589459 0 0 0 0 300.52549839760468 763.32213223585859 0 763.32213223585859 -2551.9009734122519 0 0 0 0 -450.46680509714497 567.91151314567833 0 567.91151314567833 -1019.1113935783214 0 0 0 0 -327.59480613352571 765.6067316798144 0 765.6067316798144 -429.11283325956902 0 0 0 0 60.385739631496108 771.08637471987458 0 771.08637471987458 -1067.5758444305684 0 0 0 0 472.0248760542745 379.74964908995025 0 379.74964908995025 192.80637595248118 0 0 0 0 490.61634071412482 255.08728822456033 0 255.08728822456033 77.338855683556176 0 0 0 0 98.647592753636104 162.93878722340196 0 162.93878722340196 330.24946201420971 0 0 0 0 29.524378805686865 9.6587387702966225 0 9.6587387702966225 224.16622503218241 0 0 0 0 -14.749420850122988 17.001488615038397 0 17.001488615038397 299.94107772503048 0 0 0 0 116.73677584660982 584.33489242717042 0 584.33489242717042 575.02470739155979 0 0 0 0 59.773894569037111 234.23392710403823 0 234.23392710403823 927.50782048949623 0 0 0 0 357.39832871255203 523.21909170708386 0 523.21909170708386 419.18414349405793 0 0 0 0 375.84961599438157 482.32751056565758 0 482.32751056565758 455.10702119732741 0 0 0 0 503.33213383032853 362.46955770126078 0 362.46955770126078 -645.61215774279117 0 0 0 0 150.96561189870408 510.34868797642412 0 510.34868797642412 401.60167871057638 0 0 0 0 146.15988456969353 478.71751643702737 0 478.71751643702737 356.85738743440015 0 0 0 0 -23.113302435192963 759.98947340730228 0 759.98947340730228 412.34772590865032 0 0 0 0 198.17903787963587 838.5896243579482 0 838.5896243579482 -166.17742507407092 0 0 0 0 244.19361815756565 465.33349058519525 0 465.33349058519525 152.24102750897873 0 0 0 0 53.77425136121019 490.83367498544976 0 490.83367498544976 447.68166893857415 0 0 0 0 137.9655355237046 592.56595931082848 0 592.56595931082848 335.49729114491493 0 0 0 0 377.22052821035322 505.74665600733715 0 505.74665600733715 305.38822733459529 0 0 0 0 315.77563988515612 533.23357057527755 0 533.23357057527755 352.44405427371385 0 0 0 0 176.91416404771735 504.41869081230834 0 504.41869081230834 364.94797144251061 0 0 0 0 362.0192393893667 439.76462372211972 0 439.76462372211972 367.78583871177398 0 0 0 0 143.02454138049507 436.8028529669391 0 436.8028529669391 468.5222401265637 0 0 0 0 95.616540371360315 477.87396734909271 0 477.87396734909271 433.46257026506646 0 0 0 0 186.30526604058105 351.86731616168981 0 351.86731616168981 357.7478661215282 0 0 0 0 93.656159079386271 351.56193798880849 0 351.56193798880849 446.0942131569027 0 0 0 0 107.31447630983166 366.78923734680575 0 366.78923734680575 445.9665787917329 0 0 0 0 242.495134343073 362.5783362724469 0 362.5783362724469 326.79040456545772 0 0 0 0 231.86502320023283 412.34397486975649 0 412.34397486975649 362.55077054107096 0 0 0 0 387.0104187328252 409.92908867631922 0 409.92908867631922 325.78986165695824 0 0 0 0 373.31690631809761 385.98488935717614 0 385.98488935717614 326.11500971129863 0 0 0 0 -43.509683378700288 38.237020268416444 0 38.237020268416444 -16.437223124075331 0 0 0 0 23.417470011750993 80.730987646267749 0 80.730987646267749 38.030007482040673 0 0 0 0 99.767426159647584 229.32633624240407 0 229.32633624240407 383.68476353400911 0 0 0 0 122.96826797627909 137.39245458905498 0 137.39245458905498 -69.651979825503076 0 0 0 0 -21.51289034581955 38.249502775219412 0 38.249502775219412 -32.292335230451386 0 0 0 0 187.03241695367115 81.451013399502699 0 81.451013399502699 -136.19557255494874 0 0 0 0 157.77612107631251 152.22991432121125 0 152.22991432121125 -98.841377774515422 0 0 0 0 52.382670443885218 58.089331199866137 0 58.089331199866137 -115.33431319959345 0 0 0 0 41.973084662611654 234.02212573992438 0 234.02212573992438 490.08529555649875 0 0 0 0 67.448060137368884 270.40487613211008 0 270.40487613211008 510.33989941887558 0 0 0 0 27.884296646610892 246.12838188838214 0 246.12838188838214 583.48318640812067 0 0 0 0 57.855184941072366 350.29425524995895 0 350.29425524995895 540.79111622569326 0 0 0 0 63.341118760890822 358.36979616899043 0 358.36979616899043 551.88274589972571 0 0 0 0 89.225957133199699 502.68417028809199 0 502.68417028809199 589.25176720606396 0 0 0 0 -0.36476120169390924 351.30305357456382 0 351.30305357456382 823.40971905065817 0 0 0 0 213.62923651373058 639.34447888752766 0 639.34447888752766 653.25318926075124 0 0 0 0 29.686432163373965 23.385170464347652 0 23.385170464347652 -12.048059550294965 0 0 0 0 13.776351312449265 492.69059977452434 0 492.69059977452434 2246.7618855031906 0 0 0 0 6.7568655475915875 209.53522811272705 0 209.53522811272705 633.0112059157691 0 0 0 0 851.67013207839773 47.981548481358914 0 47.981548481358914 -345.02826606603048 0 0 0 0 1145.7843953163219 1034.3630184852082 0 1034.3630184852082 478.27043826892623 0 0 0 0 13.937289470986954 2.5744791272682903 0 2.5744791272682903 1.5607321572204 0 0 0 0 1336.432626544949 916.06659310424584 0 916.06659310424584 491.40238600439625 0 0 0 0 922.01412456422258 1237.0628378923284 0 1237.0628378923284 1008.3507936085225 0 0 0 0 552.70499820642726 808.78862770857813 0 808.78862770857813 834.46670116158202 0 0 0 0 811.33100306660526 372.42846965747594 0 372.42846965747594 87.918225655215792 0 0 0 0 225.6675467659843 471.586890552353 0 471.586890552353 696.1660495850083 0 0 0 0 92.311578306420415 508.57700235088123 0 508.57700235088123 946.7724427336434 0 0 0 0 250.23980026625213 175.0675702575827 0 175.0675702575827 230.32311754138209 0 0 0 0 136.46551451869163 119.05026227413327 0 119.05026227413327 830.85947441746248 0 0 0 0 277.79063705366571 299.10906310976134 0 299.10906310976134 1459.0610947289242 0 0 0 0 12.688753898605 7.4050413172641072 0 7.4050413172641072 0.085147569367663323 0 0 0 0 -9.5645446073418157 -0.20540949234953132 0 -0.20540949234953132 6.676768744119272 0 0 0 0 -72.070494526655239 555.58726525280508 0 555.58726525280508 846.48102043900872 0 0 0 0 0.37849915342570739 0.49295442123121802 0 0.49295442123121802 -0.77501071714280556 0 0 0 0 273.01510407782916 425.33826128955116 0 425.33826128955116 530.16633272456238 0 0 0 0 473.13509809792959 359.88609422494483 0 359.88609422494483 390.34561771928566 0 0 0 0 112.33757843346393 52.288266839299467 0 52.288266839299467 290.54107486399153 0 0 0 0 -86.197494469517551 437.60846552459407 0 437.60846552459407 574.28004938480444 0 0 0 0 108.68955709177681 401.4031772686867 0 401.4031772686867 -23.706525119632715 0 0 0 0 134.16947484527554 514.60689131943218 0 514.60689131943218 -352.17396327199822 0 0 0 0 92.550342482049018 612.08852985291742 0 612.08852985291742 -385.92560213059784 0 0 0 0 -252.54354022994085 90.179358129957109 0 90.179358129957109 328.73059165824088 0 0 0 0 -386.4316150698296 -146.05669658787883 0 -146.05669658787883 -223.66519186762162 0 0 0 0 179.77547386976221 245.60350848118833 0 245.60350848118833 -125.75653531505668 0 0 0 0 -30.181102303882511 27.513276540275228 0 27.513276540275228 -23.666707598060952 0 0 0 0 502.11027232384004 390.59978177897574 0 390.59978177897574 29.623486925804173 0 0 0 0 440.12744674468922 351.91799156198977 0 351.91799156198977 55.142689065418381 0 0 0 0 234.16548175837215 483.84184369642935 0 483.84184369642935 464.6824689952191 0 0 0 0 -179.00333584736472 -296.63325197852646 0 -296.63325197852646 184.33031562811811 0 0 0 0 250.24505653154119 136.31844303027901 0 136.31844303027901 8.9096198817787808 0 0 0 0 -5.2689947351098425 -1.1539520538597969 0 -1.1539520538597969 2.2987503780289273 0 0 0 0 -101.38872694274369 456.59849132051932 0 456.59849132051932 822.21577499186969 0 0 0 0 -52.751283424425992 47.949934613174094 0 47.949934613174094 -38.114822673222818 0 0 0 0 -28.251450470450436 305.43262242869241 0 305.43262242869241 97.739465027058031 0 0 0 0 293.8554897904778 617.13007988694153 0 617.13007988694153 363.67160318882088 0 0 0 0 42.758903501506211 -10.863141164416447 0 -10.863141164416447 -76.15669075169717 0 0 0 0 -186.35099041182002 49.64846108754864 0 49.64846108754864 -58.436255562919541 0 0 0 0 5.5133502398712153 74.676424280725769 0 74.676424280725769 -88.100885133608244 0 0 0 0 0.8703475312631781 54.712650499481242 0 54.712650499481242 -147.9194800578116 0 0 0 0 -138.3019329617498 302.03102831643264 0 302.03102831643264 -349.70035579902469 0 0 0 0 77.580429836260009 -118.56733583975438 0 -118.56733583975438 -924.34883116206038 0 0 0 0 186.32744747735342 78.107884176191874 0 78.107884176191874 -272.83948038802191 0 0 0 0 222.36303839233369 291.39123603924236 0 291.39123603924236 -309.91970208878047 0 0 0 0 -12.805960001966014 82.132768193405354 0 82.132768193405354 -217.81152845272663 0 0 0 0 46.510995487238688 -79.146302497887518 0 -79.146302497887518 -390.24316509472555 0 0 0 0 61.091840787121328 66.775836650718702 0 66.775836650718702 -360.15780386439292 0 0 0 0 331.41394350815244 530.9783615484339 0 530.9783615484339 816.69565354934457 0 0 0 0 -5.0508291204057798 4.2653147150782047 0 4.2653147150782047 2.1436541079970937 0 0 0 0 41.523658097474254 53.078046361362794 0 53.078046361362794 -246.19766568066552 0 0 0 0 -53.906011972867418 -48.442298251524335 0 -48.442298251524335 -241.45989973016549 0 0 0 0 -46.128580452947062 7.2645734800898936 0 7.2645734800898936 -235.93893850396853 0 0 0 0 66.785851733115123 148.4846410622913 0 148.4846410622913 -134.07113906592713 0 0 0 0 13.173075186663482 -19.047564608772518 0 -19.047564608772518 -270.37259416373854 0 0 0 0 27.809689347632229 92.048330447461922 0 92.048330447461922 -91.340696141385706 0 0 0 0 81.363364905955677 60.194794981100131 0 60.194794981100131 -231.89204283313484 0 0 0 0 18.207089554554841 74.177469361180556 0 74.177469361180556 41.906391459702718 0 0 0 0 48.919572383372724 313.54786272413912 0 313.54786272413912 94.700745188822111 0 0 0 0 -58.064628641063827 40.817615958345129 0 40.817615958345129 -20.691574271116053 0 0 0 0 -117.39623895154864 32.29316833766643 0 32.29316833766643 80.070569277559116 0 0 0 0 24.330776974754372 264.11635727243993 0 264.11635727243993 65.567479296878446 0 0 0 0 69.286980271695938 526.33740436080552 0 526.33740436080552 318.89151652468718 0 0 0 0 34.934344285544739 200.46351206992404 0 200.46351206992404 53.657341015292332 0 0 0 0 -260.47656698541141 -174.87067768622364 0 -174.87067768622364 596.86839783113101 0 0 0 0 -50.123685248874096 34.130582477601223 0 34.130582477601223 -15.012679468879298 0 0 0 0 -118.31446251243779 -6.0249824414495379 0 -6.0249824414495379 140.27204486277333 0 0 0 0 25.623437277916992 -10.753250976762502 0 -10.753250976762502 -124.0175047390785 0 0 0 0 75.408419625666625 136.3444146655238 0 136.3444146655238 -99.233213203202467 0 0 0 0 -13.674721892903108 69.884978476802644 0 69.884978476802644 -17.51539304072503 0 0 0 0 -20.43611008035441 93.431975703257194 0 93.431975703257194 52.95644252456259 0 0 0 0 -35.463272370695833 43.559865660570225 0 43.559865660570225 -16.202584642528734 0 0 0 0 -27.577557704995364 44.719520788066006 0 44.719520788066006 -25.374537730339 0 0 0 0 14.471107334131375 122.11530320066595 0 122.11530320066595 -44.682805735355942 0 0 0 0 31.359526819262101 46.378007142149727 0 46.378007142149727 -13.100971619365737 0 0 0 0 -26.115660024089479 45.227840994765273 0 45.227840994765273 5.7453128843798993 0 0 0 0 -10.848323442252877 37.874869421037147 0 37.874869421037147 33.920976574016095 0 0 0 0 -6.1478377766852645 57.477484992268728 0 57.477484992268728 -62.661335452750791 0 0 0 0 -46.296194384729461 63.387640850953176 0 63.387640850953176 -16.435622044831689 0 0 0 0 -20.595964718964918 43.517851504891688 0 43.517851504891688 49.916759466631248 0 0 0 0 2.7364272983967339 10.048263675659797 0 10.048263675659797 -4.4976882164139127 0 0 0 0 -26.467137998389262 39.885484117468181 0 39.885484117468181 -35.980365204971349 0 0 0 0 -20.346824917236518 151.68951336301689 0 151.68951336301689 146.93194681972454 0 0 0 0 54.472534948388784 66.969599054813443 0 66.969599054813443 -96.669228749684407 0 0 0 0 -11.782185501469939 46.435190092030098 0 46.435190092030098 -15.025610925971705 0 0 0 0 -38.007595486852324 49.711745020511444 0 49.711745020511444 -29.962721774959391 0 0 0 0 -10.94971091462412 210.70669872827057 0 210.70669872827057 -84.554635405249428 0 0 0 0 13.886393818253552 12.680126426766691 0 12.680126426766691 -17.286688656613336 0 0 0 0 47.877388366207015 201.33825483426335 0 201.33825483426335 -174.58490220191015 0 0 0 0 40.764199702131009 143.08805099647725 0 143.08805099647725 -63.720602124521974 0 0 0 0 53.503577001270969 170.28653883702646 0 170.28653883702646 -23.21763415512396 0 0 0 0 46.420817472230738 85.62906622052833 0 85.62906622052833 5.5494854586431757 0 0 0 0 52.999799717777933 90.547683207783848 0 90.547683207783848 -129.74845586024458 0 0 0 0 58.38329256844554 30.248866090114461 0 30.248866090114461 -19.418191211356316 0 0 0 0 -12.506175414222525 92.528106333251344 0 92.528106333251344 76.556411357101751 0 0 0 0 -20.894783084313531 133.14192908344558 0 133.14192908344558 60.820984735299135 0 0 0 0 -19.957994587824921 67.973935693457264 0 67.973935693457264 -31.195916670002418 0 0 0 0 -8.9555613913034904 110.1919906566909 0 110.1919906566909 23.975350064225495 0 0 0 0 -30.162618797065534 67.617868182984239 0 67.617868182984239 -3.9810170995187946 0 0 0 0 -7.3106062346041654 82.642461093935708 0 82.642461093935708 -40.778151313279523 0 0 0 0 -1.6900200800556746 43.069628332388618 0 43.069628332388618 -25.717713899316067 0 0 0 0 -85.96092000903127 130.88682273391169 0 130.88682273391169 7.5524630276777316 0 0 0 0 -8.3240669231963693 -102.96154128655326 0 -102.96154128655326 -66.982406759168953 0 0 0 0 -46.846021652666181 29.981238256221957 0 29.981238256221957 -6.1049607536200483 0 0 0 0 -9.5321729544293206 32.251124646261076 0 32.251124646261076 -32.290780457895835 0 0 0 0 102.52340405413997 118.31085349657587 0 118.31085349657587 -48.141655916784657 0 0 0 0 -30.055442805929033 94.925054968101904 0 94.925054968101904 8.3124336083274102 0 0 0 0 251.54923725333356 156.32772043687874 0 156.32772043687874 -52.833710543083725 0 0 0 0 60.535562237172144 210.30568235576538 0 210.30568235576538 171.04701704723993 0 0 0 0 -29.903739619302087 249.75276601672158 0 249.75276601672158 -27.911717909621075 0 0 0 0 -6.3587376525574655 103.0630904018326 0 103.0630904018326 -88.008538313908502 0 0 0 0 -15.585545931447996 211.2747962413705 0 211.2747962413705 44.030034770083148 0 0 0 0 38.414779749487934 210.76919904524402 0 210.76919904524402 -51.600837863690685 0 0 0 0 78.100896647025365 319.35367238258186 0 319.35367238258186 159.71692904681549 0 0 0 0 34.699484419594228 222.1341443536221 0 222.1341443536221 37.483545227587456 0 0 0 0 2.8410605814897281 214.61243957381521 0 214.61243957381521 243.36567835748428 0 0 0 0 85.992537005713302 347.87117466818927 0 347.87117466818927 421.15819227549946 0 0 0 0 118.96992352586676 194.6713083044142 0 194.6713083044142 173.84858189121587 0 0 0 0 171.3405661707402 447.68097507774655 0 447.68097507774655 635.31681288150139 0 0 0 0 84.4851766475349 -34.140682335069869 0 -34.140682335069869 728.68073038516013 0 0 0 0 200.76067440551924 27.78986115277803 0 27.78986115277803 338.0506375739933 0 0 0 0 314.53159443528057 160.3831474952749 0 160.3831474952749 -136.57181867045983 0 0 0 0 91.049697335995006 -63.220134274684824 0 -63.220134274684824 -129.79625389631838 0 0 0 0 580.66885874585205 695.3308319398202 0 695.3308319398202 349.91640614061907 0 0 0 0 -151.6542041522589 128.1064050979694 0 128.1064050979694 1175.2900318816464 0 0 0 0 11.331720118790322 -1.3968485867398215 0 -1.3968485867398215 0.56735103266646547 0 0 0 0 123.01189476998252 50.822677994096011 0 50.822677994096011 -147.05854367572465 0 0 0 0 442.90941003837906 345.71978672118712 0 345.71978672118712 -135.05648810672574 0 0 0 0 -41.535134214107529 187.51497890340397 0 187.51497890340397 -125.95334955843282 0 0 0 0 -111.0359240786338 63.090250844034017 0 63.090250844034017 -138.53502749202016 0 0 0 0 -14.670193093070338 5.5556502330582589 0 5.5556502330582589 -137.59923837243696 0 0 0 0 -15.527755199500461 18.372836010559695 0 18.372836010559695 -101.48979696743481 0 0 0 0 46.944578861464151 85.125210264006455 0 85.125210264006455 -44.778559703190695 0 0 0 0 -344.65207420587831 22.627870160824386 0 22.627870160824386 169.70714377704394 0 0 0 0 24.824102588080198 15.109377444691887 0 15.109377444691887 -9.0407985277245473 0 0 0 0 31.784841206505007 236.74592904318706 0 236.74592904318706 171.41913536286938 0 0 0 0 -22.777575756153965 85.780337726231664 0 85.780337726231664 70.155468002863927 0 0 0 0 2.4137733290258154 6.5188087344734811 0 6.5188087344734811 -3.2758629647622968 0 0 0 0 -0.94080877297892584 80.433156185041298 0 80.433156185041298 22.376763320527971 0 0 0 0 171.06556687853936 7.5891869666811544 0 7.5891869666811544 -120.32999301854579 0 0 0 0 -30.230112390582988 40.986688920606355 0 40.986688920606355 -19.10528216441071 0 0 0 0 -16.413527654184108 86.737207857936653 0 86.737207857936653 -68.812511144464338 0 0 0 0 -38.162688948600589 44.894589921991013 0 44.894589921991013 -30.338609629085113 0 0 0 0 -53.21771167109091 106.11566469362151 0 106.11566469362151 182.76814822436427 0 0 0 0 51.208911242617432 123.89772918638482 0 123.89772918638482 181.46577212291595 0 0 0 0 -18.109599771094508 161.12828607358097 0 161.12828607358097 164.32793409662554 0 0 0 0 -20.308104553192607 163.85391266681836 0 163.85391266681836 194.11851479497273 0 0 0 0 -84.756450988301367 200.38497424885281 0 200.38497424885281 225.09843017336152 0 0 0 0 -24.47815540085503 223.79942590903374 0 223.79942590903374 224.69323204740112 0 0 0 0 18.348306156187391 252.33182201847376 0 252.33182201847376 206.46929182225722 0 0 0 0 -140.88488105040051 167.54192265959864 0 167.54192265959864 324.25910566726816 0 0 0 0 -44.42280771841979 264.10368732595816 0 264.10368732595816 323.95342331327265 0 0 0 0 -56.008844429359669 172.86739947798196 0 172.86739947798196 232.7263860500243 0 0 0 0 -130.9575061299256 116.16762384139292 0 116.16762384139292 256.97051788854878 0 0 0 0 146.67406934710016 -15.395443391971639 0 -15.395443391971639 47.174386132530344 0 0 0 0 375.96007004169223 372.85238152745296 0 372.85238152745296 118.27431737631559 0 0 0 0 -12.843042364736903 153.28102967164887 0 153.28102967164887 -84.800007651479973 0 0 0 0 -37.545214962425234 118.76908302168886 0 118.76908302168886 138.30329257299309 0 0 0 0 41.496827318387659 108.33744857235433 0 108.33744857235433 -3.4544103393855039 0 0 0 0 10.719882301906594 39.930939308070833 0 39.930939308070833 -43.094992653065361 0 0 0 0 81.690148580855748 112.84581424597127 0 112.84581424597127 35.748354239651235 0 0 0 0 -45.230904295307695 29.301829375967571 0 29.301829375967571 8.4250634661925119 0 0 0 0 54.698002734945504 178.12897980684374 0 178.12897980684374 153.02807979512727 0 0 0 0 -26.226495271275468 28.436926683282309 0 28.436926683282309 -14.767581277938177 0 0 0 0 359.6175818957272 318.94545115414076 0 318.94545115414076 135.08516195666743 0 0 0 0 345.80890097747397 378.9122184545522 0 378.9122184545522 182.69499110933975 0 0 0 0 11.461633727177883 -1.406583813394036 0 -1.406583813394036 -10.629780794547429 0 0 0 0 195.60848697597248 -66.36250962226768 0 -66.36250962226768 -254.09297458667425 0 0 0 0 -25.012374649064441 115.04830039294029 0 115.04830039294029 92.162822099286132 0 0 0 0 -0.85345054806384724 74.802161829342367 0 74.802161829342367 31.814401389856357 0 0 0 0 -18.715256994287586 55.090908696453596 0 55.090908696453596 -17.884971552855518 0 0 0 0 44.632335304762819 110.15611244700267 0 110.15611244700267 13.33796646384144 0 0 0 0 30.36464360281073 91.041601201364301 0 91.041601201364301 7.4870283653096976 0 0 0 0 28.814473346843442 149.91767685997183 0 149.91767685997183 63.655515170321451 0 0 0 0 -30.606712589213966 61.973838834702519 0 61.973838834702519 26.485868787313393 0 0 0 0 56.593048031607395 176.05947231339815 0 176.05947231339815 110.07086903299569 0 0 0 0 69.084644479079543 150.58668951151776 0 150.58668951151776 145.05013086490726 0 0 0 0 79.583367676465059 196.57442999444902 0 196.57442999444902 115.4367252883676 0 0 0 0 47.731185190256838 176.94404203533486 0 176.94404203533486 112.5172605678963 0 0 0 0 25.869988060605465 159.13765761468676 0 159.13765761468676 117.09249654522864 0 0 0 0 38.507849392844946 170.82584244137979 0 170.82584244137979 85.116379293453065 0 0 0 0 21.983474263368407 233.44753979112284 0 233.44753979112284 191.83264751067327 0 0 0 0 81.693602279112767 131.97078803584117 0 131.97078803584117 115.64647949355094 0 0 0 0 35.678966382736689 168.6375962276361 0 168.6375962276361 86.166439578708378 0 0 0 0 41.081539163757043 139.75648551332415 0 139.75648551332415 58.361029443272855 0 0 0 0 255.94186530276784 154.44838606650592 0 154.44838606650592 -23.251344529007838 0 0 0 0 53.281742715495056 114.31744454009458 0 114.31744454009458 210.80317260825541 0 0 0 0 37.246738408093734 145.16734930872917 0 145.16734930872917 88.186268588120583 0 0 0 0 242.30356522001603 51.908787909657804 0 51.908787909657804 -196.1932373719028 0 0 0 0 252.65540329818759 97.060133660845167 0 97.060133660845167 -16.898466112834285 0 0 0 0 246.09105442628788 170.6453808498045 0 170.6453808498045 153.62558776194055 0 0 0 0 275.71195321949926 343.37617716451496 0 343.37617716451496 -334.18480678285414 0 0 0 0 11.609587974773603 689.87970082665561 0 689.87970082665561 9.3664614053705009 0 0 0 0 12.545583036808239 214.58493063482456 0 214.58493063482456 90.503617237656727 0 0 0 0 14.675390583539411 184.84625304159999 0 184.84625304159999 82.358343122294173 0 0 0 0 19.723119806958493 179.99423234582355 0 179.99423234582355 60.475847709400114 0 0 0 0 35.730423428871291 192.89308551077556 0 192.89308551077556 48.827466151036788 0 0 0 0 31.455965604014636 176.66253340232652 0 176.66253340232652 -4.0161552701611072 0 0 0 0 33.97366564551703 210.20831526332768 0 210.20831526332768 45.953554693129263 0 0 0 0 29.664364128508169 227.68022617787938 0 227.68022617787938 38.799959745680098 0 0 0 0 29.311072811992517 270.76042505698751 0 270.76042505698751 135.61248670628993 0 0 0 0 12.573430152067886 224.20335525207338 0 224.20335525207338 143.78590950951912 0 0 0 0 -5.1899305761180585 233.71637785070925 0 233.71637785070925 148.8094759148662 0 0 0 0 -8.7096884943894111 231.84750483851531 0 231.84750483851531 191.163351605559 0 0 0 0 -2.6068751671627979 201.55470875470201 0 201.55470875470201 155.30510621127905 0 0 0 0 -26.146163694438656 198.90615510196949 0 198.90615510196949 156.11944698455045 0 0 0 0 -20.98058149919234 188.05702223183471 0 188.05702223183471 168.36190447519766 0 0 0 0 3.0031835293011682 169.47052304097451 0 169.47052304097451 152.9249278606876 0 0 0 0 -3.0872296183451908 196.66781950885343 0 196.66781950885343 114.23623115115333 0 0 0 0 6.218550214050083 173.63525781222779 0 173.63525781222779 115.53624189298716 0 0 0 0 28.527428706029241 143.38935783029592 0 143.38935783029592 156.05928692172893 0 0 0 0 13.614847315489897 171.57064905430889 0 171.57064905430889 116.08762825858139 0 0 0 0 32.289503247960965 158.09870042500552 0 158.09870042500552 80.664486904194746 0 0 0 0 43.447596158721353 161.61956249877403 0 161.61956249877403 80.677122337045148 0 0 0 0 15.419076139973185 185.50176021177322 0 185.50176021177322 84.7333892097231 0 0 0 0 14.797426184350115 173.8153925317456 0 173.8153925317456 95.720293082675198 0 0 0 0 39.741852516743471 72.460924878251461 0 72.460924878251461 60.562697328809492 0 0 0 0 22.195804045160912 171.00409931123431 0 171.00409931123431 30.010728270863183 0 0 0 0 63.637514585246691 57.252090735912248 0 57.252090735912248 23.923581322794178 0 0 0 0 38.88551378061311 175.86425858957227 0 175.86425858957227 31.399323885292688 0 0 0 0 25.790108392466209 164.66758186332299 0 164.66758186332299 64.518495136857382 0 0 0 0 21.927425506600741 176.72913764357554 0 176.72913764357554 49.978938891494181 0 0 0 0 52.443159981505232 158.80973907469888 0 158.80973907469888 32.293952367443126 0 0 0 0 27.905649863349026 177.21329378630617 0 177.21329378630617 59.900997428514529 0 0 0 0 -0.56175110461481381 145.46767443587305 0 145.46767443587305 21.238342699914938 0 0 0 0 23.149816492281388 163.05099203172722 0 163.05099203172722 29.386132155079395 0 0 0 0 13.497430788022029 162.00970452901674 0 162.00970452901674 46.366741313424427 0 0 0 0 5.338219016102812 156.00597210461274 0 156.00597210461274 30.9859924998309 0 0 0 0 17.996619640041899 147.15320247330237 0 147.15320247330237 5.1285195830278099 0 0 0 0 5.5627355274737056 146.78887718134501 0 146.78887718134501 18.06482555787079 0 0 0 0 21.012962414311914 153.24780468394601 0 153.24780468394601 17.175055287545547 0 0 0 0 22.539409409762243 162.948910614954 0 162.948910614954 38.933399701083545 0 0 0 0 9.5447699650503637 164.69472283843788 0 164.69472283843788 39.406869950238615 0 0 0 0 22.725233052086423 165.55373594040066 0 165.55373594040066 20.852065209881403 0 0 0 0 25.527338887965016 183.17962117417483 0 183.17962117417483 57.354507646581624 0 0 0 0 38.055977273386816 156.24752419363358 0 156.24752419363358 15.362288902921136 0 0 0 0 18.177280737982073 139.7223546722671 0 139.7223546722671 1.7971161064633634 0 0 0 0 17.925226574177941 156.68523426089087 0 156.68523426089087 26.472709171182942 0 0 0 0 9.4997684340451087 130.93112622298941 0 130.93112622298941 18.868583951843902 0 0 0 0 5.8299459770696558 156.96426770405378 0 156.96426770405378 -2.6645799316174816 0 0 0 0 -23.689281569073501 149.22482647231664 0 149.22482647231664 29.798236066257232 0 0 0 0 -13.568613682903997 62.216186238870563 0 62.216186238870563 1.7295626730605704 0 0 0 0 -3.1145726333095993 73.955816265960721 0 73.955816265960721 -15.052543712096089 0 0 0 0 15.521463884193508 141.60751973577135 0 141.60751973577135 -16.831991794635542 0 0 0 0 1.3237412443832 50.700560109544313 0 50.700560109544313 2.9832681029947707 0 0 0 0 -4.6864395135671657 82.524787061716779 0 82.524787061716779 -42.06258597393753 0 0 0 0 24.256959210585244 78.093559956336549 0 78.093559956336549 0.64956661957114648 0 0 0 0 14.176459247939015 53.650885730821074 0 53.650885730821074 -27.065851238316043 0 0 0 0 5.0574140474818705 134.67478127157665 0 134.67478127157665 7.0988850129360799 0 0 0 0 -11.24706189740391 119.86678783781826 0 119.86678783781826 -104.32157529459801 0 0 0 0 -2.9830047335674834 100.69652021040179 0 100.69652021040179 123.44657642251545 0 0 0 0 -81.310019082971849 146.88551014813129 0 146.88551014813129 -7.0666651721403468 0 0 0 0 -114.43334113849414 56.264993290336861 0 56.264993290336861 43.637699649087153 0 0 0 0 9.8743047526440932 95.094307643099455 0 95.094307643099455 -41.008248688798631 0 0 0 0 27.943879077365438 60.455694805974055 0 60.455694805974055 7.5747030744257131 0 0 0 0 2.3473169312637765 110.81310960512928 0 110.81310960512928 -6.6786368281677824 0 0 0 0 -2.7242858611683971 14.365750696222577 0 14.365750696222577 -12.949655962988601 0 0 0 0 -11.809320386761101 21.921394095319556 0 21.921394095319556 37.325286517379936 0 0 0 0 83.064250000745233 192.87014630503108 0 192.87014630503108 -253.44980630770078 0 0 0 0 146.49749999283085 256.66292626358336 0 256.66292626358336 -287.93566532925979 0 0 0 0 -124.54848215087259 29.313871457554342 0 29.313871457554342 165.25717896787683 0 0 0 0 -5.4779021901529461 49.073683377838634 0 49.073683377838634 8.841820958839719 0 0 0 0 -7.3377825432962709 79.545112428910215 0 79.545112428910215 -40.694769458939845 0 0 0 0 13.106285565989779 34.242738371795738 0 34.242738371795738 12.379294874673406 0 0 0 0 -16.43660583547171 69.341863379784627 0 69.341863379784627 -48.962045574968215 0 0 0 0 -38.255886716709711 94.02820059532678 0 94.02820059532678 -66.638982670658152 0 0 0 0 -21.387207223441663 56.272190080899065 0 56.272190080899065 -10.092559026418172 0 0 0 0 -2.2861742525672497 -0.18888628764527482 0 -0.18888628764527482 -1.7348339167026054 0 0 0 0 205.95818191563012 55.396817744287546 0 55.396817744287546 -1336.0631205768877 0 0 0 0 -221.23198423293798 449.42984538739984 0 449.42984538739984 1016.8609528854431 0 0 0 0 -156.53283032641048 684.49909070118883 0 684.49909070118883 659.24025180478202 0 0 0 0 45.131073250609916 374.27341494182474 0 374.27341494182474 441.74158392856771 0 0 0 0 105.92646660012542 32.194886677410977 0 32.194886677410977 632.75775120063918 0 0 0 0 62.15279315132284 429.49013569592717 0 429.49013569592717 286.45630953856744 0 0 0 0 -253.58400966661793 -258.9945723042656 0 -258.9945723042656 -656.76026641654607 0 0 0 0 96.94736745969567 195.50489147641929 0 195.50489147641929 168.12630321803226 0 0 0 0 162.08101556377369 95.227472121609026 0 95.227472121609026 -365.04276573895913 0 0 0 0 437.96643379694433 600.48779982830456 0 600.48779982830456 -77.773075278935721 0 0 0 0 -6.7189013753217068 14.260015206998617 0 14.260015206998617 13.082506753565191 0 0 0 0 -512.90195630495873 17.202022275298077 0 17.202022275298077 245.0514139138395 0 0 0 0 253.97228095443279 59.147515986689541 0 59.147515986689541 207.05485174992646 0 0 0 0 196.7849781444238 329.65676719482144 0 329.65676719482144 -211.44553059364489 0 0 0 0 109.92673773810384 468.3163858128064 0 468.3163858128064 -223.01844938387512 0 0 0 0 -54.344016700379143 326.04225750082696 0 326.04225750082696 -337.69636558645288 0 0 0 0 -120.9152875243708 256.75004738698772 0 256.75004738698772 -147.91547867404006 0 0 0 0 60.817682890403375 279.25215847272921 0 279.25215847272921 -145.19322049215953 0 0 0 0 -68.385172068662087 107.22626899154056 0 107.22626899154056 -287.30302551368368 0 0 0 0 -9.5474236832524184 637.21782739147602 0 637.21782739147602 -841.5080721692284 0 0 0 0 33.823570026415837 286.05642811600046 0 286.05642811600046 25.434625466252328 0 0 0 0 256.73686871589598 62.147487049915071 0 62.147487049915071 -60.285360812573344 0 0 0 0 68.999875664947467 237.14315314163468 0 237.14315314163468 27.141392919511418 0 0 0 0 16.402159619618033 247.97628785967026 0 247.97628785967026 38.09238774215919 0 0 0 0 72.295026909174339 241.13155193828425 0 241.13155193828425 -203.127266287971 0 0 0 0 -125.08763047224784 45.417929940087561 0 45.417929940087561 -167.9613068250801 0 0 0 0 -19.934786175972846 31.411302064952508 0 31.411302064952508 -46.812512184489236 0 0 0 0 -96.126270863067475 -113.06046076347229 0 -113.06046076347229 -240.29141327819525 0 0 0 0 89.307648644369692 148.88045605860225 0 148.88045605860225 128.83828645812173 0 0 0 0 307.19080904871953 354.18755622470053 0 354.18755622470053 162.8586385731769 0 0 0 0 -66.414137151414252 156.37118977463979 0 156.37118977463979 -254.50507347652092 0 0 0 0 -57.999361655256507 197.39428728117491 0 197.39428728117491 -338.78788886089569 0 0 0 0 -8.522852516900457 79.744184976887482 0 79.744184976887482 -249.16650853004813 0 0 0 0 -32.520950847976181 53.737435758706425 0 53.737435758706425 -58.341714251680628 0 0 0 0 -125.76512375540005 69.451891462038475 0 69.451891462038475 -249.20304097278859 0 0 0 0 -45.740611533658011 78.597474757239979 0 78.597474757239979 -182.12606571929064 0 0 0 0 49.818800553257461 148.9348148610261 0 148.9348148610261 -177.71607354153343 0 0 0 0 41.637626866046048 203.74904353110378 0 203.74904353110378 -236.11992300795828 0 0 0 0 9.4499187106612226 260.74935526458648 0 260.74935526458648 -156.22021602256063 0 0 0 0 -6.8033582424723136 158.20887653542377 0 158.20887653542377 -162.27108983662765 0 0 0 0 -98.377734784216045 188.44487621421649 0 188.44487621421649 -203.90848420382099 0 0 0 0 -23.914804038202419 213.38100400953499 0 213.38100400953499 -314.74512631850666 0 0 0 0 -3.7086358193439146 42.729356212252291 0 42.729356212252291 34.997320488410566 0 0 0 0 -14.540429059541566 88.519855342521623 0 88.519855342521623 -95.981132142485876 0 0 0 0 -18.4433711240099 124.09149604589766 0 124.09149604589766 -54.107397519472215 0 0 0 0 -1.9174291339659568 41.628544717655203 0 41.628544717655203 34.3519508835723 0 0 0 0 20.742327940956773 33.766640260988879 0 33.766640260988879 38.036977765835715 0 0 0 0 17.984945362356321 23.528613412470619 0 23.528613412470619 7.5764237292719798 0 0 0 0 -77.442844883020896 294.32111476595105 0 294.32111476595105 -231.17529144616128 0 0 0 0 -91.777225450598053 154.37621684617625 0 154.37621684617625 -205.46764905251985 0 0 0 0 -17.922955672094758 93.552156871439365 0 93.552156871439365 -85.611361760629165 0 0 0 0 45.226218718211385 33.820100677246955 0 33.820100677246955 -84.714373199064767 0 0 0 0 7.7123918047685454 12.241326359234371 0 12.241326359234371 16.831916220316131 0 0 0 0 4.0230368214855048 42.226957558626623 0 42.226957558626623 37.817789752110251 0 0 0 0 -20.06864331239376 147.27784916905603 0 147.27784916905603 -112.39207516371971 0 0 0 0 -14.016874103846931 94.582879337453051 0 94.582879337453051 -96.81724770569781 0 0 0 0 27.445733179256493 39.354564327328816 0 39.354564327328816 17.903806865343157 0 0 0 0 -20.22946541015699 101.26666105812183 0 101.26666105812183 -130.7839747468679 0 0 0 0 -20.05160145346963 95.745265445511905 0 95.745265445511905 -60.981665442199301 0 0 0 0 -41.542306104602176 115.19041625402497 0 115.19041625402497 -56.390349489804066 0 0 0 0 7.9904411544557661 81.96292790715961 0 81.96292790715961 -45.725609852334856 0 0 0 0 -27.125355950767698 103.73414563768529 0 103.73414563768529 -42.182947332141339 0 0 0 0 29.803571489734168 72.007345852282015 0 72.007345852282015 26.974492491252022 0 0 0 0 -10.707305297259154 67.883716289426957 0 67.883716289426957 -10.865852529772383 0 0 0 0 19.361928335738426 52.574477867631884 0 52.574477867631884 21.12866866889361 0 0 0 0 -13.868063112617619 84.146803579235439 0 84.146803579235439 -21.627765355617157 0 0 0 0 -7.4034138978404371 108.58245016144065 0 108.58245016144065 -62.100703560659895 0 0 0 0 -16.160594335585984 110.19994308959258 0 110.19994308959258 -49.50316659877717 0 0 0 0 51.311750209708407 73.629793987798621 0 73.629793987798621 -63.738194403817033 0 0 0 0 -61.075710471701314 103.6971815971774 0 103.6971815971774 47.870816777111031 0 0 0 0 -6.2956627264739851 55.258878642247453 0 55.258878642247453 1.6845451827888525 0 0 0 0 -4.0045769714588175 18.900087787322001 0 18.900087787322001 20.684471760029368 0 0 0 0 -27.612751384378356 115.01215558535239 0 115.01215558535239 -26.432469339066301 0 0 0 0 -30.3176854192061 80.182912566182495 0 80.182912566182495 -20.604489741206635 0 0 0 0 -23.590241719228288 108.55563857951347 0 108.55563857951347 -60.081581953840214 0 0 0 0 -21.440729170034928 60.833641486695655 0 60.833641486695655 -16.161742778978791 0 0 0 0 -45.975988160722409 101.72463290783344 0 101.72463290783344 -34.919654187455308 0 0 0 0 -21.986311592882203 103.46278712023559 0 103.46278712023559 -75.66372462057916 0 0 0 0 -31.036043327112566 104.77692050971382 0 104.77692050971382 -108.46501457184786 0 0 0 0 13.235218179154719 38.497790509841082 0 38.497790509841082 23.65079004716317 0 0 0 0 -16.320153147900328 65.935047697632399 0 65.935047697632399 -72.928115904389415 0 0 0 0 20.846841795644298 29.215789590696346 0 29.215789590696346 4.6935082955398428 0 0 0 0 -13.561694879429524 126.38933647811791 0 126.38933647811791 -112.36335765458352 0 0 0 0 187.20461712466204 209.50097605852352 0 209.50097605852352 154.59487210062889 0 0 0 0 9.2022079033231421 290.32087253257487 0 290.32087253257487 193.89117109893414 0 0 0 0 -10.977574230462778 346.6803629345377 0 346.6803629345377 62.958400190440443 0 0 0 0 -455.44087135244627 167.23519057887461 0 167.23519057887461 160.42113379786679 0 0 0 0 -653.59974291521212 418.20617050429064 0 418.20617050429064 209.0526234551362 0 0 0 0 -213.77295241586944 347.00120051592239 0 347.00120051592239 206.12453124119202 0 0 0 0 -279.40700049721636 19.129785449141309 0 19.129785449141309 -93.583376489536022 0 0 0 0 134.53584704217792 409.61729852970166 0 409.61729852970166 205.44914808787871 0 0 0 0 -7.6505662633280735 269.60535140462889 0 269.60535140462889 141.97182559776411 0 0 0 0 94.945484515774297 434.45472181396326 0 434.45472181396326 203.18753890637481 0 0 0 0 265.29786850140954 622.44422156443761 0 622.44422156443761 476.52958659767137 0 0 0 0 122.03160977837979 320.30616407914204 0 320.30616407914204 392.94409546501447 0 0 0 0 114.44916008875589 275.26458788911623 0 275.26458788911623 300.95192452629999 0 0 0 0 130.33056357337773 277.1601002770276 0 277.1601002770276 299.91973032591341 0 0 0 0 162.43939603965555 379.97889574629153 0 379.97889574629153 174.13923148376489 0 0 0 0 156.90442628037999 254.05695189490325 0 254.05695189490325 253.43673163467611 0 0 0 0 47.597474657872226 315.85944489172107 0 315.85944489172107 591.91569493839779 0 0 0 0 474.11766972469923 231.08541661906929 0 231.08541661906929 255.03043497404724 0 0 0 0 -243.77877148632251 218.6930424153179 0 218.6930424153179 413.59478826725535 0 0 0 0 47.344697210442973 299.98417299854191 0 299.98417299854191 288.24801680030578 0 0 0 0 28.4219720215915 342.27524569960588 0 342.27524569960588 372.11415432710055 0 0 0 0 -29.009668367478298 37.205489110463532 0 37.205489110463532 39.649414258210527 0 0 0 0 182.06048941029439 432.57567684681635 0 432.57567684681635 87.715055012435187 0 0 0 0 3.4478460206336479 1.5896431493489374 0 1.5896431493489374 -0.12158304041352608 0 0 0 0 -64.652822262083646 -115.24891756802754 0 -115.24891756802754 582.61700021349679 0 0 0 0 -62.141957954634563 49.540798350149998 0 49.540798350149998 151.63391319918992 0 0 0 0 -125.36512094755017 55.386933003344893 0 55.386933003344893 151.12605971668381 0 0 0 0 -35.421244790923083 303.86898346709131 0 303.86898346709131 389.80203928741685 0 0 0 0 46.680584884699783 365.03188025183772 0 365.03188025183772 431.85083335895615 0 0 0 0 -58.215381837406312 214.05884311401678 0 214.05884311401678 35.95797877543373 0 0 0 0 -377.09060462405614 400.9731942236067 0 400.9731942236067 87.323928685422288 0 0 0 0 -84.405087050523434 109.31756613920152 0 109.31756613920152 178.36350182749447 0 0 0 0 -62.762784210188443 46.456191197106904 0 46.456191197106904 -11.054073795946636 0 0 0 0 -39.835296801451477 95.663929696384002 0 95.663929696384002 120.40434885197101 0 0 0 0 -67.376239309844095 72.393586400801723 0 72.393586400801723 131.96333097369279 0 0 0 0 -28.756111604248872 62.277088987721072 0 62.277088987721072 12.329844802523439 0 0 0 0 -9.2778890981135191 112.58434684838721 0 112.58434684838721 18.125528853110609 0 0 0 0 -24.229461639924921 84.693292727752123 0 84.693292727752123 -20.288533935592568 0 0 0 0 -76.885046370932059 46.518646810621647 0 46.518646810621647 -15.768813142590801 0 0 0 0 26.868185976272798 292.20804810237314 0 292.20804810237314 198.03583343946957 0 0 0 0 -9.1370451783414524 7.6117478691238745 0 7.6117478691238745 -1.5376440464728773 0 0 0 0 666.80570854516918 0.14838071726808266 0 0.14838071726808266 0.17446101406676462 0 0 0 0 -19.227161813580295 55.324554741979071 0 55.324554741979071 -34.170709245118502 0 0 0 0 -26.869441949507745 75.089441587435431 0 75.089441587435431 -7.1735508162455517 0 0 0 0 35.605941105837701 195.97458575548626 0 195.97458575548626 203.26238588522392 0 0 0 0 -1.8313458698539762 115.2312549997514 0 115.2312549997514 -8.5389560196108505 0 0 0 0 275.87981460497394 101.47405743409035 0 101.47405743409035 20.504427353988831 0 0 0 0 9.1909327011572159 7.6113628255399561 0 7.6113628255399561 -16.725078187769867 0 0 0 0 495.50413778284565 98.073442226366751 0 98.073442226366751 -133.13392431879765 0 0 0 0 -416.45832376564795 504.74390896665864 0 504.74390896665864 265.11369273479067 0 0 0 0 27.785547670835513 230.77858562101028 0 230.77858562101028 -160.9077844114363 0 0 0 0 348.64950753236917 -136.0918217929684 0 -136.0918217929684 -119.7597497622628 0 0 0 0 86.627414581957055 46.895721662393044 0 46.895721662393044 -35.867562583844119 0 0 0 0 26.835492968704244 58.997142286301113 0 58.997142286301113 -5.604806467126906 0 0 0 0 145.81368910187848 152.26942554345624 0 152.26942554345624 21.36383376478625 0 0 0 0 176.04179572367866 186.85174302997621 0 186.85174302997621 -44.466508361967044 0 0 0 0 12.349001696232691 50.509565678325828 0 50.509565678325828 -68.570584850809325 0 0 0 0 24.859818461532996 341.89885285256605 0 341.89885285256605 -72.73516210122034 0 0 0 0 -2.6958690105348424 3.5085953461966284 0 3.5085953461966284 -5.6468572209291779 0 0 0 0 -86.00377892654069 688.7445781413262 0 688.7445781413262 443.73890283465153 0 0 0 0 172.69544892434357 -362.0990132915731 0 -362.0990132915731 400.91130004657316 0 0 0 0 -984.1846113126303 -51.498048065059265 0 -51.498048065059265 279.0605393974547 0 0 0 0 892.37134923631675 639.43084425484267 0 639.43084425484267 46.79711296066489 0 0 0 0 -8.891995205266511 -2.0983488850788206 0 -2.0983488850788206 -2.2716681810265982 0 0 0 0 -44.973684525104829 68.435913016592281 0 68.435913016592281 -21.079038958451008 0 0 0 0 351.89827278901794 -5.7015178185401965 0 -5.7015178185401965 168.34190274683351 0 0 0 0 315.19046491062909 134.03136883945263 0 134.03136883945263 5.5825905648671323 0 0 0 0 129.74755391031795 117.79299416134018 0 117.79299416134018 69.782463340263348 0 0 0 0 232.86563020436733 377.20792286282267 0 377.20792286282267 457.35197132421308 0 0 0 0 116.7743369824732 134.48556965672645 0 134.48556965672645 32.091025272452043 0 0 0 0 -135.0626960797963 436.55780583273008 0 436.55780583273008 109.93485406691252 0 0 0 0 570.16819184040651 497.06226157879428 0 497.06226157879428 42.337136750364152 0 0 0 0 -206.10531578374867 143.66471806955451 0 143.66471806955451 203.09982955497981 0 0 0 0 -141.46548989092116 255.27311453069342 0 255.27311453069342 168.12774384532531 0 0 0 0 46.399526399917846 39.537703906848805 0 39.537703906848805 17.47662974115417 0 0 0 0 146.20414712033016 323.72275273420382 0 323.72275273420382 165.44704374362482 0 0 0 0 561.35372175586235 389.30972071555152 0 389.30972071555152 -16.159018782111161 0 0 0 0 102.20106440857234 185.61011618533485 0 185.61011618533485 190.27159779607379 0 0 0 0 186.92582769793808 315.40112145889725 0 315.40112145889725 160.95629222016578 0 0 0 0 -257.99575153715705 235.41847235354362 0 235.41847235354362 367.12670750092366 0 0 0 0 62.022889857609705 52.112857726921831 0 52.112857726921831 25.78113163768478 0 0 0 0 296.2950460987031 477.18936510066123 0 477.18936510066123 238.09926049973001 0 0 0 0 -76.929981773275358 218.91494241664259 0 218.91494241664259 282.17895822961873 0 0 0 0 -84.722508058315725 247.833914414834 0 247.833914414834 195.34501866990104 0 0 0 0 130.51144455065852 184.98557838066031 0 184.98557838066031 211.78574588127793 0 0 0 0 -438.56777865483309 633.3051954388211 0 633.3051954388211 -394.80754259135574 0 0 0 0 -10.964359646830133 63.666453590413681 0 63.666453590413681 -57.79615524406978 0 0 0 0 104.01931794975098 161.86782306752866 0 161.86782306752866 45.367293200077256 0 0 0 0 166.8299637082855 290.36479871354823 0 290.36479871354823 162.2073356944602 0 0 0 0 117.88282126643026 162.01334726305504 0 162.01334726305504 18.53054395680374 0 0 0 0 46.196610431005382 63.867281836912923 0 63.867281836912923 -74.616543491143489 0 0 0 0 136.42343817552319 820.52749310608488 0 820.52749310608488 1096.6290708491724 0 0 0 0 313.43487116637334 31.388019793608692 0 31.388019793608692 -612.72605764378386 0 0 0 0 0.15096900391932877 -3.9763998383426724 0 -3.9763998383426724 4.3180099869427124 0 0 0 0 216.93257709558384 275.92963870662788 0 275.92963870662788 163.60118220240292 0 0 0 0 -99.685497516657051 241.54581396596041 0 241.54581396596041 -19.572850910451962 0 0 0 0 87.955594105624186 160.21236805215813 0 160.21236805215813 48.76393436716171 0 0 0 0 20.169124562652456 49.900069699389462 0 49.900069699389462 -98.061329307835422 0 0 0 0 454.64238496992766 466.01817718619714 0 466.01817718619714 225.62240068757819 0 0 0 0 312.04721169528057 312.55709562942502 0 312.55709562942502 286.54197570570977 0 0 0 0 301.39002884098045 339.79861649787199 0 339.79861649787199 640.59224402235122 0 0 0 0 420.69094315605616 506.65094819395745 0 506.65094819395745 261.70765337168996 0 0 0 0 267.33193279834086 558.67559477739269 0 558.67559477739269 367.86999286094215 0 0 0 0 226.51594795513756 271.84245559190094 0 271.84245559190094 144.59503726114053 0 0 0 0 392.37260877490098 185.02819235777042 0 185.02819235777042 -185.8998040347069 0 0 0 0 417.25458154821536 834.00021490013751 0 834.00021490013751 485.3110829575453 0 0 0 0 -404.1021836741711 414.53558454070298 0 414.53558454070298 430.78016622595896 0 0 0 0 59.076449531574895 507.3684968539751 0 507.3684968539751 390.02470429684035 0 0 0 0 23.528121060277044 419.07962216362648 0 419.07962216362648 523.13507438446686 0 0 0 0 57.862822929364711 480.84312139252506 0 480.84312139252506 349.27919402482803 0 0 0 0 463.06979390295601 832.35832876678614 0 832.35832876678614 653.60111804277403 0 0 0 0 519.60407892136573 488.1711140460975 0 488.1711140460975 36.171333772042999 0 0 0 0 217.85491092805023 71.369230380718363 0 71.369230380718363 104.19497554351256 0 0 0 0 -5.7810523327273771 0.20438569622034208 0 0.20438569622034208 1.0938455449763751 0 0 0 0 -870.76731890615338 -245.60071915686422 0 -245.60071915686422 374.56862547764467 0 0 0 0 -32.721390385617269 188.99718585413939 0 188.99718585413939 443.04730466336378 0 0 0 0 819.39593446342587 730.55644973916787 0 730.55644973916787 454.95232098657289 0 0 0 0 -105.83965560181605 397.29383263537238 0 397.29383263537238 407.70633164458559 0 0 0 0 17.488911697084404 118.1374804830557 0 118.1374804830557 221.79253428879019 0 0 0 0 127.12205122021435 193.92432260473831 0 193.92432260473831 223.12209497723416 0 0 0 0 69.719465649221092 339.85066726300283 0 339.85066726300283 89.824359043908771 0 0 0 0 433.47242942015873 446.22813300685084 0 446.22813300685084 480.43267270769866 0 0 0 0 42.65346363916666 58.911905545057891 0 58.911905545057891 66.655941849388086 0 0 0 0 148.42103066868731 368.37815725525434 0 368.37815725525434 -222.75215368453064 0 0 0 0 106.80178764478296 132.55060459574361 0 132.55060459574361 92.804075876600109 0 0 0 0 102.44883893529186 765.95517973639653 0 765.95517973639653 391.95808788553222 0 0 0 0 37.300297669134153 45.811201399256674 0 45.811201399256674 -16.064345206412241 0 0 0 0 49.151124135241844 82.743962403066689 0 82.743962403066689 84.265982367098331 0 0 0 0 114.20297923314502 92.354906215958181 0 92.354906215958181 38.226134766257019 0 0 0 0 1133.0443877837097 131.50774636401911 0 131.50774636401911 167.30357488908339 0 0 0 0 -146.31767159828451 591.03217683594266 0 591.03217683594266 282.7485324483132 0 0 0 0 195.01457423383545 -176.73287493846874 0 -176.73287493846874 655.11028319166508 0 0 0 0 66.444686475762865 78.438385871617356 0 78.438385871617356 51.882145623123506 0 0 0 0 22.176347243116027 5.2975777934495056 0 5.2975777934495056 -42.757910701719823 0 0 0 0 916.96567388490075 647.94847037406726 0 647.94847037406726 280.82311290397774 0 0 0 0 39.553666042804252 92.485992078349227 0 92.485992078349227 51.286005194997415 0 0 0 0 686.43887606461067 291.94862365321023 0 291.94862365321023 284.47522743007175 0 0 0 0 420.49744818091858 357.7382161381538 0 357.7382161381538 289.299850373558 0 0 0 0 364.34014493820723 244.13176195527194 0 244.13176195527194 327.32208414582419 0 0 0 0 534.37564169461257 357.42005200688436 0 357.42005200688436 287.87320894702862 0 0 0 0 295.44770594845977 367.60791732810367 0 367.60791732810367 366.24858748543193 0 0 0 0 602.5975458126195 603.49800727802722 0 603.49800727802722 428.89807542558992 0 0 0 0 451.62690552780259 468.65124202820152 0 468.65124202820152 519.82457477645949 0 0 0 0 65.733284321468091 368.06818224584276 0 368.06818224584276 178.54259126153192 0 0 0 0 14.569750069087604 405.6155174493324 0 405.6155174493324 326.68090657962603 0 0 0 0 291.05625646753288 297.03962404132108 0 297.03962404132108 272.84216679417295 0 0 0 0 68.035916088294471 304.27591856086656 0 304.27591856086656 335.29078895119164 0 0 0 0 68.702429869474145 280.03095912683057 0 280.03095912683057 129.46364680965416 0 0 0 0 26.025030012853676 291.83256266485114 0 291.83256266485114 225.04934292618418 0 0 0 0 183.46156363011687 278.23820188440004 0 278.23820188440004 202.24814603173581 0 0 0 0 27.713680390397712 279.55433129659559 0 279.55433129659559 288.81569728077739 0 0 0 0 267.44979847452487 279.29806809500587 0 279.29806809500587 247.84355867852719 0 0 0 0 259.26088376520784 346.73172040219652 0 346.73172040219652 340.36348116789304 0 0 0 0 460.21298854161796 343.44259292955576 0 343.44259292955576 198.40700426834519 0 0 0 0 435.57689684745856 466.23592998536697 0 466.23592998536697 186.85318214335712 0 0 0 0 214.40652769125882 411.31727236040024 0 411.31727236040024 223.69122206661268 0 0 0 0 151.04510744952131 346.20331469351368 0 346.20331469351368 178.13804953571525 0 0 0 0 307.27253648792976 545.17933407672899 0 545.17933407672899 244.05120145596447 0 0 0 0 97.975705955730518 394.89072458209557 0 394.89072458209557 180.29603364628565 0 0 0 0 -62.569634889504528 308.20555576602231 0 308.20555576602231 232.39729634847026 0 0 0 0 -63.406951380806277 189.94367010455608 0 189.94367010455608 185.35886333657254 0 0 0 0 1047.6059577171764 -123.42136796230443 0 -123.42136796230443 -147.90740064918646 0 0 0 0 485.96010301457136 733.66015133011388 0 733.66015133011388 249.89818229703087 0 0 0 0 3.542507827728798 5.3598650170501401 0 5.3598650170501401 2.8555533156372803 0 0 0 0 423.71239629967022 534.94179435480328 0 534.94179435480328 105.27629941963824 0 0 0 0 412.9256217794773 626.95318483408755 0 626.95318483408755 94.513254592224257 0 0 0 0 489.79478371017467 605.07033070554462 0 605.07033070554462 72.062679005000973 0 0 0 0 -159.97736281288962 -456.41362740196564 0 -456.41362740196564 -147.48894281452522 0 0 0 0 -0.28775456421743684 8.2601812808472914 0 8.2601812808472914 4.6755559449382531 0 0 0 0 618.45762299431954 532.18103284464451 0 532.18103284464451 106.48875800592941 0 0 0 0 557.43577225593617 483.98313538530783 0 483.98313538530783 117.63640148243576 0 0 0 0 613.10243818716845 308.71845790922816 0 308.71845790922816 326.48848014343821 0 0 0 0 -144.28265571664451 423.17198397837456 0 423.17198397837456 -203.72284785956435 0 0 0 0 -395.98832099427818 -43.720988828441477 0 -43.720988828441477 -10.319045439446199 0 0 0 0 216.98836951667909 216.22445154094748 0 216.22445154094748 -104.17542567451528 0 0 0 0 24.007996276413905 96.219412800637656 0 96.219412800637656 397.43092125807379 0 0 0 0 32.571277259994531 426.73877810990234 0 426.73877810990234 116.37181426903408 0 0 0 0 446.21394560064073 84.521926382818492 0 84.521926382818492 -110.22047798165295 0 0 0 0 -190.40512836501875 477.42901077458373 0 477.42901077458373 377.85015959216616 0 0 0 0 -634.67603940458503 -294.33949514762207 0 -294.33949514762207 54.932508926533046 0 0 0 0 695.54797316878103 509.94974383531371 0 509.94974383531371 514.21628920338117 0 0 0 0 13.706431810695051 27.303706393503489 0 27.303706393503489 15.674493483389824 0 0 0 0 399.68061023953487 -371.8298760089092 0 -371.8298760089092 -309.75890277432336 0 0 0 0 35.556970088786329 105.42178134371352 0 105.42178134371352 46.861795094737317 0 0 0 0 24.13394068983753 46.509687527285536 0 46.509687527285536 44.778463194534538 0 0 0 0 49.445206865988439 57.323021482792683 0 57.323021482792683 25.767377707679771 0 0 0 0 51.427594219407183 101.43644162760393 0 101.43644162760393 31.455344164016424 0 0 0 0 17.811019317654427 3.1902349493611837 0 3.1902349493611837 -135.10960670483473 0 0 0 0 7.8544507021987897 4.3826925310344649 0 4.3826925310344649 0.36259983138808138 0 0 0 0 161.45686699783255 32.398098649769963 0 32.398098649769963 -135.60544552314968 0 0 0 0 -93.683011830609757 26.674735001077352 0 26.674735001077352 35.042287890893931 0 0 0 0 2.9919881551818435 4.7269009548547274 0 4.7269009548547274 21.703581564926992 0 0 0 0 -12.752531396814447 49.7399967462934 0 49.7399967462934 180.34683505164867 0 0 0 0 -57.502683449711185 88.663765227240219 0 88.663765227240219 79.443853583477903 0 0 0 0 67.086047751974547 76.211616208303894 0 76.211616208303894 -57.166240604783525 0 0 0 0 8.5407118857892073 12.538450366190233 0 12.538450366190233 9.9060872397967614 0 0 0 0 -654.42203891439567 251.38497996878141 0 251.38497996878141 1180.4220359356987 0 0 0 0 44.31558166060131 43.819645077630412 0 43.819645077630412 -5.7378191830503056 0 0 0 0 13.489396145672742 37.046683539213262 0 37.046683539213262 22.083498050452697 0 0 0 0 50.587464932294097 46.169953767530387 0 46.169953767530387 -6.2110636807919946 0 0 0 0 -59.014427412679652 73.352512780358666 0 73.352512780358666 150.03575546538923 0 0 0 0 6.4747994823223962 59.891068471170158 0 59.891068471170158 79.861767191589706 0 0 0 0 63.857943391645676 268.97908201090468 0 268.97908201090468 297.80980248303968 0 0 0 0 -3.2632445803857308 26.652118045933662 0 26.652118045933662 26.454476522257295 0 0 0 0 17.212445506582299 39.025405053667782 0 39.025405053667782 -112.71641511200869 0 0 0 0 288.34925604745968 -441.01622323836136 0 -441.01622323836136 -46.381810742183006 0 0 0 0 95.019457852875348 623.38431346722064 0 623.38431346722064 -1654.541259586229 0 0 0 0 -5.0902803143715118 10.667163359789299 0 10.667163359789299 15.844742612097576 0 0 0 0 21.39949028272747 49.095656484415372 0 49.095656484415372 53.614180732890588 0 0 0 0 -42.702539750636788 57.966486599994823 0 57.966486599994823 96.684457137394929 0 0 0 0 25.727337807984441 74.384923414138029 0 74.384923414138029 93.913374144263798 0 0 0 0 54.715502576669678 53.450759700921481 0 53.450759700921481 90.963606735786016 0 0 0 0 77.347148159722565 89.452252910210518 0 89.452252910210518 78.896797785157105 0 0 0 0 62.579705195363204 97.640816087136045 0 97.640816087136045 128.66016314248554 0 0 0 0 36.435333752117003 108.91679557331372 0 108.91679557331372 116.75999440142186 0 0 0 0 53.17630955419736 68.210380136530148 0 68.210380136530148 115.78654113749144 0 0 0 0 36.481479125281382 70.788469188555013 0 70.788469188555013 86.679689284127619 0 0 0 0 160.25817781452861 225.8460919033314 0 225.8460919033314 300.65205702272942 0 0 0 0 49.411830888399479 184.19942274542001 0 184.19942274542001 247.21002026408121 0 0 0 0 -20.295213921455996 58.272107982994441 0 58.272107982994441 99.668017763778892 0 0 0 0 62.325909459468676 101.0178148115665 0 101.0178148115665 110.15631077405124 0 0 0 0 -2.8590095096515142 102.79007716070919 0 102.79007716070919 109.14759210249758 0 0 0 0 13.271090659483605 50.584251604516169 0 50.584251604516169 11.548572556109463 0 0 0 0 -206.57387017949804 93.022448026182246 0 93.022448026182246 188.67552132235141 0 0 0 0 27.791331063767785 52.518542521275812 0 52.518542521275812 89.615369747622822 0 0 0 0 27.931734241421509 96.382901277087512 0 96.382901277087512 77.56353664182825 0 0 0 0 0.49412438839499373 74.150681343468023 0 74.150681343468023 63.535882844938897 0 0 0 0 14.629877667695837 91.788365659427654 0 91.788365659427654 65.226373747369507 0 0 0 0 -2.2647384346382751 84.859234651146835 0 84.859234651146835 46.293644323624903 0 0 0 0 -2.1752368258603383 76.121324126957916 0 76.121324126957916 69.746806529139576 0 0 0 0 -25.30193029801012 80.402357056140318 0 80.402357056140318 58.764417723432416 0 0 0 0 -11.37750221962051 70.042468455809285 0 70.042468455809285 65.546955769830674 0 0 0 0 20.382096910069549 37.478763740440584 0 37.478763740440584 64.740617609724609 0 0 0 0 140.85662387992488 161.9557316358987 0 161.9557316358987 -54.818118939634587 0 0 0 0 -37.795286494627362 142.16599920735462 0 142.16599920735462 1.2667472022294533 0 0 0 0 -1.0391070043196464 -0.17889030653896043 0 -0.17889030653896043 7.198636288229693 0 0 0 0 3.405755608210967 16.232342861808952 0 16.232342861808952 16.144050220623228 0 0 0 0 -396.74075185078345 527.00051615467737 0 527.00051615467737 1390.2327419717622 0 0 0 0 62.65742693876382 25.894968359396444 0 25.894968359396444 -6.8923069372904138 0 0 0 0 39.136403691220039 49.358816354637383 0 49.358816354637383 13.418175658822292 0 0 0 0 -54.432382643833989 -173.58976783015532 0 -173.58976783015532 -235.42797395610251 0 0 0 0 310.67446197888785 79.056425916274748 0 79.056425916274748 5.1588487596309278 0 0 0 0 0.94018725486633059 2.6096693228476866 0 2.6096693228476866 8.1103594301326893 0 0 0 0 -240.69673525256803 58.489517831723788 0 58.489517831723788 -180.47809886769392 0 0 0 0 39.531894355823169 48.352244175344822 0 48.352244175344822 1.8737739335483639 0 0 0 0 276.25331860430015 -57.219260365629452 0 -57.219260365629452 -49.595478133647703 0 0 0 0 246.94813620540663 146.81792887148913 0 146.81792887148913 -56.980859734791011 0 0 0 0 178.20390357024735 9.3153714313812088 0 9.3153714313812088 24.777782155535533 0 0 0 0 17.175366574461805 -215.30098636377079 0 -215.30098636377079 1094.6969974901003 0 0 0 0 -562.21662198496051 289.34960352533381 0 289.34960352533381 760.6978632552491 0 0 0 0 1075.8358406210446 70.165305966587766 0 70.165305966587766 383.1897200079402 0 0 0 0 -0.81891307581099682 326.08149446637253 0 326.08149446637253 407.42782423709286 0 0 0 0 -7.307117008829664 453.76943910766568 0 453.76943910766568 -549.94401583168656 0 0 0 0 129.27199047046815 882.77213603643759 0 882.77213603643759 1568.6214423395577 0 0 0 0 -181.5572933800795 381.13787036787835 0 381.13787036787835 759.11312019438992 0 0 0 0 -185.65789197163394 267.17669740886777 0 267.17669740886777 497.51670054296847 0 0 0 0 -70.980179372898419 312.6090180536703 0 312.6090180536703 445.83105519530363 0 0 0 0 -130.00338177942467 242.82124067018594 0 242.82124067018594 410.00371974261361 0 0 0 0 -248.9809302572794 203.96217202093248 0 203.96217202093248 471.09320432282402 0 0 0 0 111.78286715391732 353.12192272191169 0 353.12192272191169 538.92219723510789 0 0 0 0 -9.7682191174222055 4.8862250365640989 0 4.8862250365640989 -1.2181787198469465 0 0 0 0 -417.68229403299847 -446.61831677414011 0 -446.61831677414011 -9.0319668169031502 0 0 0 0 155.97330451686867 259.88760291688959 0 259.88760291688959 706.53123209433397 0 0 0 0 107.67313217788615 314.84717486855516 0 314.84717486855516 434.44369677889154 0 0 0 0 143.41015293763485 221.76772406340024 0 221.76772406340024 327.56258186027117 0 0 0 0 14.87651395321484 19.314948448458267 0 19.314948448458267 12.838076815578972 0 0 0 0 134.89679826681095 180.38605660575558 0 180.38605660575558 424.50933908541447 0 0 0 0 13.471129093646596 248.94322882215783 0 248.94322882215783 289.87225167325232 0 0 0 0 -117.82818022807623 -18.114403422696341 0 -18.114403422696341 175.89014887818485 0 0 0 0 -34.068241137346277 10.901384227804613 0 10.901384227804613 -8.6155237015445323 0 0 0 0 112.40840235938958 292.8600969541003 0 292.8600969541003 376.18270991502504 0 0 0 0 -15.603210570075504 71.184120610079361 0 71.184120610079361 43.219683651643777 0 0 0 0 -57.143019901816274 16.902797340671214 0 16.902797340671214 72.745677316004958 0 0 0 0 184.48921262457588 237.39143907855032 0 237.39143907855032 278.62014563535922 0 0 0 0 -4.5241188171203248 148.62794036770356 0 148.62794036770356 336.6716553036822 0 0 0 0 6.1623709880368551 89.647086786091677 0 89.647086786091677 95.484461456420831 0 0 0 0 2.8607700867723906 95.173343962509534 0 95.173343962509534 90.901989950740244 0 0 0 0 6.7753987565083662 82.571733394506737 0 82.571733394506737 58.434810717822984 0 0 0 0 1.2737429283442907 77.616952992771985 0 77.616952992771985 79.734388781507732 0 0 0 0 7.9059519696311327 90.833217538631288 0 90.833217538631288 75.477185546478722 0 0 0 0 5.1640149919549003 88.478828721395985 0 88.478828721395985 97.147910400934052 0 0 0 0 11.685125799718662 87.860974104041816 0 87.860974104041816 68.151337509712903 0 0 0 0 27.269481334951706 72.029535081863287 0 72.029535081863287 83.807523760537151 0 0 0 0 -54.933261779965463 26.208035865912279 0 26.208035865912279 32.016688432204035 0 0 0 0 6.8157665894204911 95.71631456775367 0 95.71631456775367 92.573428869945928 0 0 0 0 113.44215682517461 162.94709359804983 0 162.94709359804983 46.778952280554222 0 0 0 0 1.6322746247852677 -1.2207625088847749 0 -1.2207625088847749 0.17230279348109434 0 0 0 0 72.177756340238375 -20.088582011345352 0 -20.088582011345352 -48.917586481140461 0 0 0 0 46.809554763458436 134.12669357545383 0 134.12669357545383 -353.90109947184101 0 0 0 0 2.0326161465054611 489.94605252280599 0 489.94605252280599 810.42916250780399 0 0 0 0 -145.42680865711009 777.37651682583964 0 777.37651682583964 432.69869653991191 0 0 0 0 -256.2150865978474 319.23795964813326 0 319.23795964813326 -3.5114434434217401 0 0 0 0 -25.38936724774976 46.210646993815317 0 46.210646993815317 216.27598552162817 0 0 0 0 -50.328102435434218 15.727633138089914 0 15.727633138089914 47.563877474526294 0 0 0 0 -55.044184457994561 169.07578657653357 0 169.07578657653357 184.6953520874813 0 0 0 0 36.501975125482204 89.8378684211566 0 89.8378684211566 91.66123557719402 0 0 0 0 -142.65417517934839 156.09248525323346 0 156.09248525323346 191.12253876973409 0 0 0 0 -108.43405893424642 135.895478288905 0 135.895478288905 75.721673110558186 0 0 0 0 -203.51070837561565 121.8555579886015 0 121.8555579886015 187.37057720203302 0 0 0 0 -132.70333020255566 48.959443923435174 0 48.959443923435174 196.12748043995816 0 0 0 0 -157.2344387457706 10.639466445456492 0 10.639466445456492 248.05625894153491 0 0 0 0 -290.76444730821822 -122.61891183408443 0 -122.61891183408443 128.91459361463785 0 0 0 0 103.59375935595006 17.578906954200647 0 17.578906954200647 153.99661221390124 0 0 0 0 -294.67017267832125 179.4454640323238 0 179.4454640323238 217.11910396439998 0 0 0 0 -230.62069182895357 89.342424418224255 0 89.342424418224255 340.64461001934251 0 0 0 0 -1147.3820784396594 -288.9010713234602 0 -288.9010713234602 345.31151099025737 0 0 0 0 -156.77043514131219 -435.39323466300266 0 -435.39323466300266 -644.43258218200208 0 0 0 0 133.96755049499188 46.500030740251532 0 46.500030740251532 41.374987927672919 0 0 0 0 416.58672592814855 -17.314634749192919 0 -17.314634749192919 -302.60940453381045 0 0 0 0 -625.36212131876528 668.34473179578345 0 668.34473179578345 -397.14184815855697 0 0 0 0 -332.04205445576736 654.41090837874071 0 654.41090837874071 -985.75411718231044 0 0 0 0 -34.636957641572053 12.25038089333674 0 12.25038089333674 12.433256449985578 0 0 0 0 -262.77253716500491 713.15637244938262 0 713.15637244938262 -1021.1202376460569 0 0 0 0 -578.49278022398357 693.84160759457154 0 693.84160759457154 -972.88265704654623 0 0 0 0 -58.976558625152393 15.819752338167746 0 15.819752338167746 239.12344323386787 0 0 0 0 -7.975496827136169 8.7606773483173015 0 8.7606773483173015 15.917745258289642 0 0 0 0 205.38804362595693 184.6882006139349 0 184.6882006139349 -908.56977898601326 0 0 0 0 18.677615142580692 58.200962117631661 0 58.200962117631661 21.37572805790829 0 0 0 0 -220.57644672592869 190.91313656646525 0 190.91313656646525 -15.145816440839553 0 0 0 0 -180.43710390911292 637.23284168581449 0 637.23284168581449 -462.27226876499481 0 0 0 0 -429.65420493127021 798.72619476579712 0 798.72619476579712 -545.28187305989559 0 0 0 0 -509.11121185678348 483.8764496317599 0 483.8764496317599 -79.625474649816169 0 0 0 0 67.240936942776898 182.98103896084649 0 182.98103896084649 -193.91463997387473 0 0 0 0 -117.01667631579039 33.037375588632131 0 33.037375588632131 223.34113579857512 0 0 0 0 18.63170917845855 70.48771411148482 0 70.48771411148482 110.20793932385277 0 0 0 0 16.989287179445455 55.539491963370892 0 55.539491963370892 65.537400827626698 0 0 0 0 20.118466698982729 48.08552863919229 0 48.08552863919229 27.745407259558746 0 0 0 0 0.93144191621104255 59.340824932878604 0 59.340824932878604 40.691545605637657 0 0 0 0 18.893486446002498 72.245925467854249 0 72.245925467854249 33.995601574657485 0 0 0 0 -9.8055650901515037 68.360408755237586 0 68.360408755237586 58.491421693062875 0 0 0 0 -3.8914145018197246 9.9999403144999235 0 9.9999403144999235 18.840569328512046 0 0 0 0 15.026433579419972 89.570320035199984 0 89.570320035199984 -39.059937601210549 0 0 0 0 6.6832929849046252 42.273915563509306 0 42.273915563509306 67.916308116952507 0 0 0 0 -1.5433444339068956 60.870769749875762 0 60.870769749875762 85.611941925621068 0 0 0 0 70.747940090070188 -9.6152545120421564 0 -9.6152545120421564 21.501665070696617 0 0 0 0 -137.3102176496941 75.123561094856996 0 75.123561094856996 135.7517195228138 0 0 0 0 -3.0252438169855225 8.7699920152254549 0 8.7699920152254549 7.1179209069420182 0 0 0 0 -175.07475166791846 321.12083251026343 0 321.12083251026343 -561.65496895529213 0 0 0 0 -389.05697776155102 304.79523152134789 0 304.79523152134789 -0.14027157952659763 0 0 0 0 -563.37791729586388 519.98320954952214 0 519.98320954952214 -215.619708214399 0 0 0 0 -407.19707560212555 676.31285371925333 0 676.31285371925333 -396.59153339025215 0 0 0 0 -530.90764646387834 464.80241419175582 0 464.80241419175582 -265.35080446839856 0 0 0 0 -411.36466986989035 529.85783109626936 0 529.85783109626936 -102.3653971166932 0 0 0 0 -529.68678114003706 586.72797572522541 0 586.72797572522541 -0.29286596086775724 0 0 0 0 -400.69863955159963 666.47210505451949 0 666.47210505451949 -397.16237846142803 0 0 0 0 -496.43020042805438 716.83075473167264 0 716.83075473167264 -124.15106090149493 0 0 0 0 6.1173942926321843 51.960947666411016 0 51.960947666411016 -13.70700067307078 0 0 0 0 10.323362829731195 125.85995546885533 0 125.85995546885533 13.328574718514574 0 0 0 0 -69.216011583528598 149.96709124658082 0 149.96709124658082 121.52287543035345 0 0 0 0 124.09236372119631 195.13501470448682 0 195.13501470448682 54.108418585237814 0 0 0 0 -116.73184694610973 67.674134406806843 0 67.674134406806843 69.669287274475209 0 0 0 0 3.2741450160890508 59.163516263465851 0 59.163516263465851 1.506525682893546 0 0 0 0 37.599103655433282 25.707794724119594 0 25.707794724119594 -63.393655386083992 0 0 0 0 44.355528244079323 142.73402395236189 0 142.73402395236189 115.45072619084385 0 0 0 0 -8.0674721382238204 -36.697974561757292 0 -36.697974561757292 68.510445001593325 0 0 0 0 203.45876174174191 94.333304647982004 0 94.333304647982004 7.2826133037160616 0 0 0 0 22.956473214639118 42.62487413114286 0 42.62487413114286 5.8518292044827831 0 0 0 0 -12.926441957280986 94.054671308756042 0 94.054671308756042 82.060037427349016 0 0 0 0 69.085899577075907 45.311259686022822 0 45.311259686022822 -7.6903163112874608 0 0 0 0 29.638947778389962 32.049567770764014 0 32.049567770764014 -11.719325457114991 0 0 0 0 -53.022882531826326 43.91684302505746 0 43.91684302505746 47.051177326240577 0 0 0 0 9.3161159256092105 4.076868409807318 0 4.076868409807318 -5.1239338007082438 0 0 0 0 21.915633578551933 25.925994302677282 0 25.925994302677282 6.372285184712382 0 0 0 0 7.7686375984332017 9.1246035870089486 0 9.1246035870089486 5.3449713502830036 0 0 0 0 -36.252455573188854 101.43948485222609 0 101.43948485222609 32.842745496571297 0 0 0 0 -10.29428561743407 50.417247254459653 0 50.417247254459653 -2.9860966651176568 0 0 0 0 8.6532774828665424 71.15015094471164 0 71.15015094471164 34.414429458411178 0 0 0 0 -0.86953591040946776 87.11573002152727 0 87.11573002152727 29.644517196924426 0 0 0 0 8.4022580829623621 74.161621321298298 0 74.161621321298298 47.590585143849239 0 0 0 0 9.1999526469007833 62.760123337604455 0 62.760123337604455 33.627141326142009 0 0 0 0 6.1726336626743432 65.779804061108734 0 65.779804061108734 52.798084381560329 0 0 0 0 4.3644657667100546 80.51215901339674 0 80.51215901339674 39.793886876228498 0 0 0 0 9.1863980511989212 71.179445329849841 0 71.179445329849841 58.249269199470291 0 0 0 0 4.9965400298297027 69.728746029046306 0 69.728746029046306 60.948730133910431 0 0 0 0 8.1088633716281038 74.682619015540695 0 74.682619015540695 62.313010663121531 0 0 0 0 -11.985129737913667 64.581428383920866 0 64.581428383920866 108.5988664006727 0 0 0 0 -2.9729116903399699 70.710040563433722 0 70.710040563433722 50.184177886898397 0 0 0 0 -1.6190713243704522 96.224276450520847 0 96.224276450520847 76.605882499919971 0 0 0 0 -3.1045230182062369 38.206954939421848 0 38.206954939421848 57.140426395966642 0 0 0 0 50.342374126645154 25.387693545213551 0 25.387693545213551 -57.721578707732988 0 0 0 0 3.5079417208835366 46.972318397412891 0 46.972318397412891 -26.994636716583045 0 0 0 0 9.6009547748280397 53.90610292103068 0 53.90610292103068 0.6224245865419249 0 0 0 0 5.8540628149057738 54.950752427052066 0 54.950752427052066 -224.76545632757188 0 0 0 0 -1.5840095162339765 4.3115112696450808 0 4.3115112696450808 -3.2142654296262663 0 0 0 0 -333.27109999257664 344.97248049973132 0 344.97248049973132 -180.16135524024139 0 0 0 0 -143.44974769574765 155.70730636924418 0 155.70730636924418 -0.33126664355222601 0 0 0 0 215.19467866848572 35.207604159040784 0 35.207604159040784 -26.413377086413675 0 0 0 0 -5.5563074293796717 -1.3528436983184378 0 -1.3528436983184378 5.9235652708771909 0 0 0 0 52.203801632422255 134.02314320099686 0 134.02314320099686 0.054091692072688602 0 0 0 0 59.162704200440203 88.25046524577192 0 88.25046524577192 -36.202340457475657 0 0 0 0 -29.666358592352481 92.210089889784285 0 92.210089889784285 64.323341593160876 0 0 0 0 14.880108898527396 107.15036711042922 0 107.15036711042922 1.605714273697231 0 0 0 0 9.6330436674616067 106.28388303361135 0 106.28388303361135 1.8164923567528604 0 0 0 0 -29.392375565323164 135.38633622703492 0 135.38633622703492 -0.02949639358848799 0 0 0 0 -140.83385576961155 55.179677639949659 0 55.179677639949659 29.262422107320162 0 0 0 0 5.3031762859225751 -2.7267089622303331 0 -2.7267089622303331 -4.9086018241022771 0 0 0 0 -2.792106315792779 -3.200878644257557 0 -3.200878644257557 5.017797824563047 0 0 0 0 5.4635973549156915 5.1720315858983668 0 5.1720315858983668 0.0015614084945382231 0 0 0 0 262.72848537225946 36.052006129440997 0 36.052006129440997 -39.880698335386114 0 0 0 0 16.924034525254683 38.745019399459125 0 38.745019399459125 -0.96939767262665555 0 0 0 0 6.3632514917877643 25.797356701071976 0 25.797356701071976 -26.355520431565708 0 0 0 0 68.192532268585637 107.05972264508455 0 107.05972264508455 -44.946843139419798 0 0 0 0 12.991027797175917 33.195744908295723 0 33.195744908295723 24.432832892176918 0 0 0 0 15.235533995990409 71.708202028705273 0 71.708202028705273 24.10489250590399 0 0 0 0 27.830252635911336 34.845237215518466 0 34.845237215518466 -6.668742404347725 0 0 0 0 44.374601300340146 73.465454644814599 0 73.465454644814599 29.927136501231871 0 0 0 0 28.331445245697978 80.745148503527162 0 80.745148503527162 29.998246866947738 0 0 0 0 74.783221570236492 97.74094303802849 0 97.74094303802849 14.711841704585822 0 0 0 0 -1.2674920339164544 23.404154397521893 0 23.404154397521893 23.323694073940487 0 0 0 0 31.266813167218061 93.227695272507844 0 93.227695272507844 52.880614779773168 0 0 0 0 18.498521594709018 123.14164696481748 0 123.14164696481748 8.0967338239424862 0 0 0 0 -12.906325968168858 93.136953771791923 0 93.136953771791923 16.94696743413806 0 0 0 0 26.763348595405517 50.438225358817085 0 50.438225358817085 39.732067801770711 0 0 0 0 24.574597698672733 86.967066100391094 0 86.967066100391094 52.29861993578379 0 0 0 0 89.575131173929549 153.20825881688506 0 153.20825881688506 74.141862395073986 0 0 0 0 109.46631948603317 192.25165550748352 0 192.25165550748352 74.532983947234698 0 0 0 0 53.704659040372192 110.56954120263055 0 110.56954120263055 37.819523905846893 0 0 0 0 -51.146270643119351 129.2128429862496 0 129.2128429862496 45.53067038244626 0 0 0 0 -66.65982181095751 114.11234354837507 0 114.11234354837507 79.552102688372543 0 0 0 0 -46.221091354760574 111.05820552771911 0 111.05820552771911 76.060838329736725 0 0 0 0 -37.077216021425556 103.20438427245244 0 103.20438427245244 66.134664772556789 0 0 0 0 -35.256764235789888 108.02396057579608 0 108.02396057579608 39.305770387611119 0 0 0 0 0.44136776991194893 75.822959424918452 0 75.822959424918452 -13.693759521292947 0 0 0 0 47.559948744892608 101.6630174410966 0 101.6630174410966 -18.316392900476785 0 0 0 0 -53.518704413301748 112.66269524582094 0 112.66269524582094 22.17574313658406 0 0 0 0 -37.092073057618109 128.02433606817794 0 128.02433606817794 31.591433215675352 0 0 0 0 -23.708497342286137 161.7467197717524 0 161.7467197717524 -38.635142779705347 0 0 0 0 9.4241707985943464 17.792053348403797 0 17.792053348403797 -11.899365276492063 0 0 0 0 62.278581058926648 188.44508937585488 0 188.44508937585488 0.024875315866665915 0 0 0 0 -41.48853787513508 58.353770449393778 0 58.353770449393778 -36.929166792504475 0 0 0 0 -198.29882928715961 169.23791207071918 0 169.23791207071918 -0.046476638643071055 0 0 0 0 495.05163512671425 50.754560170105833 0 50.754560170105833 -66.812552860879805 0 0 0 0 -4.9199327032891489 -5.78019696099566 0 -5.78019696099566 6.4286955526630436 0 0 0 0 146.37736320867407 246.53550120537693 0 246.53550120537693 0.16727021030965261 0 0 0 0 69.093714989096043 211.04606240077555 0 211.04606240077555 -42.545657621340069 0 0 0 0 70.301957869189209 82.831583500337729 0 82.831583500337729 -51.238505306459047 0 0 0 0 -107.90349885867909 248.27556831978291 0 248.27556831978291 -0.14954451895464418 0 0 0 0 -14.11271146828949 136.3836788378685 0 136.3836788378685 1.7580638741783332 0 0 0 0 -256.77583796367253 153.32444101639703 0 153.32444101639703 26.910771303708316 0 0 0 0 -115.40750221389317 211.9921754785646 0 211.9921754785646 -19.389868698373903 0 0 0 0 -76.911169219361909 149.84217044422439 0 149.84217044422439 -31.95141295112262 0 0 0 0 -8.2571891008435614 104.07420681340315 0 104.07420681340315 -24.681467129972333 0 0 0 0 25.57193492683291 143.65595872690756 0 143.65595872690756 -42.393957794703965 0 0 0 0 -152.21802292574648 141.41870546894916 0 141.41870546894916 -81.852120183277293 0 0 0 0 143.82488698378074 83.820082276939502 0 83.820082276939502 -140.05121756918379 0 0 0 0 93.126956694002729 161.76849576488894 0 161.76849576488894 51.424316321230435 0 0 0 0 61.676503167883766 107.45565077142987 0 107.45565077142987 -15.34572095681861 0 0 0 0 18.054217621247517 149.82785897079884 0 149.82785897079884 73.399810611306748 0 0 0 0 96.40950021061326 141.2506145988873 0 141.2506145988873 60.164027296035783 0 0 0 0 120.04924003484484 252.94041548998939 0 252.94041548998939 107.78695564463123 0 0 0 0 43.983668978413334 113.53970617914638 0 113.53970617914638 160.90696899135946 0 0 0 0 -290.10179597645765 83.912324188437196 0 83.912324188437196 485.2073422422618 0 0 0 0 -92.707327791707939 651.11025016563508 0 651.11025016563508 589.62133404628548 0 0 0 0 -6.9985031098894979 39.738869067232372 0 39.738869067232372 211.75774580606958 0 0 0 0 -48.296289623161272 38.450952408604394 0 38.450952408604394 -31.365739241066876 0 0 0 0 -314.59229527540447 207.46267609125789 0 207.46267609125789 106.92174558628176 0 0 0 0 -153.51292284045485 141.76703118777004 0 141.76703118777004 62.254359249243862 0 0 0 0 -4.71421654552978 203.91994317213539 0 203.91994317213539 -5.5543291712601786 0 0 0 0 -46.764494719071081 282.14382556771307 0 282.14382556771307 157.93806198548543 0 0 0 0 -287.25369054086332 150.53962885287183 0 150.53962885287183 201.94138215835846 0 0 0 0 -374.89650851752958 314.71939013401425 0 314.71939013401425 30.956152842045412 0 0 0 0 -884.02236633616849 1.6704616091883508 0 1.6704616091883508 166.29874106530588 0 0 0 0 -12.239935423101997 97.209906732670788 0 97.209906732670788 166.78545089370891 0 0 0 0 365.94767074906076 -149.10598383104548 0 -149.10598383104548 -1504.0134517376864 0 0 0 0 1128.2045662053279 884.05492258137383 0 884.05492258137383 -1230.1123633597745 0 0 0 0 381.21036095929412 127.60456475570436 0 127.60456475570436 -379.29781654004182 0 0 0 0 -13.722456936496258 9.227751296885117 0 9.227751296885117 -6.4389823035146208 0 0 0 0 6.2813283706426546 36.966174047370842 0 36.966174047370842 -15.19024158808395 0 0 0 0 -778.71602428817005 1160.1320255315616 0 1160.1320255315616 -67.464958009310067 0 0 0 0 -1954.9710936848132 -1031.7391835761518 0 -1031.7391835761518 -184.06664726464669 0 0 0 0 -446.44365638334421 -178.66638389631407 0 -178.66638389631407 -543.49050410621567 0 0 0 0 -441.17807301006485 392.22056305631168 0 392.22056305631168 -324.30200881652127 0 0 0 0 -665.42725684356992 416.73961674681414 0 416.73961674681414 195.89172321549268 0 0 0 0 43.777638803629088 476.21651819912222 0 476.21651819912222 -593.91056383638352 0 0 0 0 549.95702106651152 621.71657703219535 0 621.71657703219535 -155.05203935872123 0 0 0 0 -32.549477278226135 27.463724695571443 0 27.463724695571443 -21.04960748135727 0 0 0 0 403.14402000696282 80.574782689152926 0 80.574782689152926 -161.62011133178021 0 0 0 0 71.012629131204449 198.85161048964073 0 198.85161048964073 -107.54659128689673 0 0 0 0 -207.68176011364267 98.062143547285814 0 98.062143547285814 -369.87200710819707 0 0 0 0 104.17851186749613 163.97648413349634 0 163.97648413349634 -388.29311402219173 0 0 0 0 -181.50958627540967 310.87679019320058 0 310.87679019320058 -305.00612303993694 0 0 0 0 -66.918527066503884 367.32885999988503 0 367.32885999988503 -312.1058968117577 0 0 0 0 -142.93180761781696 314.71506919293279 0 314.71506919293279 -266.40844525532157 0 0 0 0 -139.63115225775982 310.50131692583091 0 310.50131692583091 -314.76976072672551 0 0 0 0 -7.1297764371666972 3.3454706406984371 0 3.3454706406984371 5.1249574651769763 0 0 0 0 -26.092579034491791 230.52907397429226 0 230.52907397429226 -535.38382574711795 0 0 0 0 -491.52105477969963 -68.125957501806624 0 -68.125957501806624 8.5631222651136341 0 0 0 0 -14.202420571265975 296.86965065769618 0 296.86965065769618 -354.52826837100292 0 0 0 0 51.476163356070174 61.178582593085594 0 61.178582593085594 -215.5206270534145 0 0 0 0 -74.100384129502345 62.672134524473222 0 62.672134524473222 139.34756540318631 0 0 0 0 -47.094590147564304 193.35732534695853 0 193.35732534695853 -100.63938070827862 0 0 0 0 -76.100491335164406 357.08145035605412 0 357.08145035605412 -199.90888971075037 0 0 0 0 -122.55004433167051 309.48528262189939 0 309.48528262189939 -247.59479935520358 0 0 0 0 20.285092727193842 189.39243735050695 0 189.39243735050695 -182.22486478929932 0 0 0 0 -131.15072071352188 170.80251603177339 0 170.80251603177339 -62.945331916431314 0 0 0 0 92.852555742516415 330.04464299460233 0 330.04464299460233 -5.1095270708792668 0 0 0 0 15.816227421627275 11.623985488594116 0 11.623985488594116 7.5044654921842096 0 0 0 0 -14.50687675554218 22.84802998376108 0 22.84802998376108 37.994421269155282 0 0 0 0 124.3865451325255 76.515611915543559 0 76.515611915543559 103.06178199357237 0 0 0 0 51.076031369244447 -76.829001902624441 0 -76.829001902624441 -139.06369279216233 0 0 0 0 -36.527506519341841 81.943749438447412 0 81.943749438447412 114.41049799277971 0 0 0 0 20.21548853444051 32.526927639382592 0 32.526927639382592 31.069230297761322 0 0 0 0 -11.655704870674526 46.521340641527786 0 46.521340641527786 -16.239635028730845 0 0 0 0 12.667083602805064 19.647973953793993 0 19.647973953793993 15.893763121021408 0 0 0 0 -11.273955534444497 35.454592751963077 0 35.454592751963077 37.131253033600103 0 0 0 0 -28.811941043466504 149.81118882595911 0 149.81118882595911 -138.6015720514697 0 0 0 0 -160.62326718146505 63.373084184793697 0 63.373084184793697 90.888176674226997 0 0 0 0 -109.6001851978217 140.5053980051598 0 140.5053980051598 119.08744471672981 0 0 0 0 -18.359462440407412 18.081937888729897 0 18.081937888729897 21.945863823071448 0 0 0 0 -58.52830294938758 64.623851119853498 0 64.623851119853498 152.72307711999747 0 0 0 0 36.362137154006632 44.691534119163407 0 44.691534119163407 133.05258851750114 0 0 0 0 7.1180515594751341 108.14669916002458 0 108.14669916002458 128.04907266143709 0 0 0 0 30.960411081847269 42.667597694598953 0 42.667597694598953 -0.13240793022850994 0 0 0 0 100.28869608775858 229.67881559135276 0 229.67881559135276 84.887286635435885 0 0 0 0 -333.37390412315744 -763.30449530764781 0 -763.30449530764781 631.29897380300099 0 0 0 0 -25.813409086338424 23.247097506967606 0 23.247097506967606 -0.86701346181067152 0 0 0 0 28.389921590744052 97.840750894247321 0 97.840750894247321 61.238028781524918 0 0 0 0 -17.479908024251927 107.63077213909855 0 107.63077213909855 134.62438176797878 0 0 0 0 30.519144967707689 90.439437784421898 0 90.439437784421898 54.782302447449183 0 0 0 0 -1.7710825437388849 81.592678337125108 0 81.592678337125108 118.06753041342017 0 0 0 0 -52.008304653179948 88.632554836047348 0 88.632554836047348 114.94074995769188 0 0 0 0 -13.977168330311542 106.76757762274065 0 106.76757762274065 66.398152449424742 0 0 0 0 -15.355067819458782 178.78405380708136 0 178.78405380708136 23.490311218367424 0 0 0 0 -3.1498797635576921 92.080921172222588 0 92.080921172222588 114.62687485454444 0 0 0 0 -233.19801383696904 77.850706034652831 0 77.850706034652831 446.0268298660958 0 0 0 0 8.8666180109448192 51.373519473277156 0 51.373519473277156 134.42361238005594 0 0 0 0 0.50288868866402936 55.415807565384654 0 55.415807565384654 134.04388384704737 0 0 0 0 -17.57471579729463 55.667380730839795 0 55.667380730839795 287.25237804352219 0 0 0 0 -47.879837587682061 57.895872564415583 0 57.895872564415583 -23.976578843409783 0 0 0 0 -3.4735436914197635 82.108608938462567 0 82.108608938462567 304.20865400983894 0 0 0 0 9.450240695849061 47.183273522197851 0 47.183273522197851 199.10371893286356 0 0 0 0 -0.97729835094639839 -0.43818426349655226 0 -0.43818426349655226 4.3797945716338802 0 0 0 0 4.0817499812040552 107.39362825505941 0 107.39362825505941 179.59305732499342 0 0 0 0 -15.605314246291528 15.39996811185847 0 15.39996811185847 159.10147365571538 0 0 0 0 -5.7232360830494144 -10.73529180017249 0 -10.73529180017249 48.244751610269304 0 0 0 0 -14.070837522910494 4.2541513235969148 0 4.2541513235969148 36.698565607820626 0 0 0 0 -15.007543340005213 12.830493538625888 0 12.830493538625888 60.264542468517902 0 0 0 0 6.6106191791513993 31.113937216172303 0 31.113937216172303 31.548163094995836 0 0 0 0 -15.174220845483916 15.447712978044081 0 15.447712978044081 26.419730396707422 0 0 0 0 -5.9534065267394567 39.818219581819349 0 39.818219581819349 71.042767855233933 0 0 0 0 -35.429400621680543 39.978743552346714 0 39.978743552346714 19.063908686686773 0 0 0 0 -21.57984112470956 33.739991488440637 0 33.739991488440637 119.8129271152701 0 0 0 0 15.409374303941149 -120.28303163220698 0 -120.28303163220698 128.56538140316843 0 0 0 0 -14.802637542657436 -2.4099994083132827 0 -2.4099994083132827 19.705198380278688 0 0 0 0 4.0642078915932629 73.027480723838465 0 73.027480723838465 79.072632092720596 0 0 0 0 836.49248655488191 11.312563973253418 0 11.312563973253418 -69.512383063760353 0 0 0 0 -52.261944813682931 30.602129104881897 0 30.602129104881897 57.627858179524992 0 0 0 0 439.2452925327525 280.9910453059274 0 280.9910453059274 214.74320307825656 0 0 0 0 0.85576047951190048 15.507772797027826 0 15.507772797027826 45.451684835966603 0 0 0 0 0.079439888586193774 0.73930874439258787 0 0.73930874439258787 17.827410868130485 0 0 0 0 57.806031069728988 83.672544650137951 0 83.672544650137951 -20.658634755813381 0 0 0 0 0.68942151093638415 18.759553991131384 0 18.759553991131384 59.029544787965392 0 0 0 0 38.417360051331343 167.70472550329214 0 167.70472550329214 39.673085107060615 0 0 0 0 3.3377581278456319 40.339268183385627 0 40.339268183385627 66.040297085723807 0 0 0 0 -17.619351227469451 88.143256311715959 0 88.143256311715959 151.19319312329753 0 0 0 0 13.07882302562939 50.332836460293038 0 50.332836460293038 8.0872028490775847 0 0 0 0 -167.24840865461738 91.117641598415503 0 91.117641598415503 60.691908336128108 0 0 0 0 21.195195707114181 -206.56668169157638 0 -206.56668169157638 228.42369397790026 0 0 0 0 1.9960745403507048 4.8873368760486926 0 4.8873368760486926 15.891357626953152 0 0 0 0 3.8039485985427746 1878.5855315818226 0 1878.5855315818226 2757.380641318945 0 0 0 0 1315.1196328293227 3829.1489541369883 0 3829.1489541369883 1317.3863961150637 0 0 0 0 4627.0667956940888 4508.2818132348184 0 4508.2818132348184 -7.7509178261251543 0 0 0 0 -513.31146091077608 99.32504578305452 0 99.32504578305452 50.767488402809249 0 0 0 0 3.1849187913608432 4.2951896851631091 0 4.2951896851631091 16.835524141885685 0 0 0 0 214.11299134053115 989.59327424271032 0 989.59327424271032 2919.5178890637762 0 0 0 0 -0.73843318324129825 1.6994446108187162 0 1.6994446108187162 40.394551308101427 0 0 0 0 -74.470649973867694 104.79375405919563 0 104.79375405919563 23.890813588397577 0 0 0 0 -163.38953871172271 274.479404431484 0 274.479404431484 -0.061359806088148616 0 0 0 0 -10.892405969549145 173.53809488605475 0 173.53809488605475 -44.640115020170924 0 0 0 0 -80.296028984594159 221.23808618099429 0 221.23808618099429 19.950095103238709 0 0 0 0 101.52199148427462 197.25231348510715 0 197.25231348510715 17.107582151482347 0 0 0 0 26.145594593210262 198.14672576158046 0 198.14672576158046 38.28005296952324 0 0 0 0 30.542113017203519 59.252589661162347 0 59.252589661162347 59.558919594179315 0 0 0 0 70.474424839427229 141.38501253747381 0 141.38501253747381 109.60886301178834 0 0 0 0 86.838191262911209 83.020514115616834 0 83.020514115616834 -18.076113066563067 0 0 0 0 61.630826155218529 176.75037934879947 0 176.75037934879947 70.130067675450846 0 0 0 0 105.20363814668963 61.246122828044463 0 61.246122828044463 115.37949877369101 0 0 0 0 116.23402912206001 77.343304782094037 0 77.343304782094037 -28.387004824554779 0 0 0 0 120.53795639183954 145.62397877249896 0 145.62397877249896 -58.718391976086423 0 0 0 0 144.42349895025836 130.39916293046554 0 130.39916293046554 -52.374787500179082 0 0 0 0 40.512077608249456 228.11958150596183 0 228.11958150596183 -47.383889363816706 0 0 0 0 38.890203026067496 47.71921176670611 0 47.71921176670611 12.744222802853756 0 0 0 0 193.68350012777955 233.10162040333671 0 233.10162040333671 -248.53568540466949 0 0 0 0 201.57232018949071 66.380251281709207 0 66.380251281709207 -158.81249731988646 0 0 0 0 82.984947485296289 278.94589300946973 0 278.94589300946973 -82.123152865475276 0 0 0 0 99.808088492769457 210.32319345001451 0 210.32319345001451 -29.538179730123375 0 0 0 0 163.74972666701069 250.33797023203806 0 250.33797023203806 -80.271382259932579 0 0 0 0 160.47715672643972 292.08198616228765 0 292.08198616228765 -47.457835200650152 0 0 0 0 202.06107251271169 179.80080246005673 0 179.80080246005673 22.649692304519704 0 0 0 0 82.902620520348137 298.85435158395558 0 298.85435158395558 -0.056430125972838141 0 0 0 0 311.32216397696175 286.61986198468003 0 286.61986198468003 0.2444953371596057 0 0 0 0 157.99434996166383 75.339144437588402 0 75.339144437588402 9.5612056296376977 0 0 0 0 306.22546920010063 174.9909217828681 0 174.9909217828681 -47.763256095495308 0 0 0 0 716.92891696709557 65.400949921320716 0 65.400949921320716 -60.412507339096919 0 0 0 0 -1.4663735824067743 -7.7767711672208293 0 -7.7767711672208293 2.8192764711294558 0 0 0 0 -534.54909769397636 236.5620051799051 0 236.5620051799051 0.13645517115946859 0 0 0 0 -244.21598948721658 104.94414145744668 0 104.94414145744668 -55.338955627841642 0 0 0 0 -255.8259710964121 151.5368497393647 0 151.5368497393647 83.198876776194084 0 0 0 0 -342.04285002875258 238.02279279989307 0 238.02279279989307 2.7390526434610365 0 0 0 0 302.98472874917206 186.00376662159397 0 186.00376662159397 -77.172504002206551 0 0 0 0 2.1558759896413306 27.404257003598445 0 27.404257003598445 -4.3296753324582369 0 0 0 0 249.41447418589814 102.48898016364546 0 102.48898016364546 -205.50965303937846 0 0 0 0 130.36642626631698 114.09240575767345 0 114.09240575767345 -29.858927759261235 0 0 0 0 38.72028880469054 155.38595255556709 0 155.38595255556709 -45.181810619037776 0 0 0 0 233.45019499299815 164.74414438745589 0 164.74414438745589 -19.48450643439719 0 0 0 0 -72.616001185362734 129.07331066963837 0 129.07331066963837 -22.694599195024836 0 0 0 0 -266.78777017291577 221.99119489323493 0 221.99119489323493 -112.95572227494995 0 0 0 0 -439.88904551230371 217.7441374144255 0 217.7441374144255 -17.437614886875963 0 0 0 0 -314.46219231850409 220.08872720993531 0 220.08872720993531 -95.455467496067286 0 0 0 0 151.75173789296969 213.88281330025347 0 213.88281330025347 -17.428022573818453 0 0 0 0 258.98883017463959 200.74087793575018 0 200.74087793575018 -91.548185369640123 0 0 0 0 166.25313892512349 82.811308851189096 0 82.811308851189096 -35.038682798793161 0 0 0 0 5.1747076564643066 184.78044162385777 0 184.78044162385777 8.5309431303903693 0 0 0 0 232.22510892018909 218.73293481525616 0 218.73293481525616 28.608487003395567 0 0 0 0 32.120272248934057 122.12827474954676 0 122.12827474954676 -64.258312593139181 0 0 0 0 -237.64850179558562 299.82155297846475 0 299.82155297846475 -27.497090808814391 0 0 0 0 -308.67490433921921 365.10065380969172 0 365.10065380969172 -71.685311476801871 0 0 0 0 29.08723854191944 126.93265781057664 0 126.93265781057664 -95.834804314495614 0 0 0 0 386.9326258925139 445.44323025736594 0 445.44323025736594 -65.308405774940184 0 0 0 0 -34.926709332430619 227.33727179146081 0 227.33727179146081 -89.687852127302904 0 0 0 0 250.95214942249004 93.758625576949271 0 93.758625576949271 -283.38133687953814 0 0 0 0 -53.767397864111445 60.945879677452311 0 60.945879677452311 -10.148516069138111 0 0 0 0 195.3897665120021 226.85449385951506 0 226.85449385951506 -284.83434798561939 0 0 0 0 157.50033896806417 138.85519481198571 0 138.85519481198571 -202.13977878121659 0 0 0 0 192.85734125500312 131.70052495467826 0 131.70052495467826 -212.35337306579459 0 0 0 0 217.47866046972922 101.16764039351983 0 101.16764039351983 -210.79861206567148 0 0 0 0 173.96000628796173 108.8935734795632 0 108.8935734795632 -202.53582355912658 0 0 0 0 311.78029747767141 8.7491172618756536 0 8.7491172618756536 -131.51249944635492 0 0 0 0 40.478614173349342 62.99363595253817 0 62.99363595253817 -74.944811076653423 0 0 0 0 167.23426029173424 68.709054446590017 0 68.709054446590017 -151.2714042886364 0 0 0 0 192.71354833343503 144.44361549373571 0 144.44361549373571 -8.4899388240010012 0 0 0 0 821.76756147434935 146.50757729486941 0 146.50757729486941 -437.25863867200678 0 0 0 0 503.77714885078603 -66.761548510010471 0 -66.761548510010471 25.986138769774698 0 0 0 0 364.90748347001499 203.82901320631208 0 203.82901320631208 189.23256855365617 0 0 0 0 361.70789062575204 135.82621931345784 0 135.82621931345784 -260.90902592483326 0 0 0 0 325.11754869950528 167.28760084645182 0 167.28760084645182 -409.19043946286547 0 0 0 0 355.15455832064617 101.12030770200363 0 101.12030770200363 -274.6791179265856 0 0 0 0 473.49325849577872 447.98277217069881 0 447.98277217069881 -696.60723339076503 0 0 0 0 -372.69331564506865 795.12853924361116 0 795.12853924361116 -500.69230634324049 0 0 0 0 118.68822562976857 361.16766715449921 0 361.16766715449921 -407.88127719980253 0 0 0 0 548.36469027164276 -317.04425208086468 0 -317.04425208086468 -888.18225495210936 0 0 0 0 -1478.9109023538622 1062.9788572461166 0 1062.9788572461166 632.08974768794724 0 0 0 0 -842.9036207174795 777.87149516920908 0 777.87149516920908 742.9577138692257 0 0 0 0 -1633.3177451393422 702.58645170239106 0 702.58645170239106 784.18742886511609 0 0 0 0 410.9664325012418 -79.834533777400793 0 -79.834533777400793 -887.60722132262163 0 0 0 0 -6.7546027045240749 8.0519284035921714 0 8.0519284035921714 -7.9518675619846704 0 0 0 0 -2.1564369668178642 7.7060720283773207 0 7.7060720283773207 -11.425365882266249 0 0 0 0 -173.57643401820678 -432.69107084073767 0 -432.69107084073767 1261.1365550474729 0 0 0 0 299.17381627103896 405.39849401959509 0 405.39849401959509 -1234.7855404330912 0 0 0 0 49.827809692040319 420.6072552067053 0 420.6072552067053 -23.196304664947093 0 0 0 0 -176.39322049863404 972.81941776168242 0 972.81941776168242 -775.3205875982967 0 0 0 0 -600.3186489984364 767.80424299374135 0 767.80424299374135 233.54703980125487 0 0 0 0 -3.4575554319022359 8.4822463832917379 0 8.4822463832917379 -32.261529432496843 0 0 0 0 167.09632129392412 167.59672139425675 0 167.59672139425675 -2569.0487814544467 0 0 0 0 634.58387544122525 230.76486923199263 0 230.76486923199263 -55.723266224711551 0 0 0 0 333.69867782681831 75.076426350147813 0 75.076426350147813 -34.673077400220791 0 0 0 0 449.17260353299207 77.678820305452973 0 77.678820305452973 -15.599743438637233 0 0 0 0 315.39527287332749 187.87354850041447 0 187.87354850041447 -45.700814827461727 0 0 0 0 308.62282958679862 -103.39871570939795 0 -103.39871570939795 227.25455625308678 0 0 0 0 22.036318825755771 37.853136775947178 0 37.853136775947178 -31.662384809837704 0 0 0 0 261.91346916392649 166.70655092868355 0 166.70655092868355 13.106861945212586 0 0 0 0 26.123288879665779 90.0974946016795 0 90.0974946016795 278.91111552217626 0 0 0 0 -235.53218160402503 388.77506589108543 0 388.77506589108543 -0.93228944813017733 0 0 0 0 -201.3937925658538 2.1215984549344284 0 2.1215984549344284 755.14053716720082 0 0 0 0 21.563520952714043 256.6698690532503 0 256.6698690532503 -55.540577159379609 0 0 0 0 166.7558677396446 208.65846651417087 0 208.65846651417087 -112.2906567018581 0 0 0 0 106.53315101300541 126.27989296475425 0 126.27989296475425 -103.44631699821912 0 0 0 0 160.01626974222017 175.77617300390557 0 175.77617300390557 -138.66602535473066 0 0 0 0 242.01775686220208 68.929373801980546 0 68.929373801980546 -275.48374773730757 0 0 0 0 325.04400648907176 -1.9582940438413061 0 -1.9582940438413061 -227.0112458110525 0 0 0 0 319.7453815631161 47.977600550642819 0 47.977600550642819 -633.39926572146942 0 0 0 0 97.159498616972996 433.14694415571284 0 433.14694415571284 -477.39814791295794 0 0 0 0 371.42878355894936 165.87356708302104 0 165.87356708302104 -460.08643935940745 0 0 0 0 428.31869791471399 -215.49177539769153 0 -215.49177539769153 -478.84494823613932 0 0 0 0 328.23888258473016 -221.30296104606532 0 -221.30296104606532 -303.21421591516992 0 0 0 0 -8.839878000140402 14.83218912584266 0 14.83218912584266 -18.47716667244913 0 0 0 0 785.93854406238825 572.53753781642445 0 572.53753781642445 17.15659815962681 0 0 0 0 683.14157634836738 114.51320810933976 0 114.51320810933976 -1156.6097962196072 0 0 0 0 253.2466603854773 -154.61644948513458 0 -154.61644948513458 -82.874691234668717 0 0 0 0 257.17462297348538 -150.06670545297675 0 -150.06670545297675 -374.14169739087811 0 0 0 0 -0.050272042757640634 0.56245116662321948 0 0.56245116662321948 -13.597345421020066 0 0 0 0 53.351571696577594 -259.45382882371632 0 -259.45382882371632 -118.0544170615758 0 0 0 0 -393.48949611782155 575.63945165414771 0 575.63945165414771 -752.20827175043632 0 0 0 0 -321.85106533943326 -112.29428764400654 0 -112.29428764400654 -567.72423267325212 0 0 0 0 41.72137132025091 152.59076026706316 0 152.59076026706316 -900.30846168463904 0 0 0 0 -0.44775090483017266 134.46128759213025 0 134.46128759213025 -264.65964783755771 0 0 0 0 -49.97854505709256 165.22519370677765 0 165.22519370677765 -251.60070116051793 0 0 0 0 202.41402824073884 41.325845216866583 0 41.325845216866583 -109.61102633824339 0 0 0 0 -138.42244876265613 156.22211353694729 0 156.22211353694729 -146.76144626821042 0 0 0 0 6.4006660108235138 1.2718553623517721 0 1.2718553623517721 -38.68788751771757 0 0 0 0 44.801941005454864 61.542555593652651 0 61.542555593652651 -48.566568961949088 0 0 0 0 207.10386311619368 39.424099167277745 0 39.424099167277745 -115.31264811335132 0 0 0 0 144.56894790500519 80.661467256431933 0 80.661467256431933 -95.233022223468652 0 0 0 0 13.742740218947347 47.646146922738922 0 47.646146922738922 1.1180485632227146 0 0 0 0 25.680238355522462 44.089074456145283 0 44.089074456145283 -51.257454471581354 0 0 0 0 26.557033006800339 34.383895531500457 0 34.383895531500457 -57.603558448521653 0 0 0 0 -86.410149332426954 78.652990945178317 0 78.652990945178317 -32.173694923541916 0 0 0 0 0.13257295407350791 101.27718386818735 0 101.27718386818735 -171.18765724371769 0 0 0 0 -1.5653219183200235 2.9848245977925671 0 2.9848245977925671 -2.0418024355789299 0 0 0 0 -343.21083972870838 362.20318879868137 0 362.20318879868137 1724.8395655655841 0 0 0 0 87.68782457758789 61.694186426808301 0 61.694186426808301 -3153.8223616610758 0 0 0 0 22.100886370451008 -457.10618455871611 0 -457.10618455871611 860.49418079649331 0 0 0 0 -2.6679159421032637 571.24634651678434 0 571.24634651678434 1201.5899637615366 0 0 0 0 731.71031873012544 -652.04030157731904 0 -652.04030157731904 -494.98017818070366 0 0 0 0 0.075181506275877913 818.62525526963782 0 818.62525526963782 828.88328390795505 0 0 0 0 -167.88490682160773 -146.99752432019886 0 -146.99752432019886 1135.1404721618746 0 0 0 0 -1.8045168048074629 -2.538029168098177 0 -2.538029168098177 1.0206089255410964 0 0 0 0 -70.598973591171671 402.30942120612599 0 402.30942120612599 668.84029173618183 0 0 0 0 390.97524362266995 226.88655182541697 0 226.88655182541697 -10.145886331217298 0 0 0 0 122.45834599426598 445.51507010672503 0 445.51507010672503 115.03245158662321 0 0 0 0 0.038384377709007822 480.98454034922906 0 480.98454034922906 448.43383490717679 0 0 0 0 0.21505014745343942 342.14806228021916 0 342.14806228021916 -499.96969091467327 0 0 0 0 -246.7129110955575 247.19892515180254 0 247.19892515180254 39.922144571813988 0 0 0 0 -292.37779492343543 261.40283717899001 0 261.40283717899001 35.570147572194401 0 0 0 0 -328.17903316877982 725.870585474054 0 725.870585474054 582.51202150450263 0 0 0 0 -740.42852905971085 164.61626372478713 0 164.61626372478713 492.67962331563467 0 0 0 0 -110.37257495283848 892.37744715575172 0 892.37744715575172 371.36732247094915 0 0 0 0 105.86505934240995 260.09936217864743 0 260.09936217864743 412.39606013150478 0 0 0 0 -119.19096328967134 706.10434850765159 0 706.10434850765159 -263.29252539492336 0 0 0 0 -5.563282931897561 7.7218767406519646 0 7.7218767406519646 -7.3849332856348724 0 0 0 0 436.23412974673556 189.15676020205865 0 189.15676020205865 -371.69000425724516 0 0 0 0 828.24686632979137 580.75463135499012 0 580.75463135499012 -31.63155629306857 0 0 0 0 235.96101861454372 -42.297309821020463 0 -42.297309821020463 155.90620255649264 0 0 0 0 429.12005679726826 -18.062290400976508 0 -18.062290400976508 -72.649379406124353 0 0 0 0 205.167602624133 259.5438078641746 0 259.5438078641746 -233.02892313333723 0 0 0 0 183.61161175476445 69.042928913229844 0 69.042928913229844 2.2699462480668444 0 0 0 0 6.0264526753413747 20.9158682628956 0 20.9158682628956 -6.6967640851723118 0 0 0 0 35.147029564832337 241.78680995039031 0 241.78680995039031 458.37735188195074 0 0 0 0 225.07690781660494 155.61789657857662 0 155.61789657857662 181.28083199015236 0 0 0 0 96.07742146687815 427.14478509989567 0 427.14478509989567 93.463787525302905 0 0 0 0 355.2208076918032 391.89059043944872 0 391.89059043944872 -499.49152142422099 0 0 0 0 -1.9002035420297716 0.29761655253128083 0 0.29761655253128083 0.67352959401884416 0 0 0 0 152.77640360617079 363.28830066067167 0 363.28830066067167 995.48919395378744 0 0 0 0 -504.09009033010807 834.34188690590781 0 834.34188690590781 -149.40572487153986 0 0 0 0 117.95475339808036 93.945645814485033 0 93.945645814485033 1209.1047194845014 0 0 0 0 -46.481926226348151 399.27320873383724 0 399.27320873383724 1425.0214118618751 0 0 0 0 101.83361849782523 64.31091571131401 0 64.31091571131401 -1873.9960463311072 0 0 0 0 0.083478921000960327 13.691272959615418 0 13.691272959615418 -4.3714512874541427 0 0 0 0 165.28030679406947 291.03679032494256 0 291.03679032494256 -1079.735186283564 0 0 0 0 -8.7859132379235234 216.05730544782091 0 216.05730544782091 -591.9255396467197 0 0 0 0 -42.032430741193821 204.47576459898482 0 204.47576459898482 -428.62280844173074 0 0 0 0 -16.868017813962069 174.25427848092659 0 174.25427848092659 -392.34438397355552 0 0 0 0 10.736868056997196 16.036937629599066 0 16.036937629599066 -3.5383259564632326 0 0 0 0 -24.870714784236043 128.67517807874901 0 128.67517807874901 173.61618535486923 0 0 0 0 72.225434137653792 90.221370301180286 0 90.221370301180286 260.00954111919418 0 0 0 0 149.94270806779969 79.821673345883028 0 79.821673345883028 1.7763319128644071 0 0 0 0 73.198001308865059 78.203440556839269 0 78.203440556839269 74.661963538776035 0 0 0 0 -176.86856176245783 173.7401611298119 0 173.7401611298119 87.252615468925796 0 0 0 0 64.312801745021716 -32.219975408195751 0 -32.219975408195751 61.095540173686459 0 0 0 0 -788.13532831909833 150.02723169029196 0 150.02723169029196 49.884151520906016 0 0 0 0 -29.737194848450599 324.40908639411646 0 324.40908639411646 -173.99976919533947 0 0 0 0 53.451120747326058 362.60362160653312 0 362.60362160653312 -170.19522965411306 0 0 0 0 20.223653278779238 243.15839131545363 0 243.15839131545363 -72.731462808078504 0 0 0 0 42.395231884496752 104.86768822576414 0 104.86768822576414 -39.6819794939438 0 0 0 0 78.591833485828829 239.26857079692854 0 239.26857079692854 -237.77836190607923 0 0 0 0 100.62011211257777 183.55506090551717 0 183.55506090551717 -187.10684274118103 0 0 0 0 185.68120374147838 241.79398023185422 0 241.79398023185422 -243.65635800515884 0 0 0 0 -57.321626550288784 190.40578508421322 0 190.40578508421322 -245.41836868072278 0 0 0 0 84.325126004565391 150.33017410023604 0 150.33017410023604 -234.02217211235256 0 0 0 0 40.090668281794791 97.155376318195351 0 97.155376318195351 -126.83630915934543 0 0 0 0 107.69954813509321 121.9391493293997 0 121.9391493293997 -227.59264866447484 0 0 0 0 33.33888190254752 101.20622996093971 0 101.20622996093971 -120.8843067573807 0 0 0 0 -52.380098562978674 112.12375406944193 0 112.12375406944193 -115.06794946212176 0 0 0 0 105.34252845996525 141.86742995835812 0 141.86742995835812 -145.5314447981691 0 0 0 0 16.299120472220238 162.97695624770131 0 162.97695624770131 -77.628847933621728 0 0 0 0 27.178931228242163 45.388419451860756 0 45.388419451860756 -28.52179820485285 0 0 0 0 -21.027959182290942 112.15856476255067 0 112.15856476255067 -101.02634977630805 0 0 0 0 29.714257958486499 119.08413193476414 0 119.08413193476414 -63.7425436173055 0 0 0 0 83.991527953607147 61.682737410086702 0 61.682737410086702 -128.53679904272576 0 0 0 0 198.26441477746994 84.690592425038631 0 84.690592425038631 -175.35676238495216 0 0 0 0 -304.72593015703023 330.91229868600203 0 330.91229868600203 77.580223474280501 0 0 0 0 -28.506386859255144 318.0702126893666 0 318.0702126893666 -181.00438426453547 0 0 0 0 128.49982612695021 167.5576727061416 0 167.5576727061416 -61.76504837419634 0 0 0 0 -180.31744039159094 211.49493713684569 0 211.49493713684569 161.77129671443254 0 0 0 0 11.984041055954663 29.19310300107793 0 29.19310300107793 -10.4872061428172 0 0 0 0 159.18448882098892 51.322491985731176 0 51.322491985731176 -143.01632867123408 0 0 0 0 -383.00474864583521 581.57218574120998 0 581.57218574120998 -591.72719514159689 0 0 0 0 -817.77587674130336 684.25534504270036 0 684.25534504270036 -238.06414670585036 0 0 0 0 -480.66984433555626 640.56473369037485 0 640.56473369037485 -302.99286545993527 0 0 0 0 -605.02063405467197 788.65712315501878 0 788.65712315501878 -394.55709549133462 0 0 0 0 -159.63800243748119 660.08593405826832 0 660.08593405826832 -436.29188363802314 0 0 0 0 -423.46760384432855 578.35225621135032 0 578.35225621135032 -365.95877845696668 0 0 0 0 -158.50072501567774 680.72649921159609 0 680.72649921159609 -507.75223457341781 0 0 0 0 -117.11566118957126 502.06047965445032 0 502.06047965445032 -151.2563734189971 0 0 0 0 -160.00010787988595 669.11909073643699 0 669.11909073643699 -436.38815045503725 0 0 0 0 -82.148771557462169 726.44100349617656 0 726.44100349617656 -394.45192553842935 0 0 0 0 -268.74923556693284 635.5394188331461 0 635.5394188331461 -399.18492441040871 0 0 0 0 -33.623219214117853 716.2820107185471 0 716.2820107185471 -564.86239423332154 0 0 0 0 -68.910571586835431 441.16761519629654 0 441.16761519629654 -219.04276458927416 0 0 0 0 -76.137635911135476 529.607302721211 0 529.607302721211 -753.92466990550747 0 0 0 0 111.34923370696197 658.21778652356079 0 658.21778652356079 -1162.3730922297109 0 0 0 0 153.99267044346198 660.26330262040938 0 660.26330262040938 -1166.168572970535 0 0 0 0 -74.747034545565839 651.40103338198969 0 651.40103338198969 -498.16239284598851 0 0 0 0 42.114736568910303 788.85288862806192 0 788.85288862806192 -478.80392274202495 0 0 0 0 -94.752953332288598 681.44891359945041 0 681.44891359945041 -53.429508531451575 0 0 0 0 27.154747064938419 437.29641090055156 0 437.29641090055156 -66.869196339095879 0 0 0 0 -97.910124558635289 661.65111770951626 0 661.65111770951626 196.7398505966994 0 0 0 0 -75.294232965992705 627.34393053214444 0 627.34393053214444 179.7209044660267 0 0 0 0 253.42929771228228 729.86377982546401 0 729.86377982546401 -482.74047739445814 0 0 0 0 0.98909585512592457 1023.7017800689682 0 1023.7017800689682 408.01503627555667 0 0 0 0 -220.85991035279585 573.29555603311019 0 573.29555603311019 284.76123681009813 0 0 0 0 220.29122298816219 555.37398893134377 0 555.37398893134377 -1263.4566021605497 0 0 0 0 0.031436008735909127 914.6104637303979 0 914.6104637303979 -491.27903112972126 0 0 0 0 -247.37204546129215 712.17882977599947 0 712.17882977599947 -483.11694600503165 0 0 0 0 -1.1604372193739649 1022.0834466325712 0 1022.0834466325712 -1410.7472921308363 0 0 0 0 81.853950862372585 220.59741610789388 0 220.59741610789388 -264.77460962761688 0 0 0 0 291.58319774533447 226.74462283437606 0 226.74462283437606 -283.86729735895642 0 0 0 0 231.08493099015323 91.120027107655915 0 91.120027107655915 -432.31339496651344 0 0 0 0 131.41584507451626 -55.767823152375058 0 -55.767823152375058 -273.56722704978893 0 0 0 0 317.85488796464051 73.537548971362412 0 73.537548971362412 -881.05380113383126 0 0 0 0 -96.159938502500154 603.32873570618358 0 603.32873570618358 -836.60720410439535 0 0 0 0 -4.102430728638808 5.1094340010050132 0 5.1094340010050132 -4.5786661716913386 0 0 0 0 -840.95120532416331 435.81286280576387 0 435.81286280576387 -271.74308361632575 0 0 0 0 -811.83642289284035 306.55744997967122 0 306.55744997967122 -134.90625849666685 0 0 0 0 8.2582410644347135 14.137490858567389 0 14.137490858567389 12.44909213485667 0 0 0 0 -740.1894933287258 324.86968108232759 0 324.86968108232759 -134.10860403852712 0 0 0 0 244.4387318076806 144.12820697091956 0 144.12820697091956 70.868861641880358 0 0 0 0 -856.66529393893143 565.22398758699273 0 565.22398758699273 -201.90603562393517 0 0 0 0 -451.93223804383888 516.74764707049326 0 516.74764707049326 -201.9416997360531 0 0 0 0 -744.07249472365947 319.87928946738612 0 319.87928946738612 -84.97174753244326 0 0 0 0 -433.48788367761881 329.48653152903717 0 329.48653152903717 -113.95181321998098 0 0 0 0 19.329957939378801 14.510655815152859 0 14.510655815152859 -3.5562153544451576 0 0 0 0 -30.770643641546485 22.331265173676002 0 22.331265173676002 40.42619382365956 0 0 0 0 10.077578021644911 19.080464355193115 0 19.080464355193115 26.121711530205033 0 0 0 0 -454.14364070323063 360.4638731932173 0 360.4638731932173 -67.011513970777742 0 0 0 0 -390.34782311062736 266.63864148867287 0 266.63864148867287 -93.26327944474906 0 0 0 0 -203.121481991162 413.2900870069825 0 413.2900870069825 -135.23669597403205 0 0 0 0 -203.13337978942218 425.67056928575585 0 425.67056928575585 -235.26840764356893 0 0 0 0 -244.81127181345073 413.27333478033688 0 413.27333478033688 -209.74365425722499 0 0 0 0 -435.11704571140694 440.87896585562231 0 440.87896585562231 -106.36316424485995 0 0 0 0 -37.130277091317112 558.16741016082233 0 558.16741016082233 -144.00725834703189 0 0 0 0 -245.5981062674266 437.64147226261679 0 437.64147226261679 19.389167306151649 0 0 0 0 -111.6844962547766 312.1197328801718 0 312.1197328801718 -369.64523041489883 0 0 0 0 112.19802626786259 448.21835974475107 0 448.21835974475107 -347.06431327482278 0 0 0 0 40.302777342873014 267.52526593691709 0 267.52526593691709 -598.74345510520652 0 0 0 0 -43.446487634282676 150.43733971719121 0 150.43733971719121 -392.93476128411567 0 0 0 0 -78.375786806966062 348.71228215297378 0 348.71228215297378 -483.6908888571088 0 0 0 0 -71.473141649446916 108.16886414982218 0 108.16886414982218 336.28237483196062 0 0 0 0 2.3828307732306939 3.9574219496723515 0 3.9574219496723515 1.8579859528714593 0 0 0 0 -74.221424116898561 146.80023774457368 0 146.80023774457368 -197.58541630426771 0 0 0 0 12.169439427825068 3.6881495057035636 0 3.6881495057035636 5.716103454771158 0 0 0 0 -82.313661743566627 140.32949609495699 0 140.32949609495699 -105.85990693933127 0 0 0 0 67.056825436389772 575.71231373698902 0 575.71231373698902 -131.42186884999683 0 0 0 0 -75.95554119614826 162.31372310344887 0 162.31372310344887 -88.266229204993579 0 0 0 0 -101.37051083771803 191.66319824792299 0 191.66319824792299 -119.51367596571799 0 0 0 0 -4.2825456934515387 228.99752340161649 0 228.99752340161649 -313.11814496052102 0 0 0 0 -55.280080866155913 208.67162358960923 0 208.67162358960923 58.798706054396462 0 0 0 0 11.304591872980325 40.500809520326129 0 40.500809520326129 -27.999708818813403 0 0 0 0 -102.93633447260436 269.7438880268619 0 269.7438880268619 -11.859742129774531 0 0 0 0 -84.291583481895941 315.06004066463265 0 315.06004066463265 -60.150393166397407 0 0 0 0 15.979345618601656 236.84950895690417 0 236.84950895690417 -108.99265170565923 0 0 0 0 49.489740780227294 191.51285895345154 0 191.51285895345154 -58.644907043708372 0 0 0 0 169.14789105072487 436.0530191365533 0 436.0530191365533 65.975161782327632 0 0 0 0 -102.87697632650088 204.17494763962895 0 204.17494763962895 -66.183095524556848 0 0 0 0 -30.246980504278326 300.14315030296711 0 300.14315030296711 -104.24406475501019 0 0 0 0 -126.84367562859552 293.32447358373611 0 293.32447358373611 -98.791427897338508 0 0 0 0 249.26959827330938 164.30828791676504 0 164.30828791676504 -139.5477019136888 0 0 0 0 -241.42688069623546 68.593377457786119 0 68.593377457786119 -130.37944819626136 0 0 0 0 -397.11904104378482 156.11929897385562 0 156.11929897385562 -169.5742027816741 0 0 0 0 308.12310626889666 -354.16906627241042 0 -354.16906627241042 -324.42081194400089 0 0 0 0 -34.712450437589723 259.43971192510799 0 259.43971192510799 -311.55676980096905 0 0 0 0 -316.47433510125848 384.60416706882825 0 384.60416706882825 -357.66716196269408 0 0 0 0 -15.796046482228519 -4.6100003693746885 0 -4.6100003693746885 2.4084396273533173 0 0 0 0 -1.6656266922946088 160.65777978048936 0 160.65777978048936 -759.72878430728451 0 0 0 0 121.42250120993413 -60.199865713701001 0 -60.199865713701001 242.41022516817611 0 0 0 0 -7.2005261724379466 9.4214018405917841 0 9.4214018405917841 -7.8339482443982433 0 0 0 0 -269.18064224517366 1290.9222985004426 0 1290.9222985004426 673.72837429464562 0 0 0 0 54.820351367554395 145.70325115914602 0 145.70325115914602 -43.368369868454465 0 0 0 0 183.43423324011383 93.156717409030534 0 93.156717409030534 -184.39296420196479 0 0 0 0 -24.530162497860147 60.880959310277831 0 60.880959310277831 -182.68484358913702 0 0 0 0 16.638662204291904 246.87341175734036 0 246.87341175734036 -304.07783624586591 0 0 0 0 -124.95518853828253 321.13805371709168 0 321.13805371709168 185.95582542150078 0 0 0 0 26.725669697596793 120.52481632238266 0 120.52481632238266 -44.680822071512011 0 0 0 0 -16.697878725738462 41.000194155474304 0 41.000194155474304 -12.819051215757113 0 0 0 0 91.63583056157222 141.99938089168791 0 141.99938089168791 -128.16222634809674 0 0 0 0 29.01478468037088 142.45150087394501 0 142.45150087394501 -50.876776438421302 0 0 0 0 37.498208805467584 201.89691179286456 0 201.89691179286456 0.13309496379224584 0 0 0 0 -139.98551807652984 374.13306474742058 0 374.13306474742058 50.76693625633925 0 0 0 0 29.07347282028843 262.68230015830204 0 262.68230015830204 -333.91352813151025 0 0 0 0 -352.3649605151877 185.46526963865472 0 185.46526963865472 -45.687546341359848 0 0 0 0 241.11199424053484 141.6993782161735 0 141.6993782161735 -231.41851563443925 0 0 0 0 37.417095188478044 140.4858697783155 0 140.4858697783155 -53.137257956621454 0 0 0 0 29.705256232454758 215.09828929001969 0 215.09828929001969 -18.024490400042851 0 0 0 0 349.10825676695276 705.14007579839517 0 705.14007579839517 543.70909033543285 0 0 0 0 920.09857954955078 -203.58549174992368 0 -203.58549174992368 36.686283646064112 0 0 0 0 -189.84304836020965 220.36055314452187 0 220.36055314452187 680.42722934608901 0 0 0 0 -4.9691429184532012 2.7402540468710868 0 2.7402540468710868 -0.45727567048470519 0 0 0 0 -179.5429842503363 506.48259078265983 0 506.48259078265983 -111.74331845135021 0 0 0 0 172.64566535137419 2.5664757215054124 0 2.5664757215054124 -494.23463746643392 0 0 0 0 2405.3422150480474 354.86924604400338 0 354.86924604400338 -496.53080835234869 0 0 0 0 2278.0579736636282 -812.54500488128542 0 -812.54500488128542 -192.81850628933171 0 0 0 0 -1154.639204202068 1868.8749141061085 0 1868.8749141061085 -403.9256452459158 0 0 0 0 15.867696374236345 9.0419577681227636 0 9.0419577681227636 0.28175266120098286 0 0 0 0 -1034.2078340962307 993.16727973272646 0 993.16727973272646 -449.72619104880141 0 0 0 0 -710.73184225166187 593.32238238608807 0 593.32238238608807 465.93829097527487 0 0 0 0 4.5437979339476442 1722.8355157732076 0 1722.8355157732076 -436.16195771775347 0 0 0 0 1269.4175660095661 902.13544224875568 0 902.13544224875568 25.597776506008813 0 0 0 0 212.72275160449453 394.11323686993171 0 394.11323686993171 663.83870121248765 0 0 0 0 258.00482907454716 1230.8549355422765 0 1230.8549355422765 379.56421440070335 0 0 0 0 527.06160665328571 378.95649865402356 0 378.95649865402356 4.3356244835886173 0 0 0 0 -7.1491479702211223 11.652892952846287 0 11.652892952846287 -11.064630640758963 0 0 0 0 -764.16912856450654 1029.3657610307091 0 1029.3657610307091 341.78419234693865 0 0 0 0 -839.94623974215938 613.57736676450804 0 613.57736676450804 994.46122943401133 0 0 0 0 -710.23849019446061 765.31528107263512 0 765.31528107263512 592.5917883215734 0 0 0 0 -713.52504021144705 397.3663969984882 0 397.3663969984882 505.73410411833174 0 0 0 0 -91.252768340913462 607.12660582944227 0 607.12660582944227 534.08302456113961 0 0 0 0 -964.89059956114215 397.6120409943469 0 397.6120409943469 470.86735076264449 0 0 0 0 -220.51873577484548 429.00675952019628 0 429.00675952019628 388.60444197129982 0 0 0 0 -1403.2252672190371 1163.5627333089869 0 1163.5627333089869 53.196313930624456 0 0 0 0 -932.3568187339406 367.48852023518884 0 367.48852023518884 235.36191720962233 0 0 0 0 -1346.0496603901847 1920.3906760624268 0 1920.3906760624268 -1717.280100270902 0 0 0 0 -2437.3334778320859 1361.4510512307752 0 1361.4510512307752 359.45068016775713 0 0 0 0 -11.130189966112084 123.05641090504287 0 123.05641090504287 342.73591533961735 0 0 0 0 -1222.1197214836357 25.331434443705803 0 25.331434443705803 1493.6901451283484 0 0 0 0 -753.56132869598514 2094.0569244156395 0 2094.0569244156395 -4165.2084297860129 0 0 0 0 -20.375363162715814 5.3628612768331578 0 5.3628612768331578 -0.12157920578004422 0 0 0 0 -1870.1625912395712 2803.5979296239429 0 2803.5979296239429 -1342.8124640040478 0 0 0 0 37.076570710728049 24.796283242323867 0 24.796283242323867 5.0961219904097561 0 0 0 0 -2105.991269847349 664.54343164798047 0 664.54343164798047 -2228.4297658755022 0 0 0 0 521.46028415474575 840.68183167290408 0 840.68183167290408 -817.91148376716592 0 0 0 0 680.26509049299057 193.19106553486927 0 193.19106553486927 -1031.9366880983143 0 0 0 0 -728.59462320525199 280.1488219779967 0 280.1488219779967 -541.30039527350164 0 0 0 0 -612.35140633607807 1477.3197055624753 0 1477.3197055624753 -891.8853591826919 0 0 0 0 -1305.6964047180227 1487.4842448866621 0 1487.4842448866621 -1720.4990913258735 0 0 0 0 48.597809849710956 37.202124738526251 0 37.202124738526251 15.80429198969 0 0 0 0 164.21873606284771 899.76387884792848 0 899.76387884792848 -1004.2048772739436 0 0 0 0 919.59202730654215 639.8911520860529 0 639.8911520860529 -709.08894599288396 0 0 0 0 252.71491443214109 286.19937895440489 0 286.19937895440489 -220.67887302181043 0 0 0 0 188.90296020529786 1151.1392986449118 0 1151.1392986449118 1029.3536757465845 0 0 0 0 1994.2992145249882 679.39917396017336 0 679.39917396017336 -172.62894685514584 0 0 0 0 -691.23775989114802 320.45909016564656 0 320.45909016564656 251.19403539924679 0 0 0 0 1051.0607183221509 -389.8051519460405 0 -389.8051519460405 537.09561669147661 0 0 0 0 1731.1936564079806 97.521016917296947 0 97.521016917296947 -531.69205723280902 0 0 0 0 1948.1070665224543 -585.8159885045643 0 -585.8159885045643 570.72808155074017 0 0 0 0 1806.9689709447121 30.633501063311996 0 30.633501063311996 -534.44373349130456 0 0 0 0 1270.3027300430695 597.57163451734414 0 597.57163451734414 -513.79998277349659 0 0 0 0 8.0424443075811496 -1.1422848556734948 0 -1.1422848556734948 -0.94064382193143814 0 0 0 0 574.15447955165291 157.70337109197862 0 157.70337109197862 -371.59691448229933 0 0 0 0 1408.1918801202519 -344.49847799209601 0 -344.49847799209601 -740.19828572509141 0 0 0 0 1942.7572240988084 276.07972678986698 0 276.07972678986698 -673.16782591384617 0 0 0 0 349.75101248447572 -37.652423088321939 0 -37.652423088321939 -456.63200676688575 0 0 0 0 1611.1039982442926 -490.97536997390398 0 -490.97536997390398 -1126.0398606905001 0 0 0 0 262.05884923441772 37.657056679287052 0 37.657056679287052 -467.91843722037447 0 0 0 0 321.77258895290288 459.20934015738385 0 459.20934015738385 -306.19744901249214 0 0 0 0 12.518738465787578 -10.10832868009706 0 -10.10832868009706 1.5910346414913334 0 0 0 0 53.078998489412697 148.98728791325539 0 148.98728791325539 -641.32902288140758 0 0 0 0 225.07861166341172 -239.8729530332057 0 -239.8729530332057 -606.32652704717111 0 0 0 0 -44.853635417126497 246.12825221879211 0 246.12825221879211 -392.68687972587941 0 0 0 0 -1860.4544901215122 1485.0259303004386 0 1485.0259303004386 -55.039442153371056 0 0 0 0 21.114738973090425 227.05605027408455 0 227.05605027408455 -121.60807040034706 0 0 0 0 -9.0441034969117027 184.18470627134957 0 184.18470627134957 23.065483718601172 0 0 0 0 107.1810846162407 167.90969805500936 0 167.90969805500936 -194.62865655148926 0 0 0 0 22.161511268073525 29.472386285333954 0 29.472386285333954 -9.3879581932450904 0 0 0 0 26.989002100410289 171.76990247437061 0 171.76990247437061 -66.909189415106084 0 0 0 0 -101.86389354051062 -75.371094197256753 0 -75.371094197256753 -566.75628109040554 0 0 0 0 29.182156582184533 143.32486517637369 0 143.32486517637369 -45.601727885368433 0 0 0 0 207.69160728184215 62.955443792641745 0 62.955443792641745 -94.982126112496189 0 0 0 0 -845.37853087781696 253.17858351903851 0 253.17858351903851 582.94821584652527 0 0 0 0 12.51165215500248 65.60771759389516 0 65.60771759389516 -17.457503485802377 0 0 0 0 36.057940602237814 127.08860860136733 0 127.08860860136733 -37.071357982135481 0 0 0 0 -1065.6795302462779 489.56551030359242 0 489.56551030359242 -34.713972695324628 0 0 0 0 -1718.2244281740568 991.8891634341926 0 991.8891634341926 -324.21932665840359 0 0 0 0 -233.51243909545883 -80.468847737694887 0 -80.468847737694887 -210.0048880841714 0 0 0 0 -586.43699991314497 -85.888329681936739 0 -85.888329681936739 11.352080501044838 0 0 0 0 -267.17990063216712 -240.95989534467662 0 -240.95989534467662 -40.247064436342043 0 0 0 0 -1087.7217668662197 358.51051312781055 0 358.51051312781055 -125.49985664589622 0 0 0 0 84.885346500021114 -262.00370879188267 0 -262.00370879188267 -40.438615436614782 0 0 0 0 -120.28980396453699 -279.31018544758808 0 -279.31018544758808 -33.334195004987123 0 0 0 0 93.680746735080902 -421.56338554238937 0 -421.56338554238937 296.55323094833875 0 0 0 0 -174.0242918672302 -89.602674634137657 0 -89.602674634137657 -46.398340740733374 0 0 0 0 679.87362600810593 93.671928300274885 0 93.671928300274885 -53.572059697905729 0 0 0 0 634.9538404133782 -237.10794575 0 -237.10794575 556.74835731348867 0 0 0 0 58.271986776337144 289.25509909832908 0 289.25509909832908 299.56035152737138 0 0 0 0 679.27315359318163 800.37201684164029 0 800.37201684164029 512.14808354526758 0 0 0 0 -1462.1320007424401 469.32130544966867 0 469.32130544966867 -33.731128749139316 0 0 0 0 29.19980170705815 125.787033975491 0 125.787033975491 -46.307595701617316 0 0 0 0 -1176.7456792050871 266.30039084965392 0 266.30039084965392 264.53004937326023 0 0 0 0 -410.19417656118458 -322.97390913147319 0 -322.97390913147319 291.67305142728583 0 0 0 0 -861.73081452712358 677.79825302338395 0 677.79825302338395 44.932520520757407 0 0 0 0 -1143.2340239851765 404.35988144828661 0 404.35988144828661 -175.74172497536711 0 0 0 0 -1840.1337551158213 415.7887081951194 0 415.7887081951194 9.2887592852057423 0 0 0 0 -1245.7543134298467 592.68555986737556 0 592.68555986737556 -131.17895411911741 0 0 0 0 28.43785656305441 119.429196484393 0 119.429196484393 -66.061102008077285 0 0 0 0 -395.1396587947529 554.36420494444246 0 554.36420494444246 -246.30245039480815 0 0 0 0 30.757785835637634 124.5778038147603 0 124.5778038147603 -102.89706679638719 0 0 0 0 -1044.1805768437916 214.62782146258905 0 214.62782146258905 -146.60502655501296 0 0 0 0 1838.9470851281512 152.28402430690767 0 152.28402430690767 71.851527487870953 0 0 0 0 1372.1047278776896 730.77392522636364 0 730.77392522636364 312.17042128403409 0 0 0 0 -103.12427294292866 4.9049335754498316 0 4.9049335754498316 285.85484209545393 0 0 0 0 81.39809391462768 711.64870845547921 0 711.64870845547921 -205.46660772150244 0 0 0 0 791.64929097815184 16.506697323976368 0 16.506697323976368 -163.78265287560862 0 0 0 0 2506.2571791982118 -76.090592861957703 0 -76.090592861957703 -486.63189713708925 0 0 0 0 4023.4165067470749 1172.8868443754618 0 1172.8868443754618 -677.4503307976745 0 0 0 0 4034.9860751051528 950.61550577820708 0 950.61550577820708 -380.19119555880752 0 0 0 0 -203.31245948540163 65.139007506986673 0 65.139007506986673 108.85028979488197 0 0 0 0 -0.75687877829258809 3.021619599948508 0 3.021619599948508 82.845624247233957 0 0 0 0 -602.77887856648886 -28.867843191612337 0 -28.867843191612337 304.55726483424223 0 0 0 0 -493.60489557134861 -183.78156222446705 0 -183.78156222446705 85.145839133823756 0 0 0 0 -545.776191132245 -352.3909276171762 0 -352.3909276171762 -145.73284951987443 0 0 0 0 -358.87650147569366 -368.2315669708878 0 -368.2315669708878 -283.69918894524017 0 0 0 0 -477.59390322967374 -240.76989178382064 0 -240.76989178382064 -173.85378735299309 0 0 0 0 -351.1106345304288 -285.66504381116829 0 -285.66504381116829 -165.12446110568817 0 0 0 0 -404.21661404355837 -247.05631931807511 0 -247.05631931807511 26.095955458178651 0 0 0 0 -418.86114213286783 -197.62851858785871 0 -197.62851858785871 159.18260352754442 0 0 0 0 -305.73331344894541 -231.52247609823826 0 -231.52247609823826 24.838031342296745 0 0 0 0 -393.45917239328992 -66.595626952359453 0 -66.595626952359453 142.90710631697584 0 0 0 0 -268.9054875918082 -136.73263568912807 0 -136.73263568912807 65.97313559965005 0 0 0 0 62.613525619657594 -469.33477704342658 0 -469.33477704342658 435.31868377969295 0 0 0 0 -250.30475408789425 -61.475764552442342 0 -61.475764552442342 136.44484002456738 0 0 0 0 -141.4853485301719 -296.72459596040426 0 -296.72459596040426 181.72729142403296 0 0 0 0 -428.90383931658289 -276.77803568878517 0 -276.77803568878517 511.06673519072501 0 0 0 0 -522.48230526870611 75.807410761559368 0 75.807410761559368 505.79934186730679 0 0 0 0 -561.57755703070143 -191.56922041563303 0 -191.56922041563303 1409.4354184561744 0 0 0 0 1567.9517393289716 387.69191447364938 0 387.69191447364938 312.29166080780851 0 0 0 0 1240.661588560426 617.65564751385682 0 617.65564751385682 1913.6808654529668 0 0 0 0 1998.7479881367381 826.54862543452828 0 826.54862543452828 798.18403788211435 0 0 0 0 4009.2133571933518 1226.3786057194229 0 1226.3786057194229 485.63927436540689 0 0 0 0 1.5210089077645392 1.90979552784259 0 1.90979552784259 26.655275240523963 0 0 0 0 -100.18056798109319 316.79710461163995 0 316.79710461163995 424.35116558537266 0 0 0 0 0.12796342399087735 494.25955218093077 0 494.25955218093077 99.603297743218718 0 0 0 0 192.72858911610092 472.27104713284643 0 472.27104713284643 194.4519803814901 0 0 0 0 -161.33485832138103 363.35251152606997 0 363.35251152606997 224.30938361181325 0 0 0 0 -21.658282268486801 150.96513945899642 0 150.96513945899642 -494.87516192138719 0 0 0 0 -0.61299160748603754 481.5963132958932 0 481.5963132958932 -607.3671647331139 0 0 0 0 3.7611383109496046 1.3931456989574542 0 1.3931456989574542 0.4676367439812168 0 0 0 0 -118.48072336464247 174.04697610117364 0 174.04697610117364 2015.009258399783 0 0 0 0 -106.05829794205783 381.64624380453279 0 381.64624380453279 -429.13213292673754 0 0 0 0 53.127234954474261 40.463329403497482 0 40.463329403497482 -1679.8535809414971 0 0 0 0 234.88705539092189 83.516730615709093 0 83.516730615709093 -1771.6302595773959 0 0 0 0 -140.66310053848429 293.68053070099268 0 293.68053070099268 1058.3435686863959 0 0 0 0 8.7188227324236323 11.025744518538701 0 11.025744518538701 1.6965731189437889 0 0 0 0 -262.90004506101832 142.14782895491226 0 142.14782895491226 -39.482122917761444 0 0 0 0 740.96324900019681 772.44294899992747 0 772.44294899992747 31.022783979427913 0 0 0 0 127.9026970321429 283.68624324162738 0 283.68624324162738 -424.49107189322876 0 0 0 0 40.693274715813459 242.21295114182794 0 242.21295114182794 400.36404999024671 0 0 0 0 96.973984492491581 760.182990559686 0 760.182990559686 672.03283393799029 0 0 0 0 -16.425376819372445 17.815366443015023 0 17.815366443015023 14.762485289985904 0 0 0 0 1651.5905687517952 1343.0353450509865 0 1343.0353450509865 564.62597604972143 0 0 0 0 -799.17184948764043 246.20406744310094 0 246.20406744310094 -29.038349039299646 0 0 0 0 -6.8245941099276308 8.6772444138593983 0 8.6772444138593983 4.1037422342024854 0 0 0 0 -1405.0803555004823 154.52647755412909 0 154.52647755412909 27.17285663641087 0 0 0 0 2551.5329197564788 2422.9756667796423 0 2422.9756667796423 600.91462162016251 0 0 0 0 -3200.8074854634615 377.10824533957566 0 377.10824533957566 774.55271219710994 0 0 0 0 802.56060470974626 529.67787400627822 0 529.67787400627822 921.03890870691248 0 0 0 0 2334.5880313856469 980.73708688444458 0 980.73708688444458 -268.08459237462375 0 0 0 0 466.19645129010314 64.365435949628591 0 64.365435949628591 440.39466860229732 0 0 0 0 804.54297578314436 727.39965023208242 0 727.39965023208242 -1429.1202688522681 0 0 0 0 -122.05976258777082 237.17845288741955 0 237.17845288741955 203.80811031985286 0 0 0 0 7.6160395559160179 18.474964698106902 0 18.474964698106902 2.9977209337919319 0 0 0 0 -67.095319515341544 541.36208399991665 0 541.36208399991665 -120.41713929596881 0 0 0 0 -258.9380807421112 548.09715485225752 0 548.09715485225752 -676.98046335438994 0 0 0 0 -115.25839420873672 345.29247608094738 0 345.29247608094738 -396.11251551055466 0 0 0 0 -4.4777394906325299 18.321371577598541 0 18.321371577598541 4.2813965564232532 0 0 0 0 -992.36563492476125 940.38227716770416 0 940.38227716770416 1078.0407975176786 0 0 0 0 -121.16887846149621 1482.1179975532741 0 1482.1179975532741 1335.8133547732286 0 0 0 0 -554.7258165293606 1530.6343070121729 0 1530.6343070121729 537.63142144896847 0 0 0 0 806.4862062275788 28.427289959905465 0 28.427289959905465 265.26316952257184 0 0 0 0 -351.66732486820547 440.92149669892751 0 440.92149669892751 -726.66232883132761 0 0 0 0 -363.30981691747002 510.83589789190773 0 510.83589789190773 -1108.8329728326935 0 0 0 0 -636.3479328880203 921.72502470093968 0 921.72502470093968 -810.66048641143425 0 0 0 0 -1423.8344156716776 -279.50762901159032 0 -279.50762901159032 3411.0011356169234 0 0 0 0 -436.98594560165657 1551.5503138630811 0 1551.5503138630811 -2699.8994403593915 0 0 0 0 -2312.172063973383 2100.1405501242261 0 2100.1405501242261 911.03203917613428 0 0 0 0 -6.1316191309417718 5.2657521140460943 0 5.2657521140460943 1.6039573211708884 0 0 0 0 -614.01591813337291 443.65522158086242 0 443.65522158086242 -82.399683479110536 0 0 0 0 -1286.2323744180612 -61.628576108640118 0 -61.628576108640118 498.95298216298397 0 0 0 0 -670.86148935288657 -415.94513251062017 0 -415.94513251062017 650.8714362866076 0 0 0 0 -744.06565030713682 708.88419732097827 0 708.88419732097827 94.482811104471693 0 0 0 0 -48.537522944563534 274.11953468847969 0 274.11953468847969 -33.50393710185017 0 0 0 0 -904.43428071909875 419.64150136993703 0 419.64150136993703 -70.25965509652633 0 0 0 0 -1073.499588821458 448.32164602723537 0 448.32164602723537 -34.930001806314976 0 0 0 0 -773.42809983118786 331.87289274418799 0 331.87289274418799 -125.85932575256265 0 0 0 0 -1118.4435571295107 468.75770202389867 0 468.75770202389867 -71.555596705831704 0 0 0 0 -793.27150410338072 237.21312968077837 0 237.21312968077837 -158.42418236326193 0 0 0 0 -1017.6593484219193 330.78713883367527 0 330.78713883367527 318.42429113902472 0 0 0 0 -415.92749420990003 109.91383375869918 0 109.91383375869918 -38.638362522829766 0 0 0 0 -718.70973803856759 342.29183837973687 0 342.29183837973687 -27.157986246944347 0 0 0 0 -147.54243845889869 -64.606293805043606 0 -64.606293805043606 190.96160123841764 0 0 0 0 -263.39772760352935 135.41203646391295 0 135.41203646391295 -82.786057846489712 0 0 0 0 40.752117429728969 18.364810752473204 0 18.364810752473204 -42.025955994748074 0 0 0 0 -291.92338847990686 62.39396831326485 0 62.39396831326485 41.015299642989703 0 0 0 0 -53.246047820764943 146.81453272558247 0 146.81453272558247 -59.412628409198078 0 0 0 0 -769.21603701286949 354.31688873044186 0 354.31688873044186 -38.001462304629968 0 0 0 0 -424.0693342956074 59.454292667656773 0 59.454292667656773 58.591931416587613 0 0 0 0 -696.36569934795261 283.08682385222346 0 283.08682385222346 -38.796866701777617 0 0 0 0 871.16093632711272 797.60031827134662 0 797.60031827134662 490.02831340393504 0 0 0 0 841.93630933910026 549.84638379034459 0 549.84638379034459 482.80283190940099 0 0 0 0 256.24755948074744 446.96700938877257 0 446.96700938877257 466.39113542332416 0 0 0 0 -19.29627346915791 16.799552657778406 0 16.799552657778406 30.726738286063579 0 0 0 0 -3.1655496577877784 6.1850699522692594 0 6.1850699522692594 76.44499830355926 0 0 0 0 -17.386997735695701 9.2606640441975401 0 9.2606640441975401 47.277463734667151 0 0 0 0 518.0189827630893 513.90883236135141 0 513.90883236135141 423.31692799770826 0 0 0 0 177.58362013599253 412.11472337831219 0 412.11472337831219 464.17270064161858 0 0 0 0 221.47704324415827 289.82597830765917 0 289.82597830765917 289.82960655269562 0 0 0 0 0.17988831896218471 422.153704605862 0 422.153704605862 517.93610942248779 0 0 0 0 239.83147122203445 493.18893083454441 0 493.18893083454441 533.2908176634337 0 0 0 0 -0.14440850698156282 547.05879813135834 0 547.05879813135834 554.06256666702757 0 0 0 0 -851.31578005387564 -592.37706579826772 0 -592.37706579826772 -87.037779696123835 0 0 0 0 0.013958454816020094 19.819328982933257 0 19.819328982933257 -12.7635933397396 0 0 0 0 24.873999716321123 41.308993684613597 0 41.308993684613597 -32.119377844983092 0 0 0 0 -4.2282883657954073 10.544722842284727 0 10.544722842284727 -42.843439451006191 0 0 0 0 -110.71211316426343 -350.07451762721576 0 -350.07451762721576 -614.69582771737259 0 0 0 0 -2.8345373351440912 35.060343445515258 0 35.060343445515258 -61.897406973344154 0 0 0 0 -4.804429105221061 33.776154291863349 0 33.776154291863349 -30.936404579428199 0 0 0 0 19.949201693903888 20.704193592699085 0 20.704193592699085 -68.199744454406755 0 0 0 0 -0.003113988772383891 43.693050166615649 0 43.693050166615649 -65.119881790113141 0 0 0 0 20.002129139305907 35.518291095278983 0 35.518291095278983 -120.7874532941205 0 0 0 0 -0.059895164795420897 -5.5432168869631795 0 -5.5432168869631795 1.2445504640087854 0 0 0 0 54.569280771829654 297.29897888208507 0 297.29897888208507 403.18369783862181 0 0 0 0 0.069356890072186483 301.94795362608824 0 301.94795362608824 573.40250795651082 0 0 0 0 138.8110919202154 200.39104600943301 0 200.39104600943301 243.19498590258445 0 0 0 0 2.399573442873816 4.0035044791410144 0 4.0035044791410144 0.72510700095855007 0 0 0 0 33.472211291686108 53.022083740488142 0 53.022083740488142 -38.689724825235317 0 0 0 0 9.5470331218389219 91.156011007671566 0 91.156011007671566 -16.272654190493792 0 0 0 0 -93.678219077468384 -327.6687578682986 0 -327.6687578682986 -905.67946665717864 0 0 0 0 155.32483164925361 236.96986844499952 0 236.96986844499952 323.39580662302978 0 0 0 0 -19.055342869439073 12.109842761700975 0 12.109842761700975 75.39486272898894 0 0 0 0 -25.193711850857653 39.529659349888789 0 39.529659349888789 218.32665876203828 0 0 0 0 11.991620849090395 1.6761868313114974 0 1.6761868313114974 75.974096978012767 0 0 0 0 -397.23133365504327 -474.33410649371172 0 -474.33410649371172 -844.03794090219935 0 0 0 0 -603.61206786055118 -389.45440384509311 0 -389.45440384509311 -836.59349008204413 0 0 0 0 -115.82132164389623 95.364118344229382 0 95.364118344229382 66.001769216851244 0 0 0 0 100.63012323371368 389.89468086782722 0 389.89468086782722 -190.02367851171493 0 0 0 0 -249.31045601138612 -573.17557660281409 0 -573.17557660281409 -284.56328514615052 0 0 0 0 -221.41619759182504 -599.16788333322484 0 -599.16788333322484 -609.79538422404539 0 0 0 0 -0.15615222238551496 0.28305030810065546 0 0.28305030810065546 -7.1810466572359974 0 0 0 0 442.80781908961944 116.53681239552998 0 116.53681239552998 -120.33092985037183 0 0 0 0 231.09571060388407 201.97268303788587 0 201.97268303788587 97.724179243132994 0 0 0 0 251.94306174264057 77.853824954875563 0 77.853824954875563 -60.624738620761264 0 0 0 0 735.96723658172414 192.44043979813569 0 192.44043979813569 -40.793426422168068 0 0 0 0 10.940823710912781 15.518428509821007 0 15.518428509821007 31.161913517285377 0 0 0 0 -448.1438463927625 -7.7038103892746221 0 -7.7038103892746221 158.40973332407225 0 0 0 0 874.92132330610184 -97.287602252460829 0 -97.287602252460829 35.038094328552688 0 0 0 0 -64.321135892227176 -53.004432126332631 0 -53.004432126332631 -834.84404574226755 0 0 0 0 2.9838790809280908 3.9353967187851424 0 3.9353967187851424 8.9972928223960196 0 0 0 0 -475.71342618732888 340.80023392417297 0 340.80023392417297 163.38878121045309 0 0 0 0 448.49346342339413 173.35925821773435 0 173.35925821773435 153.83411085643684 0 0 0 0 2191.3933572740934 -405.6598175677193 0 -405.6598175677193 -518.93793311810646 0 0 0 0 -10.167488564404266 99.220720886725616 0 99.220720886725616 -14.431602985987636 0 0 0 0 -2.0904518776806071 276.55274898006883 0 276.55274898006883 -62.26572606425907 0 0 0 0 2237.512018133828 -80.326989635583061 0 -80.326989635583061 -1741.3108297459298 0 0 0 0 260.79004028392956 1138.7019446474567 0 1138.7019446474567 -955.94297963892586 0 0 0 0 -60.919905483671755 107.93147693624087 0 107.93147693624087 407.74544882219197 0 0 0 0 -561.38477171451086 -463.76909313802253 0 -463.76909313802253 -1143.0455428177916 0 0 0 0 -295.16863118010224 245.65659590859968 0 245.65659590859968 -1300.282111241859 0 0 0 0 -769.6667512093336 246.4955124797026 0 246.4955124797026 -535.23304405546605 0 0 0 0 -545.94489339001302 522.59841931645315 0 522.59841931645315 315.11028841858206 0 0 0 0 -44.812446963602156 106.17930171036781 0 106.17930171036781 -15.783805813015761 0 0 0 0 -586.97934380644256 86.41622438516228 0 86.41622438516228 -709.81999509399702 0 0 0 0 -685.1321090226611 761.9567556635235 0 761.9567556635235 -797.76867417197082 0 0 0 0 -121.79602594982134 271.60677701720761 0 271.60677701720761 -675.31229773176619 0 0 0 0 -66.575293422257346 508.62647934636135 0 508.62647934636135 -524.3145475294059 0 0 0 0 -56.927008011786256 -39.873252778972144 0 -39.873252778972144 -228.53970337707506 0 0 0 0 -328.45064093387919 231.33127547566437 0 231.33127547566437 138.02964688890825 0 0 0 0 -539.28334494342562 215.21834407628194 0 215.21834407628194 -61.485817303626391 0 0 0 0 -401.6881875153922 149.37934484975722 0 149.37934484975722 -557.80465308924886 0 0 0 0 -272.37160439993022 23.007142955782911 0 23.007142955782911 13.85899695957869 0 0 0 0 -494.83225006333669 106.59151661425039 0 106.59151661425039 211.77914724898619 0 0 0 0 -256.00266330145132 52.483726668873487 0 52.483726668873487 80.02314496247709 0 0 0 0 -276.54432941736377 285.99508105867312 0 285.99508105867312 469.66150293929968 0 0 0 0 3051.6639001854928 657.74041727271106 0 657.74041727271106 4233.6372953416139 0 0 0 0 326.59252215885726 767.61505376261539 0 767.61505376261539 539.43603813576556 0 0 0 0 -20.613468097208965 31.148474987106283 0 31.148474987106283 -36.900206212105054 0 0 0 0 310.19770968303783 303.19481188561622 0 303.19481188561622 89.639349497501826 0 0 0 0 -130.53314406937716 253.38815211840301 0 253.38815211840301 847.22003806375142 0 0 0 0 -13.004542173701338 167.59279690695803 0 167.59279690695803 136.80109211149102 0 0 0 0 -23.944309353502149 55.743460492389659 0 55.743460492389659 -59.184021087668683 0 0 0 0 -71.596277622127673 185.58628654728636 0 185.58628654728636 172.09827611350192 0 0 0 0 -165.18007000836951 363.00958533881749 0 363.00958533881749 -40.430377971650159 0 0 0 0 -0.30555920427610772 43.485954953838586 0 43.485954953838586 48.429385809072258 0 0 0 0 -272.16448299688636 344.54812629693515 0 344.54812629693515 139.34989873150926 0 0 0 0 -293.9802782239276 446.79343017043357 0 446.79343017043357 77.425742222578265 0 0 0 0 -477.6913780059549 408.8481942780146 0 408.8481942780146 256.14652246747414 0 0 0 0 67.048791540728416 -356.87014140719566 0 -356.87014140719566 -57.489081049744527 0 0 0 0 4058.6474631212477 1281.330497630117 0 1281.330497630117 174.58492601357671 0 0 0 0 291.37930183370918 1796.3335821205153 0 1796.3335821205153 2800.1523342633336 0 0 0 0 -15.015697212018438 24.057305694564917 0 24.057305694564917 -5.7892911235176641 0 0 0 0 2403.2315743410436 2028.527869456696 0 2028.527869456696 2016.5509687353679 0 0 0 0 2624.9222498738673 1415.1138535440473 0 1415.1138535440473 188.75174559831612 0 0 0 0 1949.0399390814491 855.71298167486759 0 855.71298167486759 -534.31369246739359 0 0 0 0 2505.787290146116 1771.258518014741 0 1771.258518014741 139.94306096375294 0 0 0 0 1115.7129739753436 1155.9310751269477 0 1155.9310751269477 763.49847190873152 0 0 0 0 1628.100004165055 724.2376678267492 0 724.2376678267492 325.52363120127734 0 0 0 0 555.98331842232437 -20.606332046799253 0 -20.606332046799253 1052.490051316825 0 0 0 0 1699.1451890254393 67.723171220168297 0 67.723171220168297 1804.6312950027132 0 0 0 0 1186.9242630119406 765.04437135725766 0 765.04437135725766 915.7060901974728 0 0 0 0 1213.2578628006158 54.558790412313101 0 54.558790412313101 414.19411307968039 0 0 0 0 1363.1828475600705 981.93799182447935 0 981.93799182447935 803.77925350186342 0 0 0 0 451.01267179955175 37.028621684423797 0 37.028621684423797 63.176493734397809 0 0 0 0 371.56436611746904 153.92246527691896 0 153.92246527691896 582.43518608061549 0 0 0 0 238.71314210555283 -42.188665454783404 0 -42.188665454783404 167.98870944526243 0 0 0 0 885.93351208468084 532.75306000642377 0 532.75306000642377 318.16625097049109 0 0 0 0 1031.600247607792 1519.590175406147 0 1519.590175406147 1122.8333725803204 0 0 0 0 838.69747682608431 804.53263527343006 0 804.53263527343006 483.16215586939416 0 0 0 0 801.1628921249503 559.20568169925491 0 559.20568169925491 531.02583240172862 0 0 0 0 1290.8908450602903 1243.4659438575109 0 1243.4659438575109 869.11419342084264 0 0 0 0 1551.9860616952647 1663.9232963584527 0 1663.9232963584527 1016.7385296276916 0 0 0 0 1603.691826983646 1566.9378957741428 0 1566.9378957741428 986.09282631334099 0 0 0 0 1290.4298282642485 1454.18226871454 0 1454.18226871454 1050.5741191246925 0 0 0 0 -50.096637492287925 58.3956110782552 0 58.3956110782552 -23.243380095063081 0 0 0 0 714.87532416536123 702.00834710870822 0 702.00834710870822 1362.8679173855671 0 0 0 0 1325.0161029169103 1279.0974732459806 0 1279.0974732459806 794.82252468340084 0 0 0 0 1266.846946710255 1611.7443750393431 0 1611.7443750393431 1611.3025173794522 0 0 0 0 1553.659384939645 1241.4813365237023 0 1241.4813365237023 809.09953773549023 0 0 0 0 1235.2330218623101 1456.2691335829131 0 1456.2691335829131 1052.2464873709832 0 0 0 0 1597.8134669286665 1558.6261439146056 0 1558.6261439146056 1050.0389284956109 0 0 0 0 2205.1612944997032 923.44111599095777 0 923.44111599095777 668.96407552921846 0 0 0 0 3069.5437051801709 1096.5992780801662 0 1096.5992780801662 671.3557612915447 0 0 0 0 2759.4764866831247 1878.4443522560796 0 1878.4443522560796 1091.9578337598596 0 0 0 0 479.85544441239472 892.33840059375916 0 892.33840059375916 1762.5768489310431 0 0 0 0 -161.0596200095606 141.1003860592491 0 141.1003860592491 81.974802016157241 0 0 0 0 789.60291852959199 426.49230482495955 0 426.49230482495955 89.48913216651863 0 0 0 0 -12.711924308328889 -232.69019945406211 0 -232.69019945406211 -66.806887749630732 0 0 0 0 502.75846005254425 176.07442745224216 0 176.07442745224216 130.74460898357847 0 0 0 0 565.11343858507462 126.49865432272964 0 126.49865432272964 -12.789876708730844 0 0 0 0 508.59617654309841 230.75656849058419 0 230.75656849058419 230.46162931079652 0 0 0 0 605.82216472225264 219.37421562817008 0 219.37421562817008 23.728356630429516 0 0 0 0 638.46946735319216 291.63798010572305 0 291.63798010572305 130.26163430865108 0 0 0 0 543.4258294167812 309.51030649362997 0 309.51030649362997 257.77419957532766 0 0 0 0 1904.4949346866924 1456.4622712645396 0 1456.4622712645396 797.16991974511257 0 0 0 0 1686.7040275325271 2125.9646210625915 0 2125.9646210625915 1245.2042173905502 0 0 0 0 -32.277704017859037 39.891142503086741 0 39.891142503086741 -26.91329744458772 0 0 0 0 1930.2777878924608 1807.8944710609499 0 1807.8944710609499 846.13156390943186 0 0 0 0 -13.458438223905659 9.4453090353468383 0 9.4453090353468383 -5.674498870256329 0 0 0 0 1482.2549776800442 1870.2137890028862 0 1870.2137890028862 1315.1229066838896 0 0 0 0 1304.2293282321771 1450.03434026576 0 1450.03434026576 912.67479485749209 0 0 0 0 1190.369494292223 1768.9235080568358 0 1768.9235080568358 1600.3437693590095 0 0 0 0 1124.6585650525958 1468.0638617609329 0 1468.0638617609329 1103.5243247744002 0 0 0 0 1215.3193729229388 1471.785930174532 0 1471.785930174532 867.70360235717999 0 0 0 0 616.50083257184633 367.89596204964431 0 367.89596204964431 -107.94066687436697 0 0 0 0 602.50783365423558 517.91113612917206 0 517.91113612917206 407.06389959098851 0 0 0 0 793.37697450141422 222.99796179864529 0 222.99796179864529 39.452742099444208 0 0 0 0 612.93143663484807 157.8925334670482 0 157.8925334670482 -243.78007877253663 0 0 0 0 622.69847471705179 285.98295134271859 0 285.98295134271859 43.267816589211634 0 0 0 0 637.4580059957807 161.63080732772255 0 161.63080732772255 -53.003281553568968 0 0 0 0 520.28360180568416 156.14546411459219 0 156.14546411459219 -19.781579344020884 0 0 0 0 520.60844574220675 106.40436397359728 0 106.40436397359728 -125.9497531011034 0 0 0 0 521.71604813556769 135.44592631950513 0 135.44592631950513 -98.102469416705617 0 0 0 0 467.68069063575786 41.757777201819366 0 41.757777201819366 -118.98660537423575 0 0 0 0 477.50959663739923 123.44711555977808 0 123.44711555977808 -94.911358872039273 0 0 0 0 574.2384196666535 99.543896771131585 0 99.543896771131585 -90.932821705854622 0 0 0 0 -1.8599852415374016 3.0381871634864694 0 3.0381871634864694 -2.5319758540787598 0 0 0 0 499.43468985447544 149.7001799418972 0 149.7001799418972 -47.24371034028718 0 0 0 0 562.26157249791868 166.49869515450621 0 166.49869515450621 -51.450595196733047 0 0 0 0 544.19334075390361 130.91170735001742 0 130.91170735001742 -100.46580292737144 0 0 0 0 519.66146250098245 204.49572550841822 0 204.49572550841822 -149.90160389636458 0 0 0 0 470.26480268361047 242.56897607422979 0 242.56897607422979 -156.11009943157961 0 0 0 0 470.00417935795849 181.40117794094385 0 181.40117794094385 -122.51318630922719 0 0 0 0 229.13181168728624 215.58680095836661 0 215.58680095836661 -6.5032806434519443 0 0 0 0 385.67138081566372 65.945284257550838 0 65.945284257550838 65.833630893698682 0 0 0 0 415.55946865854912 185.90367755843207 0 185.90367755843207 27.553954583576342 0 0 0 0 552.33856414444745 148.51988160558312 0 148.51988160558312 -104.39915764279499 0 0 0 0 414.1088166728814 149.01695628687673 0 149.01695628687673 -9.0839070054917102 0 0 0 0 250.56443829853379 124.07781420873766 0 124.07781420873766 48.822016148662897 0 0 0 0 0.11834030020720832 2.8092012760087073 0 2.8092012760087073 -16.991867416641071 0 0 0 0 292.69477897824254 98.480854595133223 0 98.480854595133223 -18.70467545172869 0 0 0 0 292.0161053963966 95.700364233827599 0 95.700364233827599 65.741416901458479 0 0 0 0 428.89710834458674 55.148372851498721 0 55.148372851498721 -579.84166626636033 0 0 0 0 434.14474372283439 108.82757108378894 0 108.82757108378894 -63.984095758349667 0 0 0 0 315.38321888458449 408.41202908294656 0 408.41202908294656 -238.80890000858358 0 0 0 0 385.9170023141487 446.45188916489946 0 446.45188916489946 -28.401364493047936 0 0 0 0 389.96869732430059 417.23533904168772 0 417.23533904168772 -336.90390684772285 0 0 0 0 325.74310809859344 638.24019066724463 0 638.24019066724463 -1546.0661665661573 0 0 0 0 -711.10258864896605 1377.4667407277366 0 1377.4667407277366 -523.99186101908549 0 0 0 0 267.43150149782014 -59.53017970226341 0 -59.53017970226341 -577.07775827799719 0 0 0 0 -0.32255639899791788 3.392735016577717 0 3.392735016577717 -9.4194888274813753 0 0 0 0 190.48922854603734 -27.996716176350674 0 -27.996716176350674 -7.3780226812990577 0 0 0 0 122.42008535392233 1289.42042407389 0 1289.42042407389 -969.84126735836594 0 0 0 0 -1430.181415694595 982.96688013666267 0 982.96688013666267 -776.85229970868568 0 0 0 0 0.077442978476849333 7.8003861498840479 0 7.8003861498840479 0.80395678723077246 0 0 0 0 1334.1375751757089 509.31260628478424 0 509.31260628478424 -356.83781074020749 0 0 0 0 -2.223578737306525 1409.8030255301742 0 1409.8030255301742 -937.40118602880648 0 0 0 0 -78.602313780487748 419.72255820066994 0 419.72255820066994 -2490.0344170678209 0 0 0 0 -1349.7474070048775 -1266.2168456701738 0 -1266.2168456701738 -1457.7150191733886 0 0 0 0 450.48407020544983 -243.45015554985639 0 -243.45015554985639 -464.46849201230543 0 0 0 0 -4.0148621230040646 4.4177527055091446 0 4.4177527055091446 -11.877053939754134 0 0 0 0 -1001.9149441088084 -502.63436194833912 0 -502.63436194833912 -162.73091081994744 0 0 0 0 -94.247510850516846 1110.9320386875038 0 1110.9320386875038 -434.8525929756097 0 0 0 0 0.02577258666860871 19.78992392944474 0 19.78992392944474 -12.759585297419108 0 0 0 0 -189.95120660412067 -78.370856773508422 0 -78.370856773508422 950.02169756870717 0 0 0 0 12.562261720566312 177.19084248779836 0 177.19084248779836 297.71904170265952 0 0 0 0 -78.050602966973372 53.93487304229879 0 53.93487304229879 33.029035808404245 0 0 0 0 15.874759350350359 170.76970108854584 0 170.76970108854584 294.74513829695934 0 0 0 0 -12.495258578041103 181.26244906653301 0 181.26244906653301 286.69208871148294 0 0 0 0 -1.9276134087267565 186.69529401945329 0 186.69529401945329 287.06435969055747 0 0 0 0 -1.5775402897706954 195.69223563624109 0 195.69223563624109 271.2593173039495 0 0 0 0 -1.7083876031974796 191.91084330607555 0 191.91084330607555 287.14833287779402 0 0 0 0 1888.210844280351 846.77776887237087 0 846.77776887237087 486.92059044935741 0 0 0 0 -17.127390982397287 -11.971785960686191 0 -11.971785960686191 206.55514455858471 0 0 0 0 1748.3308610883541 734.87295956786511 0 734.87295956786511 585.99165963555424 0 0 0 0 1493.3542738763499 647.62535873013985 0 647.62535873013985 606.31559596405896 0 0 0 0 1.3944362482366728 21.4724093752925 0 21.4724093752925 63.500728060223992 0 0 0 0 1450.8946916187415 628.66943832848847 0 628.66943832848847 602.58173863478714 0 0 0 0 53.167941353189235 176.77239801780706 0 176.77239801780706 274.11279532604385 0 0 0 0 567.07145665513235 148.7130277515962 0 148.7130277515962 429.87510332197235 0 0 0 0 41.293435991363367 153.6376520206104 0 153.6376520206104 301.51049834072001 0 0 0 0 76.693924100050936 164.97180435940027 0 164.97180435940027 271.02410410277662 0 0 0 0 -39.173469225208208 62.219227388949434 0 62.219227388949434 238.86313925737809 0 0 0 0 997.37531932094134 -82.626976671015655 0 -82.626976671015655 -77.185921110125491 0 0 0 0 580.19841375792748 372.18510449483074 0 372.18510449483074 365.20064729694786 0 0 0 0 45.186188588821096 164.69118432680261 0 164.69118432680261 275.90970427844877 0 0 0 0 18.428618141813786 175.09599381510634 0 175.09599381510634 288.07052131225646 0 0 0 0 23.635632503006491 174.49009546477464 0 174.49009546477464 286.94296573568135 0 0 0 0 21.364520624134457 179.38709956812818 0 179.38709956812818 288.50707248110848 0 0 0 0 3.0384570172464009 200.60683004948078 0 200.60683004948078 268.87794437327011 0 0 0 0 -12.176444803990307 204.24402253612789 0 204.24402253612789 294.98813450531452 0 0 0 0 -11.573435939484625 216.08398405328626 0 216.08398405328626 328.54032397997798 0 0 0 0 47.263453340274282 244.35998950788053 0 244.35998950788053 286.36225330125308 0 0 0 0 69.684205831130384 279.98844302572616 0 279.98844302572616 323.4697652864852 0 0 0 0 2.5279284766002093 216.942206187392 0 216.942206187392 306.50175415346894 0 0 0 0 39.210148957732599 248.90499653727602 0 248.90499653727602 330.84476618780172 0 0 0 0 36.011644796635665 251.25190722955085 0 251.25190722955085 338.87080152810086 0 0 0 0 -10.22014576937363 201.36869136544556 0 201.36869136544556 323.72649980397546 0 0 0 0 -10.477360334475691 245.71341778686576 0 245.71341778686576 418.9639038250898 0 0 0 0 -15.550126520730373 195.86160227501341 0 195.86160227501341 303.73631472687703 0 0 0 0 -13.8055844088085 220.72877049673116 0 220.72877049673116 357.24589336826466 0 0 0 0 -36.969028779058135 149.93517018291459 0 149.93517018291459 273.81136496215186 0 0 0 0 -40.786872345663141 184.18571440644155 0 184.18571440644155 347.96279070038872 0 0 0 0 -16.044999429257587 191.45044150040485 0 191.45044150040485 303.4404252041204 0 0 0 0 -24.862408399088963 169.13328579161498 0 169.13328579161498 279.50007845603977 0 0 0 0 -22.759753296952113 184.7364277859815 0 184.7364277859815 318.2485113248913 0 0 0 0 2.1635402339015855 185.13359499486978 0 185.13359499486978 244.67181465694739 0 0 0 0 -66.354666454201663 24.509476359110863 0 24.509476359110863 -5.8294755364266564 0 0 0 0 -10.79287724110327 142.46319696741557 0 142.46319696741557 234.0191492861486 0 0 0 0 -205.42658844511607 1738.6801060554862 0 1738.6801060554862 2337.8925778395787 0 0 0 0 -92.493785940227099 79.790521706861909 0 79.790521706861909 289.11369315897309 0 0 0 0 -39.279584473220893 154.048939565816 0 154.048939565816 288.40315280013601 0 0 0 0 -20.027405935048591 151.17888059258257 0 151.17888059258257 266.88257681224059 0 0 0 0 -14.844382111041341 126.96147446518444 0 126.96147446518444 133.99018592848734 0 0 0 0 -44.654890704261447 14.67319432297387 0 14.67319432297387 3.1755098021893389 0 0 0 0 1061.6090150404671 1544.0074999716744 0 1544.0074999716744 2876.1127133588307 0 0 0 0 -103.51674784516217 -19.864410724374466 0 -19.864410724374466 115.39021912597127 0 0 0 0 -36.28557393918561 15.539883007035996 0 15.539883007035996 1.2649437526072802 0 0 0 0 -11.713743503206558 6.5686368084122364 0 6.5686368084122364 -1.5257455807006579 0 0 0 0 -596.41646617496735 -716.48931265807187 0 -716.48931265807187 -735.4609053539607 0 0 0 0 -1207.9583406717866 -1071.6674501146554 0 -1071.6674501146554 -585.56305172491193 0 0 0 0 -399.37218111603579 -195.55995294540844 0 -195.55995294540844 -372.09809047734598 0 0 0 0 1068.3529901506408 1625.1075130564732 0 1625.1075130564732 2342.1133674090088 0 0 0 0 -257.69656658972963 -335.02398360166262 0 -335.02398360166262 -34.550143222346378 0 0 0 0 42.83302868060855 139.02924265001093 0 139.02924265001093 -329.44059324533737 0 0 0 0 -902.27150114323013 -34.219678059045691 0 -34.219678059045691 -115.33089650455804 0 0 0 0 -448.53745631126549 274.13689135843333 0 274.13689135843333 -84.682139223339618 0 0 0 0 -500.91657448362093 -206.45305669591471 0 -206.45305669591471 -213.00026914429327 0 0 0 0 -1811.7429347097495 73.406980783114705 0 73.406980783114705 113.29687327099964 0 0 0 0 31.061564655872644 -307.84531615264859 0 -307.84531615264859 105.9453922022949 0 0 0 0 -354.19906989557785 248.17984846727632 0 248.17984846727632 -199.21548260489362 0 0 0 0 375.62807109273854 -441.00032008021662 0 -441.00032008021662 364.63240349962143 0 0 0 0 1865.8729915361437 744.57045126817366 0 744.57045126817366 402.13802336792287 0 0 0 0 -3.6515063261031173 -102.68227211376507 0 -102.68227211376507 608.3083480985224 0 0 0 0 2399.1433459952532 1026.1337510740341 0 1026.1337510740341 278.91720923623507 0 0 0 0 4698.242257493519 3459.8896728409054 0 3459.8896728409054 -583.6069971402917 0 0 0 0 2203.9671254649875 718.26743386436283 0 718.26743386436283 -110.03637101279674 0 0 0 0 4083.5114262993739 417.44241437591882 0 417.44241437591882 2734.3981666730688 0 0 0 0 -1.0120543043177719 0.724387837554616 0 0.724387837554616 150.07597506584716 0 0 0 0 -269.58071359799942 490.27965674866937 0 490.27965674866937 -178.86962970418631 0 0 0 0 1959.0248619569029 -532.61652223399688 0 -532.61652223399688 -1934.8239883063907 0 0 0 0 27.452982496331117 -4.0415900714873629 0 -4.0415900714873629 3.0904783970060441 0 0 0 0 1432.6851014450222 3011.8064119248174 0 3011.8064119248174 3976.3724475510098 0 0 0 0 55.070056052951259 618.09113101208459 0 618.09113101208459 -914.66304381514055 0 0 0 0 73.745957199377813 26.069995780925062 0 26.069995780925062 -15.217054395101268 0 0 0 0 669.37465137354593 343.50023223609787 0 343.50023223609787 83.367100487163043 0 0 0 0 1139.169556917419 1276.1162395782994 0 1276.1162395782994 877.65429612065873 0 0 0 0 1233.1503113165236 1216.1375880695932 0 1216.1375880695932 832.29657216627311 0 0 0 0 1294.5205606684322 1297.0753645401601 0 1297.0753645401601 700.12508462547703 0 0 0 0 2171.5411270563491 1748.6478551129894 0 1748.6478551129894 930.10696387398821 0 0 0 0 693.6194543124584 1169.7023638097962 0 1169.7023638097962 1946.5147369131901 0 0 0 0 347.69802385971707 341.82153309102796 0 341.82153309102796 795.84797176608845 0 0 0 0 -1764.2883495678398 517.94225994603403 0 517.94225994603403 71.401829297028598 0 0 0 0 -82.940612940610322 126.38318159692727 0 126.38318159692727 -14.202517975439182 0 0 0 0 -5.6478551049458048 40.618176780962926 0 40.618176780962926 44.445482190536197 0 0 0 0 -1534.2235825569223 143.39838544756458 0 143.39838544756458 -101.0091474462015 0 0 0 0 -60.119579816207988 272.57443214155774 0 272.57443214155774 456.27324559216504 0 0 0 0 -3040.1812855945536 -370.68233671914049 0 -370.68233671914049 182.54944579919629 0 0 0 0 -1986.1542390863178 512.59150088315027 0 512.59150088315027 -165.18871060242179 0 0 0 0 -1040.7854349283443 714.1766371206536 0 714.1766371206536 -159.07231323026303 0 0 0 0 -3377.2284263232432 1396.7337490121381 0 1396.7337490121381 -298.2001977863415 0 0 0 0 -6.0959790425990832 9.9936016832766654 0 9.9936016832766654 -14.082722888747265 0 0 0 0 728.03697644118802 1137.481291672033 0 1137.481291672033 -762.52438639860611 0 0 0 0 -3601.5923384853795 308.80814509067488 0 308.80814509067488 991.52044934339119 0 0 0 0 598.36922951508313 -112.50294933397709 0 -112.50294933397709 31.981666002924612 0 0 0 0 -45.124458538601175 423.95559409336784 0 423.95559409336784 -634.96062240645279 0 0 0 0 -586.37819331182254 1638.4953760058561 0 1638.4953760058561 -930.92761505284852 0 0 0 0 0.43342347225129885 2.7344145185041953 0 2.7344145185041953 17.027162387444967 0 0 0 0 -2938.7196902336436 938.48101453358925 0 938.48101453358925 1162.2251594251429 0 0 0 0 -3283.4758023463073 1884.6442286194351 0 1884.6442286194351 -1124.4568171537671 0 0 0 0 -2713.279178102719 1408.7191331635859 0 1408.7191331635859 1867.5974813291086 0 0 0 0 -2401.4186301393784 2660.0319170422058 0 2660.0319170422058 1896.2648387913137 0 0 0 0 -2324.9581382126635 1561.3771145455066 0 1561.3771145455066 442.9740249311053 0 0 0 0 -322.51706098875729 4086.167057696432 0 4086.167057696432 3596.5659078791759 0 0 0 0 1138.0263489529316 1312.4474347919031 0 1312.4474347919031 1000.1895285412338 0 0 0 0 883.31369386176812 1144.8565413431425 0 1144.8565413431425 1182.7890598021149 0 0 0 0 964.55329936894123 850.87485671746254 0 850.87485671746254 811.91334917689164 0 0 0 0 1221.2328659216873 959.46125380749436 0 959.46125380749436 839.26831170257356 0 0 0 0 1467.2516748852067 680.10207696978932 0 680.10207696978932 613.33400847810844 0 0 0 0 1523.5587324571097 692.31347894974533 0 692.31347894974533 608.84984646426619 0 0 0 0 1291.1289449514734 1055.1114529279994 0 1055.1114529279994 798.36582908401761 0 0 0 0 1751.6737065068446 1177.399229313105 0 1177.399229313105 700.04893757450918 0 0 0 0 1175.6770480831183 1253.9256912486057 0 1253.9256912486057 830.33845278745503 0 0 0 0 1009.1203154659597 1185.9411348143567 0 1185.9411348143567 851.02780338414232 0 0 0 0 1141.4725735633983 1342.0925554335645 0 1342.0925554335645 739.49750502898041 0 0 0 0 2781.1889514677168 1204.9751590228914 0 1204.9751590228914 255.53114924316833 0 0 0 0 1316.7584026275435 374.60256370240677 0 374.60256370240677 -194.55320773963285 0 0 0 0 1840.1658718176477 1900.5291241947543 0 1900.5291241947543 1139.2183458260188 0 0 0 0 821.26384578613215 1625.2302611408586 0 1625.2302611408586 1747.7580794573869 0 0 0 0 -90.280018542136531 779.58318899239566 0 779.58318899239566 1467.5575472266282 0 0 0 0 -164.94126817691722 530.70721603963966 0 530.70721603963966 1025.6775036069284 0 0 0 0 556.84471784144989 936.01133033878068 0 936.01133033878068 772.06595940768511 0 0 0 0 484.08207690750714 444.03932035186972 0 444.03932035186972 665.87774938088842 0 0 0 0 596.97601975878933 676.89492174267616 0 676.89492174267616 875.45249313185195 0 0 0 0 551.5718890366843 884.74685654615496 0 884.74685654615496 1013.6548626069598 0 0 0 0 813.82574125682004 796.2741140434282 0 796.2741140434282 801.00347402836542 0 0 0 0 1065.3548083983478 498.9887645595627 0 498.9887645595627 546.40352204333612 0 0 0 0 910.57898372545606 479.55597142795546 0 479.55597142795546 602.54441104827129 0 0 0 0 1024.1310635416885 833.13491751808579 0 833.13491751808579 814.36719375644861 0 0 0 0 744.55854094594542 646.74037260961222 0 646.74037260961222 714.05496326967841 0 0 0 0 802.83220622694353 635.35000306222173 0 635.35000306222173 703.0771571123114 0 0 0 0 822.79639091831632 375.51489823168413 0 375.51489823168413 498.95546616787396 0 0 0 0 573.57754987257067 351.2382116341505 0 351.2382116341505 569.65152954671066 0 0 0 0 636.54874475492397 484.5405220533903 0 484.5405220533903 587.70968538933448 0 0 0 0 674.10646768701554 483.7094877504901 0 483.7094877504901 580.26977564148547 0 0 0 0 563.48631571658188 349.0730761861978 0 349.0730761861978 467.01371924550585 0 0 0 0 634.59881611565015 355.15718530354206 0 355.15718530354206 384.76649643800192 0 0 0 0 626.80566398025258 356.98936807581595 0 356.98936807581595 384.38676662693297 0 0 0 0 623.68340460720356 309.73337965774499 0 309.73337965774499 -197.34121836822305 0 0 0 0 623.16280396754155 298.83769322588341 0 298.83769322588341 220.28275501789904 0 0 0 0 456.7387430134695 264.10308577198157 0 264.10308577198157 316.36739413248142 0 0 0 0 602.89050136879086 388.14567611077655 0 388.14567611077655 395.16143086315424 0 0 0 0 500.00368909491226 240.8401657087561 0 240.8401657087561 259.22701484956679 0 0 0 0 581.18419098481536 199.13748519423461 0 199.13748519423461 264.3577593763257 0 0 0 0 570.28629108227324 87.79200868816406 0 87.79200868816406 337.35625934611016 0 0 0 0 494.06962720560841 203.26342560941703 0 203.26342560941703 303.34699622130029 0 0 0 0 684.62150108371861 89.285901858711441 0 89.285901858711441 273.66016700935143 0 0 0 0 784.08454107301077 -111.98776100785199 0 -111.98776100785199 478.76218490526662 0 0 0 0 591.02519925893284 192.81141807337553 0 192.81141807337553 167.37504724497558 0 0 0 0 492.20313531305874 189.96271611366046 0 189.96271611366046 155.5906178447276 0 0 0 0 357.90434404253028 278.44276356734917 0 278.44276356734917 142.98497875938483 0 0 0 0 157.64454592362745 212.5434470284863 0 212.5434470284863 213.35083081997618 0 0 0 0 384.91596787652816 264.8004962380528 0 264.8004962380528 -75.391573660153881 0 0 0 0 517.63553835358471 429.90835200642323 0 429.90835200642323 398.53434434455539 0 0 0 0 270.95114334259415 347.26573342153461 0 347.26573342153461 372.86449454670037 0 0 0 0 623.80678004928632 428.36708468871257 0 428.36708468871257 383.65051742418655 0 0 0 0 66.903334251459455 844.07164397300994 0 844.07164397300994 65.658830834891432 0 0 0 0 263.25964240165194 460.745781864111 0 460.745781864111 316.43615278633843 0 0 0 0 -805.25370379869128 741.25472475893912 0 741.25472475893912 160.08832722726697 0 0 0 0 -332.49115722655552 733.01970689484278 0 733.01970689484278 -222.0222139229636 0 0 0 0 20.647717317872264 37.413370463945 0 37.413370463945 -31.127090063221374 0 0 0 0 609.82810538022022 143.85486602319065 0 143.85486602319065 -198.09358183955737 0 0 0 0 602.62530941457226 195.15732957727687 0 195.15732957727687 -12.635026093252236 0 0 0 0 -442.40087078150827 389.07858678934917 0 389.07858678934917 -132.25893558205098 0 0 0 0 -342.94636939113207 148.12683294545903 0 148.12683294545903 74.892164031711218 0 0 0 0 -84.505678200730472 -258.6021696560814 0 -258.6021696560814 195.78707249553736 0 0 0 0 504.21090575490962 -134.63419929221209 0 -134.63419929221209 -203.29716045200621 0 0 0 0 50.856166756537277 362.53385312900764 0 362.53385312900764 -61.034872676169471 0 0 0 0 7.2463787358060472 15.749708495516415 0 15.749708495516415 16.289680673666172 0 0 0 0 -3416.443564665853 1467.8793604902885 0 1467.8793604902885 2038.9814497734933 0 0 0 0 4104.2749253511429 1919.5090253068272 0 1919.5090253068272 -62.943211219964724 0 0 0 0 -3326.2675649189187 846.82292261444036 0 846.82292261444036 1454.4076743797932 0 0 0 0 -1620.277209626016 1171.6561788112322 0 1171.6561788112322 576.65761870137294 0 0 0 0 -1732.0451825396449 703.23388413185091 0 703.23388413185091 -961.30066697654456 0 0 0 0 -9.5347765898422949 1509.798771628811 0 1509.798771628811 451.79794629559728 0 0 0 0 -2083.043935908674 1808.9000863120041 0 1808.9000863120041 -436.41478515776572 0 0 0 0 -1765.0422740364156 1248.7156821106857 0 1248.7156821106857 -240.06451189852521 0 0 0 0 -619.83594558252662 1028.0211070181372 0 1028.0211070181372 -706.39994341874899 0 0 0 0 -958.92940140116843 908.74205892575515 0 908.74205892575515 860.02144316632985 0 0 0 0 14.976889185277059 31.925721492854478 0 31.925721492854478 32.607103262217528 0 0 0 0 -93.864207078295294 86.637205716124299 0 86.637205716124299 417.11777965423153 0 0 0 0 253.98856941218401 565.95227677625599 0 565.95227677625599 -76.975001092138882 0 0 0 0 -1172.8217502506741 1224.6426515026446 0 1224.6426515026446 -521.54390852609515 0 0 0 0 -768.98764316198503 10.630072287943676 0 10.630072287943676 111.49857540907033 0 0 0 0 7.2005998464891263 32.464588072206794 0 32.464588072206794 26.643086661235721 0 0 0 0 -316.8475319515419 593.70512014918006 0 593.70512014918006 -990.90706614695796 0 0 0 0 -390.25572725679376 -383.90708673901008 0 -383.90708673901008 275.27879759867915 0 0 0 0 239.58222991073126 1061.4810304590874 0 1061.4810304590874 1385.5630297238285 0 0 0 0 -2051.9524156692933 940.40212155420284 0 940.40212155420284 -358.7989185526078 0 0 0 0 -5.6640513170404603 1.6637647800200739 0 1.6637647800200739 -11.199513608820762 0 0 0 0 -1250.9165698731376 404.46528995994879 0 404.46528995994879 298.65385025236014 0 0 0 0 -852.68551798257977 95.458904232272971 0 95.458904232272971 231.21374454892427 0 0 0 0 -1163.7095098456593 1201.4732181325733 0 1201.4732181325733 -539.77497853184354 0 0 0 0 -1380.3422073551046 1239.2089423253346 0 1239.2089423253346 -153.63085691018335 0 0 0 0 -1599.8213163687324 1555.6213799891373 0 1555.6213799891373 -775.24015425687821 0 0 0 0 -570.02856164968398 1096.8232305977938 0 1096.8232305977938 -1938.3804339956919 0 0 0 0 -6.9556973552546424 8.1165763630424834 0 8.1165763630424834 1.8637599639482234 0 0 0 0 -490.67922731069848 511.76408709061775 0 511.76408709061775 274.21589670394786 0 0 0 0 -1618.0726852133521 1483.1180478411593 0 1483.1180478411593 50.993816119637358 0 0 0 0 904.76866983031505 1168.2274208840158 0 1168.2274208840158 -977.15066587481374 0 0 0 0 -1215.4416281578306 1369.874705852475 0 1369.874705852475 -224.428611890512 0 0 0 0 -1540.0712152511442 1295.5288472291959 0 1295.5288472291959 -2032.5558727627622 0 0 0 0 -1317.1216505905104 2162.846683822977 0 2162.846683822977 -1373.8461684071117 0 0 0 0 -84.198336248606211 1808.879165244085 0 1808.879165244085 -1336.8174651160002 0 0 0 0 -1297.1694725551406 2254.7831663081211 0 2254.7831663081211 -638.81224400061546 0 0 0 0 456.63814618741162 980.97465690157242 0 980.97465690157242 -554.84853968877815 0 0 0 0 -244.74272587386076 612.18535712993253 0 612.18535712993253 -531.78983903270955 0 0 0 0 16.008765707440659 30.109886270069197 0 30.109886270069197 60.34293490472588 0 0 0 0 -346.2135720546903 227.01956173891892 0 227.01956173891892 25.161213118522028 0 0 0 0 -44.404736724885879 -35.999637799931406 0 -35.999637799931406 408.59971462156267 0 0 0 0 -266.833080416749 524.53145789784776 0 524.53145789784776 -272.39381401832497 0 0 0 0 -75.636950839543715 -5.9765697217594607 0 -5.9765697217594607 565.21541668349096 0 0 0 0 45.133823389749523 -13.377866455729105 0 -13.377866455729105 406.8007970959743 0 0 0 0 14.412369353205577 -220.92928310298313 0 -220.92928310298313 1851.0377149279022 0 0 0 0 716.40402275200177 227.19773262636363 0 227.19773262636363 -397.70683353774086 0 0 0 0 14.621620049226181 9.5833855579813729 0 9.5833855579813729 5.9307023272538171 0 0 0 0 1189.1404490014247 1348.4103846385015 0 1348.4103846385015 1067.6852525578659 0 0 0 0 189.03630644900841 498.50950774724834 0 498.50950774724834 -162.17016478859296 0 0 0 0 2102.1200412363105 -293.0946024977884 0 -293.0946024977884 -1260.7280698627669 0 0 0 0 -181.67333412723383 -508.55763261108768 0 -508.55763261108768 -200.14059177799754 0 0 0 0 226.26179637337918 262.34090556657702 0 262.34090556657702 194.29233905739693 0 0 0 0 -287.37739130543196 328.64695243712958 0 328.64695243712958 689.76089026470436 0 0 0 0 354.32917367851769 243.4001849560218 0 243.4001849560218 -283.09132686098656 0 0 0 0 29.660122610535836 168.72424662402136 0 168.72424662402136 279.03944734769175 0 0 0 0 98.940145123504635 164.33626347176715 0 164.33626347176715 148.99216620106955 0 0 0 0 319.53250636316079 539.13503669888723 0 539.13503669888723 -351.85754525095035 0 0 0 0 39.598286043961707 174.57402836257097 0 174.57402836257097 274.95917842363997 0 0 0 0 -29.41025566697067 19.166605921741549 0 19.166605921741549 36.107316253747648 0 0 0 0 32.851540509400365 218.79807648219139 0 218.79807648219139 271.5421610383637 0 0 0 0 42.85647691966733 206.33108022250235 0 206.33108022250235 164.22977637400618 0 0 0 0 104.80646826360316 246.74755497116712 0 246.74755497116712 181.97602863656357 0 0 0 0 31.501484251275542 176.87702286436615 0 176.87702286436615 267.40386182189536 0 0 0 0 40.115043512494594 204.64558874559953 0 204.64558874559953 167.83640382900194 0 0 0 0 55.797472828649916 246.23089130941662 0 246.23089130941662 131.72892088508524 0 0 0 0 -136.73547916085226 392.44069210055557 0 392.44069210055557 222.34701122371388 0 0 0 0 35.107754537253641 252.48221570433088 0 252.48221570433088 132.51068513215705 0 0 0 0 66.543299628441673 161.47232135003577 0 161.47232135003577 152.25017560316309 0 0 0 0 14.279182936545112 225.05423708289163 0 225.05423708289163 152.34189882241481 0 0 0 0 40.413859224077896 171.54161731246131 0 171.54161731246131 146.29990853789786 0 0 0 0 315.89394397137221 169.16970722704718 0 169.16970722704718 90.727933871312416 0 0 0 0 116.38409129499632 312.71217231512128 0 312.71217231512128 144.53052486962406 0 0 0 0 200.09063644670823 -131.38423354946281 0 -131.38423354946281 1082.7560066226288 0 0 0 0 -179.05828696919269 116.25560640719058 0 116.25560640719058 205.25506589967969 0 0 0 0 86.61228988941366 144.74923242269597 0 144.74923242269597 510.9995280251751 0 0 0 0 -115.63806535564402 32.162984769020809 0 32.162984769020809 206.76038861421094 0 0 0 0 -42.565901869595109 188.2586378747219 0 188.2586378747219 672.00379901182896 0 0 0 0 -29.850947067316156 173.22960011910072 0 173.22960011910072 288.93069732987055 0 0 0 0 -126.07607270886365 119.81955385839638 0 119.81955385839638 293.41181005721955 0 0 0 0 -37.051288188784383 -32.659798969380972 0 -32.659798969380972 321.83548043364226 0 0 0 0 201.03521516469482 346.25000327335874 0 346.25000327335874 259.30687074040179 0 0 0 0 -68.836069187652868 50.757588129182636 0 50.757588129182636 188.96937813395922 0 0 0 0 201.71156786246138 263.82848025295243 0 263.82848025295243 329.01094758076215 0 0 0 0 190.50969098245696 339.99674568028422 0 339.99674568028422 61.058908457998768 0 0 0 0 201.79754553532985 266.76570661531878 0 266.76570661531878 263.52236664269003 0 0 0 0 -10.551883795012415 64.592445698224623 0 64.592445698224623 26.534089620664787 0 0 0 0 60.285003291888643 370.6654956846287 0 370.6654956846287 740.28633403265849 0 0 0 0 88.212611131013546 451.26749784318235 0 451.26749784318235 189.77520432244637 0 0 0 0 165.18908875135821 324.38873040073668 0 324.38873040073668 398.07490239073377 0 0 0 0 334.5970277357701 344.18557042661268 0 344.18557042661268 337.32796715084987 0 0 0 0 -867.50675695606333 674.18638755527354 0 674.18638755527354 1600.6202396146109 0 0 0 0 -156.31502682100108 814.08343267737655 0 814.08343267737655 52.913973903387159 0 0 0 0 194.75355497362034 377.89360887695511 0 377.89360887695511 410.47865722427377 0 0 0 0 51.111935321401688 180.75438954019046 0 180.75438954019046 344.63326795533749 0 0 0 0 90.955964192646206 146.83582427450165 0 146.83582427450165 647.1568339580117 0 0 0 0 -18.393092006419451 1.5327305763549361 0 1.5327305763549361 -7.8862191872228209 0 0 0 0 -427.12308568932349 851.98712006854475 0 851.98712006854475 229.21146702973056 0 0 0 0 1181.2988219457329 -420.53507310056011 0 -420.53507310056011 803.97792371516698 0 0 0 0 -391.53034203613061 1109.6385525132937 0 1109.6385525132937 -2.2425195477917441 0 0 0 0 662.56977878516045 908.82026452867285 0 908.82026452867285 -240.329293919669 0 0 0 0 -3.0632182677025241 14.974330831438436 0 14.974330831438436 12.222379026276954 0 0 0 0 -607.76335659984761 9.2339201288705226 0 9.2339201288705226 1770.5055589587282 0 0 0 0 547.66374869902211 344.85179665443138 0 344.85179665443138 -140.39459466552944 0 0 0 0 712.46130011157948 -22.428742290154332 0 -22.428742290154332 73.544682355473924 0 0 0 0 1027.8286323620705 189.25324607559742 0 189.25324607559742 -93.882749584998237 0 0 0 0 -320.03453332606296 -237.87205319061468 0 -237.87205319061468 1558.0003295289207 0 0 0 0 615.25520300546486 11.113302020166884 0 11.113302020166884 79.733267470579449 0 0 0 0 122.24022224478176 543.44572914865421 0 543.44572914865421 -313.03867404366611 0 0 0 0 -372.71191325662221 171.74697454637499 0 171.74697454637499 -137.16838717157952 0 0 0 0 -324.6464475961111 153.60204220883315 0 153.60204220883315 -194.29060162399037 0 0 0 0 126.15194274443638 233.69666124745709 0 233.69666124745709 -356.62697616301011 0 0 0 0 -337.66747114312602 72.692168705892982 0 72.692168705892982 421.0894269710916 0 0 0 0 -69.652294691681163 578.26858001187793 0 578.26858001187793 737.70975393560366 0 0 0 0 333.66510857314279 640.92549128322571 0 640.92549128322571 265.82879616021819 0 0 0 0 13.653995961531649 1.9712220815951298 0 1.9712220815951298 -6.5292317935335973 0 0 0 0 190.96024185349233 433.14268421033921 0 433.14268421033921 239.87685715432963 0 0 0 0 511.48656797529839 328.51905197914675 0 328.51905197914675 336.20953992923023 0 0 0 0 243.4150267236837 551.46265728640719 0 551.46265728640719 277.94683048479783 0 0 0 0 -539.05740143537696 -202.316149825092 0 -202.316149825092 1142.5862331678509 0 0 0 0 476.1441858333128 1182.3243246270431 0 1182.3243246270431 247.44971322809579 0 0 0 0 309.84981720519681 725.92151137140718 0 725.92151137140718 -392.63637396246486 0 0 0 0 845.84553792453517 1011.4104322995117 0 1011.4104322995117 -333.68888533853169 0 0 0 0 -511.13904523457131 711.606887013093 0 711.606887013093 -308.26808132957376 0 0 0 0 3.2689384274999611 -103.17277381356689 0 -103.17277381356689 -620.5052221781807 0 0 0 0 9.877375082001123 3.51279517923372 0 3.51279517923372 0.62870230915547154 0 0 0 0 -201.63880488793075 83.126075341482647 0 83.126075341482647 2102.711109559641 0 0 0 0 668.77898720359372 632.63479431732776 0 632.63479431732776 -1143.9530119323463 0 0 0 0 -40.385734846493506 204.36597693808289 0 204.36597693808289 261.1995394869009 0 0 0 0 -328.37089185220066 1012.7503242805469 0 1012.7503242805469 695.42140138801187 0 0 0 0 -672.03663827045966 809.07995954641956 0 809.07995954641956 896.39204500849155 0 0 0 0 -81.927332610815938 651.67301765114826 0 651.67301765114826 637.808545837368 0 0 0 0 -157.1795516367747 515.08347512569708 0 515.08347512569708 765.72420218100888 0 0 0 0 939.92393919398819 83.409821418399588 0 83.409821418399588 476.16644155383983 0 0 0 0 417.88366472402413 1101.3809929183917 0 1101.3809929183917 1349.1151426293145 0 0 0 0 -79.18084240272583 150.08223279526646 0 150.08223279526646 368.15451658837264 0 0 0 0 -83.365609580272576 120.70627280564077 0 120.70627280564077 601.99225627868873 0 0 0 0 -192.37579721042857 114.21311130691174 0 114.21311130691174 193.66821550824534 0 0 0 0 -85.397936361296161 212.37743486093677 0 212.37743486093677 248.58168791537901 0 0 0 0 -85.123019399317855 120.77781231004337 0 120.77781231004337 386.7485219562077 0 0 0 0 29.234658697605482 58.869663667275745 0 58.869663667275745 386.74464847714989 0 0 0 0 -789.99146025687423 901.23940508463875 0 901.23940508463875 768.82920713053318 0 0 0 0 -903.07515212116414 290.41140570364223 0 290.41140570364223 545.93018773894437 0 0 0 0 -3.577008487060084 283.55488538574718 0 283.55488538574718 335.22704501802218 0 0 0 0 -44.212235039654587 61.669275367705268 0 61.669275367705268 14.551882200102312 0 0 0 0 -24.374552858827855 30.833097833315747 0 30.833097833315747 -3.1420795331844431 0 0 0 0 -26.914132348174462 217.76845080961357 0 217.76845080961357 316.2037269162829 0 0 0 0 357.8542617179337 124.84926934851683 0 124.84926934851683 33.568789195065619 0 0 0 0 -88.765002543572336 271.72553852385317 0 271.72553852385317 380.59018471714808 0 0 0 0 80.446196357472218 412.11310308366956 0 412.11310308366956 94.114238531888986 0 0 0 0 350.84150997192774 430.68706565642788 0 430.68706565642788 1.075735449208878 0 0 0 0 257.354612314728 697.06626468108698 0 697.06626468108698 253.53853863209952 0 0 0 0 -1096.7162031274092 715.2344107534409 0 715.2344107534409 633.43334546158439 0 0 0 0 -214.2756447296415 192.80475825463509 0 192.80475825463509 796.05517407112347 0 0 0 0 17.019532739104761 326.06823635107867 0 326.06823635107867 344.12222211256449 0 0 0 0 -380.63375632945827 526.56339144062804 0 526.56339144062804 269.39032119325566 0 0 0 0 -69.421651648168336 129.26539726844931 0 129.26539726844931 271.03319533821377 0 0 0 0 171.65538726629165 274.75539368483442 0 274.75539368483442 216.89734348501952 0 0 0 0 -24.443660560003025 14.47149965317044 0 14.47149965317044 -9.5969743380658485 0 0 0 0 403.24879883732501 104.39250190241 0 104.39250190241 -211.34964536209009 0 0 0 0 106.47650653024061 184.61608440562497 0 184.61608440562497 131.13580940243264 0 0 0 0 258.45136311509123 295.23361515199213 0 295.23361515199213 211.01163803516829 0 0 0 0 252.64191614022002 371.06332131239355 0 371.06332131239355 288.65738510082883 0 0 0 0 134.13554026448401 255.18952009807981 0 255.18952009807981 266.15116128388036 0 0 0 0 201.51490909656786 343.82368319226771 0 343.82368319226771 348.14060700088885 0 0 0 0 210.23825639895222 302.96571272624715 0 302.96571272624715 363.33009336383839 0 0 0 0 88.405221721026464 270.28896732059366 0 270.28896732059366 340.48682076758996 0 0 0 0 97.072275407032066 325.08610761202635 0 325.08610761202635 415.54087139721378 0 0 0 0 154.73376984885545 278.23683241907565 0 278.23683241907565 379.46778442928917 0 0 0 0 -9.0723487325012684 301.71865957837872 0 301.71865957837872 470.25280730472878 0 0 0 0 7.3729634165356401 212.71379553726729 0 212.71379553726729 353.88644449821732 0 0 0 0 541.20187596342294 728.14709408935278 0 728.14709408935278 473.71334817109164 0 0 0 0 452.70477165594639 320.77910716149927 0 320.77910716149927 337.44057573133614 0 0 0 0 204.80538288437674 451.14837156517933 0 451.14837156517933 470.19400794610556 0 0 0 0 -49.471249612451004 34.622635517394343 0 34.622635517394343 -9.5155672442043056 0 0 0 0 24.352619856988895 -44.092537676035136 0 -44.092537676035136 122.77099009160884 0 0 0 0 -63.409779850677296 114.48330524101402 0 114.48330524101402 354.00176974791975 0 0 0 0 44.287599030438287 396.4788550026351 0 396.4788550026351 157.63215927193232 0 0 0 0 238.30848848383175 11.979741875868058 0 11.979741875868058 -42.730874936154578 0 0 0 0 -1504.08865189879 -461.2536711394423 0 -461.2536711394423 -12.0134834410037 0 0 0 0 -9.327375655285465 5.6346598246858832 0 5.6346598246858832 -2.7139677036399803 0 0 0 0 -1864.5559837405017 604.91147983532028 0 604.91147983532028 682.40001913592278 0 0 0 0 -1875.5690575260087 571.38616951349104 0 571.38616951349104 145.04710908719244 0 0 0 0 -45.354980699777727 35.625845110952525 0 35.625845110952525 -4.1716370860623897 0 0 0 0 -13.132981383991137 175.55469633143366 0 175.55469633143366 -134.42051380755584 0 0 0 0 28.904199890173913 -321.59602921973828 0 -321.59602921973828 -32.904947219823953 0 0 0 0 734.03203503163968 557.65686231676227 0 557.65686231676227 480.64271767085302 0 0 0 0 -2541.6273368406473 -18.494770522986073 0 -18.494770522986073 144.36813425081527 0 0 0 0 -1798.2430049839732 -346.99567622588984 0 -346.99567622588984 695.79409223489347 0 0 0 0 979.98828697482531 997.61729145613208 0 997.61729145613208 679.42354727647034 0 0 0 0 -35.411520196682119 25.884450842075978 0 25.884450842075978 -1.0670509473691254 0 0 0 0 -1854.1735672717477 16.568609842870501 0 16.568609842870501 -324.47613750735763 0 0 0 0 984.38100912212394 597.86016025813296 0 597.86016025813296 978.39476841047872 0 0 0 0 1026.763232603269 918.28830462273982 0 918.28830462273982 319.60987104856758 0 0 0 0 839.45556845101964 846.68110477683513 0 846.68110477683513 682.40031938388711 0 0 0 0 625.81330830873048 695.166090438026 0 695.166090438026 774.23082169024565 0 0 0 0 499.59003613382083 953.43418732685677 0 953.43418732685677 450.11574549748912 0 0 0 0 -669.17799717870366 -656.52399829101341 0 -656.52399829101341 -220.02666259027501 0 0 0 0 -158.4063926210074 347.53507697200985 0 347.53507697200985 296.89288602315355 0 0 0 0 -229.29054936613829 371.28512697937185 0 371.28512697937185 603.87858557440632 0 0 0 0 -448.49772701265465 46.842590484542598 0 46.842590484542598 418.22677880308765 0 0 0 0 887.56098464436946 2151.319183285399 0 2151.319183285399 2680.8216462092132 0 0 0 0 -223.34362658552709 85.489647253834846 0 85.489647253834846 264.57815858644608 0 0 0 0 -122.44462347374065 76.757119219306333 0 76.757119219306333 -107.68884855821489 0 0 0 0 -194.65464741309552 225.35094954450688 0 225.35094954450688 468.49376311237575 0 0 0 0 -84.103723877386074 107.70182074087643 0 107.70182074087643 237.01449374144431 0 0 0 0 -48.410949754503235 215.91929148907457 0 215.91929148907457 382.66044459593832 0 0 0 0 -106.51673212241803 136.80766014948676 0 136.80766014948676 362.95486721914494 0 0 0 0 81.157178465029574 276.07750869409938 0 276.07750869409938 369.42210904213425 0 0 0 0 147.49616004411655 336.20744769561861 0 336.20744769561861 387.71437043820333 0 0 0 0 139.52852890141367 545.02001215310884 0 545.02001215310884 660.1979304346678 0 0 0 0 34.636185661685886 322.18518744691391 0 322.18518744691391 522.83243793709698 0 0 0 0 0.96779834289191058 389.02379084189306 0 389.02379084189306 464.4457390406169 0 0 0 0 -448.35659968878826 303.76889145409223 0 303.76889145409223 662.96213493087271 0 0 0 0 -742.00990279598773 264.94797690323321 0 264.94797690323321 666.54199274280472 0 0 0 0 42.411955959651095 -15.796547510595701 0 -15.796547510595701 507.43719214942621 0 0 0 0 238.81432756866707 408.83495329815196 0 408.83495329815196 537.75039406386122 0 0 0 0 321.32391847749386 410.00679384470277 0 410.00679384470277 262.69798953889403 0 0 0 0 139.54264402193803 16.850082502380246 0 16.850082502380246 180.31014649110512 0 0 0 0 -257.3540143983264 394.13497267354251 0 394.13497267354251 28.395347845944343 0 0 0 0 -1144.7403739443398 -177.4970174712289 0 -177.4970174712289 478.78811280626542 0 0 0 0 -580.40232611813553 567.81791470105964 0 567.81791470105964 151.89281246923747 0 0 0 0 -1592.454453840699 -1486.5458079313976 0 -1486.5458079313976 -535.08493785347673 0 0 0 0 -2207.0342200439627 245.0715667424447 0 245.0715667424447 374.17055612138938 0 0 0 0 -2815.2138398659154 1022.0928473668878 0 1022.0928473668878 -60.576715070397768 0 0 0 0 -9.7547769039251477 -0.28629150836133022 0 -0.28629150836133022 5.0622575364288593 0 0 0 0 -859.31653873172763 -1692.587206084303 0 -1692.587206084303 1243.4825735954546 0 0 0 0 164.97185871104011 160.7399560271715 0 160.7399560271715 489.09323053725529 0 0 0 0 -703.97643982537193 347.64254422869271 0 347.64254422869271 822.22323585977574 0 0 0 0 -516.06821221003815 117.02776515202834 0 117.02776515202834 430.4314521974884 0 0 0 0 -14.498629110532519 2.2581579335284019 0 2.2581579335284019 11.552924362750872 0 0 0 0 -1948.370320298236 392.03782019108075 0 392.03782019108075 -151.68559658102458 0 0 0 0 -523.96544132544659 330.36431262435508 0 330.36431262435508 -496.64696302516677 0 0 0 0 -1326.8756675691329 942.7393858066971 0 942.7393858066971 141.73868391854921 0 0 0 0 -800.35540852176928 360.49658378539971 0 360.49658378539971 784.55858816908585 0 0 0 0 -479.7544857336361 448.0066308756941 0 448.0066308756941 340.3965125527975 0 0 0 0 -4.8085412273721317 2.3515999826658458 0 2.3515999826658458 7.1234086773607146 0 0 0 0 -206.80450425892832 -619.95693741722516 0 -619.95693741722516 3083.8955003687151 0 0 0 0 -39.531657308245485 -262.83068844550144 0 -262.83068844550144 1427.6486636102582 0 0 0 0 -364.06375727156774 -122.6056248676432 0 -122.6056248676432 300.63541719966452 0 0 0 0 339.61893525172127 138.59494555327547 0 138.59494555327547 845.40847925316484 0 0 0 0 135.88295715857112 996.85606129320468 0 996.85606129320468 1892.2184159185854 0 0 0 0 211.60978573520697 1455.9957215393224 0 1455.9957215393224 -439.74160799853053 0 0 0 0 157.00813250642022 666.49576049678217 0 666.49576049678217 1128.7273890236538 0 0 0 0 723.87960059197599 940.95620135665013 0 940.95620135665013 2804.6010602799652 0 0 0 0 710.95953293320781 1298.3078311375721 0 1298.3078311375721 1713.2081340099176 0 0 0 0 -269.93148385146924 868.22514292324195 0 868.22514292324195 3056.5006208588165 0 0 0 0 -185.02976443085208 501.01397184444431 0 501.01397184444431 1576.3794257920526 0 0 0 0 -611.63711369757948 957.99072912220436 0 957.99072912220436 1441.8202620886375 0 0 0 0 -328.94060607381834 1251.7076285114526 0 1251.7076285114526 1488.7989748655282 0 0 0 0 -97.470623521818197 772.53959120584841 0 772.53959120584841 -131.00042693809519 0 0 0 0 -489.44830556109446 898.98267524464973 0 898.98267524464973 765.47811406619439 0 0 0 0 -804.1569744783701 1155.7168624347905 0 1155.7168624347905 709.2904132763997 0 0 0 0 48.580377654343465 1246.8699770593703 0 1246.8699770593703 855.13385677455517 0 0 0 0 917.85136292843163 747.78286220634618 0 747.78286220634618 -175.02411587811366 0 0 0 0 -1081.5672712229134 967.93315054220147 0 967.93315054220147 982.0391573190318 0 0 0 0 -1175.4841525407246 626.36073798209691 0 626.36073798209691 575.66588859542026 0 0 0 0 -1175.9093345362198 1113.9788849817414 0 1113.9788849817414 1027.7042821695322 0 0 0 0 -981.45591502199386 929.647570162997 0 929.647570162997 982.51140298355313 0 0 0 0 -933.21873417534516 749.37107455275691 0 749.37107455275691 1362.8810217538557 0 0 0 0 -921.75811548133788 1161.7461117739222 0 1161.7461117739222 1161.9710434421031 0 0 0 0 -738.58234945859294 1085.8918312314854 0 1085.8918312314854 114.12860442623059 0 0 0 0 -1309.2018254723953 952.41167348648742 0 952.41167348648742 762.64884803364112 0 0 0 0 -934.84941831372271 1055.9514307333775 0 1055.9514307333775 786.3143996684812 0 0 0 0 -988.04337345281965 1140.6396280677 0 1140.6396280677 776.37914018795709 0 0 0 0 -1191.1916490146359 1291.4670573114781 0 1291.4670573114781 690.23828284024785 0 0 0 0 -638.70168407274468 935.69682429672685 0 935.69682429672685 246.29096252545423 0 0 0 0 -863.53946761229599 890.85724620168912 0 890.85724620168912 790.89962279792235 0 0 0 0 10.953696373616765 24.916954739135718 0 24.916954739135718 2.4615811737614024 0 0 0 0 -177.12546375754755 254.13539449054224 0 254.13539449054224 243.17482187892892 0 0 0 0 -1189.2252957574019 1502.1882977222995 0 1502.1882977222995 -159.33915957590943 0 0 0 0 -11.735249427507156 -1.1554839352765498 0 -1.1554839352765498 13.313308908573461 0 0 0 0 7.5036497509463516 451.56353767825749 0 451.56353767825749 -1278.6806981595582 0 0 0 0 -1525.2522732994694 1091.5842466749746 0 1091.5842466749746 -852.13154363172362 0 0 0 0 -1524.1241779083284 542.48023677730816 0 542.48023677730816 -140.53452057942923 0 0 0 0 -537.22107563799364 1226.50534909415 0 1226.50534909415 -991.97859481840715 0 0 0 0 -215.94463088562043 221.3760978150458 0 221.3760978150458 -164.25870539465541 0 0 0 0 -799.19578787861246 1041.3137193494695 0 1041.3137193494695 -850.59799392164382 0 0 0 0 -35.005621119981058 18.075574436611397 0 18.075574436611397 14.608875698856409 0 0 0 0 -353.41187546489527 147.20313847946818 0 147.20313847946818 -131.11274767058785 0 0 0 0 -314.88084302347124 185.16796174099727 0 185.16796174099727 -108.60918873129413 0 0 0 0 -312.02345634044514 120.6228450168378 0 120.6228450168378 -153.40845582153997 0 0 0 0 -365.73180177532049 149.07614285574527 0 149.07614285574527 -69.467353271902539 0 0 0 0 -79.44295236777171 46.371597745016317 0 46.371597745016317 2.104410540260389 0 0 0 0 -322.2700856559677 105.07616063791647 0 105.07616063791647 -207.89184654678684 0 0 0 0 460.21445604035398 766.03243491206376 0 766.03243491206376 -1072.0715559926502 0 0 0 0 -143.29000031615078 529.60898351205333 0 529.60898351205333 -213.52938012954837 0 0 0 0 -228.33999902234018 1305.5693822396574 0 1305.5693822396574 -358.57900739264733 0 0 0 0 -296.33597588295379 868.0983716698538 0 868.0983716698538 -975.22621004532152 0 0 0 0 -866.96078800685791 930.16874213372648 0 930.16874213372648 -973.77742439022472 0 0 0 0 -34.50848239037623 1432.6877456284055 0 1432.6877456284055 -2258.3201306836345 0 0 0 0 -757.79837073359158 870.65701529273611 0 870.65701529273611 -923.68257743481081 0 0 0 0 -52.338115853137424 263.47263275290061 0 263.47263275290061 -227.8634310257039 0 0 0 0 435.22683247635723 -81.846270846104744 0 -81.846270846104744 -75.094990339188371 0 0 0 0 543.38584082916714 -222.92142206107019 0 -222.92142206107019 -817.18158282866352 0 0 0 0 1553.2118149171947 -340.47770268432942 0 -340.47770268432942 -564.02684276397122 0 0 0 0 41.821407651455203 125.58607448117166 0 125.58607448117166 -3.0496218878587058 0 0 0 0 -304.77785714993661 293.59472536573958 0 293.59472536573958 7.0455080831598025 0 0 0 0 -232.06091684910132 231.70151498990526 0 231.70151498990526 -84.08315600570495 0 0 0 0 492.1020400921625 -311.2777073916368 0 -311.2777073916368 289.62188297664397 0 0 0 0 609.85631636515245 -325.34609353113774 0 -325.34609353113774 310.72515618852049 0 0 0 0 39.349820949117174 117.05274735850172 0 117.05274735850172 -18.781832813339236 0 0 0 0 767.47371832600038 -392.93776746718868 0 -392.93776746718868 66.29816736192879 0 0 0 0 -512.98982854329176 217.66810546518718 0 217.66810546518718 77.33376937295543 0 0 0 0 -394.40498708290568 61.544830869490397 0 61.544830869490397 22.377803826605486 0 0 0 0 -328.83266686252273 248.87624228781351 0 248.87624228781351 -4.1570787176533486 0 0 0 0 286.10066766376985 134.48317244700593 0 134.48317244700593 174.80608687479616 0 0 0 0 191.09923434342636 -624.02199848715827 0 -624.02199848715827 673.97225475897721 0 0 0 0 2502.4800281575881 1194.0887926845899 0 1194.0887926845899 639.93996318851714 0 0 0 0 1888.9790538398011 -568.51040765187645 0 -568.51040765187645 268.05075319297612 0 0 0 0 570.96503174739701 422.04130181613436 0 422.04130181613436 417.43042471168155 0 0 0 0 1306.3489414918586 99.637048114302161 0 99.637048114302161 -232.56132241200612 0 0 0 0 528.2680711189314 -430.93671636283034 0 -430.93671636283034 408.45765468809986 0 0 0 0 554.02372224206192 -421.93699885561364 0 -421.93699885561364 145.10072010128715 0 0 0 0 342.0020258065806 179.38257487699593 0 179.38257487699593 -43.692489944248393 0 0 0 0 262.56565864684308 152.40748460573377 0 152.40748460573377 -15.197420761716785 0 0 0 0 301.44261223440117 24.897647627018159 0 24.897647627018159 -18.974343889320153 0 0 0 0 136.85838068219527 21.633978141202533 0 21.633978141202533 -1.1336401276639663 0 0 0 0 36.195949827229924 55.573132013181748 0 55.573132013181748 -6.0972900941342232 0 0 0 0 179.26747207160952 129.41735848909957 0 129.41735848909957 -33.322281885135453 0 0 0 0 1.1773925423227842 13.463873689669921 0 13.463873689669921 -6.7425660699204002 0 0 0 0 576.42684918692112 -138.64431336176858 0 -138.64431336176858 -37.914272121706745 0 0 0 0 32.511745953924219 64.699351174862386 0 64.699351174862386 -27.765956325602019 0 0 0 0 -16.631725906967404 115.5613656750138 0 115.5613656750138 -8.9701271025423921 0 0 0 0 -4.9367652901364636 25.176468603385729 0 25.176468603385729 -15.690667390343151 0 0 0 0 58.208218551624668 130.41465282476565 0 130.41465282476565 -32.542464243073482 0 0 0 0 89.452298355778112 153.28454560093815 0 153.28454560093815 -28.108053956080767 0 0 0 0 -77.328963058521367 171.104724607565 0 171.104724607565 -29.658907409597305 0 0 0 0 -28.901244420119838 206.61159469636186 0 206.61159469636186 -20.350773246500466 0 0 0 0 -87.88865298797964 293.46762096649945 0 293.46762096649945 -39.488683619114454 0 0 0 0 29.633000464059478 261.89216189231593 0 261.89216189231593 -37.115434745996026 0 0 0 0 172.43942545515893 221.95569911684288 0 221.95569911684288 -21.037504213669308 0 0 0 0 -6.1673497790134206 233.58906473339448 0 233.58906473339448 -14.995654200844001 0 0 0 0 178.19070871027725 114.56005096057197 0 114.56005096057197 0.36599103247863241 0 0 0 0 159.60159575591024 214.38895962850802 0 214.38895962850802 -3.1839046363602392 0 0 0 0 40.4509133698607 282.58246570728079 0 282.58246570728079 54.905844711945974 0 0 0 0 -63.554312478391239 315.98682218974136 0 315.98682218974136 12.490161997786345 0 0 0 0 54.414819066520977 297.49792142947263 0 297.49792142947263 -14.80197665974265 0 0 0 0 -169.43800943317694 233.73604737964342 0 233.73604737964342 -35.973782493010731 0 0 0 0 -120.04464658099933 319.74997545792939 0 319.74997545792939 -29.972584079092485 0 0 0 0 -209.56334074808251 304.75448235340082 0 304.75448235340082 49.391566809092183 0 0 0 0 -66.817689103386726 300.17948851408801 0 300.17948851408801 -54.762088098068489 0 0 0 0 -112.23724518934114 292.0671902182512 0 292.0671902182512 -5.3950633277127054 0 0 0 0 -328.97476848317535 217.842432625497 0 217.842432625497 128.91518186134635 0 0 0 0 -168.27270709620188 249.55296686675138 0 249.55296686675138 88.359581457778404 0 0 0 0 -162.68254728407396 224.33568722520795 0 224.33568722520795 181.16244955017464 0 0 0 0 -21.47638069839104 348.39158342169321 0 348.39158342169321 211.00906007128651 0 0 0 0 32.773505573792704 292.79566728546979 0 292.79566728546979 155.58898720968864 0 0 0 0 37.932970112246039 323.09939697389927 0 323.09939697389927 66.106414515452343 0 0 0 0 -110.89357518634881 304.37524815001598 0 304.37524815001598 107.29456488011056 0 0 0 0 216.15613838302852 294.74099682913948 0 294.74099682913948 29.401702797957114 0 0 0 0 199.49238917297498 263.75326474563917 0 263.75326474563917 94.42399156645115 0 0 0 0 315.30530060917772 212.31373079567857 0 212.31373079567857 -10.98809052998331 0 0 0 0 396.11982455554789 290.24548731867981 0 290.24548731867981 61.587261749431491 0 0 0 0 394.07364778487971 172.17271765281384 0 172.17271765281384 221.24856769369217 0 0 0 0 254.80448015544249 222.94472703822112 0 222.94472703822112 204.68865422398085 0 0 0 0 258.19718956278757 305.18347842434741 0 305.18347842434741 82.077166305301944 0 0 0 0 559.3708280422361 246.85483327710244 0 246.85483327710244 100.52378547909393 0 0 0 0 445.99969624396181 292.95522238530975 0 292.95522238530975 121.58951870224337 0 0 0 0 514.31513546435235 178.15147371932107 0 178.15147371932107 135.52816096309107 0 0 0 0 746.54687598966302 259.8962494070729 0 259.8962494070729 82.952130492602009 0 0 0 0 731.94181001067773 267.77431267084467 0 267.77431267084467 90.257715741856373 0 0 0 0 -5.0477142840866094 47.315705912180434 0 47.315705912180434 58.750874078961374 0 0 0 0 886.17987799242655 179.73763264727313 0 179.73763264727313 -0.94040015977225266 0 0 0 0 -1886.7754289707518 1083.5620923183124 0 1083.5620923183124 531.99713146666181 0 0 0 0 786.44637897786743 147.74236489339091 0 147.74236489339091 105.28595102104009 0 0 0 0 797.98977655272392 323.22978821174183 0 323.22978821174183 127.19453954452183 0 0 0 0 561.75242613716 261.6921247135615 0 261.6921247135615 109.87215199806087 0 0 0 0 507.43746822877074 -253.28819149057381 0 -253.28819149057381 109.41723074117908 0 0 0 0 -13.532701988882517 -3.9169282313674447 0 -3.9169282313674447 0.62778324123030416 0 0 0 0 81.96990371001678 74.534894106013539 0 74.534894106013539 25.619655777611683 0 0 0 0 19.02754719386505 103.27154847034782 0 103.27154847034782 15.297289933891733 0 0 0 0 8.6310136649109843 16.893459233665865 0 16.893459233665865 2.0951807628277948 0 0 0 0 252.45759809273704 30.69432014713675 0 30.69432014713675 25.418396996741649 0 0 0 0 301.11531435696929 33.748243429668946 0 33.748243429668946 13.901024770457298 0 0 0 0 356.97072157634102 -66.622628712895676 0 -66.622628712895676 42.79630436404841 0 0 0 0 630.5823045371726 -216.32276392364292 0 -216.32276392364292 -72.599239791219588 0 0 0 0 10.851935139386404 7.2177220807973299 0 7.2177220807973299 1.8634821901883072 0 0 0 0 588.53803786084609 196.7470825924247 0 196.7470825924247 -12.926951341331005 0 0 0 0 287.00304093197428 133.96779685650472 0 133.96779685650472 -1.4419631643977482 0 0 0 0 403.66636846192705 195.77337294860627 0 195.77337294860627 22.102481240530324 0 0 0 0 -2685.7547350448972 288.31151146598495 0 288.31151146598495 122.69596810509756 0 0 0 0 8.8561053888850445 26.411407129146014 0 26.411407129146014 37.601784965874572 0 0 0 0 -1373.3089647499164 958.6162529201647 0 958.6162529201647 -198.63832333403116 0 0 0 0 896.46423828678007 258.44987743119054 0 258.44987743119054 -31.140917119919322 0 0 0 0 573.66223065831036 449.11178562148416 0 449.11178562148416 -13.127624984901558 0 0 0 0 240.45941662217979 322.50467294072178 0 322.50467294072178 165.00290486979065 0 0 0 0 495.3293626930481 1190.9350174663141 0 1190.9350174663141 293.67631338248611 0 0 0 0 1941.0583469000399 223.41519909008275 0 223.41519909008275 -67.992521496012159 0 0 0 0 -679.25696993179827 10.499688547562982 0 10.499688547562982 315.72262174636126 0 0 0 0 241.33849074566479 333.13898512403102 0 333.13898512403102 170.39748197586232 0 0 0 0 -285.53469974692962 352.09337475110806 0 352.09337475110806 461.49646177419345 0 0 0 0 -375.12634231749672 147.77476213629416 0 147.77476213629416 224.130927257851 0 0 0 0 -356.78420314600339 35.01556967171382 0 35.01556967171382 89.910473781346809 0 0 0 0 -434.32644914838124 -1.7096552350740239 0 -1.7096552350740239 128.65512040900649 0 0 0 0 -362.84827747006307 -42.322699013941019 0 -42.322699013941019 -30.969243516607094 0 0 0 0 -27.366842086169623 11.816957442149686 0 11.816957442149686 -5.8053882409952564 0 0 0 0 420.86029172474309 1608.7821930737928 0 1608.7821930737928 739.50313465424551 0 0 0 0 -1439.7017384466262 1272.345206965234 0 1272.345206965234 1047.5762787498679 0 0 0 0 -1419.8342492626589 -796.44761299407401 0 -796.44761299407401 -187.6219761438806 0 0 0 0 -1118.8828650407527 830.9566272049733 0 830.9566272049733 492.66705645578622 0 0 0 0 -1066.3871223058659 -53.004176739807008 0 -53.004176739807008 1062.385212813846 0 0 0 0 3972.7815972911294 912.35071368097124 0 912.35071368097124 -977.13977809489734 0 0 0 0 -484.14376039416157 1201.4105974906997 0 1201.4105974906997 700.34842020157521 0 0 0 0 -3001.1610179850618 577.73122983774374 0 577.73122983774374 597.05118732382107 0 0 0 0 2.0269873432532526 7.0458571992866617 0 7.0458571992866617 12.789280511648144 0 0 0 0 1842.9068265971509 1739.2120706705682 0 1739.2120706705682 1744.6146422461607 0 0 0 0 1891.4179418537351 1706.5119965351332 0 1706.5119965351332 1415.8445068312722 0 0 0 0 1439.8851355648949 1196.344355717818 0 1196.344355717818 1294.2913061579602 0 0 0 0 1275.2350717826266 1472.0183960394643 0 1472.0183960394643 1993.9570544342496 0 0 0 0 1642.4428779520786 1133.301697049752 0 1133.301697049752 929.20701274304884 0 0 0 0 1762.5473366126462 777.09225545571098 0 777.09225545571098 476.42138202629576 0 0 0 0 1822.7843764267673 1747.3030578226098 0 1747.3030578226098 1560.6020803475112 0 0 0 0 16.146620292077912 -8.7876611682910664 0 -8.7876611682910664 9.2911114283631946 0 0 0 0 1533.0867530886317 1558.0656485082363 0 1558.0656485082363 2029.9778794179874 0 0 0 0 3278.4582163437344 3085.7374417353567 0 3085.7374417353567 2642.1869969074323 0 0 0 0 2978.7878445249589 38.961015660774137 0 38.961015660774137 1674.2868051245605 0 0 0 0 76.433099499652414 -12.269713281157976 0 -12.269713281157976 -1.0017915663036661 0 0 0 0 290.49662530516798 -19.324441393648158 0 -19.324441393648158 -75.35579312419577 0 0 0 0 33.762463412123658 109.92096097526584 0 109.92096097526584 -34.118489935618925 0 0 0 0 -401.28366347478482 66.02668876545431 0 66.02668876545431 21.623899558137055 0 0 0 0 76.896904163673753 535.94998448736442 0 535.94998448736442 2273.687083991259 0 0 0 0 -414.2076359582166 -81.240802098421227 0 -81.240802098421227 -71.342417366919108 0 0 0 0 -61.842539960892282 49.565895842555165 0 49.565895842555165 -15.346076786882321 0 0 0 0 -2.8128522511343697 8.6329476096279016 0 8.6329476096279016 5.0951293713869177 0 0 0 0 2987.6724360426888 2367.0260562398616 0 2367.0260562398616 1787.2611392692488 0 0 0 0 1280.7901121628529 1422.6877696468509 0 1422.6877696468509 3134.1064423479693 0 0 0 0 1692.2502918066675 797.99853624302705 0 797.99853624302705 1379.2721969225095 0 0 0 0 1508.9082448644913 1246.699201981959 0 1246.699201981959 843.89558115141153 0 0 0 0 508.57679984405559 1006.7265531407393 0 1006.7265531407393 1186.2508466142608 0 0 0 0 1062.2963182139247 1654.1597032577411 0 1654.1597032577411 1765.5118115752812 0 0 0 0 1119.4449247124794 1242.7088372664984 0 1242.7088372664984 435.06588412972633 0 0 0 0 815.99650920760178 825.4345074292869 0 825.4345074292869 790.41184745055671 0 0 0 0 1286.1211832916633 622.26073704075679 0 622.26073704075679 217.23800519370707 0 0 0 0 641.50230175407523 780.23600738850723 0 780.23600738850723 191.34250201193208 0 0 0 0 680.63960194092579 606.27513605133572 0 606.27513605133572 862.85786728898529 0 0 0 0 1143.5064449243582 783.94626288441941 0 783.94626288441941 1807.1081531855452 0 0 0 0 1335.6379497031194 821.16493489492859 0 821.16493489492859 673.77368626715906 0 0 0 0 864.72158196209057 743.65401853946241 0 743.65401853946241 1335.7360864894872 0 0 0 0 1131.7575647287158 557.00100468553137 0 557.00100468553137 512.28488479266525 0 0 0 0 404.93643701358087 212.52031547106162 0 212.52031547106162 702.44447245755873 0 0 0 0 892.12508831172454 507.38348027496249 0 507.38348027496249 184.55632727472403 0 0 0 0 592.49326281040703 109.36711245305196 0 109.36711245305196 283.22093242176925 0 0 0 0 511.82955912015677 370.65427543093756 0 370.65427543093756 -216.73228833384928 0 0 0 0 80.940942685479968 -88.933997699510655 0 -88.933997699510655 -276.51966307024122 0 0 0 0 -286.58199920570769 -33.080389258939249 0 -33.080389258939249 -211.24709997096215 0 0 0 0 459.79362167265663 723.75495922450841 0 723.75495922450841 295.30599290748069 0 0 0 0 123.19705491481 315.08237506267324 0 315.08237506267324 -477.15933501812106 0 0 0 0 401.90993721607083 4.6376382162925438 0 4.6376382162925438 -607.5092760908974 0 0 0 0 207.37305996131909 29.922620767876651 0 29.922620767876651 -297.08614974190277 0 0 0 0 24.522233367663077 4.2210102424687648 0 4.2210102424687648 -7.7227850782297764 0 0 0 0 618.59757608709333 200.33217296708608 0 200.33217296708608 -517.79068364486011 0 0 0 0 400.46631555620843 466.99360753418841 0 466.99360753418841 46.069550693195197 0 0 0 0 674.38184347408242 425.65623434026202 0 425.65623434026202 -7.6050239889591467 0 0 0 0 832.65584174992182 855.22005151172561 0 855.22005151172561 42.331199480715441 0 0 0 0 440.10892916690864 1013.5308169600466 0 1013.5308169600466 417.57155585508735 0 0 0 0 329.18257638359501 517.99891510265661 0 517.99891510265661 261.85623822974958 0 0 0 0 -6.6440550365077797 -50.690173645183677 0 -50.690173645183677 -235.87294161897444 0 0 0 0 19.056524674774188 5.8374171732246793 0 5.8374171732246793 -7.2415632860902832 0 0 0 0 311.08406755325632 545.41525727984117 0 545.41525727984117 310.2526308116212 0 0 0 0 29.053572546445139 -51.252691670486456 0 -51.252691670486456 -632.41218553988438 0 0 0 0 59.021950935082714 76.051340236925171 0 76.051340236925171 -147.73126968180077 0 0 0 0 392.60770992783 264.55585976337534 0 264.55585976337534 -149.99413360165636 0 0 0 0 390.56392368689558 237.1500980587989 0 237.1500980587989 13.938858095985779 0 0 0 0 431.01622842648976 -95.412039937347799 0 -95.412039937347799 -45.59878146891424 0 0 0 0 602.82398269942132 182.66879208451792 0 182.66879208451792 -75.53312773219659 0 0 0 0 373.90738485201723 -326.27996133657325 0 -326.27996133657325 911.02932187347324 0 0 0 0 1119.1694846220657 -253.78850974398847 0 -253.78850974398847 -12.757087289792253 0 0 0 0 977.14439132494863 455.51682878434167 0 455.51682878434167 -76.472522137322812 0 0 0 0 -89.035394321039348 217.78836549761672 0 217.78836549761672 216.41680067876587 0 0 0 0 463.85474658559542 8.0204142961738398 0 8.0204142961738398 -163.11455216016475 0 0 0 0 -62.547163502550575 811.05971525672066 0 811.05971525672066 787.3965633797543 0 0 0 0 428.34153407063752 784.81802092104044 0 784.81802092104044 769.73935141880793 0 0 0 0 264.40987366246048 114.74501668005178 0 114.74501668005178 956.32110055118392 0 0 0 0 -198.59108345272944 483.48508601481444 0 483.48508601481444 983.42693221577156 0 0 0 0 -79.657285101762227 713.38232538433022 0 713.38232538433022 1037.9464245461568 0 0 0 0 -662.35296360540815 503.07978210249712 0 503.07978210249712 992.71145089436504 0 0 0 0 -192.28874029929011 1038.6511021143924 0 1038.6511021143924 1091.3039317410294 0 0 0 0 267.74716150806307 936.71423390779819 0 936.71423390779819 631.79443329334026 0 0 0 0 68.886478459815407 698.58821666441872 0 698.58821666441872 612.46063641096589 0 0 0 0 313.08895558108998 480.27667202363227 0 480.27667202363227 796.45372530785971 0 0 0 0 44.757074794831169 758.7446027210899 0 758.7446027210899 1037.5307915377598 0 0 0 0 -53.79521820639593 80.16611907141305 0 80.16611907141305 -827.6904675937767 0 0 0 0 8.6247391876047388 5.3234508282143196 0 5.3234508282143196 -4.9326690243558318 0 0 0 0 260.51345714892796 594.6193669328095 0 594.6193669328095 384.01998678597738 0 0 0 0 -338.15546401767369 124.4973058569085 0 124.4973058569085 79.800947698891832 0 0 0 0 -195.2064776391353 371.48288809700898 0 371.48288809700898 874.82237137750508 0 0 0 0 -54.842122178954696 469.59516648473164 0 469.59516648473164 893.6429454707104 0 0 0 0 -286.023271233792 609.61901019768266 0 609.61901019768266 199.82467563728278 0 0 0 0 -90.397975133987757 458.90176531899033 0 458.90176531899033 243.91727478894609 0 0 0 0 5.5663732400821617 16.920705679918342 0 16.920705679918342 13.432500318314382 0 0 0 0 -309.721956610284 193.50272162752663 0 193.50272162752663 950.41833106981358 0 0 0 0 -357.0767363597397 417.03421651319877 0 417.03421651319877 145.41956056218623 0 0 0 0 -149.70354577530179 151.84205813231893 0 151.84205813231893 110.35916984832147 0 0 0 0 -169.29218782353195 531.80084345076284 0 531.80084345076284 -370.32428018238716 0 0 0 0 -192.42538876506489 141.29931596327515 0 141.29931596327515 -55.035459612452541 0 0 0 0 -224.02149454441951 163.16406276861744 0 163.16406276861744 291.15063631025635 0 0 0 0 -299.26346107775316 285.51442062906972 0 285.51442062906972 292.13253980773879 0 0 0 0 -120.77232506379914 143.35005729525437 0 143.35005729525437 233.36781209859328 0 0 0 0 -196.97296070615823 172.11516088233134 0 172.11516088233134 222.51931000092736 0 0 0 0 5.2987165025930771 15.070536644725365 0 15.070536644725365 11.577094904483957 0 0 0 0 163.2179010241216 518.0303894612789 0 518.0303894612789 -1004.9351322320399 0 0 0 0 -256.8233990905519 281.08386389024963 0 281.08386389024963 -693.13358990451525 0 0 0 0 -199.29118310745162 153.35498118124633 0 153.35498118124633 -464.35680881216103 0 0 0 0 -95.171391782976571 -11.415566584649696 0 -11.415566584649696 919.663037882965 0 0 0 0 -31.428812353871763 204.16401942204902 0 204.16401942204902 180.99918659542891 0 0 0 0 -75.563207472489921 212.32119954875816 0 212.32119954875816 47.245640791436017 0 0 0 0 3.2676756159285105 253.20197532404381 0 253.20197532404381 67.820387918531196 0 0 0 0 -194.18055119144537 202.45568901922525 0 202.45568901922525 154.53845922507753 0 0 0 0 -71.257907516870546 249.4444864856232 0 249.4444864856232 -50.247683853078343 0 0 0 0 -251.66505336667615 207.36320265348331 0 207.36320265348331 339.18636327245258 0 0 0 0 -110.30422353498147 310.58942664080132 0 310.58942664080132 252.05229028427857 0 0 0 0 -257.28287006126163 182.72428125595934 0 182.72428125595934 285.83952806433808 0 0 0 0 -221.69178531107445 142.53714017336461 0 142.53714017336461 266.75932387811918 0 0 0 0 -182.2982136523774 209.85332276407917 0 209.85332276407917 28.895144488895312 0 0 0 0 -208.50357305287116 145.60913522577539 0 145.60913522577539 16.88234518806712 0 0 0 0 -189.20718917254203 207.29015564546626 0 207.29015564546626 74.64978832595807 0 0 0 0 -173.27422709396888 109.18909572465054 0 109.18909572465054 30.355765852230888 0 0 0 0 -75.757891369058598 -115.32312309337794 0 -115.32312309337794 507.157712378219 0 0 0 0 -247.92885061987454 190.00902326260257 0 190.00902326260257 571.75274094487031 0 0 0 0 74.945062156672066 286.23323461416294 0 286.23323461416294 73.213073363262083 0 0 0 0 -50.13100261956788 197.69102193114304 0 197.69102193114304 172.19879159687116 0 0 0 0 364.71951376682046 -7.892869562987471 0 -7.892869562987471 137.88148566833115 0 0 0 0 224.37506761680561 154.80699406928034 0 154.80699406928034 -43.728244150763203 0 0 0 0 242.94419706486678 346.72601360571207 0 346.72601360571207 -28.356074278664892 0 0 0 0 271.00777674361962 309.76225009155314 0 309.76225009155314 17.372926162512158 0 0 0 0 229.17382271624228 589.67686236310692 0 589.67686236310692 -70.92020928526108 0 0 0 0 195.96605303234355 196.11658325518238 0 196.11658325518238 -399.41230151731725 0 0 0 0 176.88161072517869 382.084090367709 0 382.084090367709 -807.53225330731584 0 0 0 0 -0.090577976209807787 7.4738010235181918 0 7.4738010235181918 6.6859207681243049 0 0 0 0 71.159299838585866 315.03897190604403 0 315.03897190604403 476.0190733091149 0 0 0 0 74.014762309856451 197.84734021880649 0 197.84734021880649 58.568909238780179 0 0 0 0 416.8004580798206 149.58009291840972 0 149.58009291840972 29.580185428247205 0 0 0 0 197.10068321473591 535.55789201596053 0 535.55789201596053 450.25390768067518 0 0 0 0 126.13534665715633 309.99126434337813 0 309.99126434337813 -4.5153789031210181 0 0 0 0 131.73187424691639 71.299324140659621 0 71.299324140659621 -104.13490796318365 0 0 0 0 144.39366280080503 123.24947371721646 0 123.24947371721646 -136.89386588578054 0 0 0 0 47.252680963358699 -21.459465859957078 0 -21.459465859957078 -183.43307506844576 0 0 0 0 73.439707863217336 28.827583906169821 0 28.827583906169821 -329.63322383999184 0 0 0 0 52.497721716787055 288.49712761661067 0 288.49712761661067 84.772221082450415 0 0 0 0 36.434127871860255 12.769278801317341 0 12.769278801317341 -19.901791770920681 0 0 0 0 80.775347301060719 182.79316009052582 0 182.79316009052582 -113.60818765015574 0 0 0 0 94.528273940590225 -5.1221992616447096 0 -5.1221992616447096 -619.01548610234022 0 0 0 0 -24.514328536650282 102.07866759623721 0 102.07866759623721 -52.704745692662982 0 0 0 0 -7.3442290302878064 16.046257338958171 0 16.046257338958171 -26.761600645793564 0 0 0 0 -171.39428754050084 -341.94923804649142 0 -341.94923804649142 -493.15586742965388 0 0 0 0 -166.75039211451804 -47.155031696427613 0 -47.155031696427613 -162.43104074896473 0 0 0 0 354.27036624594257 -0.33996467984252376 0 -0.33996467984252376 131.0771837473003 0 0 0 0 362.73520949475278 244.36323942514355 0 244.36323942514355 42.249447892165335 0 0 0 0 448.28609802477331 345.50664784520905 0 345.50664784520905 121.32833092629153 0 0 0 0 -0.8069254154804355 4.1387894597757793 0 4.1387894597757793 -9.2185423034718923 0 0 0 0 694.83423183832929 -1235.0092865737242 0 -1235.0092865737242 -1236.4020365387842 0 0 0 0 460.45939120867115 399.51845080942439 0 399.51845080942439 78.052222763388272 0 0 0 0 492.14382703959018 409.21725443193372 0 409.21725443193372 -8.2287872857923503 0 0 0 0 -32.258805386084845 57.647963261721443 0 57.647963261721443 -45.568045658447602 0 0 0 0 404.91011373502806 564.2401354849535 0 564.2401354849535 -241.66552274639253 0 0 0 0 -339.32125517610257 -615.89348281442108 0 -615.89348281442108 -78.906681788153946 0 0 0 0 83.601175789808622 260.26390955062743 0 260.26390955062743 -251.25413797656802 0 0 0 0 161.40448501942592 157.88868871720479 0 157.88868871720479 92.403174109109841 0 0 0 0 3.9591714279357859 1.0297780155483025 0 1.0297780155483025 -0.29166990929331149 0 0 0 0 -1933.3575804055727 295.99751376720087 0 295.99751376720087 -175.35525299124129 0 0 0 0 -9.641985693568131 42.056939441015857 0 42.056939441015857 -33.565551326159039 0 0 0 0 14.21120101959167 18.201223393498765 0 18.201223393498765 -14.302043956132257 0 0 0 0 23.647219186728762 5.3717521829748875 0 5.3717521829748875 4.6599717934514047 0 0 0 0 -35.796462640743812 65.855059189966596 0 65.855059189966596 53.041135184888844 0 0 0 0 6.8112576941781384 22.995447675340674 0 22.995447675340674 12.138435103916862 0 0 0 0 -29.222319424003217 80.488114611196579 0 80.488114611196579 -22.601810956693953 0 0 0 0 232.74505222321386 59.157540122861974 0 59.157540122861974 -27.597991162670951 0 0 0 0 417.91303096955926 37.343731469703926 0 37.343731469703926 -70.171850250728312 0 0 0 0 222.65037009907974 21.563799790907069 0 21.563799790907069 -58.206653341418132 0 0 0 0 -28.430952218383027 268.17991191266265 0 268.17991191266265 -421.50907897466823 0 0 0 0 29.267385380670021 92.573898805800127 0 92.573898805800127 -4.5070629600086249 0 0 0 0 1.4060791523264271 14.771589594756279 0 14.771589594756279 -41.707643630828926 0 0 0 0 -95.498239763670426 179.16985179557378 0 179.16985179557378 -146.67621306526053 0 0 0 0 36.821452982607298 -161.2412504205713 0 -161.2412504205713 37.841409527489304 0 0 0 0 -12.887786640603082 18.315322939258039 0 18.315322939258039 -12.427177872203686 0 0 0 0 -4.2772777927489756 28.562289055243724 0 28.562289055243724 -21.847140138572826 0 0 0 0 -34.767475524917245 32.957785029677325 0 32.957785029677325 -27.335243175354663 0 0 0 0 -36.408138279272094 35.529281276770647 0 35.529281276770647 -7.1510352412784002 0 0 0 0 -14.17353423962777 36.076066931342211 0 36.076066931342211 -17.471619235962862 0 0 0 0 -55.226471653411863 60.30999666358548 0 60.30999666358548 -54.094822094603842 0 0 0 0 -26.255830400631766 9.2572730605322278 0 9.2572730605322278 0.74778137388062049 0 0 0 0 -0.33679706441762391 -2.154670945907128 0 -2.154670945907128 -248.55912294004156 0 0 0 0 -584.75001911217987 306.16472976358273 0 306.16472976358273 -136.59549894444353 0 0 0 0 -42.503542472200934 53.963257435691048 0 53.963257435691048 67.188820944109466 0 0 0 0 -0.53283663958075067 16.238081826491147 0 16.238081826491147 8.6335321419122124 0 0 0 0 -55.461168721521972 75.004814448257093 0 75.004814448257093 -51.009527237940347 0 0 0 0 -43.251563576573972 69.222809691767907 0 69.222809691767907 -52.023887806688435 0 0 0 0 -53.137565754957905 68.317844088021957 0 68.317844088021957 -36.160116136059514 0 0 0 0 -60.755306333405315 77.973138369474327 0 77.973138369474327 -40.11916419287445 0 0 0 0 -48.488832072602236 65.83322549577133 0 65.83322549577133 -49.627720388984017 0 0 0 0 -56.54354898954989 54.73515790410238 0 54.73515790410238 -35.35376857384108 0 0 0 0 -36.503303351890281 81.049331046369844 0 81.049331046369844 -11.66999886566191 0 0 0 0 -26.964523887254472 61.757276619515324 0 61.757276619515324 -43.925759905214363 0 0 0 0 -19.960690943698864 84.161893346186844 0 84.161893346186844 -40.153994186126511 0 0 0 0 -40.083912762784166 58.047877898941806 0 58.047877898941806 -31.192789303120662 0 0 0 0 -27.016339903377229 60.682909087219741 0 60.682909087219741 1.7873868024762487 0 0 0 0 -14.845881449178705 105.42681499695664 0 105.42681499695664 -3.294843542324088 0 0 0 0 -48.458010092334007 101.24574701592792 0 101.24574701592792 -32.1063698445505 0 0 0 0 -3.5673043920542682 12.003447400741578 0 12.003447400741578 1.505057073249958 0 0 0 0 58.087785836018156 -106.63644101127284 0 -106.63644101127284 75.446181953331688 0 0 0 0 -38.367707327087999 31.245763458378732 0 31.245763458378732 8.002642903126727 0 0 0 0 -33.117831326409942 24.161403156453162 0 24.161403156453162 15.273078037833329 0 0 0 0 69.382082294148859 -117.20600422901043 0 -117.20600422901043 16.815602255985141 0 0 0 0 -14.674787443248874 38.39306657550074 0 38.39306657550074 3.6426313915232527 0 0 0 0 -42.07069727407486 20.041105791273907 0 20.041105791273907 -1.145413570473977 0 0 0 0 -574.95329662513541 184.09329253129545 0 184.09329253129545 10.149518933678337 0 0 0 0 -13.074328417181675 13.171203008609069 0 13.171203008609069 2.9559113683897635 0 0 0 0 -61.049461668619188 91.748896643301123 0 91.748896643301123 -39.046497102594003 0 0 0 0 -131.7216735984548 62.858266654051477 0 62.858266654051477 96.02066835120786 0 0 0 0 -76.663636028736846 7.2973384745751702 0 7.2973384745751702 7.1108876299934209 0 0 0 0 70.148101822589524 -88.227508326177485 0 -88.227508326177485 10.265616137185134 0 0 0 0 95.890483515409869 -41.694526426377706 0 -41.694526426377706 -145.86705465146224 0 0 0 0 96.588553403998958 -42.167624162670108 0 -42.167624162670108 -147.00684896526946 0 0 0 0 94.581954976019915 21.304079453846498 0 21.304079453846498 -132.55506401048115 0 0 0 0 78.139689741132315 -80.249462573985511 0 -80.249462573985511 -117.06978895401699 0 0 0 0 -339.09105328001169 91.274065138517471 0 91.274065138517471 271.21689283793239 0 0 0 0 13.820007497110055 39.807637898062239 0 39.807637898062239 -41.035606165081845 0 0 0 0 112.4019189360406 72.120447532252001 0 72.120447532252001 -37.022315064521536 0 0 0 0 -63.349274455969862 78.533453188560088 0 78.533453188560088 -16.338060050446074 0 0 0 0 1.9786064857067913 17.002302246272635 0 17.002302246272635 11.062188929571789 0 0 0 0 80.19556109936093 -40.454690467733599 0 -40.454690467733599 25.959488503089233 0 0 0 0 82.570294250064762 -34.076352318814315 0 -34.076352318814315 -41.496291974035557 0 0 0 0 -53.660705781724232 8.9926839440693129 0 8.9926839440693129 2.39014900595485 0 0 0 0 -369.75838852039305 1080.3509443036546 0 1080.3509443036546 -1541.7130171370736 0 0 0 0 -884.20491083941306 900.95756363066903 0 900.95756363066903 -1013.0773699995807 0 0 0 0 53.49627328432689 247.2226363951122 0 247.2226363951122 517.48868234298425 0 0 0 0 13.876570406318933 228.61256787115053 0 228.61256787115053 -642.33864584186813 0 0 0 0 -1721.2069408478565 1250.8646018718937 0 1250.8646018718937 -554.50708576588522 0 0 0 0 -1268.5976464638225 1602.1690239098898 0 1602.1690239098898 -1425.2217780087476 0 0 0 0 -672.47760341699905 1300.4248450613013 0 1300.4248450613013 -1508.7116431296527 0 0 0 0 -1176.411826886193 1067.8205279548674 0 1067.8205279548674 -1462.7768259390505 0 0 0 0 57.695886738586921 45.002499795537176 0 45.002499795537176 24.042581532633534 0 0 0 0 -1428.6669264366828 1390.9965000773464 0 1390.9965000773464 -1129.8894520854446 0 0 0 0 -888.80295744449904 923.40933938277431 0 923.40933938277431 -286.16345479431038 0 0 0 0 -838.76073101400107 1501.8703231390391 0 1501.8703231390391 -1829.1157042585055 0 0 0 0 -11.229341202877492 5.9067970486076575 0 5.9067970486076575 -0.57282390422911433 0 0 0 0 -1194.7927025708341 1321.1938275068424 0 1321.1938275068424 -1109.1740969040002 0 0 0 0 -1190.8758810476065 1221.6869350511079 0 1221.6869350511079 -780.5646954446056 0 0 0 0 -990.25535579997813 1221.5740143359835 0 1221.5740143359835 -1094.3719598485077 0 0 0 0 -496.5655646539235 1167.2465324665645 0 1167.2465324665645 -1504.2479392894893 0 0 0 0 -412.03215126147552 380.48439414843961 0 380.48439414843961 -297.63518819892488 0 0 0 0 -1098.2811530451982 1230.700749227246 0 1230.700749227246 -1019.8534995796363 0 0 0 0 -991.3783148503353 1387.0108351535673 0 1387.0108351535673 -1299.8540660001454 0 0 0 0 -85.577315743255895 106.17050193950126 0 106.17050193950126 31.628222013672712 0 0 0 0 -203.97115697762638 78.766671512237735 0 78.766671512237735 25.402945235517109 0 0 0 0 -189.58747243023572 164.39918143850036 0 164.39918143850036 56.645858215917542 0 0 0 0 -762.06935403842363 1181.8840461342043 0 1181.8840461342043 -1413.2026725855758 0 0 0 0 64.306749106162982 55.30333744649819 0 55.30333744649819 24.894093071919684 0 0 0 0 -656.56000157252129 -22.611358429923712 0 -22.611358429923712 10.184101699895109 0 0 0 0 14.327022088799339 16.173261953184664 0 16.173261953184664 -4.6374336594594752 0 0 0 0 -1685.4493929390592 1615.8365773644764 0 1615.8365773644764 -1207.4168068551771 0 0 0 0 -671.30424693194072 1580.6166574672961 0 1580.6166574672961 -2650.8072186849604 0 0 0 0 -470.07396302082634 56.115421173642972 0 56.115421173642972 167.08739920006337 0 0 0 0 -610.00961458811071 152.08011179296591 0 152.08011179296591 271.38318472776882 0 0 0 0 66.674676535709693 48.28462864634237 0 48.28462864634237 25.222349140583304 0 0 0 0 -704.71508470081608 450.58520019101707 0 450.58520019101707 -32.56922409022809 0 0 0 0 -330.77938188532426 181.87157940751058 0 181.87157940751058 -56.76477159968772 0 0 0 0 -357.95371058519231 -63.059537500084843 0 -63.059537500084843 209.39287133784637 0 0 0 0 -459.06967064415221 -151.48372726874004 0 -151.48372726874004 217.40481267230643 0 0 0 0 -548.80328523711796 47.404438554251101 0 47.404438554251101 254.25133266251942 0 0 0 0 -221.7500673464383 -129.56932755924936 0 -129.56932755924936 -9.8733789178877487 0 0 0 0 -366.93564508977579 -237.99274748605967 0 -237.99274748605967 169.00268664989562 0 0 0 0 -252.47330967711241 -59.602909999135591 0 -59.602909999135591 99.555795989617764 0 0 0 0 -297.7157698742958 -74.012522791377705 0 -74.012522791377705 95.209049374985625 0 0 0 0 -1240.5947189133294 1546.4109693384526 0 1546.4109693384526 2849.4800873880231 0 0 0 0 -75.740779048003475 19.823289732294398 0 19.823289732294398 6.1372610502424152 0 0 0 0 -1391.2642157015653 -115.10843326464965 0 -115.10843326464965 871.34088325420453 0 0 0 0 -8.4959740220681397 5.9566750259219248 0 5.9566750259219248 -0.96024395749100222 0 0 0 0 -231.60358587591327 -227.42421365664268 0 -227.42421365664268 -260.2405885753542 0 0 0 0 1664.995248406718 1403.9828449284832 0 1403.9828449284832 2810.7393840902514 0 0 0 0 589.4113743462658 460.62147971388185 0 460.62147971388185 1232.9082553879489 0 0 0 0 207.10729499814624 764.19504843981849 0 764.19504843981849 1477.7446410365083 0 0 0 0 111.13268967835756 658.77748449474166 0 658.77748449474166 1369.728651008787 0 0 0 0 -133.69073079030568 721.03237505759171 0 721.03237505759171 1410.3402058080537 0 0 0 0 -22.230611622568233 8.5668795467244223 0 8.5668795467244223 14.232452569965318 0 0 0 0 -58.942824449608452 397.78031538565119 0 397.78031538565119 1317.1526207203569 0 0 0 0 303.0082763071041 199.03632616291361 0 199.03632616291361 1121.5410408750759 0 0 0 0 -139.07420523863402 176.91654726974957 0 176.91654726974957 58.967195354518481 0 0 0 0 -85.96360337077266 30.125030964560636 0 30.125030964560636 8.4390942117145045 0 0 0 0 574.3694540776778 269.33781601114606 0 269.33781601114606 1121.0094749507509 0 0 0 0 466.86562405094446 328.76308414580853 0 328.76308414580853 1146.3476424299006 0 0 0 0 846.36878582164354 527.17955933097983 0 527.17955933097983 995.01911893711076 0 0 0 0 1170.0815880950831 654.80306178185856 0 654.80306178185856 878.09792205113627 0 0 0 0 -525.61079466461888 988.66347354156278 0 988.66347354156278 823.23177315147768 0 0 0 0 616.07576633614372 444.3982192849362 0 444.3982192849362 568.07902958795603 0 0 0 0 618.53784796224318 480.94625365897809 0 480.94625365897809 1044.601782767335 0 0 0 0 749.59226048316123 823.7368867773057 0 823.7368867773057 1298.6556778512895 0 0 0 0 916.04332801731653 811.48125845254981 0 811.48125845254981 1257.3475764867471 0 0 0 0 1678.2654663599533 792.79838056306471 0 792.79838056306471 815.80895269589382 0 0 0 0 1549.5861060519364 1899.2739685025663 0 1899.2739685025663 1346.1615976077155 0 0 0 0 -4023.0684635716461 -1952.3760480276978 0 -1952.3760480276978 107.81090616359143 0 0 0 0 -12.483910863107297 8.1614992536765385 0 8.1614992536765385 -0.42782273488714395 0 0 0 0 431.21288044944231 1820.9461650175926 0 1820.9461650175926 1860.4742739404755 0 0 0 0 -428.16928318154169 1576.3859717628384 0 1576.3859717628384 1934.1949072136049 0 0 0 0 -2684.6703309115474 972.47042190953289 0 972.47042190953289 555.13736640595016 0 0 0 0 -2950.3343877267034 741.02624874956382 0 741.02624874956382 1959.2204585212166 0 0 0 0 -1128.9602804978485 848.04578833692221 0 848.04578833692221 -354.71412795910146 0 0 0 0 -1177.7206995422966 594.00713540874858 0 594.00713540874858 -328.41891718624538 0 0 0 0 -2738.2917933114368 1250.1375499873102 0 1250.1375499873102 -470.97555206714605 0 0 0 0 -3683.1864448786469 611.94168662455604 0 611.94168662455604 333.92668136532302 0 0 0 0 -1163.7070855532656 209.94818155297253 0 209.94818155297253 -197.0210310255934 0 0 0 0 -1204.0122702444423 227.42506476859126 0 227.42506476859126 93.460381033449266 0 0 0 0 149.86239653640223 250.89941988582359 0 250.89941988582359 -27.393519424789702 0 0 0 0 -307.16759607787026 913.79191539324893 0 913.79191539324893 -284.96784812361875 0 0 0 0 213.49508457062984 164.62717427292591 0 164.62717427292591 -662.66885595477652 0 0 0 0 260.98173055571533 1181.9085907129484 0 1181.9085907129484 610.98209580415278 0 0 0 0 251.21047844269197 -419.87152771524416 0 -419.87152771524416 -1147.0191830681506 0 0 0 0 14.104056343384329 3.7619925548706874 0 3.7619925548706874 -5.2239954167033744 0 0 0 0 728.98172681904543 1069.5088082094153 0 1069.5088082094153 -167.6557713511138 0 0 0 0 77.87937150689686 -133.57181734198093 0 -133.57181734198093 -34.010784882791995 0 0 0 0 119.61351408813607 247.59366477863568 0 247.59366477863568 -447.6265246066323 0 0 0 0 -33.025049902425963 -49.549417312256992 0 -49.549417312256992 -291.08630257602726 0 0 0 0 50.696036024659406 203.44127938890233 0 203.44127938890233 -213.81740737245309 0 0 0 0 11.187697168868908 671.86353070968835 0 671.86353070968835 382.54744554218632 0 0 0 0 0.021324068556026532 3.9096668150984399 0 3.9096668150984399 8.1354445285568602 0 0 0 0 40.57069278975905 27.240635391398428 0 27.240635391398428 -519.71668078638322 0 0 0 0 54.336412493803437 -34.237269858926084 0 -34.237269858926084 -262.82367618950229 0 0 0 0 7.734223321223979 10.366662428807096 0 10.366662428807096 14.651480783715016 0 0 0 0 -139.77216964728723 -176.40772516117431 0 -176.40772516117431 155.62762835528702 0 0 0 0 225.03512438951293 250.08561595541687 0 250.08561595541687 -806.47274386636855 0 0 0 0 -1384.2462994433517 128.31725198505956 0 128.31725198505956 252.37662243469094 0 0 0 0 -2618.917524944678 1271.6781856215021 0 1271.6781856215021 -612.95048880495597 0 0 0 0 -1.592099300463488 3.0777061983699809 0 3.0777061983699809 -18.000699089214066 0 0 0 0 -1686.2365115255816 1765.115934630694 0 1765.115934630694 -2366.1347950926429 0 0 0 0 -1267.1148151954694 2525.5990399250586 0 2525.5990399250586 246.50673950747296 0 0 0 0 -1940.350540570158 971.65626818710734 0 971.65626818710734 -2305.7417056037666 0 0 0 0 -3047.1851074301812 1419.570278547224 0 1419.570278547224 554.7805428476654 0 0 0 0 -523.29395271914836 331.69839344429784 0 331.69839344429784 -432.10843335722166 0 0 0 0 -483.00094257735327 435.77882392104948 0 435.77882392104948 -694.79471794707661 0 0 0 0 -1536.4678036738405 2028.5994044382714 0 2028.5994044382714 -2442.4536155248206 0 0 0 0 
</DataArray>
<DataArray type="Float64" Name="cross_section_updated" format="ascii">
1 1 1 0.011129862694483267 1 0.011126333065194768 1 1 1 0.0031285749951312364 1 0.0073887695148719748 1 1 0.0083225475986511421 1 1 1 1 1 1 1 1 1 1 1 1 1 1 1 0.009530929411353653 1 1 0.0091277688907939573 1 1 1 1 1 1 1 1 1 1 1 1 1 0.0024250859621849086 1 0.0015343006912861522 1 1 0.010066329999141914 1 1 1 1 1 1 1 1 1 1 1 0.010215483008634431 0.0055260302550351262 1 1 1 1 1 1 1 1 1 1 1 1 0.0068356929799558031 1 1 1 1 1 1 1 0.0015005764663860513 1 1 1 1 0.0038811591385184904 1 1 1 1 1 1 1 0.011087113078934667 1 1 0.0091921266436987056 1 1 1 1 0.0097686811798130511 1 1 1 0.014967070629999607 0.0034066536985043472 1 1 1 1 1 1 1 0.0083349612350459117 1 1 1 1 0.010985729890269219 1 1 1 1 1 1 0.012607419465530047 1 1 1 1 0.0098572293538363946 1 0.018561776912258354 1 1 1 1 0.0078549396361119982 1 1 1 1 1 1 -8.9044863149645437e-10 0.020837032174371044 1 1 1 0.0046635543883758769 1 0.019163670731308584 1 1 1 1 1 1 1 1 1 1 1 1 1 0.010186313321739637 1 1 0.010061736615386715 1 1 1 1 0.007609686666260421 1 0.01488458908660166 1 1 0.0076329307814828468 1 1 1 1 1 0.01817478804089756 1 1 0.017107832881654267 0.0041055974025476713 1 0.010034628744024096 1 1 1 1 1 1 0.0065118815539051134 0.011546624715746807 1 1 0.010460119618877224 1 1 1 1 1 1 1 1 1 1 1 1 1 1 1 1 1 1 1 1 1 1 1 0.0075430789906849385 1 1 1 0.0056268781873384105 1 1 1 1 1 1 1 1 1 0.00086076545084107572 1 1 1 1 1 1 1 1 1 1 1 1 1 1 1 1 0.0092601452327593717 1 1 1 1 1 1 1 1 1 1 1 1 1 1 1 1 1 1 1 1 0.0099810705584425091 1 0.012932495766106319 1 1 1 1 1 1 1 1 1 1 1 1 1 1 1 1 0.0048935212913522094 1 1 1 0.0025652172913591242 1 1 1 1 1 1 1 0.0092962727856991181 1 1 0.0068017402838925108 1 1 1 1 1 1 1 1.0893513729959281e-09 1 1 0.018151518322924602 1 1 1 1 1 0.0021759481247442744 1 1 1 1 1 1 1 0.0076225641673135364 1 1 1 1 1 1 1 1 1 0.021716389604522816 1 1 1 1 0.025634588796046763 1 1 1 0.00094311992161211743 1 0.027913091361127372 1 1 0.0030030990263180627 1 1 1 1 1 1 1 1 1 1 1 1 1 0.015339868883511902 1 1 1 1 0.0075396446477249135 1 1 1 1 1 1 1 1 1 1 1 1 1 1 1 1 1 1 1 1 1 1 1 1 1 1 0.011183749642267416 1 0.004035322698642119 1 1 0.0067166399709379793 1 1 1 1 1 1 0.0084825891910267903 1 1 1 1 1 1 7.8008043739863364e-09 1 1 1 0.010309878496545345 1 -2.5048870703342496e-09 1 1 1 1 1 1 1 1 1 1 1 1 1 1 1 1 1 1 1 1 1 1 1 1 1 0.009491382094155093 1 1 1 1 1 1 1 1 0.0095914642124954388 1 1 1 1 1 1 1 0.010100082118340341 1 1 1 1 1 1 1 -3.6146299477873844e-09 1 1 1 1 1 -1.8282995256635459e-10 1 1 1 1 0.023636117512580504 0.0084330078321884893 1 1 0.020453285122675711 1 1 1 1 1 1 1 1 1 0.013664809174945933 1 1 1 1 1 1 1 1 1 1 1 1 1 1 1 0.010799087014974756 1 0.0098221382439327154 1 0.0099157939876168624 1 0.0078418303529417255 1 1 1 1 1 0.0091023734578250526 1 1 1 1 1 1 1 1 1 1 1 1 0.02559617562654249 1 1 1 1 1 1 1 0.0097764789308198846 0.018807103187022486 1 1 1 1 1 1 0.009181034722385328 1 1 1 0.012951496957203372 0.0075227271146458725 0.0099919799312452734 1 1 1 1 0.0052344450062770838 1 0.019925808624760524 1 1 0.0055992732473238802 1 1 1 0.013272289050326375 1 1 1 1 1 1 1 1 1 1 1 1 1 1 1 1 1 1 1 0.0038370444926831455 0.0084051803791998989 0.013853255220070436 1 0.0067727120834193914 1 1 1 0.010003019307097363 1 0.0090331098497738946 1 1 1 1 1 1 1 0.0083013351218116094 1 1 1 1 1 1 1 1 0.0097707043826366011 1 1 1 1 1 1 1 1 1 1 1 1 1 1 0.0096892073480100149 1 1 1 1 1 1 1 1 1 1 1 1 0.0086299039084329551 1 1 1 0.015368209045169924 1 1 0.011058755261871639 0.012625804217662615 1 1 1 0.0068187054531955258 3.2903998761768527e-09 1 1 1 1 1 1 0.012203330431861781 1 1 0.013901567740438076 0.010225884519890094 1 1 1 1 0.013273098471359226 1 1 1 1 1 1 1 1 1 1 1 1 1 1 1 1 0.007259657374650284 1 1 1 1 1 0.0026884319493696452 1 1 1 1 1 1 9.962809743857548e-11 1 1 1 1 1 1 1 1 1 1 1 1 1 1 1 1 1 0.020467143505791388 1 1 1 0.0040654662702150207 1 1 1 1 1 1 1 1 1 1 1 1 1 1 1 1 1 1 1 1 1 1 1 1 1 1 1 1 1 1 1 1 1 1 1 1 1 1 1 0.0071667547529279188 1 1 1 1 1 1 0.0032327288964739184 1 1 1 1 1 1 1 1 1 1 1 1 1 1 1 1 1 1 1 1 0.0091097655518749057 1 1 1 1 1 0.00047093008288066375 1 1 1 1 1 1 1 1 1 1 1 1 1 0.0074193915175518807 1 1 0.0034690778258901281 0.016236290995909126 1 1 1 1 1 1 1 1 1 1 1 1 1 1 1 1 1 1 1 1 1 1 1 1 1 1 1 1 1 1 1 1 1 1 -8.4125328231321461e-11 1 1 1 0.015616085710209164 1 1 1 1 1 1 0.0097997845735387709 0.0060020995068071348 1 0.013051051506704402 1 0.0014334370875539459 1 1 1 1 1 1 1 1 0.010312762609522311 1 1 1 1 1 1 1 1 1 1 1 1 1 0.0076969237506549788 1 0.0063937693142431459 1 1 1 1 1 1 1 1 1 1 1 1 1 0.010817229555309005 1 1 1 1 1 1 1 1 1 0.010141742138612631 1 1 0.0092087910416443902 1 1 0.0071094572930350732 0.0049820429037225923 1 1 0.0044494993948906349 1 0.0049117734899458455 1 1 1 0.010162810691995115 0.010593205960019864 1 1 1 1 1 0.0027890937106747598 1 1 1 1 1 0.004562808405516882 0.010009074171200021 1 1 1 1 1 1 1 0.010088870475038873 1 1 0.00011730418398975956 1 1 0.013045529960661308 0.012095651793278837 1 1 1 1 1 1 1 1 1 1 1 1 0.010164576765282783 1 1 1 1 1 1 1 1 1 1 1 1 1 1 1 1 1 1 1 1 1 1 1 1 1 1 1 1 0.0072096914301835856 1 1 1 1 1 1 1 1 1 1 1 1 1 1 1 1 1 1 1 1 1 1 0.0021317872709647294 1 1 0.0099959491408842908 1 1 1 0.0024927693296567677 1 1 1 1 1 1 1 1 1 1 1 0.0065507968660008242 1 1 1 1 1 1 1 1 0.011101617901412895 1 1 1 1 1 1 1 1 1 0.010760127887307472 0.01349822256836096 1 1 1 1 1 1 1 1 1 1 1 1 1 1 1 1 1 1 1 1 1 1 1 1 1 1 1 1 1 1 1 1 1 1 0.0027157531210840087 1 1 1 1 1 1 1 1 1 1 1 1 1 1 0.010302556524614571 1 0.010463463582016039 1 1 1 1 1 1 1 1 1 1 1 1 1 1 1 1 1 1 1 1 -4.4640375250482034e-10 1 1 1 0.015258005507565543 1 0.019395896361446827 0.0091090331223999191 1 1 1 1 1 1 1 1 1 1 1 1 1 1 1 1 1 1 1 1 0.0026145511369908402 1 0.018178768302365853 1 1 1 0.013391426493747832 1 1 1 1 1 1 1 1 1 0.0012319244109543076 1 1 0.010006369945866435 4.7025059367322708e-10 1 0.0088301728734882026 1 0.0081007023480450108 1 1 1 1 1 1 0.0069479346367505856 1 1 1 0.012314883345586843 1 1 1 1 1 1 1 0.011055906012045001 1 1 1 1 1 0.011317990333455683 0.012900311054107952 1 1 1 1 1 1 1 1 1 1 1 1 1 1 1 1 1 1 1 1 1 1 0.0068116596129866869 1 1 1 1 1 0.010008815990639379 0.048259644259678984 0.0011323552895344847 1 1 1 1 0.044967750966341896 1 1 1 1 1 1 1 1 1 0.011975842372823828 1 1 1 1 1 1 1 1 1 1 1 1 1 0.01576725074949957 1 1 1 1 1 1 1 1 1 1 1 1 1 0.010648294393785979 1 1 1 1 1 1 1 1 1 1 1 1 1 1 1 1 0.010641757965770294 1 1 1 1 1 1 1 1 0.0038316327399240888 1 1 1 1 1 1 1 1 0.0020653977396111675 1 1 1 0.0080797823362856527 1 0.0035017615916168726 1 1 1 1 1 1 1 1 1 1 1 0.0075542062983381779 1 0.0081816658245577687 1 1 1 1 0.0097193192732749137 1 1 1 1 0.017520373266505629 1 1 1 1 1 1 1 1 1 1 1 1 1 1 1 1 1 1 1 1 1 1 1 1 1 1 1 1 1 1 0.011005283435915329 1 1.8996251446856682e-09 1 1 1 1 1 1 0.0042303293326573059 1 1 1 1 1 1 1 0.010192745440729088 1 1 1 1 1 1 1 1 1 1 1 1 1 0.0079118668320383723 1 1 1 1 1 1 1 1 0.010687077618187546 1 1 1 1 0.010591325326660701 1 1 0.01238858360705037 1 1 1 1 1 1 1 1 1 1 1 1 1 1 1 1 1 1 1 1 1 1 1 1 1 1 1 1 1 1 1 0.0094432418397255094 1 1 1 1 1 1 1 1 1 1 1 1 1 1 1 1 1 1 1 1 1 1 0.0078408428084837875 0.0099549724285213706 1 0.010004140995192014 1 0.0094913137512099774 1 1 1 0.0090495483561480183 0.0099378837725248165 1 1 1 1 1 1 1 1 1 1 1 0.0037713519409526275 1 1 1 1 0.0021283610930079751 1 1 1 1 1 1 1 1 1 1 1 1 1 1 1 1 1 0.0056973140344961631 1 1 1 1 1 1 1 1 1 1 0.0060588437410542401 1 1 1 1 1 0.010181609081940535 0.00028999680143494688 1 1 1 1 1 1 1 1 1 -1.8892532469005907e-09 1 1 1 1 1 1 1 1 5.6338229428853914e-09 1 1 1 1 1 1 1 1 0.0085586359617523238 1 1 1 1 1 1 1 0.012998207566074459 1 1 0.0099856411083456328 9.3361638905942179e-10 1 1 1 1 1 1 -2.747979725714611e-09 1 1 1 1 1 1 1 1 1 1 1 1 0.013324980447483141 1 1 1 1 0.011671303567184477 1 1 0.0042497528121195755 1 1 1 6.9563044127057827e-11 1 0.010033533042051429 1 0.0088800912098457325 1 1 1 0.0091452991898728336 1 1 1 1 1 1 1 1 1 1 1 1 1 1 0.0066141859754122118 1 1 1 0.0081966348320196315 1 0.009691070424625161 1 1 1 1 1 1 1 0.0095296359884360724 1 1 1 0.0090700403165841267 1 1 1 1 1 1 1 1 1 1 1 1 1 1 1 1 1 1 1 1 1 1 1 1 1 1 1 0.011062304320398189 1 1 1 0.016870639057692413 0.020577281830752695 1 1 1 1 1 1 1 1 -3.607136964123292e-09 1 1 1 1 1 1 1 1 1 1 0.01200893627148359 1 1 1 0.011010224146065929 1 1 1 1 1 1 1 1 1 1 1 1 1 1 1 1 1 1 1 1 1 1 1 1 1 1 1 0.036202297884934405 1 1 1 1 1 1 1 1 0.010140440262406696 1 1 1 1 1 1 1 0.0039034564877456022 1 1 1 1 1 1 1 1 1 1 1 0.010003749544287241 1 0.024988128821354261 1 1 3.4841441997127132e-09 1 0.0033050255485770237 0.027510370750844095 1 1 1 1 1 1 1 1 1 0.0061351973997888706 1 1 1 0.0099099462880419785 1 1 0.014268645781457137 1 1 1 1 1 1 0.0070627987216551093 1 1 1 1 0.0096620116668785713 1 0.013836571706386872 1 1 8.3151151242244481e-10 2.6583521573267377e-09 1.4749165014316112e-09 1.4100310086195833e-09 1 1 1 1 1 0.011436055606460008 1 1 1 1 1 0.0062406893551713305 1 1 1 1 0.0089240278301668738 1 0.013568615224087525 1 1 3.6830513500119011e-09 1 1 1 1 1 1 1 0.044023773583269893 1 1 1 0.041808165400513846 1 1 1 1 0.0030228881572574064 1 1 1 -4.4571663859738209e-09 1 1 1 0.037862801537715846 1 1 0.010056296591005383 0.023731971001120074 1 1 1 1 0.010072749193178108 1 1 1 1 1 1 1 1 1 1 1 1 1 1 1 1 1 1 1 1 1 1 1 1 0.0077697221086186763 1 1 1 1 1 1 1 1 1 0.0047763121248454079 1 1 1 1 1 1 1 0.0041026841292075393 1 1 1 1 1 1 1 1 1 1 1 1 1 1 1 1 1 0.010029425635980822 1 1 1 1 1 0.022049905298710211 3.9120827410865644e-10 1 1 1 1 1 0.020025319172762675 1 1 1 0.018123899193840713 1 1 1 1 1 1 0.0073693607742693259 1 1 -4.3717370452889259e-09 0.0093669738122163261 1 1 1 1 1 1 0.0096621734025667816 1 1 1 1 1 -6.6445833505485163e-09 1 1 0.0090119310072822242 1 1 1 1 0.0041754588496514464 1 0.0019329877203812448 1 1 1 0.010117626026693829 1 1 0.0034973378729132622 1 1 1 1 1 1 1 1 0.0067067889739242312 1 1 1 1 1 0.0038732119377015914 1 1 1 1 1 1 1 1 1 0.014528541645225608 1 0.011973319787550722 1 1 1 1 1 1 1 1 1 1 1 0.0062143144258276339 1 1 1 1 1 1 1 1 1 1 1 1 0.0074168621231689297 1 1 0.0098970780820534128 1 1 0.014532079703535653 1 1 1 0.010343260959142002 1 1 1 1 1 1.795974407386991e-09 1 1 0.021362895148953322 1 1 1 0.010017894447863782 1 1 1 1 0.017657015640517394 1 1 1 1 1 1 1 1 1 1 1 1 0.0059644488401858556 1 1 1 0.01348387117037346 1 1 1 1 1 1 0.010539181000163052 1 1 1 1 1 1 0.0087750067799747186 1 1 1 1 1 1 1 1 1 1 1 1 1 1 1 1 0.011633329291285396 1 1 1 1 1 1 0.014389988975218072 1 1 1 1 1 1 1 1 1 1 1 1 1 0.011707736393314266 1 1 1 1 1 1 1 1 0.014262958250989166 1 1 1 1 1 1 0.012256455905511401 1 1 1 1 1 1 1 1 1 1 1 1 1 1 1 1 1 1 1 1 1 1 1 1 1 1 1 1 1 1 0.010405370711767052 1 1 1 0.0048449661091779332 1 1 1 0.005795031023961371 1 1 0.0085023104723696945 1 1 1 1 0.011071630718687088 1 1 1 1 1 1 1 0.013745019776591989 1 1 1 1 1 1 1 1 1 1 1 1 1 1 1 1 1 1 1 1 1 1 1 1 0.0072601661284571531 1 1 1 1 1 0.010808240425892159 1 0.012357041789457311 1 1 0.0020946458593081932 1 1 1 1 1 1 0.0044602466555656167 1 1 1 1 1 0.010436155877085969 1 1 1 0.008259374695968158 1 1 1 1 1 1 1 0.0061704364978909798 1 1 0.016589054316038639 1 1 1 1 0.0087609345369753719 1 1 1 1 1 0.017348127225141736 1 1 0.013131126066190421 1 1 1 1 1 1 1 1 1 0.0021001431028835962 1 1 -3.4927621142544218e-09 0.01930951721119125 1 1 1 1 1 1 1 1 1 1 1 1 1 1 1 1 1 1 1 1 1 1 1 1 1 1 1 1 1 0.0079620565114229321 1 1 1 1 1 1 1 1 1 1 1 1 1 1 1 1 1 0.0063652486237674999 1 1 0.004348693865813498 1 1 1 1 0.011438948235855634 0.013849674428684913 1 1 1 1 1 1 1 1 1 1 1 1 1 1 1 1 1 1 1 1 1 1 0.0094708568067330551 1 1 0.0081186616481450646 1 1 1 1 1 1 1 1 1 1 1 1 1 1 1 1 1 1 0.010936989174079715 1 1 1 0.012440584341893022 1 1 1 1 1 1 1 1 1 1 1 1 1 1 1 1 1 1 1 1 1 1 1 1 1 1 1 1 1 0.0058090521529559668 1 0.012781327613116719 1 0.0066547626701206081 1 1 1 1 1 0.014439280779539092 1 1 1 0.0090636327423466376 1 1 1 1 1 0.013390486158941735 1 1 0.011521212139520939 1 1 1 1 0.010809544039993027 1 1 1 1 1 1 1 1 1 1 1 1 1 1 1 1 1 1 1 1 0.00920380754223276 1 1 1 0.0087018849587324459 1 1 1 1 1 1 1 1 1 1 1 1 1 1 1 0.0094966840381778966 1 1 1 1 1 1 1 1 1 1 1 1 1 1 1 1 1 1 1 1 1 1 1 1 1 1 1 1 1 1 1 1 1 1 1 1 1 1 1 1 1 1 1 1 1 1 1 0.0054401854594346658 1 1 1 1 1 0.0082411966898799614 1 1 1 1 1 1 1 1 1 1 1 1 1 1 1 1 1 1 1 1 1 1 1 1 1 1 1 1 0.0154313065997463 1 1 1 1 0.0023966605066196439 1 1 0.0034657014618797483 1 1 1 1 1 1 1 1 1 0.011532783574313046 1 1 1 0.0094461058508773024 1 1 1 1 1 1 1 0.010929997865755339 1 1 1 1 1 1 1 0.008269198296792131 1 1 1 1 1 1 1 0.010247299083619439 1 1 1 1 0.0050714516611305369 1 1 0.011223638695523216 1 0.014220863503410459 1 1 0.0092509622936533809 1 1 1 1 1 0.013093534247405364 1 0.0097228934901023231 0.0095944318020718782 1 1 1 1 1 1 1 0.018328562571623134 1 1 1 0.016035350918226991 1 1 1 1 1 0.010579946000929883 1 1 0.010332646917310416 1 1 0.013981642337748219 1 0.011495047159951121 1 1 1 1 1 1 1 1 1 1 1 1 1 1 1 1 1 1 1 1 1 1 1 0.0089471350534524787 1 1 1 1 0.010333536760056024 1 1 1 1 1 1 0.010465438912337973 1 1 1 1 1 1 1 1 1 1 1 1 1 1 1 1 1 1 1 1 1 1 1 1 1 1 1 1 1 1 1 1 1 1 1 1 1 1 1 1 1 1 1 1 1 1 1 1 1 1 1 1 1 1 1 1 1 1 1 1 1 1 1 1 1 1 1 0.01423154687518002 1 1 1 1 1 1 1 1 1 1 1 1 1 1 1 1 1 1 1 1 1 1 1 1 1 1 1 1 1 1 1 1 1 1 1 1 1 1 1 1 1 1 1 1 1 1 1 1 1 1 1 1 1 1 1 1 1 1 1 1 1 1 0.010636093759459049 1 1 1 1 1 1 1 1 1 1 1 1 1 0.01316532363665858 1 1 1 1 1 1 1 1 1 1 1 0.010064799657660981 1 1 1 1 1 1 1 1 1 0.012814252271854549 0.011914397763863036 1 0.011095944718538643 1 0.015270385096241991 1 0.014789722683467572 1 1 0.0098738003388824172 1 1 1 1 1 1 1 0.012167523139965435 1 1 1 1 0.0045057826409873221 0.023758270972108055 1 1 1 1 1 1 0.014877571309730886 0.0080910802842148778 1 1 1 0.014528413565711735 1 1 1 1 1 1 1 1 1 1 1 1 1 1 1 1 1 1 1 1 1 1 0.013744401721167258 1 1 1 0.011067397141423104 1 1 1 1 0.013057644408887018 1 1 1 1 1 1 1 1 1 1 0.016712309065880695 1 1 1 1 1 1 1 1 1 1 1 1 0.014016927902437923 1 1 1 1 1 1 1 1 1 0.012026680634974037 1 1 1 1 1 1 0.0074352174638186025 1 1 1 1 1 1 1 1 1 1 0.0095436140937636624 0.0091919759983877039 1 1 1 0.0096102758886407805 1 1 1 1 0.010428090475228642 1 1 1 1 1 1 1 1 1 1 1 1 1 0.010193009204048441 1 1 1 1 1 1 0.016349754189640867 1 1 1 1 0.012387386983872206 1 0.012601257422857545 1 1 1 1 1 1 1 1 1 1 1 1 1 1 1 1 1 1 1 1 1 1 1 1 0.012961117879620135 1 1 1 1 1 1 1 1 1 0.015939272522946558 1 1 1 1 1 1 1 1 1 1 0.011664707415971524 1 1 0.015948220874220535 1 1 1 1 1 0.0075228262243630731 1 1 0.014775455094924318 0.027574668798297224 1 1 0.017503535161643456 1 1 1 1 1 1 1 1 1 1 1 1 1 1 1 1 0.012263992611114397 1 0.0092066039809686404 1 1 1 1 1 0.010758404164974221 1 1 1 1 1 0.030943498072282076 1 1 1 1 1 1 1 1 1 0.0089841306838417609 1 1 0.032720486701969143 1 2.9165009365894612e-09 1 1 1 0.0085068021185477783 1 1 0.012590509930887249 1 1 1 1 0.010880274308560929 1 1 1 1 1 0.01023508127118021 1 1 1 1 1 1 1 1 1 1 1 1 1 1 1 1 1 1 1 1 1 1 1 1 1 1 0.0090706863132503437 1 1 1 0.010181011433398779 1 1 1 1 1 1 1 1 1 1 1 0.012352944468816358 1 1 0.014443857304550549 1 1 1 1 1 0.01209355704831052 1 1 1 1 1 1 1 1 1 1 1 1 1 1 1 1 1 1 0.011133095143826106 1 1 1 1 1 1 0.01113151688496062 1 1 1 1 1 0.012835238971621608 1 1 1 1 1 1 1 1 1 1 1 1 1 1 1 0.010375905383653093 1 1 1 1 1 1 1 1 1 1 1 1 0.015271597253449388 1 1 1 1 1 1 1 1 1 1 1 1 1 1 1 1 1 1 1 1 1 1 1 0.0050631006579308843 1 1 1 1 1 0.0027644882563226322 1 1 0.0044232892992724232 1 0.0070531539426431436 1 1 0.0047176345329696528 1 1 1 1 1 1 1 1 1 1 0.0087355173783948206 1 1 1 1 1 1 1 1 1 1 1 1 1 1 1 1 1 1 1 1 1 1 1 1 1 1 1 1 1 0.017717266618435076 1 1 1 1 1 1 1 1 1 1 1 0.023732595848191658 1 1 1 1 1 1 0.021160014053365123 1 1 1 1 1 1 1 1 1 1 1 1 1 0.0017589558598504543 1 1 0.012449874064487235 1 1 1 0.025959862573561407 1 0.011626266876501964 1 1 1 1 1 1 0.0023756866371710261 1 1 0.010133715537849195 1 0.010002161990457704 1 1 1 1 1 1 0.009965750291367606 0.0097706497939056489 1 1 0.0017603900382957768 1 1 1 1 1 1 1 1 1 1 1 1 1 1 1 1 1 1 1 1 1 1 1 0.01159488819181095 1 1 1 1 0.0072350154494786253 -2.1345739134592812e-09 1 1 1 1 1 1 1 1 1 0.0087069149981106181 1 1 0.0094330656978798694 0.0015711933974238354 1 1 1 0.0061574110258840881 1 1 1 1 1 1 0.0093887053736068649 1 1 1 1 1 1 0.011760326516772078 1 1 1 1 1 1 1 1 0.013606967754456958 1 1 1 0.0098916927905352212 1 1 1 0.00095163928731418351 1 1 0.00679455452785796 1 0.014720944032002426 1 1 1 1 1 1 1 1 1 1 1 1 1 1 1 1 1 1 1 1 1 1 1 1 0.0014659423704332028 1 1 1 1 1 1 0.00036584878846459418 1 1 1 0.012681456574317414 1 1 1 1 1 1 1 1 1 1 1 1 1 1 1 1 0.023401280309989905 1 1 1 1 0.029701037166819953 1 1 0.035148722565088379 1 1 1 1 1 1 0.013013199705688058 1 1 1 1 1 1 0.010735336940095007 1 1 1 1 1 1 1 1 1 1 1 1 1 1 1 0.0076452483008191477 1 0.010211614787458426 1 1 0.0044283321884413598 1 1 1 1 1 1 1 1 1 1 1 1 1 0.038173906253890867 1 1 1 1 1 1 1 1 1 1 1 1 1 1 1 1 1 1 1 1 1 1 1 1 1 1 1 2.3247551106386766e-10 1 1 0.0076733144725894334 1 1 1 0.0066160604406085982 1 1 0.0091971360233664354 1 1 1 1 0.0059986795066804197 1 1 1 1 0.00031576234514471557 1 1 1 0.0092314933343716349 1 0.023833696188852331 0.00015017306134380848 1 1 1 1 1 1 1 1 1 1 1 1 1 1 -2.9941629245411328e-09 1 1 1 0.0069042130534242435 1 1 1 1 1 1 1 0.022286747726837131 1 1 1 1 1 1 1 1 1 0.014476120289653373 1 1 1 1 1 1 1 1 1 0.011273968860419585 1 1 1 1 1 1 1 1 1 1 0.010538631920324566 1 1 1 1 1 1 1 1 1 1 1 1 1 0.0076378836342623768 1 1 0.0039008159057274741 1 1 1 1 1 1 1 1 1 1 1 1 1 1 0.0084042845517314155 1 1 1 1 0.0043008188709676362 1 1 1 0.0078429926492482455 0.0074749708649817503 1 1 1 1 1 1 1 1 1 1 1 1 1 1 1 1 1 1 1 1 1 1 0.012400666329044956 1 1 1 1 1 1 1 1 1 1 1 1 1 1 1 1 1 1 1 1 1 1 1 1 1 0.019063823629294478 1 1 1 1 0.021104387224712966 0.012795250691167118 1 1 1 1 1 1 1 0.019491812545886542 1 1 1 1 1 1 0.0184849079082322 1 1 1 1 1 1 1 1 0.010654599705652842 1 1 1 1 1 1 1 1 1 1 1 1 1 1 1 1 1 1 1 0.013308217473007422 1 1 1 1 1 1 1 0.015438491808120963 1 1 1 0.01242529210243287 1 1 1 1 1 1 1 1 1 1 1 0.012213885855743657 1 0.015675855319544574 1 0.017153663689037882 1 1 1 0.017184209934101725 1 1 1 1 1 1 1 1 1 0.010296337071653909 1 1 1 1 1 1 1 1 1 1 1 1 1 1 0.0066154721680999479 0.012039441440914221 1 1 0.010471246705643299 1 1 1 1 0.010284703466783555 1 0.013140641798400955 0.015681140749658033 0.0052046844986258362 1 0.0048468067730481693 0.0075375785713231655 1 1 1 1 1 0.010004201558503983 1 1 0.0092953198221457645 1 1 1 1 1 1 0.013498183893290307 1 1 1 0.012171634618445268 1 1 1 0.011786548287675253 1 1 1 1 0.01758646950719751 1 0.0073243202225967505 1 1 1 0.013232193299493832 0.00034116083111558615 0.011640490823835573 1 0.0087499827415655346 1 1 1 1 0.009469623601060323 1 0.014492214429497996 1 0.0077632867923259439 1 1 0.023105202448357558 0.0077257944119234409 1 0.019718022525481833 0.0055589588138221131 1 1 1 1 1 1 1 0.0033809875502943849 1 1 0.00079536518330846143 1 1 1 1 0.0083009293631387312 1 1 1 1 1 1 1 0.01076567732506719 0.015111773991629161 1 1 1 0.010009110083323933 1 1 1 0.010041041447215161 1 0.019295710750583561 1 1 1 0.016896895129912826 1 1 0.015210164542579806 1 1 0.019390147821053957 0.010016214535194884 1 1 1 0.014676304766267377 1 1 1 1 1 0.014068597321538539 1 1 1 1 1 1 1 1 1 1 1 1 1 1 1 1 1 1 1 1 1 1 1 1 1 1 1 1 1 1 1 1 1 1 1 1 1 1 1 0.0099750573072949558 1 1 0.01609906161700303 1 0.010436612054393106 1 0.015333199233955805 1 1 1 0.010850231272695063 0.01448091996076236 1 1 0.012728526851126472 0.0089671996220804136 1 1 1 1 0.011296868302952004 0.011689787795603986 1 1 1 0.0116096234371071 1 1 1 1 1 1 1 1 1 1 1 1 0.013136126839806216 1 1 1 1 1 1 1 1 1 1 1 1 1 0.0052027736923785095 0.013506751366253851 1 1 1 1 1 1 0.010715459249997353 0.0099829864948170061 0.012318667495959522 1 1 1 1 1 1 1 1 1 1 1 0.0099024767162679897 0.0088285264250382717 1 1 0.015402264741759944 1 0.015270567038295088 1 1 1 0.0099765493798114058 1 1 1 1 1 1 1 1 1 1 0.012940594576393155 1 1 1 1 1 1 1 1 0.011380903045682275 1 1 1 1 1 1 1 1 1 0.010557809350289299 1 1 1 1 1 1 1 0.0098093533337139244 1 1 1 1 1 1 1 1 1 1 1 1 1 0.010078744511160087 1 1 1 1 1 1 0.0068133261761769218 1 1 1 1 1 1 1 0.011319768854311074 1 0.011882977287028557 1 0.011850918418215117 1 1 1 0.0066326010683765979 1 1 1 1 1 1 1 0.0060086800649098784 1 1 0.011209542572215896 1 0.010409159041794049 1 1 1 1 1 1 0.010280828532573963 1 1 1 1 1 1 1 1 1 1 1 0.0097505211134961758 0.003937666868098523 1 0.0099947244877241839 1 1 0.0071886646000943188 1 1 1 1 1 0.0088523842715939535 1 1 1 1 1 1 1 1 0.010240593072735921 1 1 0.022464237913790076 1 1 1 1 0.016949679824459791 1 1 1 1 1 1 0.027067790759014353 1 1 1 0.016307910432406023 1 1 1 1 0.010000716812248692 1 0.012027990387867137 0.012018587845613993 1 1 1 1 1 1 1 1 0.0023914229620655772 1 1 1 1 1 1 1 1 1 1 1 1 1 0.0099720675427298552 1 1 1 1 1 1 1 1 1 1 1 1 1 0.0083656373386402916 1 1 1 1 1 1 0.00025332010273845795 1 1 1 1 1 1 1 1 1 0.009205585514603376 1 1 1 1 1 1 1 1 1 1 1 1 1 0.014705075988346661 1 1 1 1 0.011806437014975166 1 1 1 0.0091016209904195861 1 1 1 0.007706933064617838 1 1 0.0099674927529641855 0.0042508983263437466 1 1 1 0.0049684735230843685 1 1 1 1 1 1 1 1 1 1 1 1 0.0086187926691589437 1 0.0083709690817339588 1 1 1 1 1 -5.4192729539992435e-09 0.0029228081823166885 1 1 1 1 0.010042758009314361 1 0.013643368049620651 1 0.010031194867908509 1 1 1 1 1 1 1 1 1 1 1 1 1 1 1 1 1 1 1 1 1 1 1 1 1 1 1 1 1 1 1 1 1 1 1 1 1 1 1 1 1 1 1 1 1 1 1 0.012165168415484706 1 0.0044728161724186394 1 1 1 1 0.01689119571422875 1 1 1 1 1 1 1 1 1 1 1 1 1 1 1 1 1 1 1 0.010151095220534444 1 1 1 1 1 1 1 0.010214714486703996 1 1 0.011120202114058904 1 1 0.0060322464867344286 1 1 1 1 1 1 1 1 0.010359521547323683 1 1 1 1 1 1 0.010435761477236001 1 1 1 1 1 1 1 1 0.0088899239993749865 1 1 1 1 1 0.0045278626275786701 1 0.0087677133519945202 0.0077395316100880469 1 1 1 0.016517574208515101 1 0.012344795922962306 1 1 1 1 1 1 1 1 1 1 1 1 1 1 1 1 1.2902110629875452e-09 0.0082254647459818406 1 1 1 1 1 1 1 1 1 1 1 1 0.0099635587596974343 1 1 0.00049444619663168571 1 1 1 1 0.012967907344713425 1 1 1 1 1 1 1 1 1 1 1 1 1 1 1 1 1 1 1 1 1 1 1 1 1 1 1 1 1 1 1 1 1 1 1 1 0.002152064368459522 1 7.89994861210494e-05 1 1 1 1 1 1 1 -1.5103339412458894e-09 1 1 1 1 6.5953194572365703e-09 1 1 0.010408861779422972 1 1 1 1 1 1 1 1 1 1 1 1 1 1 1 1 1 1 0.00013790852727759567 0.0048901236553977045 1 1 1 1 1 1 1 1 1 1 1 1 1 1 1 1 1 1 1 1 1 1 1 0.0057220032023654818 1 1 1 1 1 1 1 1 1 1 1 1 1 1 1 1 0.0040900191870219087 1 1 1 0.0022353961987863664 1 1 1 0.0091882727290946327 1 0.010026730017053873 1 1 1.460497695005003e-10 1 1 0.013525947882392433 1 1 1 1 1 1 1 1 1 0.014312627936154433 1 1 1 1 1 1 0.024038836788071505 0.0098337242331367949 1 1 1 1 1 1 1 1 0.0010751614330039502 1 1 0.018484402606855792 1 1 1 1 1 1 1 0.0094729788417160857 1 1 1 0.0099405297471424556 1 1 1 0.00096901738285808114 0.01005246483358524 1 1 1 1 1 1 1 1 1 1 1 0.010003594633618936 1 3.4131019607808177e-09 1 1 0.014773393282540412 1 1 1 0.011622618992299088 1 1 1 1 1 1 1 0.011656050851357871 1 1 1 0.013918240593743296 1 1 1 0.015895623671393532 0.011977236110698942 1 1 1 1 2.2528327883741817e-09 1 1 1 1 1 1 1 1 0.013282853308800276 0.0057779071493288987 1 1 1 1 0.011258959378342447 0.016232682605538919 0.0025611626932144846 1 0.010096698369615353 1 0.010082810932031824 0.012840234416630323 1 0.021735455985857681 1 1 1 0.0099948473385965096 1 1 1 1 1 1 0.007383971340100718 1 0.0053318007832967168 1 0.0099738623660530282 0.012201215653083386 0.009900969119309105 0.022241087781474475 1 1 1 1 0.013831064536842873 0.0044363624319768407 1 1 1 0.010010231215863072 0.01428362263399649 1 1 1 1 0.0013156903124288688 1 1 0.01575169752958748 1 1 1 1 0.025549888543150531 0.000711327319007974 1 1 1 1 0.024617388609986357 1 0.0092950653589777155 1 1 1 1 -2.0553088328489899e-09 1 1 1 1 1 1 1 1 1 1 1 1 1 1 1 1 1 1 1 1 1 1 0.0083624832965353071 1 1 1 1 1 1 1 1 1 1 1 1 1 1 1 1 1 1 1 1 1 1 1 1 1 0.011929399137075998 1 1 1 1 0.019150311402479449 1 1 0.0099485588805700645 1 1 1 0.020794382700136376 1 0.0074872678683132205 1 1 1 1 1 1 1 1 0.0030553165225636102 1 1 1 0.010014308749359149 1 1 1 1 1 1 1 0.032372319324233144 1 0.006358477857627217 1 1 0.0032692951353541604 1 0.006933548506793067 1 1 1 1 1 1 1 1 1 1 1 1 1 1 0.0087423841366579234 0.0023583836925903622 1 1 1 1 1 1 1 1 1 1 1 1 0.019441846943474436 1 1 1 1 1 1 1 1 1 1 1 1 1 1 1.0589656850414422e-08 1 0.010747508717932071 1 1 1 1 1 1 1 1 1 0.020473289610687898 1 1 1 1 1 1 1 0.013555715479554283 1 0.026486296889918309 1 1 1 8.4141939752507833e-09 1 0.0024977463093073214 1 1 1 1 1 1.8401472082207881e-09 1 1 -1.3653166999749722e-09 0.010863473849222141 1 1 1 1 0.012311175233705509 1 1 1 1 1 1 1 1 1 1 1 1 1 1 1 1 1 6.8906607850194312e-10 0.00055185958761197126 1 1 0.0044772344837881485 1 1 1 2.170299856496527e-09 1 1 1 1 1 1 1 0.01187177644572099 1 0.009319959388794926 1 1 1 0.00021446684966832091 1 1 1 1 1 1 1 1 1 0.0082104164274015776 1 1 1 0.0068410321396167387 1 1 1 1 1 1 3.2008836653267536e-09 1 1 1 1 1 1 0.012211721444436975 1 1 1 1 1 0.01188040446505375 1 1 0.011813541591051581 1 1 1 0.0055889338310631401 1 1 1 1 1 1 1 0.0067608223120575782 0.013927471742253079 1 1 1 1 1 1 1 1 0.0033507824277132607 1 1 1 1 0.022155127878050296 1 1 0.014402149680334403 1 1 1 1 1 1 1 1 1 1 1 1 1 1 1 1 1 1 1 1 1 1 1 1 1 1 1 1 1 1 1 1 1 1 1 1 1 1 0.0095531735975888359 1 1 1 1 1 1 1 1 1 1 1 1 1 1 1 1 1 0.013135029754456976 1 1 1 1 1 1 1 1 1 1 1 1 1 1 1 1 1 1 1 1 1 1 1 1 1 1 1 1 1 1 1 1 1 1 1 1 1 1 1 1 1 1 1 1 1 1 1 1 1 1 1 1 1 1 1 1 1 1 1 1 1 1 1 1 1 1 1 1 1 1 1 1 1 1 1 1 1 1 1 1 1 1 1 1 1 1 1 1 1 1 1 1.5353863666578427e-10 1 1 1 1 1 1 1 0.0040679646148889942 1 1 1 1 1 1 0.0080729448129302165 1 1 1 1 1 1 1 1 1 1 1 1 1 1 0.0084463126392643629 1 0.010364173340546805 1 1 1 1 1 1 1 1 1 1 1 1 1 1 1 1 0.011125885919186694 1 1 0.010454975046222146 1 1 1 1 1 1 0.0059875056191322339 1 1 1 1 1 0.0050195171117702417 1 1 1 1 1 1 1 0.0052088701974984386 1 0.011026183482112102 1 1 1 1 1 0.011444042148201689 1 0.020769547842688994 1 0.011776332683591977 1 0.010711314851347015 1 1 1 1 1 1 1 1 1 1 1 1 1 1 1 1 1 1 1 1 1 1 1 1 1 1 1 1 1 0.0091173345443967477 1 1 1 1 1 1 1 1 1 1 1 1 1 1 1 1 1 1 1 1 1 1 1 1 1 1 4.6466577113823959e-10 1 1 1 0.00021036496052568437 1 1 -7.545936341057935e-10 1 1 1 1 1 1 0.0053124406494636858 1 1 0.0040402758365795984 1 1 0.00073726989028471274 1 1 1 1 1 1 1 1 1 1 0.016660208188109382 1 1 1 1 1 1 1 0.010014187218401862 1 1 1 1 1 1 1 1 1 0.022456128051068246 1 1 1 1 1 1 1 1 1 1 1 1 1 1 1 1 0.015055228098334351 1 1 1 1 1 1 1 1 1 1 1 1 1 1 1 1 1 1 1 1 1 1 1 1 0.0004139365820562237 1 1 1 1 1 1 1 1 1 1 0.010833831148770401 0.013012089372303165 1 1 1 1 1 1 1 1 1 1 1 1 0.0096932624675822743 1 1 1 1 0.010716757435871041 1 1 1 1 1 1 1 1 0.011073867627801888 1 1 1 1 1 1 1 1 0.010866082071349134 1 1 1 0.011542395677657816 1 1 1 1 1 1 1 1 1 0.015104153141705684 0.009809324838113552 1 1 1 1 1 1 1 1 1 1 1 1 1 1 1 1 1 1 1 1 1 1 1 1 1 1 1 1 1 1 1 1 1 1 1 1 1 1 1 1 1 1 1 1 1 1 1 1 1 1 1 1 1 1 1 1 1 1 1 1 1 1 1 1 1 1 1 1 1 1 1 1 1 1 1 1 1 1 1 1 1 1 1 1 1 1 1 1 1 1 1 1 1 1 1 1 1 1 1 1 1 1 1 1 1 1 1 1 1 1 1 1 1 1 1 1 1 1 1 1 1 0.0098197859901441864 1 1 0.0035549447382059729 1 0.01059921688535418 0.010956327077285007 1 1 1 0.0079862775444957262 1 1 0.024535648961026051 1 1 1 1 1 1 0.029240753149160567 1 1 1 1 1 1 1 1 1 1 1 1 1 1 1 1 1 1 1 1 1 1 1 1 1 1 1 1 1 1 1 1 1 1 1 1 1 1 1 1 1 1 1 1 1 1 1 1 1 1 0.011421700623820341 0.011318393591225225 1 1 1 1 1 1 0.010220250956615473 1 1 1 1 1 0.0099244816555915539 1 1 1 1 1 0.015910682569428326 1 1 1 1 1 1 1 1 1 1 0.010519905618327767 1 0.0086118725766989104 1 1 1 1 1 0.0067912103923817024 1 1 1 1 1 0.005198526442463396 1 0.011359543783921032 1 1 1 1 1 0.016138269204435958 1 1 1 1 1 1 1 1 1 1 1 1 1 1 1 1 1 1 0.018786593292020041 1 1 1 0.019752370890017051 0.020152524527287149 1 1 1 1 1 1 1 1 0.010802693924281043 1 1 1 1 1 1 1 1 1 1 1 1 1 0.010881694631968626 1 1 1 1 1 1 1 1 1 1 1 1 1 1 1 1 1 1 1 1 1 1 1 1 1 1 1 1 1 1 1 1 1 1 1 1 1 1 1 1 1 1 1 1 1 1 1 1 1 1 1 1 0.010676313606308678 1 1 1 1 1 1 1 0.010407048196070722 1 1 1 0.010111278895046797 1 1 1 1 1 1 1 1 1 1 1 1 1 1 1 0.0081585858403924617 1 1 1 0.0073433751089495066 1 1 1 1 1 1 1 0.0088277034298832047 1 1 1 1 1 1 0.0084560068754333494 1 1 0.0072037249078434418 1 1 1 1 1 1 1 1 1 1 0.0084554737014984824 1 1 1 0.010462303903654088 1 1 1 1 0.011971372877835146 1 1 1 1 1 1 1 1 1 1 0.010226129237080224 1 1 1 1 1 1 1 0.010452646771736497 1 1 1 1 1 1 1 1 1 1 1 1 1 0.010727387869087154 1 0.01306692209718667 1 1 1 1 1 1 0.0098321861188213899 1 0.010231405568759518 1 1 1 1 1 1 1 1 1 0.010000983572534185 1 1 1 1 1 1 1 1 1 1 1 1 1 1 1 1 1 1 1 1 1 1 1 1 1 1 1 1 1 1 1 1 1 1 1 0.010324734454746243 1 1 1 1 1 1 0.010588853077353619 1 1 1 1 0.010265102195141561 1 1 1 0.0098272980847181474 1 1 1 0.012370295230974222 1 1 1 1 1 1 1 1 1 1 1 1 1 1 1 1 1 1 1 1 1 0.010941809175658547 1 1 1 1 1 1 1 1 1 1 0.013067596144155686 1 1 0.011162554365569899 1 1 1 1 1 1 1 1 1 1 1 1 1 1 1 1 1 1 1 1 1 1 1 1 0.0053732878229348965 0.00022400963177829705 1 1 0.004862995178729972 0.0016827951742888463 1 1 1 1 1 1 1 1 1 1 1 1 1 1 0.0043251212035405155 1 1 1 1 0.0079376874284191323 1 1 1 1 1 1 1 1 1 1 1 1 1 0.01405600831504672 1 1 1 1 1 1 1 1 1 1 0.015108943746653565 1 1 1 1 1 0.0098336269351634933 1 1 1 1 1 1 1 1 1 1 1 1 1 1 1 -8.1144591324022741e-09 1 1 1 0.0099971327453316355 0.011874740171179142 1 1 1 0.016497561363642575 0.015080757333199954 1 1 0.0032139913802839218 1 1 1 1 1.3153405274690666e-09 1 1 1 1 1 1 1 1 0.0010496378216794944 1 1 1 1 0.0108777849857409 0.015169948317835906 1 0.0029534520126157926 1 1 1 1 1.3621695604815187e-08 1 0.0066227282660589887 1 1 1 1 0.010064991546190111 1 0.019451675086473344 1 1 1 1 1 1 1 1 1 1 1 1 1 0.0088448830379425358 1 1 1 1 1 -5.6784541305199276e-10 1 1 1 1 1 -4.0909451937132246e-09 1 0.0034297624120600695 1 1 1 1 1 1 1 1 6.7796962176236431e-09 1 1 1 1 1 1 1 1 1 1 1 1 1 0.010989556737513298 1 1 1 1 0.013913086785032898 1 1 1 1 1 1 1 1 1 1 1 1 0.0050327700848572521 1 1 1 1 1 1 1 1 1 1 1 1 1 1 1 1 1 1 1 1 1 1 1 1 1 1 1 1 1 1 1 0.006184530571457382 1 1 1 1 1 1 1 2.5347546839249446e-09 1 1 1 1 0.0013987422014117776 1 1 1 1 1 0.0067003605923712864 1 1 1 1 1 1 1 1 0.0091260001652257935 1 1 1 1 1 1 1 1 1 1 1 1 1 1 1 0.0096054375138087192 1 1 1 1 1 1 1 1 1 1 1 0.0060991769138060287 1 1 0.0021419923950958264 1 1 1 1 1 1 1 1 1 1 1 1 1 1 1 1 0.0064758725856136415 1 1 1 1 1 1 1 1 1 1 1 1 1 0.0099703248925655658 1 1 1 1 1 1 1 1 1 1 1 1 1 1 1 1 1 1 1 0.0085684480443891167 1 1 1 1 1 0.0063040911673668456 1 1 1 1 0.010036212328355283 1 1 1 1 1 1 0.0038281913864889952 0.009699938456081544 1 1 1 1 1 1 1 1 1 1 1 1 1 1 1 1 1 1 1 1 1 0.010815584883264458 1 1 1 1 1 1 1 1 1 1 1 1 1 1 1 1 1 1 1 1 1 1 1 1 1 1 1 1 1 1 1 1 1 1 1 1 1 0.0070994870231426629 1 1 1 0.0094108678079823579 1 1 0.008581357087780489 1 1 1 1 1 1 1 1 1 1 0.0062808150558304535 1 1 1 1 0.0012716516224783522 1 1 1 1 1 1 1 1 1 1 0.0078006586928920756 1 1 1 0.0044287188984565018 1 1 0.010083187007088976 0.015422655327993428 1 1 1 1 1 1 1 1 1 1 1 1 1 1 1 1 0.013586563235130349 1 1 1 0.010113282916920385 1 0.0099022437936866353 1 1 1 1 0.013638890032180953 1 1 1 1 1 0.010618117030798804 1 1 1 1 0.01326208497444209 1.4997777325609363e-11 1 0.0071097319115100144 1 1 0.0076191026072865986 1 0.010356578312226694 1 1 1 1 8.2328262263065e-11 1 1 1 1 1 1 0.0022866394220121405 1 1 0.0063878080181389713 0.0019611856650465775 1 1 1 1 1 1 1 1 1 1 1 1 1 1 1 1 0.0051505629885295473 1 0.010306643183233655 1 0.0099607629279850826 1 1 1 1 1 1 1 1 1 1 1 1 1 1 1 1 1 1 1 1 0.0027502637878479078 1 1 1 1 1 1 0.0099336768022156973 1 0.0028918604026752018 1 1 0.008438619825116081 1 1 0.0056804957613201812 1 1 1 1 1 1 1 0.0072188820429360655 1 1 1 1 0.008941688503929214 1 1 1 1 1 1 0.0099537920870417344 1 1 1 1 0.010077846267997764 1 1 1 1 1 1 1 1 1 0.010124054180956042 1 1 1 1 1 1 1 1 1 1 1 1 1 0.015395799322112852 1 1 0.015317371866926714 1 1 1 -6.401015689716516e-10 0.0096343699552705608 1 0.011112657398205203 1 1 1 0.010368899374719243 1 1 1 1 -2.0492281482820118e-10 1 1 0.005717472713997987 1 0.00048157767449761441 1 1 1 1 1 0.0089984496962111013 0.0053338567627596381 1 1 1 1 1 1 1 1 1 1 1 1 1 1 1 1 0.012923530047519581 1 1 1 1 1 1 1 1 1 1 1 1 1 1 1 1 1 1 1 1 1 1 1 1 1 1 1 1 1 1 1 1 1 1 1 1 1 1 1 1 1 1 1 1 1 1 0.0055981062404974642 1 1 1 1 1 1 0.009273401676494715 1 1 1 1 1 1 1 1 -4.5368988427219037e-10 0.0078369204767169062 1 1 1 1 1 1 1 1 1 1 1 1 1 1 1 1 1 1 1 1 1 1 0.0032483119361281978 0.0065290830085448347 1 1 1 1 1 1 1 1 1 1 1 1 1 1 1 0.0073626584839242663 1 1 1 1 1 1 1 1 1 1 1 1 1 1 0.0067192289275833459 1 1 1 1 1 1 1 1 1 1 1 1 1 1 1 1 1 1 1 1 1 1 1 1 1 1 1 1 1 1 1 1 1 1 1 1 1 1 1 1 1 1 1 1 1 1 1 1 1 1 1 1 1 1 1 1 1 1 1 1 1 1 1 1 1 1 1 1 1 0.0066058986528039296 1 1 1 1 1 1 1 1 1 1 1 1 1 1 1 1 0.013963969203155083 1 1 1 1 0.0085791897479488115 1 1 1 1 1 1 0.0058606486500285791 1 1 1 1 0.0073170596546540418 1 0.0089935311082558773 1 0.013052004301256456 1 1 1 1 0.010469012763772712 1 1 0.017576137069670858 1 0.00093688617856574515 1 1 1 1 1 1 1 1 1 1 1 1 1 1 1 1 1 1 1 1 1 1 1 1 1 1 1 1 0.018786849901569591 1 1 0.017202966971428924 1 1 1 1 1 1 1 1 1 1 1 1 0.011482159129782329 1 1 1 1 1 1 1 1 1 1 1 1 1 1 0.004955481283584702 1 1 1 1 1 1 1 0.0096553284130617093 1 0.015868996123819368 1 1 0.019562243776117615 1 0.0048252983294850282 1 0.0060027487326997243 1 1 1 1 1 1 1 1 1 1 0.0051895530684947736 1 1 1 1 1 1 1 1 1 1 0.0099760897301078271 1 1 1 0.006563378176067218 1 0.010055447435373226 0.00031831601379241417 1 1 0.020961150766814485 1 1 1 1 0.0017038064208024298 1 1 1 1 0.010337775022572082 1 1 0.010023895926687811 1 1 1 1 1 1 1 0.012002960734261145 1 1 1 0.0096057701420997066 1 1 1 1 1 1 1 1 1 1 1 1 1 1 0.019769728793547797 1 1 1 0.0099822576362011695 1 1 1 1 1 1 1 1 1 0.016731373880801523 1 1 1 1 0.019047732130697544 1 1 1 0.014847493191513891 1 1 0.014105229319741876 1 1 1 1 1 1 1 1 1 1 1 1 1 1 0.0086209008987503857 1 1 1 1 1 1 1 1 1 1 1 1 1 1 1 1 1 1 1 1 1 1 1 1 1 0.0049509806631907113 1 1 1 1 1 1 0.0039381524885183442 1 1 1 1 1 1 1 1 1 1 1 1 1 1 1 1 1 1 1 1 1 1 1 0.011789488702336329 1 1 1 1 1 1 1 0.017908350651036971 1 1 1 1 1 1 1 0.030677376698838688 1 1 0.0088496649472762541 1 1 1 1 1 1 1 1 1 1 1 1 1 1 1 1 1 1 1 1 1 1 1 1 1 1 1 1 1 1 1 1 1 1 1 1 1 1 1 1 1 1 1 1 1 0.008631668540358628 1 1 0.031647921644264429 1 1 1 1 0.026166345713886957 0.0011846760735964648 1 1 1 1 1 1 -8.8217946142554737e-10 1 1 1 0.00053345662037063146 1 1 1 1 0.018163531290509703 1 1 1 1 1 0.018937551994081842 1 1 1 1 1 1 0.019371959027784463 1 1 1 1 1 1 1 1 1 0.0079602863007887867 1 1 1 1 1 0.0071127198845886037 1 1 0.0004920779649050383 0.0085307747761559707 1 1 1 1 1 1 1 1 1 1 1 1 0.0070791387836987782 1 1 1 1 1 1 1 1 1 1 1 1 1 1 1 1 1 1 1 1 1 1 0.0097894983996323071 1 1 1 1 1 1 1 1 0.022311718872505111 1 1 1 1 0.01694679659741892 1 1 0.0099297081919308208 0.012270040248548962 1 1 1 1 1 1 1 1 1 1 1 1 1 1 1 1 1 1 1 1 1 1 1 1 1 1 1 1 1 1 1 1 1 1 1 1 1 1 1 1 1 1 1 1 0.02880278098523549 1 0.0099570269562080857 1 1 1 1 1 1 1 1 1 1 1 1 1 1 1 1 1 1 0.0044753503235096959 1 1 1 0.0071126918395854437 1 1 1 1 1 1 1 1 1 1 1 1 1 0.0091428597709253892 1 1 1 1 1 1 1 1 1 1 1 1 1 1 1 1 0.00994186038663359 1 0.0077970863502773435 1 1 1 1 1 1 1 1 1 1 1 0.0091550119656281168 1 1 1 0.011705878124485522 1 1 1 1 0.0062103735191290504 1 1 0.015863138672151784 0.0091997945925269831 1 0.0031370888562920404 1 1 1 1 1 1 1 1 1 1 1 1 1 1 1 1 1 1 1 1 1 1 1 1 1 1 2.6211355377836476e-09 1 0.00040193887295584402 1 1 1 -2.5535751152494512e-09 1 1 1 1 1 1 0.010302621398796855 1 1 1 1 1 1 1 -3.9190635459096512e-10 0.01166704557639414 1 1 0.0074870531180248872 0.0064184705074925574 1 0.0099928409538201785 1 1 0.003372588722288801 0.0024672606633291388 1 1 0.01001729719768334 1 1 0.011961776986968696 1 1 1 1 1 0.00110286011563418 1 1 1 1 0.0020534149475107261 1 1 1 1 1 1 1 1 1 1 1 0.0059851297496691172 1 1 1 0.0080771331599665194 1 0.010249193706922715 0.013393003327688831 1 1 1 1 0.016995245747052839 1 1 1 0.0015803447103803422 1 1 1 0.0093384268269029527 1 1 1 1 1 1 0.010003705134842285 1 1 1 1 1 1 1 1 1 0.009641892059208873 0.024492272111601203 1 1 1 1 1 1 1 1 1 1 1 1 1 1 1 1 1 0.02015608933345208 1 1 1 1 1 1 1 1 1 1 1 1 1 1 0.0010042147723889408 1 1 1 0.0038945361830542424 1 1 1 1 1 1 1 1 1 1 1 1 1 1 1 1 1 1 0.014402451711375667 1 1 1 1 1 1 0.0082316825268323249 1 1 1 1 1 1 1 0.016723707476789293 1 1 1 1 1 1 1 1 1 1 1 1 0.011585415166567289 1 1 1 1 1 1 1 0.0092055921313531699 1 1 1 1 1 1 1 1 1 1 1 1 1 1 1 1 1 1 1 1 1 1 1 1 1 1 1 1 1 1 1 1 1 1 0.0034966928561106225 1 1 1 0.0035861150168491063 1 1 1 1 1 1 1 1 1 1 1 0.013906534350055915 1 1 1 1 0.011433978099898009 1 1 1 1 1 1 1 1 1 0.011539473390890093 0.009365446630677475 1 0.010054089459427446 1 1 1 1 1 1 1 1 1 1 0.0046002418613388316 1 1 1 1 1 0.0097058381926874021 1 0.00066698652706259631 1 1 1 1 1 1 1 1 1 1 1 1 1 1 0.0092968833150600047 1 1 1 1 1 1 1 1 1 0.0021356097134342875 1 1 1 1 1 0.0034746728380993033 1 1 1 1 1 0.0043924999451839114 0.0039583025703329739 1 1 0.0062234810906478567 1 1 1 0.009909775282078306 0.0099881006209613307 0.0033327446325538759 1 1 1 0.0016757452752620382 1 0.0099326240700036011 1 1 1 1 1 1 1 1 0.00062184011418727619 1 1 1 0.011637556599913734 1 1 0.0045192260944448073 0.0062765641222135137 1 1 1 1 1 1 1 1 1 1 1 1 1 1 1 1 1 1 1 1 0.010969818077207968 1 1 1 1 1 1 1 1 0.0130325288541253 1 1 0.0097372504046017456 1 1 0.0035068643085829146 0.012666363239275696 0.0020724923310336471 1 1 1 1 1 1 1 1 1 1 1 1 1 1 1 1 0.0077452263659199376 1 0.0055005241786965781 1 0.0050564850710101833 1 1 0.010961365852244047 1 1 1 0.002701468968252109 1 0.021049825310289559 1 0.0038991453076458182 1 1 1 1 1 1 1 0.0324497177249818 1 1 1 1 1 1 1 1 1 1 1 1 1 1 1 1 1 1 1 1 1 1 1 1 1 1 1 1 1 1 1 1 1 0.021025824816226599 1 0.020361416865122578 1 1 1 1 1 1 1 1 1 1 1 1 1 1 1 1 1 1 1 1 1 1 0.0032633290611334669 0.0076640617934995887 1 1 1 0.0033684853124375403 0.01507575748435851 1 1 0.0072116336234793015 1 1 1 0.017905254947897443 1 0.010537274192006219 1 1 1 1 0.012806527226743374 1 0.014644710171603584 1 1 0.0028586073605501982 0.0097775257187521086 1 1 1 1 1 1 1 1 1 1 0.0089790247379274487 1 1 1 1 1 1 1 1 1 1 1 1 1 1 1 0.0034277668422354138 1 1 1 1 1 1 -1.9181683793417781e-09 1 1 1 1 1 1 1 1 0.012863245613303785 1 1 0.012941851975068763 0.0155697235152897 0.013686772346624153 1 1 1 1 0.012344223180292341 0.013545152789769584 1 1 0.015999241217457903 1 1 1 1 1 1 1 0.014307110590492556 1 1 1 1 1 0.011895031493899706 0.0099885074276551793 1 1 1 0.0062188476067471018 1 1 1 0.015052159614107333 1 0.014298189157807789 1 1 1 1 1 1 1 1 1 1 1 1 1 1 1 1 1 1 1 1 1 1 1 1 0.010324292548412543 1 1 1 1 1 1 1 1 0.0019331114237943134 1 1 1 1 1 0.0010301875563232532 1 0.010303068694851827 1 0.0035681648477939379 1 1 1 1 0.0081246084236163522 1 1 1 1 1 0.014804343704790944 1 1 0.0017729785826580274 1 0.0092619118920001763 1 1 1 1 0.0098331725336845352 2.3158734145656279e-08 1 1 1 1 0.025652726287251182 1 1 1 1 0.0097225782951875783 1 1 0.042108647934051197 1 1 0.0098915130361604195 1 1 1 0.044345842654116133 1 -9.9432436173607641e-09 1 1 1 0.0030238237375192975 1 1 0.010331376279461318 1 1 1 0.0019186507126545821 1 1 1 1 1 1 1 1 1 1 1 1 1 1 1 0.010033806515841119 1 1 1 1 1 0.045900102782905898 1 1 0.0096296192579644058 1 1 1 0.0060396810976094256 1 1 1 1 1 1 0.0078026924678581619 1 1 1 1 1 1 1 1 1 1 1 1 1 1 1 1 1 1 1 1 1 1 1 1 1 1 1 1 1 0.010654094237231482 1 1 1 1 0.0094596717310325915 1 1 1 1 1 1 1 1 1 1 1 1 0.008813485894474081 1 1 0.017075476953035365 1 1 1 0.010825254870748265 1 1 0.01018657023820603 1 1 1 0.011711826846807619 1 1 0.012706798458124556 1 1 0.020798137042856227 1 0.0086279241601614903 1 1 1 0.009943412716156376 0.017931065188168158 1 1 1 1 1 1 1 0.023325343252993382 1 0.045498550444885454 0.0094584111957778591 1 1 0.0090273310944164534 1 0.021926011810912929 1 1 1 1 1 1 1 0.018584823213657162 1 1 0.010631403540505201 0.012641196148934669 1 1 1 1 1 0.010880648248577649 1 1 1 1 1 1 1 1 1 1 1 1 1 1 1 1 1 0.0088258407545767359 1 1 1 1 0.010602028078381627 1 1 1 0.0063348687183255176 1 0.0036891282683614163 0.010422525212396734 1 1 1 1 1 1 1 1 1 1 0.0071555573299663319 1 1 0.010210591226759052 1 1 1 1 1 1 0.0092994428000987353 1 1 1 1 1 1 1 1 1 1 1 1 1 1 1 1 1 0.0070604134091019535 1 1 1 0.0097776038755773842 1 0.013761447633010356 1 1 1 1 1 1 1 1 0.01359097623863657 1 1 1 0.0099963333420533228 1 0.018684986411234998 1 1 1 0.0095194377666892489 1 1 1 1 1 1 1 1 1 0.0094618872282040932 1 1 1 1 0.0090429063676661578 1 1 1 1 1 1 1 0.0093328777170175597 1 0.010101919414541152 1 0.0099561756543542906 1 1 1 1 1 1 1 1 1 1 1 1 1 1 1 1 1 0.0097809734225672434 1 0.010152612410910991 1 1 1 0.01004490051890294 1 1 1 1 1 1 1 0.0099285313456571739 0.010106935360808346 1 1 1 0.0059563224971603823 1 0.014815371692871809 1 0.01198672310422904 1 1 1 0.0099806757239857685 1 1 1 0.017659706924836704 1 1 1 0.021406758965661667 1 1 1 1 1 0.0083838231650397166 1 1 1 1 0.010279618615892043 1 1 1 1 0.010108290767545922 1 1 1 1 1 1 1 1 0.006898882531759444 1 1 1 1 0.013746923203892272 1 1 1 1 1 1 1 0.0021140991300592216 1 1 1 1 1 1 1 1 1 1 1 0.0080417219218705815 0.013067807098347485 1 1 1 1 1 1 1 0.004534958315139434 1 1 1 1 1 1 1 1 0.0092856038439833519 1 1 1 1 1 1 1 1 1 1 1 0.012300674372413865 1 1 1 1 0.015149228659731537 1 0.013399042559558927 0.010460453415326502 1 1 1 0.0075655460607116434 1 1 1 1 1 1 0.0060368816485339566 1 1 1 1 1 1 1 1 1 0.025266421343606998 0.025396476664176434 1 0.00053740915829309649 1 1 0.009904383537662681 1 1 1 0.0093928533583197277 1 0.011693080611731761 0.012232023362793836 0.01878074975791676 1 0.008233305058491909 1 0.010110695284698141 1 1 1 1 0.014982881478114184 0.010013016254321883 0.013873675334620729 0.015213013873470134 1 0.0095339318112712748 1 1 1 1 0.01172776968217891 1 1 1 1 0.011524920489196198 1 0.013895843107546955 1 1 1 1 1 1 1 1 0.01675958348736719 1 1 0.019775024477415221 1 1 1 0.0098866095879097532 1 1 1 1 1 1 1 1 1 1 1 1 0.010081425558680072 1 1 1 1 1 0.01025998959367605 1 0.020373154927976575 0.0094852819182586132 1 -4.1834860506351212e-09 1 1 1 1 1 1 1 1 0.0067687406626976143 1 1 0.0037757848988404473 1 1 1 0.010040244559751804 1 1 1 1 1 1 1 1 1 1 1 1 1 1 1 1 1 1 1 1 1 1 1 0.0084827826116502525 0.0086452728806953316 1 1 1 1 1 0.0065842359057736513 1 1 1 1 1 1 0.0058107574741106602 1 1 1 1 1 1 1 1 1 1 1 1 1 1 1 0.007074734245744542 1 1 1 1 0.0087215305725232423 1 1 1 1 1 1 1 1 0.0063773037469012778 1 1 1 0.012101892680673604 0.0037370529790739515 1 1 1 0.0097583507477776166 1 1 1 1 1 1 1 0.0098110769959478886 1 1 1 1 1 1 1 1 1 1 1 1 0.0085919516340942845 1 1 1 1 1 1 0.0099871622054478887 1 1 1 1 0.0098110554892930912 1 1 1 1 1 0.009613316565966111 1 1 1 1 0.010592606841107383 1 1 1 1 1 1 1 1 1 1 1 1 1 1 1 1 4.6769081836484094e-09 1 0.00067609723603279104 1 1 1 0.011325291492856257 1 0.0067398713850474693 1 1 1 1 1 1 0.0096028602416798406 1 1 1 1 1 1 1 1 1 1 1 1 1 1 1 1 1 1 1 1 1 1 1 1 1 1 1 1 1 1 1 1 1 1 1 1 0.0090703778935041571 1 1 0.012139384226902038 1 1 1 1 1 1 1 1 0.013685089873411717 1 1 1 1 1 1 1 1 1 1 1 1 1 1 0.010530771083010466 1 0.011384260210127967 1 1 1 1 1 1 0.0099089087735789241 1 1 1 1 1 1 1 1 1 1 1 1 1 1 0.008768802218954444 1 1 0.0083320136876737783 1 1 1 1 1 1 0.0086471725397317001 0.0063225680397710968 1 0.0085872217764671483 1 1 1 1 1 0.0083290135014635718 1 1 1 1 0.0094146891136796459 1 1 1 1 1 0.01171047280617938 1 1 1 1 1 1 1 0.0079877024674982824 1 1 1 1 1 1 1 1 1 1 1 1 1 1 0.0081572263386654915 1 0.014585809365594839 1 1 1 1 1 1 0.0169378002091338 1 1 1 1 1 1 1 1 1 1 1 0.010817622286351268 1 1 1 1 1 1 1 0.011535825357845392 1 1 1 1 1 1 1 0.011235126243787037 1 1 0.0091284325977157074 1 1 0.0091645539599812531 0.0095743612093543273 1 1 1 1 1 1 1 1 1 1 1 1 1 1 1 0.0086220600079466962 1 1 1 1 1 1 0.0065182552736008613 1 0.0030246589702592735 1 1 1 1 1 1 1 1 1 1 0.017805331058669757 1 1 1 1 1 1 1 1 1 1 1 1 1 1 1 1 1 1 1 1 1 0.012480956654668019 1 1 1 1 1 1 0.010403901496869587 1 1 1 1 1 0.011117689562438623 1 1 1 1 1 0.0096299992204233464 1 1 0.009582070459951339 1 1 1 1 1 1 1 1 0.011183201227927569 1 1 1 0.0099884516531410089 1 1 1 1 1 1 1 1 1 1 0.0095193074219351859 1 1 1 1 1 1 1 1 1 1 1 1 1 1 1 1 1 1 1 1 1 1 1 1 0.01098860473734032 1 0.012961594662383343 1 1 1 1 1 1 1 1 1 0.0055728379435764919 1 0.002181480333779337 1 1 1 1 0.010070886678854821 1 1 1 0.010184086536169958 1 0.0096884279481707775 1 1 0.015065329704497851 1 1 1 1 1 1 1 1 0.0093002962572889172 1 1 1 1 0.013936394851433978 1 1 1 0.011092906781519316 1 1 1 0.0076162793307947771 1 1 1 1 1 1 1 1 0.0040718832169079969 1 1 1 1 1 1 1 1 1 1 1 1 1 1 0.0039054614163170354 1 1 1 -1.4636561546099713e-09 1 1 0.017274050772530313 1 1 1 1 1 1 0.011062884662838028 1 1 1 1 1 1 1 1 1 1 1 1 1 1 1 1 1 1 1 1 1 1 0.0010812048085356712 1 1 1 1 1 1 1 1 1 1 1 1 1 1 1 1 1 1 1 1 1 0.0032758094289772541 1 0.0084704857682071297 1 1 1 1 1 1 1 1 1 1 1 1 1 1 1 1 1 0.009508498968822332 1 1 1 1 1 1 1 1 1 1 1 1 0.0082601666567305443 1 1 1 1 1 1 1 1 1 1 0.0089598703994416169 1 1 1 0.010095752291526828 1 1 1 1 1 0.0086140523174502992 1 1 1 1 1 0.00059455181574372823 1 1 1 1 1 1 0.030184364960982035 1 1 0.010041713866383958 1 1 1 1 1 0.030182819556844744 1 1 1 1 1 1 1 1 1 1 1 1 1 1 1 1 1 1 1 1 1 1 1 1 0.0029403332463052226 1 1 1 1 1 1 0.0055074718024635747 1 1 0.0060776121887157336 0.0085188764977453188 1 1 1 1 1 1 1 1 1 1 1 1 1 1 1 1 1 1 1 0.024333054707173302 1 1 0.012789315705453913 1 1 0.016973669256159285 1 1 1 1 1 1 1 1 5.7245100396063897e-09 0.015377509450886697 1 1 1 1 1 1 0.0079206705802704926 1 1 1 1 1 0.011744678943410285 1 1 1 1 1 1 1 1 1 1 1 1 1 1 1 1 1 1 1 1 1 1 1 1 1 1 1 1 1 1 1 1 1 1 1 1 1 1 1 1 1 1 1 1 1 1 1 1 1 1 1 1 1 1 1 1 1 1 1 1 1 1 0.0055954428145086246 1 1 1 1 1 1 1 0.0125027171860745 1 1 1 1 1 1 1 1 1 1 0.015039289718408322 1 1 1 1 0.014456855512285502 1 1 1 1 0.0088364077438475314 1 1 1 1 1 1 0.0088351446180817347 1 1 1 1 1 1 1 1 1 1 0.01607833700588374 1 1 1 1 1 1 1 0.012069745327647131 1 1 1 1 1 1 1 1 0.034345137441817893 1 1 0.010000413184585458 1 1 1 1 1 1 1 1 0.031622342073877818 1 1 1 1 1 0.009660164475282864 1 0.016988008217712468 1 1 1 1 1 0.01559537522645533 1 1 1 0.0040877156602908103 1 1 1 1 1 1 1 1 1 0.0083705394078433561 1 1 1 1 0.011236175914125655 1 1 1 1 1 1 1 1 1 1 1 1 1 0.010768006925141738 1 1 1 1 1 1 1 1 1 0.011092365102209779 1 1 1 1 1 1 1 1 1 1 1 1 1 1 1 1 1 1 0.0037092089806630354 0.0054321101595773448 1 1 1 1 1 1 1 1 1 1 1 1 0.0067691865694669319 1 1 1 1 1 1 1 1 1 1 1 1 1 1 1 0.0044693596546511449 1 1 1 1 1 0.0087974642083585158 1 1 0.0048687588674065224 1 1 1 1 1 1 0.0063219764975477322 1 1 1 1 1 1 1 1 1 1 1 1 1 1 1 1 1 1 1 1 1 1 1 1 1 1 1 1 1 1 1 1 1 1 0.009527314620363601 1 1 1 1 0.0096989129175617146 1 1 1 1 1 0.010171598297198107 1 1 1 1 1 1 1 1 1 1 1 1 1 1 1 1 1 1 1 1 1 1 1 1 1 1 1 1 1 1 1 0.0128451756188383 1 1 0.0094616903614074075 1 1 1 1 1 1 0.008752900585548333 1 1 1 1 5.6442676574230966e-10 1 1 1 1 1 1 1 1 1 1 1 1 0.013792498239023973 1 1 1 1 0.011982934262497419 1 1 1 1 1 1 1 1 1 1 1 1 1 1 1 1 1 1 0.0094538679395416367 1 1 1 1 1 1 1 1 1 1 1 1 1 1 1 1 1 1 1 1 1 1 1 1 1 1 1 1 1 1 1 1 1 1 1 1 1 1 1 1 1 0.017262422827826356 1 1 1 1 1 1 0.010022886919029009 0.0090435624326259904 0.014961406474313307 0.010369528278963279 1 1 1 1 0.010072738963831479 1 1 1 1 0.014553968695947894 1 1 1 1 1 1 1 1 1 1 1 1 1 0.006822615759965794 1 1 1 1 1 1 1 1 0.011481955512609887 1 1 1 1 1 1 1 0.012214031804276472 1 1 1 0.016471755329787827 1 0.010248303886719715 1 1 1 0.00066675420786246366 0.010762821793364654 1 1 1 1 1 1 1 1 1 1 1 1 1 1 1 1 1 1 1 1 1 1 1 1 1 0.011718274689760236 1 1 1 1 1 1 1 0.011142135491925798 1 1 1 1 1 1 1 1 1 1 1 1 1 1 1 1 1 1 1 1 1 1 1 1 0.010309492957256614 1 1 1 1 1 1 0.011993843765126027 1 1 1 1 1 1 1 1 1 0.011796922577814069 1 1 1 1 1 1 1 1 1 1 1 1 1 1 1 1 1 1 1 1 1 1 1 1 1 1 1 1 0.010684773444656671 1 1 1 1 1 1 1 1 1 1 1 1 1 1 0.0066204093555869946 1 1 1 1 1 0.0090538382753060191 1 1 1 0.0022817378620943844 1 1 1 1 0.01040493398016579 1 1 0.011591567655800369 1 1 0.013248460899229052 1 1 1 1 1 1 0.0053717154305425313 1 1 0.010565883099871793 0.0063463721231873174 1 0.0067120784903575252 1 1 0.0074709686241460037 1 1 1 0.012031341449577085 1 1 1 1 1 1 1 1 1 1 1 1 1 0.0099957677123357434 1 0.0071495346349056028 1 1 0.01329268265596226 0.0060407188558843222 1 0.010815591909115888 1 1 0.0027151443279727489 1 1 1 1 1 1 1 1 1 0.012354744541722845 1 1 0.0050062887146656264 1 1 1 1 1 1 1 1 0.01858458923427592 1 1 1 0.0089371109276390973 1 1 1 1 1 1 1 1 1 1 1 0.019987349142329799 1 0.0095019007908394154 1 1 1 1 0.01942013196026382 1 1 1 1 1 1 1 1 1 1 0.0028471037152799361 1 0.0088309198934098943 1 1 1 1 1 1 0.010459573182984353 1 1 1 0.0012474540810154811 1 1 1 1 1 1 1 1 1 1 1 1 0.0087905825693023812 1 1 1 1 1 1 1 1 1 1 1 1 1 1 1 0.010885632155091052 1 1 1 1 1 1 0.010801032647131462 1 1 0.012157839755723765 1 1 1 1 0.0081705445286200697 1 1 1 1 1 1 1 
</DataArray>
</CellData>
</Piece>
</UnstructuredGrid>
</VTKFile>
